# vtk DataFile Version 2.0
Test
ASCII
DATASET POLYDATA
POINTS 1437 float
0.000000 0.000000 0.000000
30.000000 0.000000 0.000000
30.000000 100.000000 0.000000
0.000000 100.000000 0.000000
16.400000 50.000000 0.000000
2.142857 0.000000 0.000000
4.285714 0.000000 0.000000
6.428571 0.000000 0.000000
8.571429 0.000000 0.000000
10.714286 0.000000 0.000000
12.857143 0.000000 0.000000
15.000000 0.000000 0.000000
17.142857 0.000000 0.000000
19.285714 0.000000 0.000000
21.428571 0.000000 0.000000
23.571429 0.000000 0.000000
25.714286 0.000000 0.000000
27.857143 0.000000 0.000000
30.000000 2.040816 0.000000
30.000000 4.081633 0.000000
30.000000 6.122449 0.000000
30.000000 8.163265 0.000000
30.000000 10.204082 0.000000
30.000000 12.244898 0.000000
30.000000 14.285714 0.000000
30.000000 16.326531 0.000000
30.000000 18.367347 0.000000
30.000000 20.408163 0.000000
30.000000 22.448980 0.000000
30.000000 24.489796 0.000000
30.000000 26.530612 0.000000
30.000000 28.571429 0.000000
30.000000 30.612245 0.000000
30.000000 32.653061 0.000000
30.000000 34.693878 0.000000
30.000000 36.734694 0.000000
30.000000 38.775510 0.000000
30.000000 40.816327 0.000000
30.000000 42.857143 0.000000
30.000000 44.897959 0.000000
30.000000 46.938776 0.000000
30.000000 48.979592 0.000000
30.000000 51.020408 0.000000
30.000000 53.061224 0.000000
30.000000 55.102041 0.000000
30.000000 57.142857 0.000000
30.000000 59.183673 0.000000
30.000000 61.224490 0.000000
30.000000 63.265306 0.000000
30.000000 65.306122 0.000000
30.000000 67.346939 0.000000
30.000000 69.387755 0.000000
30.000000 71.428571 0.000000
30.000000 73.469388 0.000000
30.000000 75.510204 0.000000
30.000000 77.551020 0.000000
30.000000 79.591837 0.000000
30.000000 81.632653 0.000000
30.000000 83.673469 0.000000
30.000000 85.714286 0.000000
30.000000 87.755102 0.000000
30.000000 89.795918 0.000000
30.000000 91.836735 0.000000
30.000000 93.877551 0.000000
30.000000 95.918367 0.000000
30.000000 97.959184 0.000000
27.857143 100.000000 0.000000
25.714286 100.000000 0.000000
23.571429 100.000000 0.000000
21.428571 100.000000 0.000000
19.285714 100.000000 0.000000
17.142857 100.000000 0.000000
15.000000 100.000000 0.000000
12.857143 100.000000 0.000000
10.714286 100.000000 0.000000
8.571429 100.000000 0.000000
6.428571 100.000000 0.000000
4.285714 100.000000 0.000000
2.142857 100.000000 0.000000
0.000000 97.959184 0.000000
0.000000 95.918367 0.000000
0.000000 93.877551 0.000000
0.000000 91.836735 0.000000
0.000000 89.795918 0.000000
0.000000 87.755102 0.000000
0.000000 85.714286 0.000000
0.000000 83.673469 0.000000
0.000000 81.632653 0.000000
0.000000 79.591837 0.000000
0.000000 77.551020 0.000000
0.000000 75.510204 0.000000
0.000000 73.469388 0.000000
0.000000 71.428571 0.000000
0.000000 69.387755 0.000000
0.000000 67.346939 0.000000
0.000000 65.306122 0.000000
0.000000 63.265306 0.000000
0.000000 61.224490 0.000000
0.000000 59.183673 0.000000
0.000000 57.142857 0.000000
0.000000 55.102041 0.000000
0.000000 53.061224 0.000000
0.000000 51.020408 0.000000
0.000000 48.979592 0.000000
0.000000 46.938776 0.000000
0.000000 44.897959 0.000000
0.000000 42.857143 0.000000
0.000000 40.816327 0.000000
0.000000 38.775510 0.000000
0.000000 36.734694 0.000000
0.000000 34.693878 0.000000
0.000000 32.653061 0.000000
0.000000 30.612245 0.000000
0.000000 28.571429 0.000000
0.000000 26.530612 0.000000
0.000000 24.489796 0.000000
0.000000 22.448980 0.000000
0.000000 20.408163 0.000000
0.000000 18.367347 0.000000
0.000000 16.326531 0.000000
0.000000 14.285714 0.000000
0.000000 12.244898 0.000000
0.000000 10.204082 0.000000
0.000000 8.163265 0.000000
0.000000 6.122449 0.000000
0.000000 4.081633 0.000000
0.000000 2.040816 0.000000
16.388506 50.179028 0.000000
16.354213 50.355116 0.000000
16.297683 50.525374 0.000000
16.219846 50.687005 0.000000
16.121979 50.837355 0.000000
16.005689 50.973956 0.000000
15.872886 51.094564 0.000000
15.725750 51.197200 0.000000
15.566697 51.280178 0.000000
15.398339 51.342135 0.000000
15.223440 51.382054 0.000000
15.044872 51.399281 0.000000
14.865568 51.393531 0.000000
14.688471 51.364899 0.000000
14.516489 51.313856 0.000000
14.352446 51.241239 0.000000
14.199037 51.148241 0.000000
14.058779 51.036389 0.000000
13.933976 50.907520 0.000000
13.826677 50.763749 0.000000
13.738644 50.607437 0.000000
13.671322 50.441152 0.000000
13.625817 50.267622 0.000000
13.602876 50.089698 0.000000
13.602876 49.910302 0.000000
13.625817 49.732378 0.000000
13.671322 49.558848 0.000000
13.738644 49.392563 0.000000
13.826677 49.236251 0.000000
13.933976 49.092480 0.000000
14.058779 48.963611 0.000000
14.199037 48.851759 0.000000
14.352446 48.758761 0.000000
14.516489 48.686144 0.000000
14.688471 48.635101 0.000000
14.865568 48.606469 0.000000
15.044872 48.600719 0.000000
15.223440 48.617946 0.000000
15.398339 48.657865 0.000000
15.566697 48.719822 0.000000
15.725750 48.802800 0.000000
15.872886 48.905436 0.000000
16.005689 49.026044 0.000000
16.121979 49.162645 0.000000
16.219846 49.312995 0.000000
16.297683 49.474626 0.000000
16.354213 49.644884 0.000000
16.388506 49.820972 0.000000
16.142290 51.090246 0.000000
16.381031 49.246029 0.000000
16.476220 50.570036 0.000000
16.567534 49.809478 0.000000
13.432060 49.919357 0.000000
27.959184 67.346939 0.000000
15.062546 51.587060 0.000000
27.959184 79.591837 0.000000
2.040816 20.408163 0.000000
2.040816 30.612245 0.000000
2.040816 81.632653 0.000000
2.040816 69.387755 0.000000
27.959184 16.326531 0.000000
27.959184 24.489796 0.000000
27.959184 32.653061 0.000000
2.000226 63.022103 0.000000
2.040816 38.775510 0.000000
27.959184 38.775510 0.000000
2.063520 56.953992 0.000000
27.959184 59.183673 0.000000
15.000000 97.857143 0.000000
15.000000 2.142857 0.000000
27.959184 44.897959 0.000000
27.959184 51.020408 0.000000
2.058026 48.891267 0.000000
2.040816 12.244898 0.000000
27.959184 8.163265 0.000000
2.119286 91.907213 0.000000
27.959184 87.755102 0.000000
8.571429 2.142857 0.000000
21.428571 97.857143 0.000000
2.040816 6.122449 0.000000
27.959184 93.877551 0.000000
23.571429 2.142857 0.000000
6.428571 97.857143 0.000000
2.040816 44.897959 0.000000
15.808727 51.356253 0.000000
2.040816 77.551020 0.000000
27.959184 71.428571 0.000000
2.040816 26.530612 0.000000
4.285714 2.142857 0.000000
25.714286 97.857143 0.000000
2.021897 52.958989 0.000000
27.959184 53.061224 0.000000
27.914278 55.273576 0.000000
27.959184 61.224490 0.000000
27.879705 47.169173 0.000000
2.040816 36.734694 0.000000
1.985319 42.671502 0.000000
2.040816 4.081633 0.000000
27.959184 95.918367 0.000000
27.842785 41.012410 0.000000
27.904213 63.341606 0.000000
1.981595 60.897410 0.000000
2.040816 34.693878 0.000000
2.142857 97.857143 0.000000
27.857143 2.142857 0.000000
21.428571 2.142857 0.000000
8.571429 97.857143 0.000000
19.285714 2.142857 0.000000
10.714286 97.857143 0.000000
12.857143 2.142857 0.000000
17.142857 97.857143 0.000000
2.040816 73.469388 0.000000
2.040816 85.714286 0.000000
27.959184 28.571429 0.000000
27.957036 12.244796 0.000000
27.959184 20.408163 0.000000
27.959184 75.510204 0.000000
27.959184 81.632653 0.000000
2.040816 24.489796 0.000000
2.040816 18.367347 0.000000
2.101567 67.270721 0.000000
27.990742 34.718564 0.000000
2.040816 16.326531 0.000000
2.040816 10.204082 0.000000
2.040816 89.795918 0.000000
27.959184 83.673469 0.000000
27.959184 89.795918 0.000000
2.098379 2.081372 0.000000
27.901617 97.918624 0.000000
28.130079 4.091715 0.000000
1.869924 95.908287 0.000000
16.576970 50.167357 0.000000
25.954712 32.689406 0.000000
4.048051 69.354174 0.000000
4.081633 24.489796 0.000000
25.916213 79.588913 0.000000
4.086221 18.371935 0.000000
3.897904 34.877606 0.000000
3.923124 61.572806 0.000000
26.128612 39.133691 0.000000
26.214823 61.491956 0.000000
3.871989 43.375621 0.000000
26.265426 45.355943 0.000000
26.372982 51.593494 0.000000
15.011971 95.726257 0.000000
14.987483 4.273197 0.000000
4.095212 12.258477 0.000000
25.904714 87.741449 0.000000
8.590547 95.733404 0.000000
4.124327 91.817489 0.000000
23.644909 4.177846 0.000000
1.898679 46.664421 0.000000
1.887660 50.867252 0.000000
28.104743 49.216969 0.000000
28.091622 57.507646 0.000000
1.793213 54.763850 0.000000
1.898425 40.673936 0.000000
28.092220 43.114891 0.000000
1.898792 59.041649 0.000000
26.349643 53.492500 0.000000
3.788008 38.504633 0.000000
26.348185 4.174096 0.000000
28.073402 36.848913 0.000000
3.770644 95.809804 0.000000
1.947709 64.759841 0.000000
27.961478 65.481833 0.000000
2.032166 32.492602 0.000000
21.409200 4.266343 0.000000
6.436167 2.135262 0.000000
23.563887 97.864684 0.000000
17.151762 2.133952 0.000000
12.848401 97.865884 0.000000
10.720797 2.136346 0.000000
19.279431 97.863426 0.000000
25.741048 2.116095 0.000000
4.208553 97.884202 0.000000
2.040816 71.428571 0.000000
27.959184 73.469388 0.000000
2.040044 28.570656 0.000000
2.040816 79.591837 0.000000
2.040816 75.510204 0.000000
27.959184 30.612245 0.000000
27.959184 69.387755 0.000000
27.959184 77.551020 0.000000
2.040816 22.448980 0.000000
27.959184 22.448980 0.000000
27.959252 26.530681 0.000000
27.959184 18.367347 0.000000
2.040816 83.673469 0.000000
27.959184 14.285714 0.000000
25.913747 81.628033 0.000000
2.043283 87.757569 0.000000
2.046930 14.291828 0.000000
27.956122 10.201020 0.000000
27.953028 85.708130 0.000000
2.051111 8.173560 0.000000
27.948877 91.826428 0.000000
27.877535 6.025956 0.000000
2.132881 93.976795 0.000000
4.000357 6.267740 0.000000
4.120886 4.222927 0.000000
25.999609 93.732219 0.000000
25.879089 95.777048 0.000000
15.649674 48.560769 0.000000
26.010158 67.277614 0.000000
25.918367 24.489796 0.000000
4.081633 79.591837 0.000000
25.916050 16.328010 0.000000
23.873553 79.584761 0.000000
3.481175 55.433151 0.000000
24.733850 51.947925 0.000000
3.652422 50.744354 0.000000
25.910700 12.249504 0.000000
23.509255 6.363423 0.000000
26.366938 49.758281 0.000000
26.399277 43.548901 0.000000
3.661711 59.758281 0.000000
25.957156 34.691433 0.000000
10.699495 4.264413 0.000000
19.300303 95.735157 0.000000
17.109994 4.256463 0.000000
12.860039 95.741544 0.000000
25.918367 71.428571 0.000000
4.081633 75.510204 0.000000
4.081051 71.394408 0.000000
4.082695 22.452337 0.000000
4.101940 14.313488 0.000000
25.897715 85.686136 0.000000
4.098775 10.200519 0.000000
25.900922 89.799710 0.000000
3.484993 40.079859 0.000000
26.104841 46.997441 0.000000
26.094660 40.880576 0.000000
26.217182 37.055706 0.000000
26.283778 59.646794 0.000000
3.394990 47.531927 0.000000
3.704894 44.917521 0.000000
26.589189 56.610962 0.000000
3.896163 33.117193 0.000000
4.081633 30.612245 0.000000
4.081633 26.530612 0.000000
25.925339 8.209651 0.000000
6.124956 95.705249 0.000000
26.056738 64.934647 0.000000
3.837443 65.195708 0.000000
3.643332 63.322448 0.000000
26.181899 63.192966 0.000000
19.294998 4.257059 0.000000
10.706283 95.741406 0.000000
26.301437 55.150246 0.000000
12.863256 4.267083 0.000000
17.136818 95.732295 0.000000
25.918367 28.571429 0.000000
25.922292 30.652514 0.000000
6.508559 4.176475 0.000000
23.491534 95.823372 0.000000
4.048622 67.346368 0.000000
25.918367 73.469388 0.000000
25.918367 77.551020 0.000000
25.918367 20.408163 0.000000
4.082867 81.631419 0.000000
4.087811 85.710574 0.000000
4.083002 20.414121 0.000000
4.090228 89.806980 0.000000
4.086073 16.326679 0.000000
25.912810 83.674407 0.000000
3.917278 36.754068 0.000000
14.878780 48.427563 0.000000
4.121149 8.218141 0.000000
25.878782 91.781783 0.000000
25.877030 6.294134 0.000000
4.191064 93.660458 0.000000
3.706610 41.587650 0.000000
24.360874 63.474693 0.000000
5.368991 63.172792 0.000000
5.674069 34.909097 0.000000
6.109733 24.502512 0.000000
6.088864 69.353595 0.000000
6.132398 16.325610 0.000000
23.981312 34.665250 0.000000
5.376427 43.319631 0.000000
23.882585 71.433605 0.000000
6.124736 79.588316 0.000000
24.776210 45.416620 0.000000
24.946431 56.614079 0.000000
10.752083 6.375586 0.000000
12.894743 93.625460 0.000000
23.836000 87.699130 0.000000
6.155926 89.782091 0.000000
19.248565 93.623411 0.000000
6.164366 12.302233 0.000000
23.886460 30.607260 0.000000
23.877559 77.543952 0.000000
15.993494 48.772633 0.000000
5.251211 40.260448 0.000000
6.178688 93.732220 0.000000
3.877467 52.261786 0.000000
23.990247 8.280891 0.000000
17.186835 6.364626 0.000000
21.413206 6.362392 0.000000
3.711363 57.087486 0.000000
24.548632 37.413315 0.000000
5.712568 65.433508 0.000000
5.793943 32.523932 0.000000
24.589986 59.837123 0.000000
24.813004 53.682843 0.000000
5.250488 60.030776 0.000000
3.697518 48.909379 0.000000
24.119046 65.396539 0.000000
24.581314 40.691301 0.000000
10.603714 93.717869 0.000000
4.068917 28.558713 0.000000
4.081027 73.434619 0.000000
8.607507 4.236797 0.000000
21.392703 95.762913 0.000000
5.512345 38.522043 0.000000
17.126865 93.618251 0.000000
12.870913 6.383653 0.000000
25.921385 69.390773 0.000000
6.123796 22.456285 0.000000
25.918367 75.510204 0.000000
25.919947 26.532192 0.000000
4.081633 77.551021 0.000000
25.918367 22.448980 0.000000
25.918055 18.367035 0.000000
6.126108 20.415041 0.000000
23.865516 81.626176 0.000000
4.094668 87.761959 0.000000
25.903092 10.196473 0.000000
4.085158 83.675760 0.000000
25.916212 14.283559 0.000000
23.851875 83.638664 0.000000
6.166237 10.285603 0.000000
23.833198 89.714059 0.000000
6.100145 6.368968 0.000000
23.899708 93.630706 0.000000
3.849996 53.640692 0.000000
26.304700 57.958096 0.000000
26.390976 48.299874 0.000000
26.662179 42.156926 0.000000
24.928849 50.372815 0.000000
13.812511 49.014983 0.000000
6.961847 40.150704 0.000000
7.220966 63.583340 0.000000
8.149957 24.495948 0.000000
23.871440 16.336385 0.000000
22.546365 63.639938 0.000000
7.533761 34.314286 0.000000
23.539398 53.218806 0.000000
4.879497 50.090533 0.000000
23.877395 24.489952 0.000000
21.837403 77.544605 0.000000
4.942273 54.893282 0.000000
14.042009 51.239805 0.000000
21.957799 8.394841 0.000000
10.796003 91.534377 0.000000
6.137275 83.658457 0.000000
19.389985 91.656620 0.000000
10.642977 8.412362 0.000000
24.862291 43.842084 0.000000
23.887457 69.399677 0.000000
23.901485 28.589395 0.000000
23.882196 73.469776 0.000000
21.816253 81.579636 0.000000
5.179307 44.681010 0.000000
14.210175 48.650784 0.000000
21.781554 87.648985 0.000000
8.115148 12.462592 0.000000
8.650546 6.363441 0.000000
21.350405 93.635979 0.000000
24.663411 55.112128 0.000000
24.480994 61.756706 0.000000
8.023152 93.717055 0.000000
23.611367 50.645005 0.000000
24.922753 46.689466 0.000000
24.939931 48.967472 0.000000
5.138432 47.437222 0.000000
25.210225 42.253593 0.000000
15.083357 6.376675 0.000000
23.974703 32.674592 0.000000
24.018641 67.390173 0.000000
6.071740 28.533435 0.000000
6.032696 30.572869 0.000000
5.838095 36.820875 0.000000
19.313303 6.356962 0.000000
24.567791 39.067474 0.000000
5.934916 67.348646 0.000000
15.007592 93.613408 0.000000
6.109735 26.530614 0.000000
6.121468 71.394012 0.000000
6.121217 73.470014 0.000000
23.877083 22.449448 0.000000
23.876771 20.408631 0.000000
6.132219 18.371608 0.000000
8.164746 22.457893 0.000000
23.879217 75.504801 0.000000
6.122447 77.547502 0.000000
23.842069 85.655271 0.000000
23.863821 14.301895 0.000000
6.125976 81.631425 0.000000
24.747281 58.245451 0.000000
6.161833 14.324055 0.000000
6.156358 87.744384 0.000000
5.495841 61.447891 0.000000
14.375028 51.419444 0.000000
5.313717 41.826386 0.000000
6.202877 8.383179 0.000000
23.796848 91.616228 0.000000
23.850972 12.298467 0.000000
23.897727 10.313937 0.000000
6.162642 91.852046 0.000000
5.223624 58.441069 0.000000
13.628586 49.241874 0.000000
2.786570 54.199171 0.000000
5.093535 51.130499 0.000000
5.387914 52.233716 0.000000
3.358323 58.372731 0.000000
24.678812 35.893973 0.000000
13.607142 50.739267 0.000000
22.941442 41.026261 0.000000
23.223788 58.324579 0.000000
23.506071 46.765140 0.000000
6.482216 44.584016 0.000000
8.099406 69.355946 0.000000
6.357803 51.489803 0.000000
22.132765 34.570382 0.000000
21.884366 69.430514 0.000000
10.192943 24.500200 0.000000
8.163184 77.547578 0.000000
21.829594 16.348760 0.000000
21.836354 24.490489 0.000000
17.181425 8.462694 0.000000
7.654894 36.253489 0.000000
22.760177 61.916415 0.000000
6.728181 59.905241 0.000000
6.727014 41.596743 0.000000
12.864459 8.477611 0.000000
23.654334 49.356826 0.000000
8.007345 30.508084 0.000000
21.902053 28.606170 0.000000
8.137542 26.525713 0.000000
8.177006 81.607427 0.000000
21.794374 83.590324 0.000000
7.186926 38.525330 0.000000
7.015107 61.839380 0.000000
5.338531 56.651487 0.000000
19.872151 8.442610 0.000000
8.073424 89.599073 0.000000
8.271438 10.346690 0.000000
21.677622 89.640501 0.000000
23.449478 42.463540 0.000000
23.325650 51.972959 0.000000
23.330042 44.183491 0.000000
23.482458 55.740324 0.000000
5.148041 48.818759 0.000000
22.916720 37.715653 0.000000
22.015822 32.583921 0.000000
5.370442 53.547470 0.000000
7.507431 65.450312 0.000000
23.896408 26.568497 0.000000
8.160817 73.433612 0.000000
17.111241 91.511375 0.000000
22.292825 65.495872 0.000000
12.895571 91.525891 0.000000
21.867085 71.444405 0.000000
21.840385 75.505773 0.000000
23.876297 18.366873 0.000000
21.835560 22.450155 0.000000
8.248460 20.346607 0.000000
7.751615 32.465326 0.000000
8.179687 18.373078 0.000000
6.122212 75.510593 0.000000
21.807868 14.311537 0.000000
21.825204 79.544809 0.000000
6.150539 85.692882 0.000000
5.134328 46.040850 0.000000
21.779006 85.615406 0.000000
8.199717 16.395014 0.000000
8.224250 14.413504 0.000000
21.795834 12.397585 0.000000
21.699169 10.521320 0.000000
8.336322 91.561994 0.000000
8.133293 8.293858 0.000000
21.867399 91.706531 0.000000
23.516586 54.541985 0.000000
14.453896 48.556442 0.000000
25.238225 47.787622 0.000000
14.195523 51.302253 0.000000
22.958862 36.215682 0.000000
8.144178 41.549260 0.000000
8.421890 60.301761 0.000000
22.353255 54.162532 0.000000
22.464967 50.846703 0.000000
6.554031 48.817472 0.000000
21.044218 61.921272 0.000000
9.470408 34.412306 0.000000
19.896736 69.445945 0.000000
19.808323 75.512543 0.000000
10.221840 20.423287 0.000000
19.779021 79.496142 0.000000
19.775124 16.420730 0.000000
20.236331 34.461634 0.000000
19.795086 24.491422 0.000000
10.240021 16.469720 0.000000
6.413503 45.848624 0.000000
9.056013 63.626981 0.000000
10.165013 26.527671 0.000000
21.835011 20.408395 0.000000
19.674844 83.449691 0.000000
14.297504 48.455887 0.000000
22.349999 43.088950 0.000000
22.951502 60.196152 0.000000
9.021800 38.116547 0.000000
13.488444 50.412650 0.000000
6.365724 50.317585 0.000000
6.104654 55.080214 0.000000
18.986056 89.489607 0.000000
6.699509 57.246979 0.000000
10.044108 89.521230 0.000000
6.601349 43.002505 0.000000
10.776634 10.563823 0.000000
19.201430 10.542748 0.000000
23.606551 57.055676 0.000000
23.283637 45.471428 0.000000
23.009116 39.542705 0.000000
23.832626 47.983859 0.000000
22.107680 67.447639 0.000000
15.057387 8.467088 0.000000
21.878659 26.546718 0.000000
7.788147 67.381749 0.000000
20.781556 63.691942 0.000000
6.822586 58.427025 0.000000
8.162715 75.507075 0.000000
21.851491 73.475068 0.000000
9.702112 32.457152 0.000000
15.011124 91.520063 0.000000
21.917862 30.606984 0.000000
8.157559 71.390001 0.000000
8.072002 28.525975 0.000000
8.189608 83.659761 0.000000
10.208953 22.458613 0.000000
21.830076 18.393231 0.000000
8.165398 79.588241 0.000000
8.204106 85.655068 0.000000
8.212602 87.685542 0.000000
22.247762 52.043814 0.000000
10.281506 14.600909 0.000000
19.858600 87.627281 0.000000
19.768295 14.405443 0.000000
21.235482 35.786207 0.000000
22.055492 42.090022 0.000000
3.552023 46.248317 0.000000
6.477218 52.631238 0.000000
14.074613 51.468753 0.000000
21.267521 43.206749 0.000000
7.623500 49.895400 0.000000
7.454519 45.456673 0.000000
21.425923 51.623124 0.000000
19.361609 61.974414 0.000000
9.742125 67.387394 0.000000
19.951424 30.585322 0.000000
10.178004 71.399416 0.000000
10.202151 75.508143 0.000000
10.215226 79.565717 0.000000
10.248198 83.596478 0.000000
11.433770 34.358749 0.000000
19.659779 36.124614 0.000000
12.179625 26.525518 0.000000
12.330199 22.397486 0.000000
12.379252 16.414770 0.000000
17.653408 16.572879 0.000000
22.785660 47.586351 0.000000
7.869402 42.860172 0.000000
22.191123 56.893194 0.000000
21.406815 60.365026 0.000000
20.149475 67.520403 0.000000
19.845856 26.522525 0.000000
19.833442 73.494494 0.000000
10.069707 28.525376 0.000000
22.416736 49.749231 0.000000
7.460504 51.703671 0.000000
8.504576 39.859453 0.000000
8.319729 58.828183 0.000000
6.142505 46.759018 0.000000
22.247990 55.335280 0.000000
12.138980 89.165857 0.000000
17.914119 87.426583 0.000000
20.501555 65.594878 0.000000
9.496715 36.254127 0.000000
21.453194 39.077570 0.000000
21.596484 40.733754 0.000000
14.940569 10.545587 0.000000
16.964368 10.537124 0.000000
9.347761 65.498670 0.000000
8.621300 61.895188 0.000000
19.866367 71.473464 0.000000
22.239990 45.093362 0.000000
20.085298 32.542839 0.000000
19.792146 20.435077 0.000000
9.960094 30.507728 0.000000
12.859253 10.560230 0.000000
19.755888 85.526995 0.000000
19.783344 18.420410 0.000000
19.794302 22.450164 0.000000
17.066556 89.326025 0.000000
19.795951 77.496775 0.000000
22.136729 44.061282 0.000000
19.763883 81.477675 0.000000
10.233900 18.523933 0.000000
21.140825 37.504092 0.000000
19.893126 12.404498 0.000000
10.186732 12.619033 0.000000
10.207936 87.508327 0.000000
22.312564 53.030694 0.000000
6.717193 53.961431 0.000000
6.742458 56.121620 0.000000
21.677005 58.660720 0.000000
13.589769 50.546941 0.000000
7.741061 44.214374 0.000000
13.464216 50.616384 0.000000
9.731885 41.136364 0.000000
20.771535 57.274625 0.000000
8.490613 45.067810 0.000000
9.770659 59.143020 0.000000
10.909450 63.350601 0.000000
18.269947 67.566536 0.000000
17.861750 71.474869 0.000000
17.779913 75.435925 0.000000
18.286676 34.422817 0.000000
17.740798 79.435896 0.000000
17.931061 26.036097 0.000000
17.751471 22.477908 0.000000
11.993406 86.711078 0.000000
19.799139 60.341528 0.000000
21.244001 54.730634 0.000000
21.388285 52.675732 0.000000
12.183673 18.409634 0.000000
17.904275 14.697684 0.000000
14.937172 12.623506 0.000000
20.195854 40.358456 0.000000
19.156221 37.692705 0.000000
15.971062 87.354230 0.000000
7.670109 47.668472 0.000000
22.283335 46.855371 0.000000
12.497769 12.516127 0.000000
10.099674 39.603104 0.000000
11.326083 36.218072 0.000000
7.587670 52.882251 0.000000
7.602988 55.066063 0.000000
8.205827 57.600085 0.000000
21.520459 50.660827 0.000000
11.200897 65.480608 0.000000
21.158313 44.526039 0.000000
19.917008 28.573413 0.000000
10.188569 73.446985 0.000000
10.107031 69.353833 0.000000
19.055881 63.775158 0.000000
9.979963 60.454699 0.000000
15.030091 89.429578 0.000000
12.063477 28.521896 0.000000
11.642173 32.450128 0.000000
17.710887 81.477091 0.000000
12.233194 24.486911 0.000000
12.348198 14.417529 0.000000
10.207948 77.534361 0.000000
20.813159 41.775923 0.000000
18.135238 32.534665 0.000000
10.231889 81.583041 0.000000
17.790086 18.857560 0.000000
12.268043 20.263178 0.000000
17.754728 12.524423 0.000000
17.695072 83.522785 0.000000
17.763346 85.427074 0.000000
10.264455 85.656827 0.000000
8.820647 43.882350 0.000000
21.139207 55.958668 0.000000
7.329007 46.709657 0.000000
7.262855 50.785023 0.000000
21.362822 53.706851 0.000000
9.152980 42.529334 0.000000
22.666549 48.546495 0.000000
19.997708 42.720216 0.000000
9.935453 43.443779 0.000000
20.298905 55.292628 0.000000
20.557708 52.296448 0.000000
8.413521 51.971256 0.000000
11.253178 59.742807 0.000000
18.344843 60.443324 0.000000
12.510949 63.822848 0.000000
13.376062 50.795308 0.000000
12.194346 69.609129 0.000000
12.137227 73.802319 0.000000
13.266774 35.914998 0.000000
12.354395 77.371553 0.000000
15.570282 81.157153 0.000000
9.276905 56.768396 0.000000
17.926610 28.516085 0.000000
14.066417 28.531066 0.000000
15.487165 85.063526 0.000000
10.915829 40.435770 0.000000
14.205293 26.529933 0.000000
16.356414 34.470521 0.000000
14.348169 24.430784 0.000000
14.300444 22.468969 0.000000
14.214024 20.463572 0.000000
14.338414 18.528045 0.000000
12.275711 79.523779 0.000000
12.276331 81.544532 0.000000
14.357292 16.475358 0.000000
13.104567 34.145465 0.000000
12.309176 83.595850 0.000000
21.259966 45.407997 0.000000
10.839131 38.035403 0.000000
18.688418 65.626666 0.000000
9.591784 44.777881 0.000000
21.296096 49.784683 0.000000
21.398977 46.874424 0.000000
10.083488 61.990333 0.000000
17.983654 30.585260 0.000000
11.650226 67.428015 0.000000
20.594933 51.387278 0.000000
17.935745 69.502373 0.000000
17.678127 61.994429 0.000000
17.793213 36.330390 0.000000
11.928024 30.489825 0.000000
17.714892 24.320786 0.000000
17.638297 73.445268 0.000000
17.756835 77.396780 0.000000
18.028161 20.703249 0.000000
20.255031 43.935113 0.000000
20.379419 54.313924 0.000000
7.933531 56.400666 0.000000
20.422535 58.893288 0.000000
15.815976 14.836234 0.000000
8.280065 50.838455 0.000000
13.284558 50.557202 0.000000
11.663219 84.968960 0.000000
9.078122 45.887169 0.000000
7.826578 53.942857 0.000000
16.006397 18.582932 0.000000
19.701456 41.632086 0.000000
20.094516 38.804836 0.000000
21.717299 47.786848 0.000000
14.020261 87.168140 0.000000
14.146818 14.622322 0.000000
20.499408 53.327593 0.000000
10.397307 42.274427 0.000000
22.646028 46.030523 0.000000
19.272818 43.494399 0.000000
10.673454 44.193049 0.000000
13.122384 50.744545 0.000000
19.519165 54.741257 0.000000
19.804380 51.985680 0.000000
9.137345 51.239811 0.000000
17.776570 37.947859 0.000000
16.704981 60.634159 0.000000
19.687352 57.729439 0.000000
13.368895 67.503124 0.000000
12.801308 38.087834 0.000000
13.971901 30.512311 0.000000
13.267924 50.331371 0.000000
15.989487 69.502298 0.000000
15.857555 71.451203 0.000000
8.792296 54.371752 0.000000
15.789840 73.443897 0.000000
15.750812 75.369138 0.000000
11.265259 61.323052 0.000000
16.003038 77.408426 0.000000
16.823206 65.659908 0.000000
16.322296 36.223027 0.000000
20.826485 48.485949 0.000000
13.529375 50.962152 0.000000
10.982401 58.231536 0.000000
9.990519 45.794936 0.000000
18.636350 40.995957 0.000000
16.003580 32.382339 0.000000
17.344079 63.825391 0.000000
8.645174 53.039147 0.000000
12.947977 65.530577 0.000000
12.049109 72.173263 0.000000
13.543201 32.471576 0.000000
20.374875 45.164146 0.000000
15.936278 79.415766 0.000000
19.614641 53.830879 0.000000
12.200779 75.516685 0.000000
16.007785 30.322203 0.000000
9.073497 55.600853 0.000000
20.676059 50.545301 0.000000
15.970465 28.419413 0.000000
20.208040 56.401263 0.000000
8.677880 49.988306 0.000000
15.853522 82.673711 0.000000
8.162433 46.155518 0.000000
16.115013 26.406294 0.000000
16.308481 24.505451 0.000000
18.912542 42.317302 0.000000
21.631832 48.931676 0.000000
14.286139 77.517569 0.000000
16.188761 22.980853 0.000000
19.181537 59.006020 0.000000
16.333669 20.834067 0.000000
14.306527 79.498459 0.000000
15.649829 16.853705 0.000000
14.968672 36.207508 0.000000
14.166993 81.354495 0.000000
11.558615 39.494344 0.000000
14.125777 83.266107 0.000000
13.333460 85.173408 0.000000
12.664947 62.258933 0.000000
19.791833 52.867707 0.000000
21.742244 46.088515 0.000000
18.526488 39.391355 0.000000
11.200639 43.178038 0.000000
18.266160 43.118423 0.000000
11.764165 44.063257 0.000000
18.695660 54.139700 0.000000
9.324854 50.532839 0.000000
9.480077 53.661749 0.000000
13.161463 39.922661 0.000000
9.621993 46.659925 0.000000
16.889712 39.283543 0.000000
12.324608 59.001106 0.000000
20.527255 47.512687 0.000000
19.162557 52.492828 0.000000
14.217585 63.483201 0.000000
14.557630 37.801643 0.000000
18.414413 58.011042 0.000000
8.578613 49.035985 0.000000
20.504533 49.751157 0.000000
9.340541 52.113240 0.000000
10.399435 55.952810 0.000000
15.896601 62.369781 0.000000
20.646526 46.265566 0.000000
8.565534 47.040842 0.000000
19.174252 56.754469 0.000000
14.857041 65.893928 0.000000
10.014697 54.758370 0.000000
13.392193 50.140757 0.000000
16.412445 67.592022 0.000000
19.870929 51.195965 0.000000
14.038380 69.407389 0.000000
19.528164 44.619035 0.000000
11.738238 42.135677 0.000000
12.812193 60.382387 0.000000
17.871425 41.886648 0.000000
13.827574 71.433500 0.000000
13.046316 50.463260 0.000000
13.243285 51.041841 0.000000
19.413704 55.740076 0.000000
13.809389 73.446906 0.000000
16.237600 37.670984 0.000000
13.725099 75.491856 0.000000
14.547260 34.291607 0.000000
17.703442 59.219529 0.000000
13.713818 50.903029 0.000000
15.827702 64.246442 0.000000
10.243336 57.146715 0.000000
10.495991 45.079863 0.000000
19.053152 53.276450 0.000000
20.873765 49.185248 0.000000
12.844168 50.664110 0.000000
10.962866 55.153057 0.000000
18.212182 53.494494 0.000000
17.258246 42.774937 0.000000
10.022217 52.847173 0.000000
17.062435 57.933784 0.000000
13.438753 51.197620 0.000000
12.212752 57.735694 0.000000
19.910058 46.859393 0.000000
9.916938 51.244622 0.000000
14.344550 39.419241 0.000000
14.246505 60.238021 0.000000
18.442936 56.041372 0.000000
20.028294 48.476540 0.000000
13.887098 51.109272 0.000000
13.275027 49.914017 0.000000
11.322732 44.937686 0.000000
12.118402 40.937426 0.000000
11.311346 56.895935 0.000000
13.079606 50.158378 0.000000
14.434107 61.763730 0.000000
19.715898 45.838173 0.000000
19.148732 51.732031 0.000000
9.238974 47.714924 0.000000
19.911209 50.446426 0.000000
18.510577 52.903174 0.000000
7.618889 49.023274 0.000000
10.323769 53.967598 0.000000
18.647693 44.261756 0.000000
16.480658 59.238527 0.000000
18.716561 55.144341 0.000000
13.678611 51.138782 0.000000
17.489815 40.503110 0.000000
15.572420 38.968663 0.000000
12.938615 50.968535 0.000000
10.305235 46.433776 0.000000
17.909105 56.974746 0.000000
10.980332 41.383933 0.000000
14.837819 67.821848 0.000000
9.511106 49.736871 0.000000
9.525661 58.002296 0.000000
20.243897 49.101525 0.000000
15.268937 60.893569 0.000000
19.103649 46.410052 0.000000
12.154971 45.109861 0.000000
17.748362 53.044060 0.000000
19.369476 48.351635 0.000000
12.622029 50.896359 0.000000
10.801278 53.241784 0.000000
13.009685 42.171929 0.000000
15.677880 58.131868 0.000000
17.790902 55.408661 0.000000
13.578172 58.771972 0.000000
12.368106 56.526923 0.000000
15.826242 40.323323 0.000000
13.587155 51.371096 0.000000
9.465277 49.091021 0.000000
13.509920 49.563275 0.000000
14.453948 40.783165 0.000000
18.590754 52.181825 0.000000
19.230336 51.021474 0.000000
16.861091 56.679505 0.000000
10.996953 45.809594 0.000000
18.941145 45.337040 0.000000
17.808798 54.014866 0.000000
17.899828 54.648482 0.000000
19.829731 49.695700 0.000000
8.326209 48.277906 0.000000
16.741858 41.573916 0.000000
19.707306 47.765502 0.000000
10.143244 47.322548 0.000000
12.789977 50.341969 0.000000
10.316569 52.014259 0.000000
17.735915 43.956858 0.000000
12.988057 51.205543 0.000000
10.202002 50.529327 0.000000
15.101175 59.457749 0.000000
13.855186 51.332704 0.000000
13.448983 49.765429 0.000000
17.527738 56.155788 0.000000
11.674613 55.813718 0.000000
10.893710 54.465072 0.000000
13.412345 41.170763 0.000000
13.783480 51.598883 0.000000
17.364463 53.590269 0.000000
11.417666 53.842825 0.000000
16.789897 43.677434 0.000000
10.934300 52.490514 0.000000
15.863126 56.988568 0.000000
18.405798 45.962865 0.000000
14.266807 42.004752 0.000000
12.545424 55.323075 0.000000
19.000435 47.808167 0.000000
13.279411 49.642049 0.000000
16.789912 55.565239 0.000000
10.684743 51.358554 0.000000
10.939788 46.827363 0.000000
18.010538 52.515859 0.000000
18.581720 51.494915 0.000000
13.252448 57.321256 0.000000
10.400573 49.775356 0.000000
19.255637 50.376173 0.000000
16.196094 42.645957 0.000000
17.103222 54.284424 0.000000
18.160125 45.044728 0.000000
12.516129 43.299718 0.000000
19.370757 49.027802 0.000000
13.230231 51.381316 0.000000
19.242868 47.171163 0.000000
12.531130 50.557141 0.000000
12.760049 50.035242 0.000000
14.416377 57.929494 0.000000
13.594321 49.422503 0.000000
11.704126 45.563787 0.000000
7.358242 48.350751 0.000000
12.744480 51.136130 0.000000
15.431684 41.700210 0.000000
17.218213 54.948704 0.000000
9.411523 48.545541 0.000000
17.627515 45.666183 0.000000
16.720551 53.797118 0.000000
12.236497 45.951709 0.000000
17.061597 53.149969 0.000000
15.945287 55.996968 0.000000
10.869592 50.329786 0.000000
12.278247 50.816121 0.000000
11.214068 51.824935 0.000000
11.124919 47.697222 0.000000
15.775635 43.530892 0.000000
18.463252 47.067482 0.000000
14.247820 51.629657 0.000000
10.331421 48.223372 0.000000
14.924007 57.145400 0.000000
11.749549 54.603508 0.000000
16.507201 54.836714 0.000000
11.566734 46.359522 0.000000
18.094408 51.903036 0.000000
13.212055 56.071862 0.000000
13.432456 49.395577 0.000000
18.603428 50.851526 0.000000
17.378473 52.665556 0.000000
19.155431 49.698865 0.000000
13.586278 51.855089 0.000000
18.790824 48.518385 0.000000
12.987785 49.637177 0.000000
17.331645 44.813550 0.000000
11.480348 52.973378 0.000000
10.138169 49.073321 0.000000
13.011411 49.853488 0.000000
12.761810 51.417312 0.000000
6.698721 47.623765 0.000000
12.464125 50.202942 0.000000
15.098166 42.826410 0.000000
12.439877 51.161335 0.000000
13.884212 43.176417 0.000000
16.909466 45.458920 0.000000
16.152438 54.258540 0.000000
12.026602 53.308837 0.000000
16.728017 52.668177 0.000000
13.345067 55.034917 0.000000
12.748632 45.430150 0.000000
11.749160 52.237773 0.000000
12.125708 46.728242 0.000000
12.278560 51.513442 0.000000
13.310444 44.113248 0.000000
11.918673 51.102765 0.000000
15.010870 56.101293 0.000000
13.041562 51.679354 0.000000
13.346791 49.144657 0.000000
14.464575 51.653830 0.000000
14.050930 51.763086 0.000000
18.377781 48.004476 0.000000
18.094125 51.300169 0.000000
17.932659 46.530935 0.000000
18.693762 50.266879 0.000000
16.512697 53.326079 0.000000
15.776577 55.169175 0.000000
11.262599 48.385158 0.000000
11.009583 49.870436 0.000000
17.625437 52.173070 0.000000
18.699994 49.145398 0.000000
15.574398 44.403797 0.000000
16.473062 44.560621 0.000000
11.305146 51.238932 0.000000
10.956304 48.899646 0.000000
14.825931 43.785207 0.000000
13.194079 49.382044 0.000000
12.253532 50.446858 0.000000
12.396571 49.848143 0.000000
12.686589 49.734069 0.000000
12.728755 54.431669 0.000000
17.900212 47.627262 0.000000
14.147460 56.774954 0.000000
17.646504 47.070508 0.000000
16.013232 53.678466 0.000000
13.822163 51.957059 0.000000
18.166385 48.680963 0.000000
13.378236 54.315805 0.000000
12.294005 49.495908 0.000000
13.032789 49.112684 0.000000
14.705914 44.638234 0.000000
14.874754 51.569335 0.000000
14.806793 55.132499 0.000000
11.458053 50.306864 0.000000
13.552161 48.977396 0.000000
12.814457 46.283695 0.000000
18.087277 50.799141 0.000000
17.071286 52.297088 0.000000
11.680167 47.125964 0.000000
17.197945 46.304635 0.000000
12.551339 44.462572 0.000000
18.590162 49.706531 0.000000
16.268439 52.878384 0.000000
17.681472 51.610382 0.000000
14.304831 51.851575 0.000000
15.371731 54.414388 0.000000
16.224565 45.375958 0.000000
17.904872 48.247927 0.000000
14.108973 55.649661 0.000000
11.669673 48.919442 0.000000
11.776850 51.646053 0.000000
11.896565 50.588524 0.000000
12.592082 51.787847 0.000000
12.631174 49.412195 0.000000
10.864279 50.791753 0.000000
12.944466 49.378276 0.000000
14.100465 44.121762 0.000000
13.444759 51.623175 0.000000
12.203348 52.729729 0.000000
10.892635 49.447408 0.000000
12.050339 50.060778 0.000000
14.541902 51.490016 0.000000
17.028005 46.911888 0.000000
12.708745 46.982619 0.000000
15.433608 53.769110 0.000000
17.710332 48.980041 0.000000
16.513923 52.258656 0.000000
14.874035 51.771525 0.000000
17.525276 47.940597 0.000000
12.844724 52.034340 0.000000
12.574891 53.124499 0.000000
13.438207 45.703477 0.000000
11.907433 48.324342 0.000000
12.604665 49.027900 0.000000
13.941357 44.959417 0.000000
11.917195 49.573962 0.000000
13.551008 52.162845 0.000000
14.603445 51.889151 0.000000
18.169011 50.291339 0.000000
12.380941 52.208700 0.000000
15.396497 45.260873 0.000000
13.275085 51.940076 0.000000
17.290909 51.864795 0.000000
15.860724 53.186992 0.000000
17.681259 51.082684 0.000000
18.167847 49.231634 0.000000
13.047289 53.626200 0.000000
11.448875 49.758112 0.000000
14.561679 54.288151 0.000000
14.044970 54.738967 0.000000
16.507255 46.065095 0.000000
12.155519 51.878763 0.000000
13.246532 48.846138 0.000000
14.674530 51.623126 0.000000
14.089140 52.065167 0.000000
11.916613 47.768262 0.000000
13.205180 44.893102 0.000000
11.383234 50.777262 0.000000
16.464244 46.696696 0.000000
15.106482 51.802148 0.000000
14.876494 53.769563 0.000000
14.105969 48.363905 0.000000
16.154864 52.484590 0.000000
17.757726 49.425269 0.000000
14.692530 45.454761 0.000000
13.868247 53.902712 0.000000
13.097596 52.884579 0.000000
13.410067 46.555587 0.000000
17.536568 48.543069 0.000000
12.878342 48.864047 0.000000
12.196635 49.176258 0.000000
16.810417 51.977126 0.000000
15.305813 53.230941 0.000000
14.877127 52.008157 0.000000
17.286803 47.444950 0.000000
17.323167 51.361254 0.000000
12.700940 52.515882 0.000000
13.181035 52.351204 0.000000
17.664933 50.566507 0.000000
18.011940 49.786671 0.000000
15.745309 45.934567 0.000000
14.351155 52.137451 0.000000
12.368087 47.429353 0.000000
12.118052 48.798846 0.000000
12.257459 53.822923 0.000000
13.496616 48.730532 0.000000
14.143649 45.676366 0.000000
11.552393 48.074286 0.000000
13.837969 52.227717 0.000000
11.376936 49.319714 0.000000
15.886542 46.576126 0.000000
17.192280 48.221247 0.000000
13.298056 47.154955 0.000000
17.314509 49.148025 0.000000
15.156291 52.061888 0.000000
16.329272 51.938985 0.000000
14.769223 53.188065 0.000000
14.422382 48.274796 0.000000
12.715137 47.841940 0.000000
13.346390 48.494870 0.000000
13.975922 48.602089 0.000000
17.602806 49.857908 0.000000
14.662310 46.179140 0.000000
13.607820 52.606658 0.000000
13.614280 53.184309 0.000000
12.552001 48.572004 0.000000
15.691634 52.716604 0.000000
16.700212 47.320474 0.000000
15.438258 51.517034 0.000000
16.987112 51.588757 0.000000
17.329139 50.894668 0.000000
15.248434 51.590077 0.000000
13.032816 48.554527 0.000000
12.385823 48.034651 0.000000
14.617674 52.157741 0.000000
15.164729 45.858584 0.000000
17.738220 50.162003 0.000000
13.710849 48.844009 0.000000
14.025666 52.403050 0.000000
13.968603 46.241007 0.000000
14.201818 48.109284 0.000000
17.439152 50.192118 0.000000
16.035921 52.147935 0.000000
14.893862 52.371179 0.000000
13.871172 46.880107 0.000000
13.274157 48.159952 0.000000
14.668344 48.456935 0.000000
17.328525 49.526278 0.000000
15.108970 52.774353 0.000000
17.195115 48.757354 0.000000
16.206577 47.154176 0.000000
13.787074 48.447824 0.000000
16.966761 47.792036 0.000000
17.006906 51.146006 0.000000
16.564802 51.680225 0.000000
15.381789 51.761942 0.000000
15.661912 51.466398 0.000000
14.220847 53.185255 0.000000
12.823239 48.168034 0.000000
15.325879 46.496563 0.000000
13.969955 52.771266 0.000000
14.065250 48.747264 0.000000
17.238427 50.520784 0.000000
12.908160 47.499900 0.000000
14.417241 52.554495 0.000000
14.410159 46.801051 0.000000
14.497148 48.030964 0.000000
16.903309 48.485442 0.000000
15.920353 51.534959 0.000000
16.864555 48.953486 0.000000
16.990874 50.779758 0.000000
13.749497 47.406380 0.000000
15.449726 52.063606 0.000000
16.984572 50.526896 0.000000
13.365190 47.696155 0.000000
16.992973 49.274964 0.000000
16.388557 47.701615 0.000000
16.722997 51.353379 0.000000
17.256195 49.877252 0.000000
15.720577 52.301053 0.000000
15.695226 47.048012 0.000000
15.923498 51.840754 0.000000
14.766513 52.740023 0.000000
15.336844 52.381447 0.000000
13.892488 48.189924 0.000000
16.375343 51.446869 0.000000
13.587189 48.303006 0.000000
14.701290 48.232690 0.000000
13.897011 48.808103 0.000000
14.418554 53.722592 0.000000
14.270013 47.287641 0.000000
14.574928 52.917371 0.000000
13.017177 47.873196 0.000000
14.955430 48.214385 0.000000
16.654235 48.701001 0.000000
14.721915 47.314417 0.000000
16.724137 51.019428 0.000000
14.260915 47.887609 0.000000
16.475276 51.151926 0.000000
16.673675 48.128505 0.000000
16.609672 49.151505 0.000000
17.045143 50.224592 0.000000
16.679978 50.715073 0.000000
15.973902 47.503850 0.000000
13.616110 47.998614 0.000000
16.007779 51.236724 0.000000
17.014948 49.585468 0.000000
16.191866 51.661293 0.000000
15.260325 47.015649 0.000000
15.708220 51.682475 0.000000
14.066882 47.655500 0.000000
13.730393 48.667975 0.000000
13.939524 47.926605 0.000000
14.787803 47.979958 0.000000
15.066909 47.960110 0.000000
16.259041 48.051144 0.000000
16.288085 49.068679 0.000000
16.550269 49.610521 0.000000
15.526778 47.488809 0.000000
16.510149 50.919751 0.000000
16.477445 48.413044 0.000000
16.487894 49.417810 0.000000
14.499076 47.691606 0.000000
16.734498 49.379297 0.000000
16.952568 49.882061 0.000000
16.470272 48.905752 0.000000
16.722273 50.429575 0.000000
15.080084 48.422415 0.000000
16.275162 51.232461 0.000000
16.274404 50.952374 0.000000
15.703288 51.966294 0.000000
16.154101 51.422461 0.000000
14.916264 46.867381 0.000000
16.400274 50.751706 0.000000
13.747441 47.736651 0.000000
13.589532 48.528841 0.000000
15.880965 47.849220 0.000000
15.476312 48.485495 0.000000
16.151726 48.347633 0.000000
16.274977 48.659445 0.000000
16.159239 48.902712 0.000000
15.282036 48.434241 0.000000
16.762170 49.673109 0.000000
15.096318 47.354117 0.000000
16.800250 50.127075 0.000000
16.521160 50.371535 0.000000
15.197776 48.217866 0.000000
14.895168 47.665933 0.000000
15.668606 48.354214 0.000000
15.347989 48.000647 0.000000
16.543975 49.959043 0.000000
15.871188 48.245665 0.000000
15.996603 48.543670 0.000000
16.704298 49.931790 0.000000
15.240735 47.726583 0.000000
15.526145 47.844476 0.000000
15.439461 48.259796 0.000000
15.827628 48.654662 0.000000
15.785793 48.500682 0.000000
15.642796 48.079589 0.000000
POLYGONS 2699 10796
3 638 743 547
3 887 1006 964
3 1300 1301 1263
3 1072 1281 1120
3 1387 1399 1374
3 1206 1267 1232
3 1315 1341 1337
3 902 907 886
3 286 337 270
3 996 1059 956
3 1048 1110 1081
3 1316 1342 1321
3 809 939 876
3 559 570 510
3 1264 1289 1220
3 1300 1337 1301
3 887 964 640
3 1001 1018 981
3 1212 1230 1186
3 941 1003 876
3 549 745 683
3 1188 1250 140
3 797 860 765
3 1299 1316 1283
3 743 748 700
3 885 997 945
3 699 806 801
3 699 801 745
3 719 797 765
3 858 913 822
3 822 1027 776
3 561 617 571
3 969 1092 939
3 1082 1113 1059
3 1022 1083 1057
3 531 680 614
3 469 708 616
3 1079 1116 1095
3 431 638 547
3 1207 1248 1148
3 1151 1197 1092
3 747 806 616
3 1120 1281 1177
3 646 745 549
3 1141 1151 1092
3 1228 1253 1231
3 140 1250 1218
3 1041 1103 1045
3 893 935 751
3 1375 1396 1373
3 432 475 337
3 561 571 530
3 949 959 843
3 642 742 572
3 1048 1081 1066
3 1114 1118 1057
3 1004 1036 969
3 1108 1122 1100
3 1261 1283 1231
3 766 938 868
3 776 858 822
3 1087 1111 1062
3 401 470 429
3 1405 1406 1375
3 1192 1220 1149
3 1419 1430 178
3 1294 1364 1323
3 372 401 371
3 1299 1409 1342
3 547 743 700
3 843 959 937
3 1320 1359 1341
3 1190 1217 1208
3 636 1294 612
3 1337 1341 1334
3 1415 1428 1392
3 880 996 956
3 1180 1219 1196
3 1429 1435 1428
3 1136 1140 1102
3 531 1117 680
3 1351 1381 1322
3 1316 1321 1264
3 1152 1254 1208
3 479 642 572
3 279 423 217
3 712 870 785
3 401 429 371
3 577 677 546
3 1415 1429 1428
3 620 1013 682
3 573 648 558
3 1232 1286 1206
3 1356 1360 1349
3 890 913 775
3 1164 1171 1118
3 712 785 590
3 1285 1315 1300
3 578 619 500
3 511 573 558
3 1184 1262 1246
3 1380 1413 1395
3 278 362 199
3 139 1188 140
3 1386 1407 1332
3 1090 1143 1107
3 620 641 581
3 904 991 944
3 969 1024 1004
3 765 871 771
3 280 465 221
3 1092 1197 941
3 772 826 747
3 1375 1406 1396
3 765 771 727
3 707 774 679
3 941 1197 1031
3 282 336 193
3 951 982 962
3 1348 1411 1351
3 970 1007 935
3 942 989 985
3 1192 1264 1220
3 1413 1432 1395
3 1367 1399 1387
3 1255 1287 1247
3 700 711 580
3 1246 1262 1245
3 281 364 219
3 1010 1105 1054
3 1336 1409 1299
3 1120 1177 1078
3 1274 1300 1263
3 1190 1244 1217
3 701 859 743
3 575 609 485
3 1219 1255 1196
3 576 610 484
3 885 932 839
3 954 1105 1043
3 485 609 495
3 283 399 223
3 484 610 496
3 1113 1207 1148
3 963 988 957
3 572 644 538
3 218 286 270
3 1416 1417 420
3 841 900 864
3 951 962 905
3 1217 1244 1232
3 1054 1105 954
3 717 792 766
3 619 777 706
3 578 740 672
3 1019 1055 1041
3 285 343 228
3 407 646 549
3 1303 1356 1259
3 1433 1436 1425
3 284 466 226
3 952 997 885
3 681 792 677
3 463 479 336
3 1263 1301 1243
3 1114 1284 1164
3 649 700 580
3 366 430 365
3 1036 1141 1092
3 1041 1045 997
3 809 876 841
3 1100 1122 1049
3 434 476 338
3 497 611 432
3 743 859 748
3 338 541 423
3 498 638 431
3 937 959 838
3 293 366 365
3 1401 1430 1419
3 672 684 619
3 652 807 698
3 270 467 341
3 717 766 716
3 1187 1261 1231
3 1427 1430 258
3 643 674 576
3 1108 1192 1149
3 1005 1040 994
3 484 643 576
3 291 372 371
3 430 474 402
3 951 1007 958
3 861 943 880
3 149 964 150
3 155 468 156
3 942 985 910
3 1118 1171 1134
3 365 430 402
3 775 913 858
3 338 423 279
3 647 738 575
3 1081 1163 1121
3 701 743 638
3 343 433 265
3 812 956 904
3 1086 1179 1098
3 1098 1179 1119
3 485 647 575
3 608 645 482
3 538 543 427
3 1170 1254 1152
3 998 1007 970
3 639 708 570
3 1147 1253 1228
3 1035 1133 1072
3 437 608 482
3 1082 1170 1113
3 935 1007 951
3 1158 1178 1116
3 1283 1316 1228
3 1051 1071 989
3 343 543 538
3 1302 1309 1266
3 1031 1100 1003
3 420 1429 1416
3 865 904 890
3 286 432 337
3 436 577 546
3 1178 1180 1116
3 1180 1196 1160
3 910 985 936
3 792 867 766
3 1045 1103 1077
3 1136 1150 1140
3 1026 1087 1062
3 1397 1415 1392
3 773 885 839
3 579 637 577
3 639 839 772
3 1149 1279 1195
3 1210 1230 1212
3 218 270 198
3 1059 1113 1074
3 883 961 916
3 1413 1436 1432
3 219 286 218
3 267 498 431
3 1196 1255 1247
3 411 649 580
3 685 814 760
3 221 269 197
3 1087 1216 1165
3 223 268 210
3 1352 1377 1346
3 1019 1041 947
3 1354 1375 1373
3 886 912 902
3 998 1029 1007
3 839 932 772
3 1113 1148 1074
3 495 609 461
3 989 1071 1032
3 1144 1281 1072
3 650 723 579
3 496 610 462
3 1121 1143 1090
3 708 772 747
3 564 807 652
3 733 779 681
3 1097 1176 1135
3 1177 1184 1146
3 953 1023 961
3 958 982 951
3 1348 1351 1289
3 381 495 461
3 607 737 648
3 841 864 749
3 382 496 462
3 427 572 538
3 881 977 850
3 1315 1337 1300
3 607 648 573
3 1191 1314 468
3 1376 1392 1353
3 503 1137 620
3 917 943 861
3 840 903 783
3 581 641 476
3 770 874 548
3 269 486 342
3 1083 1195 1114
3 479 572 336
3 1402 1417 1416
3 504 577 436
3 618 740 475
3 1362 1375 1354
3 873 939 809
3 651 717 716
3 774 904 865
3 160 612 161
3 1252 1284 1114
3 1206 1286 1171
3 1381 1411 1389
3 337 578 500
3 1377 1398 176
3 913 957 822
3 1392 1413 1353
3 499 608 437
3 102 279 217
3 104 278 199
3 41 280 221
3 777 842 706
3 710 1137 503
3 996 1082 1059
3 819 952 885
3 619 706 500
3 1331 1362 1354
3 992 1048 1023
3 885 945 932
3 45 281 219
3 275 499 437
3 685 849 814
3 1230 1302 1266
3 1242 1276 1260
3 1379 1410 177
3 1129 1238 1214
3 1001 1064 1018
3 177 1403 1379
3 1049 1083 1022
3 883 916 748
3 100 282 193
3 913 963 957
3 1230 1266 1186
3 107 283 223
3 1067 1120 1078
3 220 361 194
3 1372 1399 1367
3 1124 1179 1086
3 706 807 564
3 806 873 809
3 895 903 840
3 1077 1141 1036
3 946 1010 960
3 699 745 646
3 1370 1423 1404
3 944 1014 963
3 1326 1344 1288
3 176 1393 1377
3 872 936 811
3 1389 1411 1387
3 336 540 463
3 1135 1176 1131
3 1377 1400 1398
3 38 284 226
3 1303 1360 1356
3 1293 1359 1325
3 228 265 190
3 682 804 641
3 1350 1403 1378
3 423 463 217
3 1219 1304 1255
3 1279 1310 1252
3 997 1045 945
3 767 881 850
3 948 1039 970
3 226 266 192
3 1177 1281 1243
3 258 1430 1421
3 1308 1332 1256
3 953 961 883
3 637 733 681
3 1376 1397 1392
3 714 840 783
3 98 285 228
3 486 577 504
3 1288 1376 1329
3 899 1005 994
3 1293 1325 1269
3 1161 1235 1198
3 1094 1214 1154
3 1179 1205 1153
3 1148 1236 1215
3 1199 1303 1259
3 1301 1337 1334
3 723 779 733
3 1344 1397 1376
3 1040 1124 1086
3 1035 1072 1014
3 1325 1360 1303
3 486 579 577
3 1353 1413 1380
3 1150 1248 1207
3 1367 1387 1348
3 1392 1428 1413
3 258 1421 1403
3 1416 1429 1415
3 1000 1093 1033
3 715 839 639
3 376 497 432
3 1217 1232 1175
3 1318 1378 1355
3 776 1027 709
3 1236 1273 1215
3 1124 1205 1179
3 1330 1373 1347
3 1255 1327 1287
3 1203 1237 1168
3 1346 1371 1344
3 1307 1347 1339
3 1378 1421 1401
3 228 343 265
3 1110 1163 1081
3 1030 1116 1076
3 285 543 343
3 369 499 275
3 762 811 684
3 1280 1302 1230
3 1233 1300 1274
3 1269 1303 1240
3 133 1382 211
3 1356 1407 1319
3 1214 1238 1154
3 502 613 465
3 956 1059 991
3 1264 1321 1289
3 578 672 619
3 173 1398 1394
3 337 467 270
3 1115 1169 1168
3 946 960 864
3 1134 1216 1087
3 209 369 275
3 819 885 773
3 1042 1214 1094
3 4 1427 258
3 1290 1346 1326
3 1172 1213 1141
3 222 287 191
3 397 424 340
3 1107 1109 1071
3 1014 1072 1068
3 723 838 779
3 1357 1395 1385
3 1118 1134 1105
3 1227 1273 1263
3 1148 1248 1236
3 1159 1193 1126
3 199 434 338
3 130 1410 1406
3 1398 1400 1394
3 1036 1092 969
3 227 267 220
3 895 965 962
3 277 397 340
3 1342 1367 1321
3 1108 1149 1122
3 741 865 775
3 336 572 427
3 910 936 872
3 994 1086 1039
3 1295 1310 1279
3 1324 1352 1290
3 270 341 198
3 702 840 714
3 970 1039 998
3 410 650 579
3 1010 1054 960
3 1265 1288 1225
3 1189 1202 1163
3 561 709 617
3 989 1032 1012
3 1078 1177 1146
3 988 1120 1067
3 1199 1259 1145
3 1346 1402 1371
3 1265 1326 1288
3 1325 1359 1320
3 977 1020 952
3 1275 1318 1313
3 812 904 774
3 1109 1162 1145
3 1147 1228 1192
3 1222 1326 1265
3 1171 1286 1216
3 709 1027 750
3 1145 1223 1194
3 291 371 247
3 1245 1257 1202
3 1298 1324 1260
3 1204 1265 1225
3 992 1023 953
3 1377 1402 1346
3 1133 1215 1144
3 1295 1335 1310
3 1223 1292 1268
3 1403 1421 1378
3 1277 1336 1312
3 1234 1250 1224
3 897 1028 1000
3 751 935 815
3 1373 1379 1347
3 1329 1376 1353
3 1198 1276 1242
3 1292 1384 1331
3 1304 1353 1327
3 748 916 802
3 651 716 582
3 1130 1183 1158
3 435 473 400
3 1272 1330 1307
3 341 465 280
3 1139 1172 1141
3 1306 1354 1330
3 1169 1203 1168
3 1123 1159 1085
3 1111 1211 1062
3 962 982 895
3 1202 1221 1143
3 859 883 748
3 943 996 880
3 760 859 701
3 612 1323 161
3 949 995 959
3 965 1025 962
3 1026 1134 1087
3 288 397 277
3 1164 1229 1206
3 1326 1346 1344
3 289 344 248
3 1371 1416 1397
3 1078 1146 1124
3 358 501 269
3 1074 1133 1035
3 1131 1173 1080
3 1121 1163 1143
3 983 1005 899
3 1074 1148 1133
3 1239 1306 1272
3 1426 1436 1433
3 1394 1419 178
3 1247 1287 1277
3 331 435 370
3 991 1014 944
3 1225 1329 1271
3 1167 1242 1183
3 1421 1430 1401
3 1241 1307 1275
3 278 678 362
3 410 579 486
3 503 620 581
3 963 1068 988
3 1149 1195 1122
3 1271 1329 1304
3 1221 1240 1181
3 1290 1352 1346
3 1045 1069 945
3 501 548 410
3 1153 1163 1110
3 1047 1126 1088
3 639 772 708
3 878 942 910
3 463 540 217
3 198 341 280
3 1327 1357 1287
3 945 1069 1004
3 702 714 653
3 1202 1257 1221
3 771 871 790
3 210 678 278
3 199 338 279
3 277 301 288
3 1347 1350 1339
3 1357 1385 1336
3 170 1417 1393
3 362 503 434
3 991 1035 1014
3 901 1019 938
3 542 679 584
3 1204 1225 1178
3 1395 1431 1420
3 1085 1159 1126
3 1126 1235 1161
3 1165 1190 1111
3 1395 1420 1385
3 467 564 502
3 653 714 589
3 1320 1360 1325
3 1327 1380 1357
3 1142 1169 1132
3 1006 1135 1002
3 381 461 327
3 1088 1161 1128
3 382 462 329
3 376 432 286
3 469 562 421
3 500 706 564
3 575 738 494
3 1084 1123 1046
3 1397 1416 1415
3 1203 1277 1237
3 1290 1326 1222
3 584 642 479
3 1260 1290 1222
3 641 804 551
3 966 1047 1011
3 1195 1279 1252
3 1393 1402 1377
3 764 860 797
3 752 965 895
3 1229 1310 1302
3 1116 1180 1160
3 165 1418 1414
3 1162 1240 1199
3 684 847 777
3 281 464 364
3 1142 1203 1169
3 642 775 742
3 1289 1351 1340
3 811 879 847
3 1237 1312 1261
3 900 1049 1022
3 1235 1276 1198
3 745 749 683
3 679 774 741
3 783 903 849
3 547 649 527
3 1363 1412 1296
3 1409 1420 1372
3 1200 1272 1241
3 1002 1065 179
3 1011 1088 1053
3 1086 1098 1039
3 491 631 602
3 215 381 327
3 1243 1262 1184
3 216 382 329
3 1229 1302 1280
3 269 342 197
3 616 699 562
3 1321 1367 1348
3 869 923 897
3 268 491 363
3 992 1075 1048
3 370 400 373
3 1122 1195 1083
3 1322 1369 1351
3 510 570 442
3 719 765 718
3 341 502 465
3 1220 1340 1279
3 611 711 618
3 1183 1204 1158
3 486 504 342
3 658 776 709
3 1004 1069 1036
3 989 1012 985
3 269 501 410
3 879 1009 966
3 897 1000 949
3 197 342 284
3 1222 1265 1183
3 762 872 811
3 1062 1211 1082
3 707 812 774
3 819 979 930
3 954 1026 917
3 370 435 400
3 809 841 801
3 475 578 337
3 1081 1104 1038
3 1262 1366 1245
3 43 218 198
3 1259 1319 1223
3 950 1009 879
3 644 858 776
3 44 219 218
3 847 966 914
3 268 532 407
3 1206 1280 1267
3 194 464 281
3 190 372 291
3 1146 1205 1124
3 559 715 639
3 1059 1074 991
3 654 719 718
3 564 652 502
3 991 1074 1035
3 1073 1169 1115
3 1289 1340 1220
3 40 221 197
3 106 223 210
3 1009 1085 1047
3 364 411 376
3 1046 1123 1085
3 1159 1241 1193
3 549 683 631
3 1235 1313 1276
3 411 580 497
3 1012 1046 950
3 549 631 491
3 1187 1213 1172
3 199 279 103
3 475 740 578
3 1032 1084 1012
3 1030 1050 1008
3 570 708 469
3 1033 1130 1079
3 198 280 42
3 512 651 582
3 1331 1384 1362
3 680 1070 1064
3 1051 1090 1071
3 210 278 105
3 1043 1134 1026
3 1098 1119 1037
3 879 966 847
3 1165 1244 1190
3 35 289 248
3 1396 1410 1379
3 194 281 46
3 1175 1232 1185
3 1288 1329 1225
3 895 982 903
3 1091 1132 1060
3 914 1011 955
3 331 370 292
3 868 938 767
3 1166 1239 1200
3 217 282 101
3 1107 1162 1109
3 1044 1099 153
3 1069 1077 1036
3 193 543 285
3 773 839 715
3 1047 1088 1011
3 1282 1388 1314
3 407 491 268
3 944 963 890
3 1106 1196 1142
3 1434 1435 1429
3 1240 1303 1199
3 1123 1200 1159
3 1193 1235 1126
3 904 944 890
3 698 770 548
3 1009 1047 966
3 191 283 108
3 1076 1160 1106
3 1362 1405 1375
3 942 1051 989
3 1186 1266 1249
3 1279 1340 1295
3 197 284 39
3 492 612 159
3 1395 1432 1431
3 1352 1400 1377
3 990 1089 1055
3 1298 1355 1324
3 1233 1274 1238
3 917 1026 943
3 1012 1084 1046
3 1157 1182 1070
3 1345 1384 1358
3 942 1052 1051
3 1342 1372 1367
3 1372 1424 1399
3 1075 1110 1048
3 952 1020 997
3 867 922 901
3 337 500 467
3 434 581 476
3 1087 1165 1111
3 193 285 99
3 411 497 376
3 95 291 247
3 980 1016 992
3 986 1028 897
3 947 1041 1020
3 888 1025 965
3 1359 1368 1341
3 897 949 869
3 1301 1334 1262
3 267 431 361
3 966 1011 914
3 1428 1436 1413
3 1319 1358 1292
3 47 220 194
3 1016 1063 1037
3 551 707 679
3 546 717 651
3 683 803 631
3 503 581 434
3 611 618 475
3 876 984 841
3 1418 1433 1414
3 1071 1109 1032
3 1044 1125 1099
3 401 571 470
3 1046 1085 1009
3 267 361 220
3 811 847 684
3 1229 1280 1206
3 1276 1298 1260
3 1223 1319 1292
3 545 744 147
3 1000 1056 949
3 1145 1259 1223
3 1093 1167 1130
3 229 264 222
3 421 562 532
3 109 222 191
3 1332 1407 1349
3 191 357 283
3 500 564 467
3 1065 1080 1044
3 1017 1052 942
3 502 652 613
3 707 861 812
3 682 1013 954
3 1350 1378 1339
3 168 1434 420
3 761 805 618
3 1132 1169 1073
3 697 929 860
3 1237 1261 1187
3 1073 1089 990
3 551 804 707
3 995 1030 1008
3 501 652 548
3 37 226 192
3 370 373 227
3 1333 1386 1305
3 950 1046 1009
3 342 466 284
3 1146 1246 1205
3 954 1043 1026
3 697 860 764
3 1060 1132 1073
3 814 980 926
3 1106 1132 1091
3 1275 1339 1318
3 824 912 886
3 767 938 881
3 838 959 908
3 1119 1153 1075
3 560 701 638
3 940 1060 990
3 878 910 857
3 1215 1273 1227
3 857 872 805
3 217 540 282
3 1324 1383 1352
3 811 936 879
3 1317 1343 1294
3 1401 1419 1383
3 882 1016 980
3 698 869 770
3 936 950 879
3 877 973 862
3 580 611 497
3 1193 1275 1235
3 930 952 819
3 1099 1125 539
3 361 527 464
3 1126 1161 1088
3 1268 1331 1306
3 1190 1254 1111
3 548 650 410
3 1344 1376 1288
3 658 709 561
3 507 653 589
3 1194 1268 1239
3 1334 1368 1293
3 97 228 190
3 967 1025 888
3 861 880 812
3 1148 1215 1133
3 1330 1347 1307
3 1205 1246 1189
3 1003 1100 1049
3 1181 1240 1162
3 1075 1153 1110
3 584 741 642
3 1037 1075 992
3 1220 1279 1149
3 880 956 812
3 637 677 577
3 1018 1064 1042
3 736 868 767
3 432 611 475
3 960 1054 769
3 1085 1126 1047
3 750 784 617
3 1304 1327 1255
3 740 805 762
3 527 649 411
3 433 561 530
3 258 1422 127
3 1393 1417 1402
3 399 532 268
3 1260 1324 1290
3 546 651 436
3 287 442 421
3 1178 1271 1180
3 1103 1139 1077
3 882 980 814
3 1243 1301 1262
3 807 923 869
3 873 969 939
3 1038 1052 1017
3 716 736 582
3 836 979 819
3 990 1055 971
3 721 844 632
3 959 1008 908
3 654 718 563
3 801 841 749
3 342 504 466
3 847 914 777
3 359 436 266
3 1008 1050 968
3 902 912 845
3 621 701 560
3 751 815 778
3 548 874 650
3 940 971 922
3 362 434 199
3 850 977 896
3 560 638 498
3 410 486 269
3 1211 1254 1170
3 1378 1401 1355
3 1109 1145 1127
3 1080 1173 1125
3 1029 1063 882
3 492 1338 1297
3 1321 1348 1289
3 1160 1196 1106
3 1168 1237 1187
3 958 1029 882
3 552 628 583
3 1354 1373 1330
3 444 654 563
3 1400 1419 1394
3 1379 1403 1350
3 1089 1103 1055
3 900 1022 946
3 1277 1312 1237
3 760 926 859
3 1387 1411 1348
3 1282 1314 1191
3 487 653 507
3 905 962 884
3 720 778 686
3 750 1027 899
3 192 289 36
3 864 960 919
3 442 469 421
3 1249 1282 1191
3 815 951 905
3 652 698 548
3 1116 1160 1076
3 292 370 227
3 930 977 952
3 882 1063 1016
3 1259 1356 1319
3 1147 1192 1108
3 995 1008 959
3 357 399 283
3 896 930 828
3 161 1323 162
3 899 994 948
3 1127 1194 1166
3 506 583 418
3 943 1062 996
3 938 1019 947
3 860 871 765
3 470 721 632
3 48 227 220
3 505 654 444
3 1229 1284 1252
3 971 1055 1019
3 531 614 142
3 473 657 621
3 672 762 684
3 976 978 818
3 133 211 134
3 1402 1416 1371
3 685 760 621
3 892 978 976
3 644 776 658
3 924 978 892
3 552 583 506
3 110 229 222
3 190 291 96
3 856 968 875
3 1385 1420 1409
3 894 924 892
3 393 510 442
3 709 750 617
3 770 869 843
3 357 421 399
3 810 857 761
3 1319 1407 1358
3 1050 1091 1015
3 1426 1433 1423
3 1180 1271 1219
3 1072 1120 1068
3 1380 1395 1357
3 984 1049 900
3 1143 1221 1181
3 875 922 808
3 632 844 751
3 1028 1093 1000
3 1143 1181 1107
3 1032 1127 1084
3 681 856 808
3 336 427 193
3 899 1027 983
3 755 850 828
3 361 464 194
3 293 365 229
3 211 1382 1345
3 680 1157 1070
3 1158 1204 1178
3 1186 1249 1155
3 908 1008 968
3 1168 1172 1115
3 1183 1242 1222
3 957 1067 1005
3 1167 1183 1130
3 1095 1116 1030
3 846 884 817
3 919 960 803
3 272 505 444
3 571 721 470
3 1227 1263 1243
3 876 1003 984
3 1287 1336 1277
3 538 561 433
3 192 360 289
3 723 733 579
3 1177 1243 1184
3 621 760 701
3 1252 1310 1229
3 371 383 247
3 580 711 611
3 845 912 823
3 440 495 381
3 1245 1366 1257
3 751 778 720
3 1003 1049 984
3 441 496 382
3 1107 1181 1162
3 779 908 856
3 104 199 103
3 1228 1264 1192
3 1358 1384 1292
3 43 198 42
3 846 905 884
3 44 218 43
3 135 1305 136
3 1049 1122 1083
3 45 219 44
3 364 376 219
3 1358 1407 1386
3 106 210 105
3 41 221 40
3 421 532 399
3 1198 1242 1167
3 1162 1199 1145
3 47 194 46
3 102 217 101
3 1109 1127 1032
3 656 720 686
3 40 197 39
3 1030 1076 1050
3 107 223 106
3 644 658 538
3 1164 1206 1171
3 437 482 413
3 1141 1213 1151
3 1045 1077 1069
3 1042 1094 993
3 1156 1250 1234
3 656 686 550
3 1355 1401 1383
3 1139 1141 1077
3 109 191 108
3 100 193 99
3 407 549 491
3 869 949 843
3 994 1039 948
3 1005 1067 1040
3 1195 1252 1114
3 849 958 882
3 780 823 703
3 542 584 423
3 105 278 104
3 803 960 769
3 864 919 749
3 780 845 823
3 103 279 102
3 42 280 41
3 1080 1125 1044
3 805 872 762
3 46 281 45
3 1306 1330 1272
3 1355 1383 1324
3 380 506 418
3 1384 1408 1362
3 692 836 819
3 566 780 655
3 431 547 527
3 1170 1207 1113
3 1015 1091 1060
3 348 437 413
3 101 282 100
3 215 327 254
3 216 329 255
3 108 283 107
3 1292 1331 1268
3 513 656 404
3 1342 1409 1372
3 1196 1247 1142
3 1131 1212 1173
3 373 498 267
3 487 507 445
3 438 509 366
3 949 1056 995
3 677 792 717
3 1115 1172 1139
3 431 527 361
3 151 1065 152
3 469 616 562
3 39 284 38
3 227 373 267
3 657 783 685
3 1318 1355 1298
3 38 226 37
3 1034 1096 987
3 999 1017 975
3 265 372 190
3 655 780 703
3 359 504 436
3 1239 1272 1200
3 692 773 622
3 1266 1309 1249
3 657 685 621
3 226 359 266
3 344 544 406
3 1329 1353 1304
3 442 570 469
3 1293 1366 1334
3 1182 1233 1129
3 375 437 348
3 1039 1063 998
3 1048 1066 1023
3 208 301 277
3 1171 1216 1134
3 1155 1249 1191
3 1073 1115 1089
3 617 721 571
3 99 285 98
3 1338 1365 1297
3 507 589 435
3 741 775 642
3 1215 1227 1144
3 463 584 479
3 1406 1410 1396
3 693 850 755
3 1067 1078 1040
3 1272 1307 1241
3 782 846 817
3 1079 1095 1056
3 1432 1436 1426
3 848 965 752
3 1052 1104 1090
3 374 425 347
3 813 970 893
3 98 228 97
3 1057 1118 1010
3 1228 1316 1264
3 1271 1304 1219
3 752 840 702
3 566 655 586
3 400 498 373
3 37 192 36
3 777 914 842
3 222 393 287
3 1010 1118 1105
3 749 919 683
3 18 256 231
3 79 257 230
3 1078 1124 1040
3 402 559 510
3 1145 1194 1127
3 1128 1167 1093
3 814 926 760
3 215 254 5
3 216 255 66
3 49 292 227
3 48 220 47
3 926 980 953
3 1183 1265 1204
3 1331 1354 1306
3 508 565 509
3 1257 1269 1221
3 1152 1208 1112
3 97 190 96
3 1225 1271 1178
3 110 222 109
3 111 293 229
3 884 1025 967
3 1056 1095 995
3 79 78 3
3 1 18 17
3 153 1099 154
3 857 910 872
3 362 678 503
3 1405 1408 1382
3 406 615 552
3 1221 1269 1240
3 875 1015 940
3 947 977 881
3 1031 1197 1147
3 429 585 513
3 899 948 813
3 297 374 347
3 1309 1335 1322
3 825 918 798
3 1224 1270 1234
3 622 773 715
3 572 742 644
3 1200 1241 1159
3 799 825 798
3 1064 1070 1042
3 298 375 348
3 1268 1306 1239
3 1391 1423 1370
3 906 976 818
3 363 678 210
3 1307 1339 1275
3 1093 1130 1033
3 1014 1068 963
3 1428 1435 1425
3 508 509 438
3 380 418 379
3 1309 1322 1296
3 967 972 817
3 985 1012 950
3 1269 1325 1303
3 1232 1267 1185
3 995 1095 1030
3 635 799 798
3 781 906 818
3 531 1218 1156
3 589 657 473
3 975 1017 878
3 562 699 646
3 1166 1200 1123
3 1257 1293 1269
3 782 817 688
3 1117 1157 680
3 1223 1268 1194
3 287 421 357
3 1233 1238 1129
3 750 899 813
3 541 542 423
3 1133 1144 1072
3 582 736 615
3 302 369 209
3 728 799 635
3 1088 1128 1053
3 305 438 366
3 783 849 685
3 889 967 888
3 445 507 331
3 132 1382 133
3 1353 1380 1327
3 808 867 792
3 1153 1189 1163
3 435 589 473
3 1194 1239 1166
3 265 401 372
3 377 412 345
3 616 806 699
3 378 416 346
3 1011 1053 955
3 226 466 359
3 364 464 411
3 999 1038 1017
3 686 846 782
3 586 655 477
3 404 656 550
3 800 863 759
3 579 733 637
3 1275 1313 1235
3 704 753 722
3 558 719 654
3 18 231 17
3 79 230 78
3 843 937 770
3 903 982 958
3 1256 1332 1291
3 914 955 842
3 704 722 660
3 1351 1369 1340
3 747 1024 873
3 553 653 487
3 999 1066 1038
3 541 641 551
3 1187 1231 1213
3 623 848 752
3 739 800 759
3 1431 1432 1426
3 184 366 293
3 711 761 618
3 503 678 602
3 406 552 506
3 476 541 338
3 36 289 35
3 221 358 269
3 817 972 906
3 159 612 160
3 344 406 259
3 604 673 630
3 1161 1198 1128
3 538 658 561
3 1097 1135 1006
3 888 965 848
3 268 363 210
3 1053 1093 1028
3 49 227 48
3 266 512 428
3 1062 1082 996
3 569 728 635
3 738 790 673
3 295 381 215
3 1328 1412 1363
3 850 896 828
3 781 818 689
3 296 382 216
3 890 963 913
3 590 785 662
3 5 254 0
3 66 255 2
3 371 429 383
3 682 954 917
3 810 878 857
3 111 229 110
3 209 275 233
3 605 673 604
3 299 377 345
3 1127 1166 1084
3 96 291 95
3 448 586 477
3 1082 1211 1170
3 300 378 346
3 603 728 569
3 1241 1275 1193
3 793 902 845
3 618 805 740
3 1128 1198 1167
3 771 790 738
3 308 380 379
3 1322 1363 1296
3 343 538 433
3 761 857 805
3 1002 1080 1065
3 282 540 336
3 889 972 967
3 16 301 208
3 648 719 558
3 277 340 294
3 659 781 689
3 77 302 209
3 167 1434 168
3 473 560 400
3 587 781 659
3 221 465 358
3 684 777 619
3 660 722 591
3 1334 1366 1262
3 714 783 657
3 853 892 891
3 736 767 693
3 682 917 861
3 851 907 787
3 393 442 287
3 255 329 225
3 254 327 224
3 1084 1166 1123
3 957 1005 983
3 936 985 950
3 408 553 487
3 935 951 815
3 585 720 656
3 383 513 260
3 900 946 864
3 1040 1086 994
3 1339 1378 1318
3 681 808 792
3 677 717 546
3 511 558 425
3 1090 1107 1071
3 1163 1202 1143
3 491 602 363
3 692 819 773
3 754 892 853
3 516 587 517
3 467 502 341
3 617 784 721
3 968 1050 1015
3 961 975 916
3 492 1258 636
3 552 676 628
3 1066 1081 1038
3 144 1001 145
3 260 513 404
3 838 908 779
3 528 605 405
3 516 517 439
3 670 800 739
3 622 715 559
3 164 1418 165
3 754 853 704
3 696 871 835
3 405 605 604
3 587 659 517
3 1033 1056 1000
3 778 905 846
3 886 907 851
3 841 984 900
3 439 517 350
3 238 439 350
3 219 376 286
3 473 621 560
3 574 645 608
3 664 782 688
3 1189 1245 1202
3 162 1323 394
3 670 739 671
3 408 591 553
3 547 700 649
3 623 702 553
3 588 643 484
3 806 809 801
3 624 754 704
3 1130 1158 1079
3 602 710 503
3 585 656 513
3 790 871 696
3 1076 1106 1091
3 470 585 429
3 169 1417 170
3 804 861 707
3 898 1018 993
3 248 344 259
3 834 837 794
3 829 925 921
3 916 975 810
3 724 793 687
3 277 294 232
3 172 1398 173
3 1383 1400 1352
3 458 603 569
3 1063 1098 1037
3 367 508 438
3 754 894 892
3 745 801 749
3 545 981 898
3 566 586 488
3 355 533 459
3 596 622 474
3 794 837 691
3 1115 1139 1089
3 356 534 460
3 524 603 458
3 1247 1277 1203
3 395 533 355
3 662 785 588
3 396 534 356
3 661 692 622
3 1210 1267 1230
3 208 277 232
3 679 741 584
3 259 506 380
3 489 660 591
3 402 510 393
3 589 714 657
3 854 894 754
3 632 751 720
3 0 254 126
3 2 255 65
3 130 1406 131
3 180 331 292
3 470 632 585
3 830 925 829
3 297 347 196
3 512 582 428
3 663 687 566
3 248 259 189
3 299 345 204
3 231 301 17
3 135 1333 1305
3 626 788 756
3 631 803 710
3 305 366 184
3 474 559 402
3 374 511 425
3 300 346 205
3 298 348 195
3 367 438 214
3 230 302 78
3 824 886 786
3 562 646 532
3 349 487 445
3 1053 1128 1093
3 232 294 234
3 443 588 484
3 867 901 766
3 247 383 260
3 670 671 601
3 828 902 793
3 35 248 34
3 34 248 189
3 550 782 664
3 233 275 235
3 485 495 412
3 837 863 691
3 945 1004 932
3 755 828 793
3 601 671 529
3 734 788 626
3 1197 1253 1147
3 697 764 627
3 928 931 833
3 796 832 831
3 1276 1313 1298
3 873 1024 969
3 50 292 49
3 180 292 50
3 418 488 379
3 824 915 912
3 627 675 556
3 706 923 807
3 1168 1187 1172
3 484 496 416
3 663 724 687
3 7 295 215
3 68 296 216
3 95 247 94
3 94 247 186
3 247 260 186
3 753 889 888
3 408 487 349
3 112 293 111
3 184 293 112
3 753 888 848
3 788 918 821
3 924 928 820
3 444 485 412
3 234 374 297
3 436 651 512
3 763 832 796
3 514 588 443
3 367 515 508
3 567 665 515
3 514 662 588
3 1371 1397 1344
3 691 863 800
3 624 854 754
3 694 786 633
3 856 875 808
3 596 661 622
3 392 524 458
3 833 931 834
3 358 613 501
3 633 705 567
3 661 787 692
3 627 764 675
3 703 823 757
3 1343 1364 1294
3 204 440 381
3 961 1023 999
3 443 484 416
3 205 441 382
3 755 793 724
3 265 530 401
3 354 524 392
3 556 675 599
3 235 375 298
3 820 928 833
3 767 850 693
3 798 918 788
3 508 665 565
3 565 596 509
3 600 734 626
3 545 746 744
3 732 854 624
3 568 794 691
3 753 848 722
3 907 979 836
3 288 301 231
3 202 398 325
3 530 571 401
3 583 724 663
3 418 566 488
3 418 663 566
3 400 560 498
3 490 734 600
3 930 979 828
3 236 377 299
3 276 398 202
3 820 833 791
3 322 395 250
3 323 396 253
3 756 854 732
3 126 254 224
3 65 255 225
3 237 378 300
3 204 381 295
3 12 297 196
3 205 382 296
3 833 834 690
3 214 438 305
3 201 397 324
3 1039 1098 1063
3 264 393 222
3 568 691 666
3 73 298 195
3 195 378 237
3 705 726 665
3 425 505 347
3 940 990 971
3 290 302 230
3 813 893 784
3 631 710 602
3 1037 1119 1075
3 1106 1142 1132
3 862 973 887
3 368 397 201
3 592 732 624
3 196 272 236
3 590 662 514
3 127 1422 128
3 591 623 553
3 9 299 204
3 694 827 824
3 626 732 478
3 791 833 690
3 827 920 915
3 70 300 205
3 775 858 742
3 691 800 666
3 574 608 415
3 223 399 268
3 828 979 902
3 690 834 794
3 287 357 191
3 722 848 623
3 1033 1079 1056
3 592 704 660
3 592 660 522
3 667 789 554
3 626 756 732
3 1349 1360 1291
3 415 608 537
3 250 395 355
3 271 378 195
3 427 543 193
3 253 396 356
3 208 232 15
3 209 233 76
3 711 802 761
3 345 495 440
3 346 496 441
3 726 851 787
3 863 934 759
3 489 591 408
3 688 906 781
3 554 789 694
3 414 576 493
3 492 636 612
3 623 752 702
3 595 735 625
3 695 789 667
3 266 360 192
3 759 870 712
3 377 444 412
3 606 607 535
3 1154 1238 1226
3 675 737 599
3 272 444 377
3 490 600 335
3 460 576 414
3 666 800 670
3 345 440 204
3 1022 1057 946
3 346 441 205
3 600 626 478
3 378 443 416
3 752 895 840
3 232 234 14
3 271 514 443
3 388 529 454
3 789 829 827
3 233 235 75
3 779 856 681
3 1007 1029 958
3 690 794 669
3 271 443 378
3 787 836 692
3 786 851 705
3 388 601 529
3 347 505 272
3 599 606 525
3 453 490 335
3 829 921 920
3 294 511 374
3 842 986 923
3 597 735 595
3 413 590 514
3 204 295 8
3 478 732 592
3 205 296 69
3 784 893 844
3 759 934 870
3 331 507 435
3 525 535 457
3 664 688 587
3 294 374 234
3 173 1394 174
3 535 607 536
3 142 614 143
3 1210 1212 1131
3 482 712 590
3 599 737 606
3 624 704 592
3 129 1410 130
3 1055 1103 1041
3 853 891 889
3 234 297 13
3 908 968 856
3 669 794 568
3 235 298 74
3 615 736 676
3 830 927 925
3 275 437 375
3 426 573 511
3 525 606 535
3 471 567 403
3 309 445 331
3 554 633 471
3 275 375 235
3 457 535 339
3 635 734 490
3 348 413 271
3 563 727 485
3 787 907 836
3 915 920 823
3 665 726 565
3 472 525 334
3 272 377 236
3 17 301 16
3 196 347 272
3 425 558 505
3 788 909 756
3 705 851 726
3 557 703 629
3 340 481 426
3 236 299 10
3 195 348 271
3 261 403 367
3 245 367 214
3 261 367 245
3 831 927 830
3 6 215 5
3 7 215 6
3 477 655 557
3 67 216 66
3 68 216 67
3 416 496 346
3 237 300 71
3 444 563 485
3 740 762 672
3 78 302 77
3 666 670 483
3 676 736 693
3 412 495 345
3 704 853 753
3 196 236 11
3 695 829 789
3 417 575 494
3 695 831 830
3 829 920 827
3 419 600 478
3 645 712 482
3 195 237 72
3 16 208 15
3 77 209 76
3 556 668 627
3 485 727 647
3 555 791 690
3 643 731 713
3 569 635 490
3 655 703 557
3 648 797 719
3 727 771 647
3 668 729 627
3 335 600 419
3 988 1067 957
3 731 785 768
3 768 870 825
3 483 670 601
3 630 735 597
3 334 525 457
3 409 669 568
3 558 654 505
3 406 506 259
3 413 514 271
3 516 664 587
3 695 830 829
3 522 660 489
3 181 1308 1256
3 353 528 405
3 8 295 7
3 15 232 14
3 481 607 573
3 69 296 68
3 76 233 75
3 535 536 339
3 821 909 788
3 768 799 713
3 796 831 695
3 718 765 727
3 825 934 933
3 891 976 972
3 696 835 832
3 725 855 795
3 459 575 417
3 947 1020 977
3 630 763 735
3 849 882 814
3 471 633 567
3 696 763 630
3 725 795 729
3 409 568 526
3 629 852 758
3 645 739 712
3 339 536 455
3 1052 1090 1051
3 556 599 525
3 555 690 669
3 802 810 761
3 820 978 924
3 14 234 13
3 588 731 643
3 478 592 419
3 398 537 422
3 75 235 74
3 453 569 490
3 635 798 788
3 379 586 448
3 340 426 294
3 689 911 820
3 384 408 349
3 274 460 414
3 419 592 522
3 387 526 483
3 877 987 973
3 147 744 148
3 273 459 417
3 446 471 403
3 756 909 894
3 604 630 597
3 261 446 403
3 349 445 213
3 9 204 8
3 70 205 69
3 13 297 12
3 550 664 516
3 317 458 453
3 515 665 508
3 74 298 73
3 403 567 515
3 687 845 780
3 10 299 9
3 335 419 385
3 628 755 724
3 356 460 274
3 71 300 70
3 403 515 367
3 387 483 456
3 355 459 273
3 554 694 633
3 703 757 629
3 785 870 768
3 11 236 10
3 827 915 824
3 694 824 786
3 565 661 596
3 726 787 661
3 891 972 889
3 335 385 262
3 729 795 697
3 72 237 71
3 458 569 453
3 627 729 697
3 12 196 11
3 353 391 319
3 625 667 595
3 509 596 430
3 870 934 825
3 317 453 335
3 273 417 353
3 472 593 556
3 309 331 180
3 689 820 791
3 73 195 72
3 757 921 852
3 922 971 901
3 392 458 317
3 634 729 668
3 464 527 411
3 304 384 349
3 725 729 634
3 426 511 294
3 593 668 556
3 354 392 321
3 263 389 183
3 224 327 206
3 225 329 207
3 404 550 516
3 182 317 262
3 853 889 753
3 447 522 384
3 688 781 587
3 436 512 266
3 213 445 309
3 763 796 735
3 246 263 183
3 920 921 757
3 482 590 413
3 686 782 550
3 789 827 694
3 449 523 409
3 456 601 388
3 835 929 832
3 333 449 409
3 448 477 332
3 758 855 730
3 483 601 456
3 313 448 332
3 494 528 417
3 304 349 213
3 243 447 384
3 419 522 447
3 567 705 665
3 855 927 795
3 244 317 182
3 673 696 630
3 384 522 489
3 1060 1073 990
3 730 855 725
3 517 659 598
3 629 758 730
3 446 521 471
3 474 622 559
3 189 380 308
3 379 448 240
3 262 385 182
3 352 452 446
3 389 452 352
3 390 537 276
3 696 832 763
3 718 727 563
3 931 933 834
3 519 668 593
3 243 384 304
3 634 668 519
3 409 526 333
3 598 659 555
3 318 454 251
3 588 785 731
3 263 520 452
3 419 447 385
3 674 728 603
3 308 379 240
3 689 791 659
3 417 528 353
3 865 890 775
3 59 321 252
3 120 319 249
3 768 825 799
3 795 927 866
3 320 455 201
3 731 768 713
3 818 978 911
3 817 906 688
3 756 894 854
3 390 454 415
3 635 788 734
3 317 335 262
3 183 389 311
3 713 799 728
3 557 594 477
3 594 730 725
3 659 791 555
3 385 447 243
3 405 604 520
3 170 1393 171
3 452 595 521
3 739 759 712
3 493 603 524
3 594 725 634
3 477 594 518
3 472 556 525
3 240 448 313
3 625 695 667
3 866 927 831
3 404 516 351
3 311 389 352
3 352 446 261
3 523 598 555
3 414 524 354
3 583 663 418
3 415 537 390
3 818 911 689
3 452 521 446
3 537 608 499
3 529 671 574
3 477 518 332
3 521 554 471
3 260 404 351
3 332 518 450
3 518 519 450
3 526 568 483
3 605 738 673
3 557 629 594
3 350 598 523
3 523 555 409
3 450 519 386
3 273 353 319
3 821 928 909
3 481 573 426
3 493 524 414
3 350 523 449
3 451 593 334
3 517 598 350
3 273 319 200
3 351 516 439
3 186 351 303
3 303 439 238
3 92 303 238
3 53 304 213
3 114 245 214
3 51 180 50
3 113 305 184
3 88 306 185
3 212 306 88
3 90 307 212
3 94 186 93
3 115 245 114
3 53 213 52
3 55 243 54
3 114 305 113
3 214 305 114
3 116 245 115
3 89 212 88
3 32 308 240
3 33 308 32
3 27 312 242
3 52 213 51
3 51 309 180
3 213 309 51
3 55 310 243
3 88 185 87
3 91 307 90
3 116 311 245
3 238 307 91
3 28 312 27
3 186 303 93
3 90 212 89
3 92 238 91
3 54 304 53
3 313 332 188
3 31 313 30
3 30 313 188
3 26 187 25
3 29 188 28
3 188 312 28
3 243 304 54
3 27 242 26
3 242 314 26
3 93 303 92
3 240 313 31
3 188 332 312
3 32 240 31
3 189 308 33
3 26 314 187
3 30 188 29
3 34 189 33
3 56 310 55
3 57 182 56
3 182 310 56
3 113 184 112
3 117 311 116
3 118 183 117
3 183 311 117
3 182 385 310
3 310 385 243
3 350 449 212
3 307 350 212
3 238 350 307
3 212 449 333
3 306 333 185
3 212 333 306
3 386 519 451
3 494 605 528
3 518 594 519
3 206 327 326
3 207 329 328
3 332 450 312
3 246 391 263
3 290 369 302
3 274 354 321
3 274 321 203
3 795 866 697
3 519 593 451
3 671 739 645
3 398 422 369
3 673 790 696
3 454 529 415
3 312 386 242
3 242 386 314
3 386 451 314
3 384 489 408
3 786 886 851
3 757 852 629
3 391 520 263
3 259 380 189
3 334 593 472
3 333 387 185
3 311 352 245
3 245 352 261
3 312 450 386
3 594 634 519
3 325 398 290
3 333 526 387
3 488 586 379
3 629 730 594
3 324 397 288
3 808 922 867
3 244 392 317
3 314 334 187
3 314 451 334
3 825 933 918
3 263 452 389
3 625 796 695
3 351 439 303
3 260 351 186
3 253 356 203
3 123 322 250
3 520 595 452
3 62 323 253
3 866 929 697
3 206 326 322
3 250 355 200
3 520 604 597
3 758 927 855
3 207 328 323
3 185 315 87
3 87 315 86
3 252 392 244
3 521 667 554
3 832 929 866
3 633 786 705
3 461 533 395
3 462 534 396
3 119 246 118
3 24 316 23
3 118 246 183
3 187 316 25
3 25 316 24
3 58 244 57
3 57 244 182
3 200 319 120
3 203 321 59
3 185 387 315
3 256 324 288
3 632 720 585
3 249 391 246
3 187 334 316
3 555 669 409
3 326 395 322
3 520 597 595
3 328 396 323
3 568 666 483
3 993 1094 974
3 85 239 84
3 86 239 85
3 239 318 84
3 405 520 391
3 266 428 360
3 576 674 493
3 387 456 315
3 713 728 674
3 315 456 239
3 493 674 603
3 334 457 316
3 23 241 22
3 120 249 119
3 241 320 22
3 59 252 58
3 200 355 273
3 203 356 274
3 241 457 339
3 423 584 463
3 86 315 239
3 274 414 354
3 239 388 318
3 241 339 320
3 206 322 123
3 207 323 62
3 388 454 318
3 257 325 290
3 321 392 252
3 735 796 625
3 339 455 320
3 23 316 241
3 119 249 246
3 58 252 244
3 239 456 388
3 591 722 623
3 595 667 521
3 83 251 82
3 84 251 83
3 84 318 251
3 529 574 415
3 675 797 737
3 1370 1404 394
3 319 391 249
3 878 1017 942
3 316 457 241
3 834 933 837
3 551 679 542
3 892 976 891
3 251 454 390
3 793 845 687
3 628 724 583
3 687 780 566
3 121 200 120
3 22 201 21
3 21 201 20
3 122 200 121
3 22 320 201
3 82 202 81
3 60 203 59
3 61 203 60
3 1373 1396 1379
3 353 405 391
3 565 726 661
3 494 738 605
3 553 702 653
3 574 671 645
3 461 609 533
3 492 1297 1258
3 179 1065 151
3 462 610 534
3 366 509 430
3 123 250 122
3 62 253 61
3 201 455 368
3 422 499 369
3 821 931 928
3 1016 1037 992
3 536 607 481
3 1385 1409 1336
3 534 576 460
3 276 537 398
3 201 324 20
3 202 325 81
3 1382 1408 1345
3 955 1053 1028
3 175 1382 132
3 1403 1422 258
3 251 390 202
3 533 575 459
3 430 596 474
3 778 846 686
3 264 402 393
3 124 206 123
3 125 206 124
3 63 207 62
3 64 207 63
3 912 915 823
3 606 737 607
3 82 251 202
3 1249 1309 1296
3 832 866 831
3 764 797 675
3 1152 1207 1170
3 898 993 974
3 955 986 842
3 1155 1191 539
3 1242 1260 1222
3 784 844 721
3 122 250 200
3 455 536 424
3 911 978 820
3 61 253 203
3 256 288 231
3 680 1064 480
3 202 390 276
3 290 398 369
3 1150 1152 1140
3 750 813 784
3 126 224 125
3 65 225 64
3 884 967 817
3 257 290 230
3 1185 1267 1210
3 138 1188 139
3 329 462 328
3 946 1057 1010
3 327 461 326
3 165 1414 166
3 1295 1369 1335
3 823 920 757
3 19 256 18
3 20 256 19
3 80 257 79
3 81 257 80
3 326 461 395
3 328 462 396
3 938 947 881
3 1391 1431 1426
3 815 905 778
3 909 924 894
3 81 325 257
3 20 324 256
3 1347 1379 1350
3 422 537 499
3 1390 1424 1391
3 424 536 481
3 1189 1246 1245
3 1112 1208 1174
3 1184 1246 1146
3 125 224 206
3 64 225 207
3 429 513 383
3 1104 1121 1090
3 1364 1390 1370
3 998 1063 1029
3 1213 1231 1151
3 875 940 922
3 957 983 822
3 1031 1147 1108
3 650 874 723
3 1351 1411 1381
3 1111 1254 1211
3 368 455 424
3 962 1025 884
3 433 530 265
3 925 927 758
3 852 925 758
3 647 771 738
3 1273 1274 1263
3 1345 1408 1384
3 1015 1060 940
3 602 678 363
3 1153 1205 1189
3 766 868 716
3 1054 1101 769
3 1317 1374 1343
3 643 713 674
3 1261 1312 1299
3 1175 1176 1097
3 968 1015 875
3 693 755 628
3 365 402 264
3 1302 1335 1309
3 1423 1433 1418
3 476 641 541
3 1142 1247 1203
3 428 544 360
3 1096 1174 1138
3 531 1156 1117
3 1364 1370 394
3 1256 1270 1224
3 1231 1253 1151
3 682 861 804
3 1314 1388 1365
3 933 934 837
3 1125 1155 539
3 428 615 544
3 582 615 428
3 1332 1349 1291
3 973 1058 1006
3 534 610 576
3 802 916 810
3 533 609 575
3 1119 1179 1153
3 810 975 878
3 420 1434 1429
3 1154 1226 1209
3 1013 1054 954
3 923 986 897
3 424 481 340
3 1258 1294 636
3 1365 1388 1297
3 620 1101 1013
3 1058 1097 1006
3 1287 1357 1336
3 987 1096 1058
3 1013 1101 1054
3 1227 1281 1144
3 1076 1091 1050
3 972 976 906
3 1425 1436 1428
3 1112 1174 1096
3 1094 1154 1136
3 1257 1366 1293
3 723 937 838
3 842 923 706
3 1305 1332 1308
3 909 928 924
3 893 970 935
3 859 926 883
3 1156 1234 1201
3 862 887 640
3 1038 1104 1052
3 971 1019 901
3 229 365 264
3 1312 1336 1299
3 1313 1318 1298
3 1070 1182 1129
3 1020 1041 997
3 961 999 975
3 1226 1274 1273
3 744 746 640
3 973 1006 887
3 532 646 407
3 1391 1426 1423
3 176 1398 172
3 1238 1274 1226
3 174 1394 178
3 1208 1254 1190
3 150 964 179
3 1101 1137 769
3 166 330 167
3 177 1410 129
3 983 1027 822
3 131 1406 175
3 1026 1062 943
3 1151 1253 1197
3 156 468 157
3 466 504 359
3 137 181 138
3 468 1365 157
3 1293 1368 1359
3 1291 1360 1320
3 330 1434 167
3 948 970 813
3 480 1001 144
3 128 1422 177
3 926 953 883
3 1089 1139 1103
3 1138 1175 1097
3 742 858 644
3 171 1393 176
3 1404 1418 164
3 420 1417 169
3 545 898 816
3 1150 1207 1152
3 166 1414 330
3 676 693 628
3 1345 1386 1333
3 181 1188 138
3 987 1058 973
3 1261 1299 1283
3 1258 1317 1294
3 1034 1112 1096
3 737 797 648
3 131 175 132
3 171 176 172
3 368 424 397
3 826 1024 747
3 1018 1042 993
3 162 394 163
3 174 1427 4
3 1399 1424 1390
3 150 179 151
3 1176 1210 1131
3 1004 1024 826
3 128 177 129
3 896 977 930
3 1023 1066 999
3 143 480 144
3 1328 1361 1258
3 137 1308 181
3 620 1137 1101
3 683 919 803
3 1249 1296 1282
3 1070 1214 1042
3 1297 1328 1258
3 181 1256 1224
3 1258 1361 1317
3 211 1333 135
3 541 551 542
3 1068 1120 988
3 1243 1281 1227
3 1388 1412 1328
3 1164 1284 1229
3 1256 1291 1270
3 1244 1286 1232
3 211 1345 1333
3 465 613 358
3 175 1406 1405
3 772 932 826
3 903 958 849
3 1270 1311 1234
3 175 1405 1382
3 1154 1209 1136
3 1361 1389 1317
3 1362 1408 1405
3 769 1137 803
3 816 877 862
3 4 258 127
3 1216 1244 1165
3 157 1338 158
3 932 1004 826
3 1297 1388 1328
3 146 545 147
3 974 1094 1061
3 168 420 169
3 637 681 677
3 163 1404 164
3 1185 1210 1176
3 145 981 146
3 1117 1201 1157
3 746 862 640
3 1136 1209 1150
3 1414 1425 330
3 1156 1201 1117
3 545 816 746
3 898 974 816
3 1226 1273 1236
3 1383 1419 1400
3 980 992 953
3 1349 1407 1356
3 177 1422 1403
3 770 937 874
3 480 1064 1001
3 134 211 135
3 1343 1390 1364
3 1291 1320 1270
3 1201 1251 1157
3 1363 1381 1361
3 1424 1431 1391
3 921 925 852
3 1234 1278 1201
3 148 640 149
3 1323 1364 394
3 1335 1369 1322
3 154 539 155
3 394 1404 163
3 1420 1424 1372
3 1031 1108 1100
3 1105 1134 1043
3 157 1365 1338
3 1358 1386 1345
3 158 492 159
3 1296 1412 1282
3 1343 1399 1390
3 136 1305 137
3 1129 1214 1070
3 1002 1135 1080
3 181 1224 1188
3 1305 1308 137
3 1175 1185 1176
3 1251 1285 1182
3 1081 1121 1104
3 613 652 501
3 716 868 736
3 140 1218 141
3 974 1021 877
3 1390 1391 1370
3 1021 1034 987
3 152 1044 153
3 1058 1138 1097
3 1080 1135 1131
3 1226 1236 1209
3 964 1002 179
3 1173 1212 1186
3 1425 1435 330
3 615 676 552
3 807 869 698
3 178 1427 174
3 877 1021 987
3 1270 1320 1311
3 955 1028 986
3 1278 1315 1251
3 141 531 142
3 1140 1152 1112
3 1234 1311 1278
3 1267 1280 1230
3 981 1018 898
3 1317 1389 1374
3 1034 1140 1112
3 803 1137 710
3 143 614 480
3 1061 1102 1021
3 148 744 640
3 1310 1335 1302
3 1173 1186 1155
3 154 1099 539
3 1094 1136 1061
3 816 974 877
3 1174 1217 1138
3 1157 1251 1182
3 146 981 545
3 1374 1399 1343
3 1314 1365 468
3 816 862 746
3 1096 1138 1058
3 1209 1248 1150
3 544 615 406
3 974 1061 1021
3 330 1435 1434
3 1285 1300 1233
3 1102 1140 1034
3 158 1338 492
3 1311 1341 1278
3 1201 1278 1251
3 835 871 860
3 1138 1217 1175
3 1236 1248 1209
3 1224 1250 1188
3 1218 1250 1156
3 1216 1286 1244
3 1021 1102 1034
3 152 1065 1044
3 1328 1363 1361
3 1381 1389 1361
3 1282 1412 1388
3 1278 1341 1315
3 1125 1173 1155
3 1404 1423 1418
3 1182 1285 1233
3 141 1218 531
3 918 931 821
3 1061 1136 1102
3 918 933 931
3 1251 1315 1285
3 1420 1431 1424
3 837 934 863
3 860 929 835
3 614 680 480
3 1374 1389 1387
3 178 1430 1427
3 874 937 723
3 1340 1369 1295
3 145 1001 981
3 640 964 149
3 155 539 468
3 289 360 344
3 360 544 344
3 539 1191 468
3 559 639 570
3 1294 1323 612
3 708 747 616
3 620 682 641
3 700 802 711
3 748 802 700
3 774 865 741
3 747 873 806
3 844 893 751
3 901 938 766
3 939 941 876
3 902 979 907
3 956 991 904
3 939 1092 941
3 941 1031 1003
3 964 1006 1002
3 1083 1114 1057
3 1079 1158 1116
3 1114 1164 1118
3 1208 1217 1174
3 1231 1283 1228
3 1299 1342 1316
3 1305 1386 1332
3 1320 1341 1311
3 1322 1381 1363
3 1341 1368 1334
3 1414 1433 1425
POINT_DATA 1437
SCALARS UX float 1
LOOKUP_TABLE default
14415063390731657216.000000
985557159723376640.000000
-15127087895801782272.000000
51885778954767941632.000000
1574946894166870428992018201968640.000000
-457910678177094656.000000
1514864992469273600.000000
8272048431860296704.000000
-10006760015587909632.000000
7644736841667368960.000000
-41750235104686686208.000000
174542793398472081408.000000
-160556943887370321920.000000
19893956092361220096.000000
2518622510230945792.000000
-6438439205068171264.000000
4700660309854507008.000000
-13676187541458841600.000000
183538988860232969453608886075392.000000
424577434056466117913365333409792.000000
383808947956715952516352931004416.000000
479224359444210695240568442716160.000000
473991309503334199237457666375680.000000
302074638881026974457178364051456.000000
313192659831628928903913226108928.000000
348474073950729482891388111552512.000000
216008016404473895833030411419648.000000
-190082295035405183634420860452864.000000
-1458696780618922065429247909953536.000000
1543374039849674478258643340886016.000000
469292469640636837695952231858176.000000
102675680314971676275243168563200.000000
741214142074883587738850182561792.000000
202256165425286546159195954085888.000000
604912981293604277978966981083136.000000
2566787231997180139583461941837824.000000
816634912892027776094171608121344.000000
1279354299555128891034435156180992.000000
896985991330024498619711758532608.000000
869237281035540466849998838956032.000000
363270217200456084016522449649664.000000
1977356654532394560274298545635328.000000
2186143141037695284797140849655808.000000
2017979163754336774896829677436928.000000
1809492415575233955476126335762432.000000
1455369723868450865768663015751680.000000
1570511215348159165825795047292928.000000
1390019084896951081211768944459776.000000
1196810045463867494458986527195136.000000
999659516741327312729583883649024.000000
764083990197114752049393319280640.000000
517185095098108247473887465439232.000000
280516829836810040005633371013120.000000
-65625752490208554358465267499008.000000
-1067680395656825918585025178107904.000000
-497801435860817976100029663805440.000000
262082343410034693072321412857856.000000
802007510598187053343498550902784.000000
358654859698978832116585068494848.000000
-255323992076508455139279502311424.000000
21801560514633077770539493228544.000000
22910178183953665931207138869248.000000
180734080688475460206405504466944.000000
-70207387175107469867628477022208.000000
-48565720179253553644151133700096.000000
1600959505808395137363406586118144.000000
9428261289951598592.000000
-7453602712364237824.000000
12689737293482780672.000000
36544712393074352128.000000
7460878349735628800.000000
-20854741671223881728.000000
59793859831220985856.000000
-257436946316224593920.000000
195731779251606323200.000000
-37137379116007153664.000000
1111313184372545024.000000
-1459472311583967232.000000
-10699333568613111808.000000
508462057499927635437565524312064.000000
131867638832533401967729747951616.000000
383255303653346897505041483038720.000000
161000756460093881178436128473088.000000
96073757829537519958502074744832.000000
63160025024871036418338251079680.000000
622169598006465020449365753331712.000000
-384658356793102565329418932191232.000000
-259520968160284495574940516352000.000000
-609942544935803194755892375453696.000000
-252670724840330787260350882381824.000000
188264855043879899339406547353600.000000
244803174179793135460174719352832.000000
411317699006139626117421529563136.000000
-561969340293593110890039276994560.000000
1143274484218123653947556697735168.000000
1377566073599800790317047666966528.000000
-1373876785761760622291723208359936.000000
-88176483324951523197605078106112.000000
1424961093085413163624362502258688.000000
1811170013839183954835073451163648.000000
902975667261602724398207109955584.000000
-334130274499286724883510894526464.000000
503739701296430536882371375923200.000000
702938919039483959795945375268864.000000
690765681794578344220980768931840.000000
902791054237310095460243311951872.000000
1905774502733269315664725739044864.000000
1104981353913608550379646896570368.000000
1000993889250146953546859810914304.000000
1268608163660780745304242567249920.000000
2088298201648671412244487044333568.000000
925035236825527635226017740619776.000000
1322580736521657293899880432926720.000000
2424688300570663728560532076101632.000000
-511650507616899159850448496623616.000000
821856811835068085193658542850048.000000
170349131469442635434295262445568.000000
-268767407046104547037773624770560.000000
-376057300078604422170412627001344.000000
-1332227583050662668587488497369088.000000
-1991607539733320105041072410853376.000000
-1228778558452077145403680788316160.000000
-581493978786824975757713917083648.000000
-149255174835240447382107969290240.000000
-714181927603200721323270325927936.000000
67899241212725223815988008452096.000000
-20224810328697531626931309510656.000000
1854042510443918517017293378027520.000000
1404530897819806845404488965029888.000000
1234334126721190775460044688326656.000000
1711229216280102026850497795719168.000000
1558005016653736496304266384769024.000000
1481127492352894836879491065708544.000000
185140977797319745397010596888576.000000
239477905803190783854777005506560.000000
450281394122040295061954590932992.000000
636118411557510065230759520632832.000000
2068748600322235041322941647159296.000000
2191839586146539893016184221597696.000000
2929832735560223279081686495657984.000000
2742022308470677239235538715672576.000000
-1361589924346919789171662192115712.000000
-784857458068849801468351013191680.000000
-1642923580430898700473548459212800.000000
-1092265567021156640052888440143872.000000
-904498475635430870107144830582784.000000
-1336565499510933486348020159086592.000000
-98208483809182220690102891315200.000000
739145408722022119956800163807232.000000
1711196355824886303391045749047296.000000
194874337755998143658668977029120.000000
171466535667154434516480075759616.000000
348250567552284521878594701492224.000000
439666044703819199980146155061248.000000
591622885421970247046646053470208.000000
909185494420871406558488882577408.000000
-124324308257219574253177681215488.000000
-162517368897726880415646960582656.000000
-527501270151319300042844100624384.000000
501907337367548581264215232217088.000000
314139558976203649781479508017152.000000
231233983707189306783137945092096.000000
-324693274422501073859200002555904.000000
-316461666876005445874360323670016.000000
468813758616182555911854130987008.000000
427717624264614647134645202714624.000000
409336541471897077018693132615680.000000
182297297369982530868143582085120.000000
371778030428951843365414481428480.000000
705134064567763483582703347957760.000000
427592172002792366012495764127744.000000
309317060637115031112968946319360.000000
2394017539289519433911747383132160.000000
1639812789140158049720569109151744.000000
1541039544567055933855728037527552.000000
1131860704094389271093783163830272.000000
667552829092566128239908940152832.000000
1129612618068162927658421631057920.000000
1736112952323583475729405489184768.000000
31752560600162385990664492941312.000000
794767404963311118173738173988864.000000
4021518834842377902227205885263872.000000
-39151717099536045999357064904704.000000
-360201895836029706536796098134016.000000
1402385288240669943863878354993152.000000
-478812272172266188218059999674368.000000
594288364253777484431893221867520.000000
250589052200726342582278383730688.000000
-228058201846777448490596537729024.000000
201387929398959878509840432103424.000000
453280395476611405711566320959488.000000
1120819998009052753716841352790016.000000
1214444371277952021930796348604416.000000
885822047381943822332156633415680.000000
1642576573882665679333462376448000.000000
82165818778537960667742501601280.000000
26763537271860905516245639495680.000000
865784573781854042240064054886400.000000
2200425376641208410102847458246656.000000
961549353240004733393007074607104.000000
-898528066829371124866364358000640.000000
455898439529974176394768319250432.000000
264462944338928014022908875636736.000000
107032540894067593235135270486016.000000
-159543320183698198918147698851840.000000
364535310687437487612748208537600.000000
-169414961631819093575427128557568.000000
-29158979392842345990193328160768.000000
80737067822688213315255588093952.000000
269849480115055939045411151413248.000000
1250630737928824086906130296471552.000000
443567074007364075857719989370880.000000
-194165407615048366629290959175680.000000
369802402401800171524944799203328.000000
432072618413670167824523539251200.000000
-114380216105143158881923299803136.000000
818511415429864833385598866685952.000000
89475086375761204306661456478208.000000
1933893090524315991827830687137792.000000
1717859449140768503681393230872576.000000
1448976696220340987484716526469120.000000
373693302585349290843261835935744.000000
1159517842748791126554490525712384.000000
1844575917913314199659912387100672.000000
12737507173083089548730330775552.000000
-660824410569068956420016806297600.000000
1065993026313754098072079011151872.000000
1179962446873639506581402196901888.000000
318202898757475323858898464538624.000000
1337280021277584248982810579173376.000000
416867929732042926210431806603264.000000
225284056533901461049743379529728.000000
6917161130558956934464498827264.000000
125523875160581310790797610713088.000000
190532953157352550920842379264.000000
132688579467640338457152947486720.000000
-178002486828842905664040260861952.000000
-214798114130561963629946744078336.000000
343215510132702579464527260155904.000000
198846173056234234947451282784256.000000
66588998621149899690539969675264.000000
323899698199621038690750942937088.000000
-599556842601406254471614165942272.000000
-91763998869892573882578670452736.000000
1183734608820900914021942169698304.000000
872365536096790674617574468091904.000000
-736218968795241321237194318282752.000000
549891627192040842360248443338752.000000
1457198033954597935253075605323776.000000
-1238571811404341846288562349146112.000000
-496609609640981445270147667329024.000000
331625881467201918906544582295552.000000
403414936954909299068951234347008.000000
599544972310272228043910725763072.000000
-32163888069476322631112414199808.000000
639057381128024145968187184250880.000000
356463771626922359469419276533760.000000
134445206717670430596151237410816.000000
1669871411612702571158240210452480.000000
-353261776808882329345616242540544.000000
583524618173758147939897821888512.000000
227601675024863945036355474554880.000000
298899794945033781121467511996416.000000
-765940918006782595358947687792640.000000
1336634316161575906118951556349952.000000
147057447743646446594547465060352.000000
728651971938913396241917389307904.000000
1452159389045768177295927669686272.000000
1399582334334549226416856046239744.000000
1329846537347509214884995264413696.000000
2073798190665308610630010483507200.000000
2075870413087900971315284727037952.000000
186294753668010992625418279845888.000000
-860127592636131683992791299391488.000000
84207533684105662687498068819968.000000
366101093821182280526585701335040.000000
339240243754416232356949956493312.000000
192727338753149406546650575405056.000000
740459687506762698370331069906944.000000
637396312087510812292963490594816.000000
2027668269627885072065177950617600.000000
1552397191741320563937102109081600.000000
731093783576013840201530428358656.000000
828017570398079908924637359112192.000000
1052685976379077287857059608395776.000000
1789124660456473812852962546941952.000000
1956692888869876799566882552152064.000000
1463597533438195702040509120774144.000000
345754459410989461085597925900288.000000
1475142745709508024453676738281472.000000
411791468906603498724038591643648.000000
1580277208664425326600895976177664.000000
992598916330535093855661968064512.000000
874960141987242362059576613797888.000000
204601980405629719462377903095808.000000
-166430584772785860908936832483328.000000
538793974190066502434774342172672.000000
12423251762970908183083513544704.000000
364649613539874371343066167508992.000000
-162201399823466112908222001053696.000000
385372787895967108988317292560384.000000
99703177113008986496020181417984.000000
248751770893686027073287761166336.000000
-294258940038019189068003916382208.000000
57509108897188898902701456228352.000000
1337298959208286720911332987633664.000000
-595518114242517633052206115586048.000000
361262325630755297976311414259712.000000
435765836264748601868230605144064.000000
635378931167386693948919345315840.000000
-390754706287405421041883665137664.000000
-272173260538138710088719483797504.000000
-597679351721546250508239506505728.000000
84875288931567391097525259730944.000000
-311957398916696139183728061579264.000000
-213893747917003714141998901362688.000000
311446912490475144084052972142592.000000
899179566418312302122016475971584.000000
117019742241514406549570656927744.000000
-1976704725939602448825232761290752.000000
416971740018524304676640696303616.000000
-221607315532744218506660595892224.000000
-165739798876246112442374879707136.000000
251134189161708016534138027769856.000000
342077102651506407552438522347520.000000
299357707382940070700003178315776.000000
-164924566916134580465918680236032.000000
-158220241415398192329109775843328.000000
125833102190543017565619157467136.000000
265519175246293569017976998330368.000000
144016998149658596590735870394368.000000
848304475996777048068112456351744.000000
-535038482489359933588840715911168.000000
-675169665691441675233496475369472.000000
115750464798971598227139232530432.000000
-102659537613595355075247511437312.000000
716314386756496464191174429638656.000000
2395936105065608001191221575811072.000000
733297111102026321263549799727104.000000
425481606600229424537598066425856.000000
345120341682613853956496076832768.000000
2587014909229473869496825178750976.000000
2153164150352650864139661802995712.000000
845385567137225793584715029020672.000000
1532232169264778783705565163945984.000000
-361530476871628035901034632052736.000000
1340276106717196981777080290115584.000000
186965273200144151060984251809792.000000
650402676292236750628650332717056.000000
329624861179461670169279333400576.000000
768881529981663686629718373695488.000000
-1471374008501864212082601666543616.000000
131322279464906609691399857111040.000000
-614606204118382570771160254906368.000000
-57032963820540204945204716765184.000000
-523555493626536805531649207959552.000000
715330249581766533343925535506432.000000
1254740841165050236437016703139840.000000
512886494166551290758345550462976.000000
1007992288893185111878780953034752.000000
1367078970375808780195103338659840.000000
1608385158532232906226663616937984.000000
929952791824012766921326644428800.000000
1522596638131535518619398616121344.000000
1671435578873653547983325383098368.000000
846811214959004372498310336872448.000000
885654951847573118150279954432000.000000
415051958305207723425723985166336.000000
391957656378913060215551885836288.000000
439397069188832791089393019387904.000000
969967612628238200693594427228160.000000
833369529245046523375555738337280.000000
1705012891333097231350975380324352.000000
993844015215330999771495028228096.000000
45417862593646541190376229699584.000000
326537720589153705281711207612416.000000
2080601369531178634449953826537472.000000
-198095455617837349311096373116928.000000
1802824608360361949084247648108544.000000
-144488401941916357258550626484224.000000
529731609734556630403030781526016.000000
-123538347514202978786691518562304.000000
514039517596795176478122646175744.000000
510202197291121355293517487800320.000000
-110469815506088686841155561717760.000000
-39544170644906417546704176807936.000000
-517916617347287511550706122227712.000000
-768937884556866199785966296629248.000000
-682931342849606949204536254791680.000000
-482494088780396959848307416367104.000000
217280748175951248485064745418752.000000
-1354050789666316173221714083184640.000000
714347258429742544466413621346304.000000
1412468829156831135316193734295552.000000
162601611503062918901813185871872.000000
-135244453039461741181079830659072.000000
556912606750653336698820885479424.000000
314411580642000326572871897841664.000000
233552313060175884047747397976064.000000
1465161037047335342341078495789056.000000
719573561423422220218900578041856.000000
2439312693014707174568083347996672.000000
1312152254103173630738709956526080.000000
-416877739444336865625436921528320.000000
-769144785378563962197076787331072.000000
-1021578154609882685239400901640192.000000
863762272738548940258975720407040.000000
1114269803593326654417388812894208.000000
612978982656810204874539888803840.000000
-328072471332879860013879292592128.000000
936687175974976254508213448212480.000000
1402192043174182481446794881400832.000000
317142159719909235648334663778304.000000
649695283583376617296189288611840.000000
-14027645119899126597966700216320.000000
128791520679215042559127567990784.000000
933094690756444762074257387683840.000000
-965198921476901726935253684060160.000000
484432140315098130310976101154816.000000
-7106125218299399403115624005632.000000
241574315047416992632777832660992.000000
1242258818127537458589616880746496.000000
490628019739797834119291980480512.000000
580014929454148983050082594062336.000000
401935004492442613148642216771584.000000
-21414967922772963263745292763136.000000
45868346123821724509901638598656.000000
1567562239296921997162990924726272.000000
1150986906782679483760051312656384.000000
797987128687378984969789992075264.000000
858688554401532456445407435685888.000000
1537833724453971609467870892785664.000000
2144725213237110425421471287345152.000000
631601528740755509107647833964544.000000
910009929118218161688295575126016.000000
735411851519381488811212021956608.000000
723737629252537468113328111878144.000000
470964943162554540457526200107008.000000
433214149824315642037402020610048.000000
542959146008969904671750778519552.000000
-379700607142220752613590893068288.000000
1016852624297222006876392958984192.000000
1464493271712789026776972345212928.000000
647864700710041575431711513116672.000000
15153149841498350396818998689792.000000
894733219813423861852231922876416.000000
145763711154745807735283989348352.000000
798865334415386391115330956034048.000000
121751135752468110569772423315456.000000
110650723464388373667551503187968.000000
-549632954244593295177086704549888.000000
-260855652664713556354942948605952.000000
-473965065162495746963857786011648.000000
624210023800878246804301702758400.000000
180777305841561041966811993604096.000000
422539235186033426683693136609280.000000
-1174119900191721537521999413248.000000
755486704018609494969070196359168.000000
753097004157228432940214106718208.000000
-577100760657489377550071108730880.000000
739305642473729136277985502953472.000000
205773637431244359343331866574848.000000
729443133621995731687420192620544.000000
295109636743806423210664132608000.000000
1525084530083642934177979873361920.000000
-521306372208981455827778895085568.000000
1543370437618516868937048418942976.000000
3417075748230242959608166700023808.000000
-376219643125612633182230479372288.000000
1406877055687631431308647891730432.000000
2120666827092060651575865243598848.000000
-258780016054479645192991100895232.000000
464337144987483845272369650204672.000000
479792282147171608981976238784512.000000
1055111140705194211063586386608128.000000
2398064608535472477839383601348608.000000
696343572943322080656581629837312.000000
-461363415068434145136036823433216.000000
-248363002366522246318788924407808.000000
791964509106304218879902382817280.000000
-220744639365495995097651936755712.000000
284924456412223434980078886322176.000000
668527862752436950131996241166336.000000
-1081560630151311524409714526912512.000000
881779786426074910244688099278848.000000
283912187793583678097869099761664.000000
2128270150459006221845535806980096.000000
796524000924872164439473313021952.000000
-63554024946388884864738980265984.000000
-215132878992926914509211281915904.000000
-113019129153705311930711659249664.000000
1538737201710653673452756516470784.000000
446720895012643937691340061540352.000000
583024939694968590130406945193984.000000
-731990324216853875378663683260416.000000
349768245717148389418939656962048.000000
732376914482394540807192162861056.000000
1525952448031611968027052797329408.000000
1450761765329775753063068168355840.000000
452883290212084098406647649533952.000000
3325402878551163248916884831076352.000000
1457106379245138278560781438025728.000000
1168022757337209225348401023942656.000000
1037093954763781597764461365559296.000000
2795076835562945337783984813244416.000000
-227147368846091572971960614780928.000000
589854666386084330934700647383040.000000
748330737638231347799375956934656.000000
-346229087978040762705006588592128.000000
307530842914993016907294518018048.000000
1305913251231754773774696315879424.000000
-85576067447746122162304995819520.000000
724752414931200460870588383100928.000000
950418259590990403454871380426752.000000
947489841749942566895524639670272.000000
467181528034780381373131032363008.000000
-675760909490206904292749892124672.000000
290845089113338772094049344028672.000000
-464513827641100030486262709223424.000000
-516604476674070463697280867237888.000000
-1024982883508544609819188889911296.000000
304218191346913778256889205751808.000000
392946795773946641358257572020224.000000
174136820450927153323499503747072.000000
269221708329089352603848069349376.000000
876121416462873937203645953081344.000000
-666160790483352491576103020789760.000000
1658900308688674089425561997803520.000000
-612059581891660705868656995729408.000000
-382101494818808469791179070767104.000000
189850820111792923961485330219008.000000
-2543747769345651261512247725260800.000000
1324554818637864721475008439779328.000000
-297043298027166764512452276125696.000000
643039727002093436059397289672704.000000
444902223123488659847264314851328.000000
328710032081868600791292947988480.000000
331111681435838432710903336009728.000000
1768064182354163313147552081117184.000000
378227710060575570702790748536832.000000
324098264061678449285966587756544.000000
882358536946875738391310808121344.000000
977917134891043429784361367502848.000000
1142113429692597835659735747002368.000000
651239646750706617889974753689600.000000
-1331663826709423717632289091354624.000000
1225706073050259126850592903790592.000000
1137941968996169670013526076293120.000000
1295820611028604275999703337795584.000000
1413653032987234860784445592436736.000000
-678133108928173130442790670434304.000000
568092895298758180802944623968256.000000
554005293798147755898793451585536.000000
735730941366794524351814323666944.000000
-259007342859310640268036758568960.000000
53681816294106895986980714184704.000000
530133137005801711877960348205056.000000
-190769839458039078774536988000256.000000
9225499988416190820740428201984.000000
785353396549150567429940564721664.000000
1320431506361594684075495156350976.000000
651324816367669664818201830096896.000000
1267121523242909482512353593393152.000000
395842649713758826310219864211456.000000
2160160826421215680891751789232128.000000
-277586415927415748270611872350208.000000
-98530060192611163540646422118400.000000
475202854236823382295368588853248.000000
-596435810932444733602200614338560.000000
799821957137063005388848318382080.000000
1205574520084537972796599279026176.000000
121799666328165071429406442913792.000000
494144748885739788367140451516416.000000
266524753658749691958681065750528.000000
363304463127025042412599225876480.000000
-799173616830766379876695001792512.000000
743015893187283237908479347785728.000000
3783212418685989287001624101781504.000000
2575162181496602397597018104004608.000000
923603046272229348819310473117696.000000
1347060398502581136824314095468544.000000
916738786411094598066164318863360.000000
748337933541024426097403267907584.000000
679610734449834670710790379536384.000000
793126777452790357273539975839744.000000
786619718823885909567526309724160.000000
-54231035856828018043476890353664.000000
109060972242558320334027335139328.000000
702273875928450150115672040931328.000000
584719080301984011672526799241216.000000
532650596862849563468104091041792.000000
575376627129518742842331984035840.000000
373586251465237953382742082191360.000000
-123360335641973823220374522822656.000000
-504014213224398468371429151735808.000000
-179833536642893228613301098774528.000000
644779384633313631015239614988288.000000
-495504613444706196342545447911424.000000
848453445546353089567823396601856.000000
152522727015125259772352106856448.000000
-109904725158456578940241119805440.000000
-697620938545970514417573563465728.000000
1449729546859304993061932462243840.000000
11499755300355528170627649241088.000000
-1018090723355287221596852758511616.000000
108380104779628555645245477355520.000000
24486254675290316028668064825344.000000
276506765518558536995977140633600.000000
766807988854053823440430649311232.000000
369972528385879533068033082785792.000000
845888195262388093173409129693184.000000
1686104453845003283629777082122240.000000
363453825874348705285595966996480.000000
1363743752709757632923695566553088.000000
-1055276762231146334192872244379648.000000
742465064965765859131196402827264.000000
1358582122645903171546272235520000.000000
1126937022036773568144071089717248.000000
1678930813096460501141599280955392.000000
2572518984848381212510391126458368.000000
1173998434052423398944954589904896.000000
658729006792149730302408777531392.000000
1026563259656847455243297991163904.000000
833206693251236362568214027173888.000000
247109343850431170207933670621184.000000
-67598011777281256254868427898880.000000
-16432905314947897139086950924288.000000
-422047791755131014660824542216192.000000
1149576396818457835200064203522048.000000
-154666520612778260176268175605760.000000
-198375894704889935666519176380416.000000
1499806933778238890113146613137408.000000
1187354244104942403444551471595520.000000
389745900651063746183567289352192.000000
-485527943153688722977734118080512.000000
440786292719080239663253077098496.000000
251212902252844588023812890558464.000000
2075121306164836033231664753672192.000000
1447299277114257532243024145285120.000000
873721070407789379738745255755776.000000
751152393446154588469668937203712.000000
866586870213643443806562565488640.000000
970805233316416791329984445677568.000000
520941048803960289842681123700736.000000
1117099440682019848251727962701824.000000
345729026800876755804998378455040.000000
1208572081211932908767490674262016.000000
-849501038851090724151268372119552.000000
-188929942350702187254944595181568.000000
1334304162000921056570207841026048.000000
449051116205301213172934243254272.000000
740217704625707474623469040173056.000000
1403347978771020976935722807197696.000000
555361685743536309382766607204352.000000
341537195253494822666670604025856.000000
164196586592293468754970218070016.000000
1485577255870367233699207593328640.000000
498434335163927383477291545788416.000000
1532071779347019222637504840597504.000000
229982623601706046650683752448000.000000
38231620153650490867457875509248.000000
759589537907489002263539034882048.000000
573754114350835749573327857909760.000000
687089420195262060345319418232832.000000
-451040925351451993953435402633216.000000
-239333986712924405052468763820032.000000
-334296122655856245765833509306368.000000
321654530334923378966270847221760.000000
-669951351987467781553933896384512.000000
148210619160036877484056687673344.000000
-23319948833954754539578655244288.000000
280643454742162029546285052198912.000000
2607429881615376187525482214850560.000000
-34454323272609985487256227414016.000000
616869046258820336936563721109504.000000
-55563084522426193446240587350016.000000
920403170792278667382922225385472.000000
1527112694760627474526628715954176.000000
1197789233989198467859049586098176.000000
1175819901625460956157014364389376.000000
-999505750878053743774234384007168.000000
1519996032762846015973394269339648.000000
897755563368813433883788887195648.000000
1441466155007056749165412746264576.000000
2717806787553986406205971253690368.000000
687811604041792306726656687472640.000000
678683365615609873272344057741312.000000
678562480107024322957126215401472.000000
-143724426160797792072220572385280.000000
265293325470306389945217647116288.000000
144937923678197570020087819141120.000000
-441704681157846776593634419539968.000000
186750392396227238363252400324608.000000
680675102896087360840917416148992.000000
-231818733990167296560515990421504.000000
-153974154289916554990721649606656.000000
-154408855785161715315477764374528.000000
-497507119657759151496960428474368.000000
1574089561086605834679703660658688.000000
1288193994529996325301508789764096.000000
1306093678052738018842756155179008.000000
1408804865145318283701682509447168.000000
339422393827525838207149733314560.000000
690211344658188050342887045464064.000000
-140050075623267941916947511246848.000000
282809186424552502718413141966848.000000
2602146653069418276351824571138048.000000
999907111051103629166227753009152.000000
1318592897626508226596316918054912.000000
208927104157785232856052922318848.000000
1424769357256557091285732025171968.000000
1197764060381864935786011451981824.000000
474566362305811282418037168275456.000000
399475175481967631496867559243776.000000
582517601409448153875610280656896.000000
831613119410082869348499567149056.000000
1192725131765998399028741646843904.000000
1059374164611301694854261771337728.000000
-1099832244409550093277985876475904.000000
-908634137463186014878307962585088.000000
906621052109348220099682220638208.000000
1942412452751934561719033205358592.000000
807416336275917834444247295590400.000000
682587735004928643101817122586624.000000
661099008537260123462683227848704.000000
-392267900268176996975253047476224.000000
281978172878516002536342834642944.000000
-954205580889476905856541480976384.000000
103445841628604736561696961724416.000000
-643366774728237389614237664411648.000000
-528746098611091854126236729081856.000000
578602117566902181178408018378752.000000
136267835600767608765432998133760.000000
2466115818052458230142352836526080.000000
-79784819023818090590007732469760.000000
-602651256907754909926633519448064.000000
654046821377794910396656262316032.000000
-288608121877086729367953204051968.000000
-736570700405035456333120291209216.000000
268763284953110821619767216963584.000000
2178061782818446495327134014242816.000000
306147591030302674692564410433536.000000
899085098714763629457065738502144.000000
1066979947578662021397905884053504.000000
718228493311086836087776427900928.000000
1401500422818109638004384934658048.000000
296269011262955513958176357613568.000000
1576292094890906286285846382379008.000000
901826255722804157869035863670784.000000
1398472193702428820739663115321344.000000
2792153589285531842646087259127808.000000
184615833685569291621630916689920.000000
372419121158270476139113381625856.000000
908652953933241059206660320395264.000000
131918420918276737486018549121024.000000
712241706378811036884782188331008.000000
173480521351331547814408866496512.000000
1017225557855226815599464295694336.000000
-523769908095631834308753529765888.000000
185287975959627162233110425239552.000000
909137407494676712416043753013248.000000
1034752807412093369381083288698880.000000
2327562664498910857610399187992576.000000
-657372858169397447317238124118016.000000
-210275735731952095162799470149632.000000
-343226208030311836881027019571200.000000
1067334292662427099983879526678528.000000
1204953173929157753094817110294528.000000
353726888012863226690803196755968.000000
842447385351052517070661950111744.000000
123052926115957453266023497072640.000000
-243757521331429667110023679967232.000000
1218501044702592028384331730780160.000000
760734913454928019331948526698496.000000
910931646514725065999398626918400.000000
521951824407898212697627753971712.000000
2690901075617953310383203722199040.000000
2780079653924423009849668284710912.000000
729859798037552222178157006946304.000000
1472945244736568827063927985668096.000000
129338320596397254099599494217728.000000
124271883583714508866892974784512.000000
153111013959335766948053562425344.000000
490720369665196054684504892112896.000000
1436176753975462779672869124177920.000000
784707302702816562555045413912576.000000
490003505098140339014797105299456.000000
341595857168183098056245709373440.000000
-61429971291142735001779420790784.000000
-164918189026454738246620095184896.000000
-130347105908369410843790121369600.000000
573427953029149361887213235732480.000000
1140474044580884490688483127459840.000000
503595774375559597401589631942656.000000
-640029754680625190129073272127488.000000
-902017309695981569977086524784640.000000
-631318854290566405284258176303104.000000
-479995269267165313304860267905024.000000
-31349134567948514719531186257920.000000
308413836284170623622202567688192.000000
-89708001080828275451068275490816.000000
1379264430724844614786773109702656.000000
1198886818345965255610967598825472.000000
1454314869213964443666186871242752.000000
989661113609961381978867918438400.000000
1985995140566393359741177059868672.000000
1300418248242973266625988655054848.000000
2027238762301205841995844953309184.000000
988920108708234216987918052884480.000000
1609152482511844395886710504816640.000000
778342836039707392483240871723008.000000
2318866812304603733309424763142144.000000
857510155152314980297910968647680.000000
1290523317923732580806910747344896.000000
857998718248133331463036454567936.000000
633987883519484287031376531685376.000000
388608974256766411715186849218560.000000
247459266291039431001499005616128.000000
132859434516715242932027558723584.000000
248359459483451947874431814074368.000000
496428988231180847093827898441728.000000
-809080811702301499768793689227264.000000
1753041979210036434138711927554048.000000
53526664435563296011276565610496.000000
501505530642351565445745875091456.000000
3351379230360181536552619343872.000000
1319407954402065406831793490886656.000000
-193083091804736308831091744047104.000000
542638992047882160505779073843200.000000
-152785926913524123154307258253312.000000
-153487515515884235347898283327488.000000
-542717590575748020740575455084544.000000
-831461000963929853737405230612480.000000
520906564407738182802177890713600.000000
-662365368335750347251668786085888.000000
-232749141188862745209830176194560.000000
280388522808784733963837878829056.000000
-352603668430599211301571139731456.000000
1153757813527696212511885264683008.000000
822841098847364117829898574233600.000000
662193999097108952079489476591616.000000
1316377238783158436380894021287936.000000
2691484298366313998752731239546880.000000
292719857934084193790445995687936.000000
2091188551722601601920654861402112.000000
858442351729836319120913084710912.000000
495996382333257662253186831876096.000000
2454941381184539998511020755648512.000000
757603359575516733937278997495808.000000
713162787817359351402918783746048.000000
781883878701041692122434590736384.000000
667798004214500338072125198827520.000000
-310561227453375545790816856309760.000000
-232280678892396069040968825831424.000000
165637995219973643733022814502912.000000
-543506504210572158094585427394560.000000
1837947814096200857621957357600768.000000
1078700916022473145168342552674304.000000
1085932999311482449510590983438336.000000
1114835311769520907856857316458496.000000
-11608508862267384179368138899456.000000
1053074062802194473395033714196480.000000
670141390099967596213732357701632.000000
-373575103961458936937931664785408.000000
1882801093710601935733274942898176.000000
323654930142036978311982814855168.000000
-768615362891286497782475396218880.000000
1155641853002755433045353882976256.000000
1194937137600224108695954030329856.000000
2493422966946570983895263181012992.000000
591106704759280597869743952625664.000000
-147381509869422817129056679493632.000000
2069983815071484591583285471084544.000000
1296263849524848060037013721579520.000000
223838801962648244405765817761792.000000
1582284081917938064109900526518272.000000
2037445346420477725500265241509888.000000
469276938428697523274676608958464.000000
1243417435761106119482857733750784.000000
2262613510437818667953444154769408.000000
858217531422071622543893757689856.000000
377847451766040076508138917855232.000000
809839045414323441439280784736256.000000
1214886486259212011480288925319168.000000
480405221210689874781839906832384.000000
698582120251711027839064969576448.000000
813283437769521864698932576124928.000000
948351187065327274988665386827776.000000
366357382465024438386631821492224.000000
505627316256244976077491610320896.000000
493938276974598335823875456106496.000000
82505183633845756771522828042240.000000
239296197282154668385401216958464.000000
1809873329607515913539157638512640.000000
127494668192107493449499246854144.000000
531962045658758566602463565053952.000000
581468949359011314518511199453184.000000
2408740060549832658637835588337664.000000
260127113987249892729073117954048.000000
2302484430480418715457648064462848.000000
2433126729336745471309532283011072.000000
1407984202060533332326847344541696.000000
389213716353702226588749652819968.000000
448714937919247657193243794210816.000000
734042241735259898223816502935552.000000
599146980469084981329554575458304.000000
-49197270279890560721732306468864.000000
396673623373753713410970923040768.000000
1216887732306634018416128864288768.000000
167446639473741483279698813255680.000000
2002714365037739458820930201976832.000000
277478947997814014735563431608320.000000
841010929372799925769542647676928.000000
531205839942327114672434829066240.000000
2549749378301099094945430738305024.000000
239303685425589638923497351675904.000000
1077126797253440438316340168622080.000000
1065006361252815801512353779941376.000000
-247416837629866182404768295550976.000000
1480455285582723652300355154214912.000000
717605726170554869378234005323776.000000
264496109156781464337597140566016.000000
427169290740853888133048939053056.000000
2356863854295990988742827559616512.000000
476024755566714684394716486696960.000000
-427447434981740281702048373669888.000000
1063416670678671309134826062217216.000000
-447971577183220187478313524002816.000000
199636759596597641834895660548096.000000
-549783375227770494480557302349824.000000
615077774313353554194347704975360.000000
-1166728116866360615887252016332800.000000
969462766204535937465883658551296.000000
-247424395745219980899541086896128.000000
-235254672512729625046442481549312.000000
1906943563770941935437511611383808.000000
2122705902740246433140162997256192.000000
450170999447528963681745975115776.000000
1383373312712561080619632831758336.000000
1910966279007139210751655591018496.000000
768565389060693304704401884053504.000000
1916379957752461360839410803802112.000000
1755074115918593107383862394093568.000000
1222843684282484050569531855208448.000000
1012148239705913600355654657114112.000000
987777155369316436406224296083456.000000
2170555757116617815777146658881536.000000
1389154028640706836340501953642496.000000
1713069417279895367750699741872128.000000
158525985754090579172430146699264.000000
2429791808214408710755578705608704.000000
361779273065658599828584098955264.000000
907713663925254342559219815809024.000000
1153696865123588050450797077463040.000000
316549746842366093276092957720576.000000
2363983512778736469018445652951040.000000
463307314577723261182905637928960.000000
1156597114039042437948391565557760.000000
760465805648600913747804602499072.000000
417617269271108678359844099457024.000000
1030967167021845344628946119950336.000000
1097389952900589506734113058455552.000000
470959974944875770641071854321664.000000
1613094390245157059197837347127296.000000
236072298728649405524257473036288.000000
417295317377247963696939397021696.000000
2098020686973258956296502057631744.000000
250178930541517544042376883863552.000000
1506807306150530956203518668570624.000000
1542169709076345258651124385185792.000000
1412926317597306711428249293946880.000000
1206684386261446153995074297397248.000000
564020068092680273492219378270208.000000
771551276630866622292289094942720.000000
177713772385813242573910326640640.000000
1316245974735618940008354187051008.000000
113569635577066360250036209582080.000000
383496422737575709920188623224832.000000
305728608729622203059319068426240.000000
294076369231122804017014102818816.000000
1100278618949032951307026089115648.000000
-745797228405923443389352606957568.000000
393873590159275663708260342431744.000000
1849469366062128837181377278377984.000000
1434741570906871629722113837891584.000000
2261236284351720873151600877633536.000000
2298161584372737539785562313981952.000000
-490391103376256403739265298595840.000000
1737433782909909808410618658553856.000000
2170253463033442272773120970457088.000000
733695909000134808775596101861376.000000
673430761715110994483690466181120.000000
1199893440638477019886989351059456.000000
-8657528060256791890517800517632.000000
1126842338291955528919498855809024.000000
-37817587833205963690252324306944.000000
1066988595335971469700212035944448.000000
1092512250507104616759003950612480.000000
864985310983879699713432173412352.000000
1790007319875209016178570363404288.000000
2416850949382000982322249631531008.000000
-925976517909080620499217955160064.000000
317130245996364161647234684813312.000000
2304143216105738731625111808376832.000000
1116737401979151451300688570613760.000000
890956714600551629915679159746560.000000
-185832684988484441262104934088704.000000
1238538558805270534000406735880192.000000
726855653354620534658869550383104.000000
2130686368788407292984088829362176.000000
885772028723113837098226539298816.000000
1972657259893019487554528576798720.000000
2228075240117811456128112658481152.000000
936529569061022260515988624637952.000000
1128004967589212739008425569026048.000000
1659085956148798913206995241664512.000000
1044273516147934166233735048986624.000000
1183802561780998126672212410761216.000000
-815943620199074514253284760354816.000000
1543203573429541443976937405939712.000000
478530012633439092516246052143104.000000
168147256676803815531576406573056.000000
2552456368689094387730928617127936.000000
1107867784757445210786984125005824.000000
1258885608876254819919698799362048.000000
574356208507664258022552566235136.000000
380466150176909948326837328281600.000000
3004423695464515241918294910828544.000000
2233468205608570790579793838473216.000000
842388283823095002569279811878912.000000
599553157969572050564571256061952.000000
2432975284495362283361075648790528.000000
2324725735508797970808014228160512.000000
1794990984283150703397713089658880.000000
-1326341597645882792821406543380480.000000
1032716972928353024290501060198400.000000
1511466483254864188766919409532928.000000
1208296203938244218342710513238016.000000
1169687115410959419583778535768064.000000
1607896766380113713234849826865152.000000
1672752079730525870313089057947648.000000
1614889546726558498936460545097728.000000
-1200109410149899317005016201428992.000000
686865940233151123218841015943168.000000
443976349087183839176750446673920.000000
1571166480218688131617157497749504.000000
2332471861008910909359955231375360.000000
1990961086610105443982174148624384.000000
1289645604758252334133532359131136.000000
2845325419074329379636493909229568.000000
1204920156139261586509195951210496.000000
2611566614248280235945357322747904.000000
2155373572100769722773248636092416.000000
2435245238294873870085092154540032.000000
805119279566263882992565056700416.000000
1439780793366824304168280721981440.000000
271730798741246311905320681603072.000000
944386844847874229685686959603712.000000
-236911759001749277680976326033408.000000
406655847602581836899223185915904.000000
1929552786020962015039561415000064.000000
202484399518822042828627865763840.000000
922011606692848853879888958980096.000000
1045609859030447415667794951274496.000000
-143865422717339457776768929234944.000000
225878906317099585184002113273856.000000
1498129619782759242966699211751424.000000
1896261607669456487160014662795264.000000
1409293897361926357136222988533760.000000
1185456293082767922306170841202688.000000
-385672072038301325758239627804672.000000
2388626676730553563453689209815040.000000
1104548813001123786219721364340736.000000
1830683636349838256722535168081920.000000
950477930989219139913791261638656.000000
1408441877868819110567973492883456.000000
1056342120669553412484859015725056.000000
1545666349748882105818916776312832.000000
1769333253103615679144169652092928.000000
1301944315144953034337150191009792.000000
180817381432828465080537498779648.000000
1579313150288733603780809570910208.000000
594907680405151075885513451765760.000000
957945940304689546815106854158336.000000
2309756862913772530771335808286720.000000
2513806230616636314301777305403392.000000
1437951256365222999800536044142592.000000
369997561778364924553625950224384.000000
1803256483635286179395682680438784.000000
1651183281713592972648161742946304.000000
2436789204030251287120481276133376.000000
1532779627416629895879727788326912.000000
1875988515289746747232830474944512.000000
2264082547799348887565708931629056.000000
-614498303937391921908395540480000.000000
-145490168278576133846521044008960.000000
-776292792523007704684852961869824.000000
327756567692883189603166886821888.000000
1389394399094464720971354882441216.000000
507177109187510088097648475111424.000000
1932497118435044585294522170212352.000000
992286469799883256096773686427648.000000
-561871849704286278859806511988736.000000
1501427851429136060418140688875520.000000
1878297892084062731435235921100800.000000
701344142159712697906591327846400.000000
947043309297789739521783147528192.000000
2228262193812059689152763349958656.000000
1506292923599848031090482299797504.000000
2368261482031247881123750087753728.000000
1457701304689653792830369032044544.000000
1557103193964001123236368722427904.000000
-381136436841010265082634449190912.000000
2765287521246003649750654517248.000000
1307436496030525992152330947002368.000000
1792356159799249149721214462197760.000000
70224873282108920817398633725952.000000
-403993812360066769712773360254976.000000
805667654483211434815329247690752.000000
1408781206919589027067701428748288.000000
1475821614095489182946042002276352.000000
2031518410277527030302323498811392.000000
824418433066957963323943113719808.000000
2387925217312997800299858900287488.000000
1310675050626348566637961958916096.000000
537497522407088099089639633059840.000000
1865404200147956689955829644787712.000000
2254076378750336967619770495008768.000000
1517803378733248762734921486696448.000000
-456368436668110791200834083356672.000000
1698957616084355546928671593857024.000000
615049279791024474426497629683712.000000
1753540548475979522851436614385664.000000
1001476580782939811778259123699712.000000
735446077545435190410504218607616.000000
299975645238303780134427612413952.000000
-1095013675169536818319889193238528.000000
945006450468641836369453487489024.000000
665357535831816819495709586751488.000000
1890006951221946945497206764863488.000000
-598071312562634412913889443315712.000000
1824354046136368232991656566063104.000000
628834273666536230088866346827776.000000
2277342352852821878904140259655680.000000
1240103531454439920270302414635008.000000
2324744164248713419681564243001344.000000
2117171598345751482176971447730176.000000
2321855571404598364388961544044544.000000
249676338097554248027639535108096.000000
836520796839712335721895280246784.000000
-306989519139238833033424094101504.000000
1222128591992887005266180357226496.000000
-1814006493832050141314627965812736.000000
1528571169028923089761622640558080.000000
-461146076679189454526487237492736.000000
716746159306155706861145519292416.000000
3477486207805180477825885094805504.000000
944576131197402129947084997001216.000000
1047021501013232365353476667998208.000000
2350257384732387340811992066686976.000000
514227229852878392471121096081408.000000
1810824360401640046996967298957312.000000
2806828833012770916190652498706432.000000
1797325063507831775321531982282752.000000
641979088756310582376095004229632.000000
398382220745264123717728929316864.000000
2187169132053901371877715460751360.000000
2343747213185153671049828102045696.000000
1188906727997450558221114805321728.000000
2380720305826404416103403256545280.000000
-1065301581582952497614369603977216.000000
1040039075915322730143079810990080.000000
-992083244791769937995562777313280.000000
532005447345442725254629997674496.000000
399428622488497143812533941960704.000000
114715927442457676565519334899712.000000
591063454989040558132230258425856.000000
1603574969358411774250832088793088.000000
727828063284998281510615135551488.000000
1461505138553654732862427777466368.000000
959482988391678079972633487605760.000000
1957871271984738346600174425473024.000000
-777756627504153253317823806046208.000000
1239416412283363061972189117939712.000000
1835354599076042426220679593459712.000000
1176284162010226751271712032030720.000000
359896227926081236843649027801088.000000
1157708262451340468531002282606592.000000
3223247894526350137492871997030400.000000
1612222619852032040528624255762432.000000
775206623456323735154820332388352.000000
-454292252170876819513332822179840.000000
1372158196580102277641157765758976.000000
2073346921686522411140761272713216.000000
2247924818879551445058881071349760.000000
1432687787715915301648736091897856.000000
767840536563472553749663941918720.000000
2047191758453178865710174362927104.000000
1616995596426729758630567473053696.000000
2586847889600766848026574460026880.000000
2423655664355555834422455728865280.000000
943040992124336052218171972648960.000000
2240798310310527338279332313300992.000000
1081702583355017861008142786101248.000000
822049507324443862320855465852928.000000
1273943058031448720112615574994944.000000
1664281112712671627393807325069312.000000
-273060976742950184443913600761856.000000
-242388278191547811538207806324736.000000
-1131248111917304323525732194058240.000000
521727574853269944671151434235904.000000
680134750938300440147892054786048.000000
147264221345246402362149018009600.000000
-667179917424811567394210831138816.000000
-643188395186023892101230351089664.000000
1369675581786481660812357783257088.000000
830723483398690190620480795312128.000000
447043354414545453648263843414016.000000
-1327370156786165537963106770092032.000000
1333158346301227617478625313423360.000000
955332877510255095684933164728320.000000
2073080725626571716232377872154624.000000
1713751299493791984683212559351808.000000
2395182012350518988582997834334208.000000
2093071202595113725659240550367232.000000
514674333290021820296505394724864.000000
-340184746617400001515169874182144.000000
1735255550170230772934027096621056.000000
1588180235899982432858985415573504.000000
819253504515988990502910178623488.000000
609531297622863496567302022758400.000000
1985397345559918584505503594840064.000000
463772924745353977476191512166400.000000
672761553067283961275898807713792.000000
-416119182958204162750223109586944.000000
1862838498246295502036348019146752.000000
982475183215992261216712620244992.000000
1074119566551678438055182967242752.000000
-39426313720112907794531066314752.000000
2340469798698011218401788140978176.000000
2473886672768859283044098509897728.000000
2315819837559405399348793774702592.000000
2032628122009222207660621488455680.000000
1407543956513352410580094354980864.000000
447033930949846536667949065830400.000000
2180925282467348700462800533716992.000000
1866817835623557001895184267476992.000000
638234152929668863518616013766656.000000
-963883956472511022615761061412864.000000
-587433401778352460843002600882176.000000
2599177606618424227076604803678208.000000
1365184908789144446154836101038080.000000
1577474732282754166482156157665280.000000
1879804915000114483904982894510080.000000
629197673597169715272808075886592.000000
1474091236793973876493023323357184.000000
2506396354412279028853230700331008.000000
2349410133002716478716980221706240.000000
709514167623000995867702346121216.000000
2853480062785021359619640498585600.000000
1847319849385011847765968935714816.000000
1623066567164488312750203312537600.000000
1816283127162988185149519326871552.000000
1447658109060540492649246333337600.000000
1254961401690877014052754669174784.000000
890893358858740034461293149683712.000000
-612806842813842089982246873202688.000000
551237533917784225617269934260224.000000
2074334800455917938580450487304192.000000
2509107927596770762370799741435904.000000
2440527101384075818345321384116224.000000
877420183036873637989693148626944.000000
2404253579283843234432669206970368.000000
1228910584440166852945216899383296.000000
2483699766215842238470386196938752.000000
2025606445492970430665293943537664.000000
1677986627723795435299021231489024.000000
1201395198887122425396724290813952.000000
1037290488341127851528253905829888.000000
1601404499255936871496839243759616.000000
48848949373148768176287780962304.000000
1525538095462316877654954877124608.000000
373667374853378393517698857304064.000000
2412764935459883076692933502566400.000000
876751073124718671221363868434432.000000
2207042050215246938815022325825536.000000
852088844908417360999969108000768.000000
1566366185697855906033316596285440.000000
773457140972159454678983148306432.000000
598163211369356681772115217612800.000000
1623014934971427360884363129520128.000000
2339312356204376950864799734956032.000000
2126904208224337530378949903777792.000000
2661009216923597761662567002931200.000000
-5015127616771416523349067563008.000000
742847263861495863250253204422656.000000
-1377002891587849069991547155513344.000000
372148098668372114494401047166976.000000
1795170626936625790417923358064640.000000
-488889334011552218808357815844864.000000
2972748380524701374668324252680192.000000
1404211277455066123509200878305280.000000
407909220808800739401951787089920.000000
2638991144842358651789004872089600.000000
994208478230006430933002934550528.000000
1158916445407959296967982507360256.000000
2669601862344488629005621586296832.000000
1812636005647586160726247523483648.000000
2202332520234842887556192343687168.000000
-1251487781679298256043845705793536.000000
1209756361988370165509981246324736.000000
3191145158954043536786415966748672.000000
1297832809430943715330361208602624.000000
1307644378016895859776860251488256.000000
-176616915102130020656514624126976.000000
2010861008953532032289970317164544.000000
967260382401541661460817619451904.000000
-170394963303621087789201324244992.000000
1179385357038343253064818171576320.000000
1649246292199708383693120347308032.000000
2414986224703237686227084368674816.000000
948471472054117494000141239058432.000000
629093305202984049910709334573056.000000
247053501169396940834289676713984.000000
1650649044002545595017126609944576.000000
2597869236268427681050728742256640.000000
1536119310687881974651275020599296.000000
1112543394391779052576080775872512.000000
426045837772452769810586823294976.000000
-165648192090229637775412277805056.000000
854113625212038910961871214346240.000000
2027133218316549783838209507065856.000000
2500350425228902817563205917736960.000000
1402575483269921344376634630733824.000000
2190328933929922841588077292421120.000000
634734553897818085781206852435968.000000
200813056353172193282090575331328.000000
2054895393133932254944779808276480.000000
540630217965952292562013509386240.000000
1508507749785837439038418348670976.000000
1968063153320367933330677705998336.000000
2709011931053229061133595731558400.000000
896563520050579325343865778470912.000000
370114923224102759229087895519232.000000
1010329057960558329617122508931072.000000
1230725848060613240008330860036096.000000
1582499308513961539917246789320704.000000
1493473422161283985574244175052800.000000
-808184685428594010165383784300544.000000
2050298091052745613533852811132928.000000
1286703580674843472670240358268928.000000
-140188313096322382859246308950016.000000
1992548445841747510877678498480128.000000
201277329443341467812590662975488.000000
1687018891687274813752622993899520.000000
1633261712878663483716763482324992.000000
2278752576402880474630237754228736.000000
1422382670344428535873122106081280.000000
1895607050642319568953384940601344.000000
2576444866886892088471736048156672.000000
2397272099843259229334711706845184.000000
315231188311228141924862708940800.000000
1749939885465456565106407783792640.000000
877869624250481606622288399040512.000000
724321564149163345762387509641216.000000
175909424437330812183594221436928.000000
2267160859791164806819110923010048.000000
994651147504479469070805593227264.000000
3033196409907579781877048920768512.000000
75594598214451416840315057733632.000000
923758889505530132521505834139648.000000
1208558570306658624373618531893248.000000
918385506727330718588248283676672.000000
736143919893267223204005555470336.000000
-232588596725034696748812950568960.000000
828537065443976375826174206541824.000000
197226172001399214929818586972160.000000
1627575680431619816906022161743872.000000
1270556056627891848894150913032192.000000
1074956792962776720622674113462272.000000
584128349840663673401035393597440.000000
339570218895906609052758849880064.000000
332502453176882842856237995917312.000000
1421481693527937123918400897155072.000000
2429444376698309220356826981203968.000000
1402075461500164020265977374572544.000000
2329333946020463622464490132471808.000000
-155029074308464458795300790730752.000000
429083042375168189336968126005248.000000
-239240485170890102132574030659584.000000
507060309434668120490794935123968.000000
696292744345818031623430085804032.000000
-17824561605024310622146768404480.000000
669049992852858130870155434000384.000000
1747309171263774190510983314669568.000000
576241515250180046597309671145472.000000
974541709912443534527713385644032.000000
358660169997114065377960090664960.000000
1948965602854119773969901751894016.000000
729832827249350428377711315517440.000000
1941582747571599385766232846237696.000000
1861631181665381829556898591932416.000000
1380452999507235420665020717989888.000000
1143092199505198043138484420476928.000000
184542858427431122222537441804288.000000
362370716044148744664302487601152.000000
1397729596497490941068710825164800.000000
1830930619214916361107554529443840.000000
1673986154755507616617387647827968.000000
963519069583995361121850621952000.000000
1116789107966995705973180481929216.000000
-857615072621904054643825175429120.000000
-183174140312147596163872135839744.000000
-161270471981424202263352288739328.000000
217745936031136374577176286068736.000000
167191070538895515422296549359616.000000
362344098185508335427411291144192.000000
946317804968666579287679592038400.000000
190149503500804424164208170500096.000000
1740839636933427958833582222344192.000000
686973229001761751243962091307008.000000
1787553075317013263103785617588224.000000
1192124867606830086793384836464640.000000
411340016277841719922702787018752.000000
719003937321736885536768749731840.000000
-219318505265721098932280612618240.000000
610744305533031066800805973590016.000000
1548034332415624675686821163696128.000000
-158271958125817259408583643103232.000000
452035578752106551015770471530496.000000
1731578599006131936941102015184896.000000
-22997827447268863121510761496576.000000
93011237837406240219575491756032.000000
66503583346997224504521329213440.000000
173986133932374825645080410324992.000000
167333361887711792207276829310976.000000
176449781629216856304516264361984.000000
SCALARS UY float 1
LOOKUP_TABLE default
55274204629075017728.000000
-12448102389869887488.000000
216216897846463791104.000000
-52359438784052305920.000000
-21063702893621298535160327700480.000000
-50730898628876558336.000000
9315307411539683328.000000
7167844856413729792.000000
-17697966943396884480.000000
18588801939815030784.000000
-8500286849125642240.000000
14280450269054593024.000000
-12883692596028911616.000000
-19339244457982595072.000000
534948205515213952.000000
9385292282356656128.000000
-8604485626309937152.000000
14314839708470013952.000000
-28788017947510650161296622747648.000000
-32270017443588061938405846548480.000000
-49065716154857860914998610493440.000000
-78864765017597515019897557483520.000000
-33086631142661608268521080356864.000000
50052651542143083426888359608320.000000
57025360303574034901483504271360.000000
-74314335748641290076055201120256.000000
-150952720776927392663729883578368.000000
-563128357132428470012208727719936.000000
-882127450234489764102286413398016.000000
-75865211867790274371238754254848.000000
-327407440859983729686205631037440.000000
-388468288935630097709731640508416.000000
-292152096484530522656698078855168.000000
-224480041189535188432370182127616.000000
-64696357193218323275446768107520.000000
-258627031311415840215290842447872.000000
-1627211086168901165601903194669056.000000
724031083677055244144602760871936.000000
418153609315711881898906359955456.000000
402827977258907950148016146481152.000000
403826493115865507966873157763072.000000
285649900244648517207025636081664.000000
619769128954436091285274124877824.000000
720245296505723648350575908618240.000000
823491496296965667239404192661504.000000
701604522486833513890950500319232.000000
762273002641465996844907148345344.000000
846756958958859881253592243372032.000000
911237567743299795452227984818176.000000
931183984100792420606163338395648.000000
947361443772928489798802056675328.000000
948141446518288575379399558299648.000000
915184631200693332144134419382272.000000
787958288280833493595632277913600.000000
363523008230165197700348306784256.000000
410530798266406756142377846439936.000000
395614545964287783590137503416320.000000
487110609276064893337438015979520.000000
379931042873526953299469144162304.000000
302445838485875794579671241195520.000000
256127175452064828630243425124352.000000
474068636762436527454188241682432.000000
573652996800797852230782568890368.000000
666261856272104228057068649578496.000000
739616474435132885157864380825600.000000
899464207241523310334451162021888.000000
-163769773326436794368.000000
82954601405181771776.000000
-27397205544983023616.000000
51094041622327656448.000000
-85917328354041413632.000000
14516863854664359936.000000
92917580177921392640.000000
-104105042324061159424.000000
106691216909928873984.000000
-19495375358012989440.000000
39025832685199482880.000000
-54687892244566687744.000000
8999788108690166784.000000
-84882507799508889559452237168640.000000
-58323657275339449448217545015296.000000
-189654749248379930089588418150400.000000
-469300695727927185052077989560320.000000
-606222973289688706089102455341056.000000
-617964336937540752185791063523328.000000
242034375192175322191178422550528.000000
163193843925201483763578426097664.000000
-661919746959100265383221948055552.000000
-942033395008949104457301301919744.000000
-891543634655068787082123227955200.000000
-848888003529848280741614687617024.000000
-734747115200076084330310989250560.000000
-770766477836242797322303304630272.000000
-1009123322179412300717622976053248.000000
447353190528146268260016131670016.000000
-826223194682876947789088492093440.000000
-2365805364181735095427525995659264.000000
-1339169112118971071550681092456448.000000
-760010916545849444325704524103680.000000
-210094894030792035607289429753856.000000
-375643121320165961394753504280576.000000
-755737774764658373055567619948544.000000
-402336522744659825533283723116544.000000
-166806814924845252229698609479680.000000
176912963050964383587639710711808.000000
250468061039909557373469798170624.000000
243295178782600447791218343018496.000000
-107165808658527148151932306063360.000000
-353911619866960276720263444299776.000000
-525161132648911308425766069338112.000000
-736472519710692891791972374675456.000000
-721282739518335712244639748587520.000000
-674661279169628505881655258382336.000000
-254497358521074619508172200607744.000000
630973132385470524576003658874880.000000
361431569601597354684280408637440.000000
-337558434147760799020654761345024.000000
-44575746736434462904320601882624.000000
-351338154288595707366736593420288.000000
-65948299955951362933288893153280.000000
22228602634654822001302296330240.000000
-217607816661346027144590187823104.000000
-284412846397080456236659191578624.000000
-182889351658113699538168337924096.000000
227973606335757930521209092440064.000000
3570918287358132718151690878976.000000
-13166274684497798946720558612480.000000
-313973675508102147983613540433920.000000
-327544880967259831733626167361536.000000
-67517646142718629045357523238912.000000
163346910735580250761991827750912.000000
2097049955509376559928221630464.000000
219287038469968601254994871582720.000000
262541168192098123497616393109504.000000
401146146865839437519250872336384.000000
929157483811041340745931825348608.000000
1327701224058897931890771460358144.000000
-1251010129265881803180133907955712.000000
1246072803868375762325815081041920.000000
-922527867776645055179798779789312.000000
-1081898219927239206435158327558144.000000
3554404422043344138257508316741632.000000
131940497689180471294981690097664.000000
-3452888375473235086430867090833408.000000
-1866576610452568369518702722285568.000000
-3082794909769612739874909270835200.000000
-2098758983044489748374095468167168.000000
-1519426974569411964520599820173312.000000
-1234402629354163495300667327643648.000000
-1023571661771152280707411088506880.000000
-728252380740917314196084195590144.000000
-570549661581762933629875119980544.000000
-403133831752673009250956182814720.000000
-289835281279224396865660658909184.000000
-375617325156052368521465599885312.000000
-538442067745565020555397759500288.000000
1188329774539467188411066923089920.000000
1041470316559666177437925824790528.000000
638806740731324725224856442896384.000000
89337752841418409914400583450624.000000
54284734081279621745558773825536.000000
26206056045609816739288564367360.000000
230239113095610123634891493998592.000000
604414592669126869292354109440000.000000
612413276445954803750805423783936.000000
387551033526960053967213316538368.000000
252866245427511772462236173336576.000000
286243392888395792071745140162560.000000
678096729300259687857157773983744.000000
392166706083323902275348634533888.000000
688416446878998931388038140395520.000000
512486446388007375860431014854656.000000
431099835511637451192282298449920.000000
225089305526342271632437365702656.000000
231973546549617638058676000391168.000000
391994331872884037415418330087424.000000
648760466100967792079131126005760.000000
-325450397843223106499758633517056.000000
167341408987528458685379132784640.000000
-572840338733286939672039305248768.000000
755940094419765001923637138161664.000000
431630162424062915953797233639424.000000
473699731478640272433415104495616.000000
-154490890563267303784993318240256.000000
33000529237325142438988822347776.000000
-508363538468043524391728085729280.000000
-1850454484942228000472564081098752.000000
-28943786323200033613631346180096.000000
-405877347423973727325716291256320.000000
-300814755632146328160302350204928.000000
61272045770857369502014934876160.000000
-169885115738329786948786508005376.000000
402147680858218724074388551892992.000000
-761340587532478836625262069678080.000000
661722336447855141423563606589440.000000
200186392810286707971240010711040.000000
-17934792703847562289473531150336.000000
199175058038550936931338083631104.000000
382903525753970453168729169592320.000000
-135339130244516526575289932709888.000000
-242704510802370756527906376122368.000000
42812554677116344356551891353600.000000
-209740559479616842686921065889792.000000
450844430177888128323240299855872.000000
-75255747160098417719715142041600.000000
110061902915190706350454642573312.000000
-192399997097802723497491505872896.000000
464971323577604184108532745895936.000000
70194860895933908867287093346304.000000
180504932344341005997917480157184.000000
-264518890849729239014310903021568.000000
358844439804031853208851575734272.000000
-419279384651865939343093968928768.000000
821174471820623716512310291857408.000000
-120445218652513734750853664866304.000000
-8939259183761040119385752076288.000000
355498575482982003465935766159360.000000
-487180031416851446053207560683520.000000
182225021292152590154152007434240.000000
392988423566567933738498643722240.000000
695884283272429079919918630043648.000000
304525322643476760417836411650048.000000
-92619198116522273211894760210432.000000
-528937614181001015719050470227968.000000
-184022095191749206246345907634176.000000
589265286251139673946715515256832.000000
-675917158788694736525919042666496.000000
723111114094334074602030689681408.000000
-477084014342766042385784741298176.000000
101999642431294666082518894116864.000000
-50096749145580302447122095013888.000000
113019464176379792655932016558080.000000
31039388784034286151598537179136.000000
55072127118135904860369468784640.000000
-95362180789958494834905027969024.000000
86861798171306415601997410467840.000000
-118686324365202813578339938205696.000000
45474181593790688632151646142464.000000
-935206115291476228997171925483520.000000
-469956036035633927152964103831552.000000
-347753981548859001122977851899904.000000
56943798256396610347588923686912.000000
-15945838920420834747845414223872.000000
1215764811286124036108601970917376.000000
105612882181921941434157347373056.000000
-452366338160224053353488784031744.000000
-232422195922828586627492757897216.000000
-277714725275149277684488353087488.000000
-303919992409437537461607923187712.000000
-245903832171526908455408596156416.000000
-213979115132311034346712000888832.000000
-94746201174522023473595683962880.000000
-13154745695872376981632264962048.000000
387157219384148866408099734355968.000000
-123134124909208581197346736439296.000000
-253772621432084609633606392872960.000000
99582637109675292680881598103552.000000
-50332821237745901408408980946944.000000
220225736947203790089874158125056.000000
-772508292657971997087114855448576.000000
-7998787803108243312224904413184.000000
-125111810008875382221142598090752.000000
104192087295167817711404137316352.000000
-85213828538801351461101040041984.000000
425521251691368604166049593556992.000000
26877980631000244519474590384128.000000
17675562397440869107371199168512.000000
540780307177834616799908918722560.000000
-39006599796982362002636123668480.000000
-114020030013199359210865760927744.000000
-176063802996973301847669426094080.000000
522265314458228009897616820142080.000000
502108679644414035244165999099904.000000
-292653679486677442738624367951872.000000
388403538386956265873399145824256.000000
125893437530189568588507399585792.000000
-502147677102923831455843826532352.000000
127530875766141289201765955141632.000000
-288110050214988549675690171039744.000000
-334349423386712894528231726645248.000000
519583182354454338227621175754752.000000
620286191964949656960675134570496.000000
-497347653073656903206738098913280.000000
-255407609130887401482914367537152.000000
-102901455799472558846740766130176.000000
-839463162400481539266504787230720.000000
256119178977123699187957404532736.000000
470539745467020147649200133242880.000000
29698699569537452433545610919936.000000
19535709057293076558480788160512.000000
-571965146476795249551292806201344.000000
465232407564435555782583428055040.000000
737644527019777369907877073911808.000000
437872661555446180114446556332032.000000
102132514371070249621318319210496.000000
-5402462355491607354804742914048.000000
92212449401366174647313688952832.000000
-177601339257669692477095930757120.000000
-129243505726745167093243567931392.000000
114528824916672072219887111503872.000000
-293551521478077927517986148581376.000000
-50675592121564110298404274307072.000000
-240157426780274891792373526822912.000000
-1376324154009533307406817509244928.000000
1009048448580515154913209903742976.000000
-546129249977558857993812044677120.000000
-479339801710787640695816085045248.000000
-707320509750948956318363220443136.000000
-357576602203699072655782303498240.000000
795525906072342251066880740556800.000000
1031999574134670221462916057530368.000000
34935006066437032806327064199168.000000
-34849205901555700399591632404480.000000
-568922405882895504578150284656640.000000
53317661078860886113689182142464.000000
-661599961264855174784462423588864.000000
21447478059587695792063137185792.000000
883257058940157155962764130254848.000000
91800405146979618312100931174400.000000
1022439953089821686255595814912.000000
-421427395129432937810467225600.000000
210985522777747816280913155719168.000000
-151819843056501170297418557685760.000000
353102352171958771322266715160576.000000
76899749097396703686831651160064.000000
-218452958193450818229900125667328.000000
-219549659733088236035426559721472.000000
-86716942420094736101003707285504.000000
265627933063390514162324543111168.000000
227456994970040120451847455506432.000000
198407308990216809912702320246784.000000
510571633502310004301670366838784.000000
-84174121925070864990569439952896.000000
-834008557768463226665856797769728.000000
-293475962177232475398370739879936.000000
104962898728893950012163188850688.000000
-483397689206230452816708162813952.000000
1513128684632314764803059696533504.000000
-338823936272893580512631130685440.000000
-196116009365148811815305156231168.000000
61447166104422918380516961943552.000000
-184275037004829558803694966800384.000000
117444228130926451268539228618752.000000
-225910298148874040611842637692928.000000
202846880652253403326746317553664.000000
187223186388406984172159199346688.000000
-109931204710061361850171822964736.000000
-560794468912701336597238298705920.000000
-204649976153224047090444535857152.000000
491149241027963296541457826971648.000000
-1034752539864705023432854870163456.000000
-320960867612932241253656466292736.000000
-181700568056221307009179848802304.000000
-836447184398773963774484803485696.000000
307861038055924246908547616473088.000000
-123996858171331396494449516216320.000000
229554763120983499302316474892288.000000
235092143750791506492825249251328.000000
-543040718145883797969906652151808.000000
33758594259994173929919302598656.000000
27578537694981667741618141134848.000000
538238115658056359756303299510272.000000
-218570545545655657298071033741312.000000
61481886098946365201360586014720.000000
553039399005189395711857757519872.000000
337796385035024512844092351184896.000000
536304534006049178194011559559168.000000
255081608150368879688284094070784.000000
43174951138562171372566613065728.000000
281167651878030736527847652851712.000000
577376272247923411034209739866112.000000
-886325463661168676545310524178432.000000
-263716360109869954075642623426560.000000
594606690691307135362271138545664.000000
-117404080028442475804572860284928.000000
198716215898969014663962741964800.000000
457752211719019376912572532916224.000000
-207638225926550164050693905711104.000000
-500290257955955445154422076735488.000000
-247320358331212504569105640062976.000000
-436603366293943756286544536666112.000000
44373495113763592159276484788224.000000
121348763413249955154854443745280.000000
-97986015107344037377480197144576.000000
559263162787292164790772784168960.000000
-63836611906831806568586362748928.000000
-169227184620253271487883732058112.000000
-901061104247068179481932211421184.000000
-1280690883609318228164141090078720.000000
-160738451999464591751219830063104.000000
-840406013600359961537226616078336.000000
-434753101121719391908684290326528.000000
562855521891279881416069236129792.000000
473850207230084974142113575862272.000000
-151303947809921358138499424845824.000000
-92411309190080159651517844946944.000000
307419283337827287185688646123520.000000
58808514049001394885206189539328.000000
-306115022793121457890924657901568.000000
43796212701270453191408726573056.000000
277824886438533556434781719232512.000000
-714824498066764709590928453533696.000000
334747782924841229118867035389952.000000
-383598770408579240364063670140928.000000
-409151972234423241911097463144448.000000
-181539910845212535771724727189504.000000
-282295319315025874296076584878080.000000
481200191373985478713554180767744.000000
-67173927614264086641747762872320.000000
-395794325087504534592492343918592.000000
-117647759143942248044191511740416.000000
612023198240441115846467381100544.000000
71022435123268629101926783385600.000000
-14771231866888224692681977102336.000000
331308323322936630773637185536000.000000
-311031389590891147399050632888320.000000
-11555718502122301508947873366016.000000
499420752985367532648019120881664.000000
238631360825856917221997681836032.000000
-175535226927184789505612022022144.000000
418456998144182164541495782146048.000000
264586279329209548955445469642752.000000
254402606691698177686021506859008.000000
-183678114408616538873700454236160.000000
119365620106443659817970225381376.000000
-279822225122922964898366986649600.000000
63338060151058628593907004342272.000000
-844861918527753182208836683956224.000000
-218496799435406247503047021297664.000000
-549764018692096722383462333415424.000000
312013511812616374266254466220032.000000
496984519340422395388045989773312.000000
1123248282166322277499547439595520.000000
1093745346017684770496289261486080.000000
-325093260949443236974167769219072.000000
225823703317131743152004136960000.000000
-31107057845907111483480567971840.000000
360314299120988180205815512170496.000000
720052077837364408769769595994112.000000
-944919794549197036163983545991168.000000
-100454888875730277776880348168192.000000
-70012552542456131648671688163328.000000
387984628787291220623965414227968.000000
-656437398086751430231009320239104.000000
-25838068696076791470623020810240.000000
443629539223233846418116905533440.000000
-423248692123726117116721387012096.000000
234898886638935804198778763739136.000000
129435934756218745848404765573120.000000
-1117120761112351647417814640230400.000000
-245531387835386061148212225376256.000000
-195246779431547222931415312105472.000000
-457886177035877956766682939654144.000000
196259505378199440577005818478592.000000
-1419455473853072071292791623254016.000000
20899320276975244244656108601344.000000
-1106470454014613805097289173172224.000000
-284601049876874929823144638152704.000000
404338640445150356006051529097216.000000
207771371853762787730503539621888.000000
82322845746804774024483973365760.000000
187645249866719702226598373621760.000000
37801478295654931045448543109120.000000
-294539681718410761007097198936064.000000
540241540014871955899166863917056.000000
-1124076551488476888135709851910144.000000
53698569368961680034120350040064.000000
1853421610505267199385815851466752.000000
202465556821142211281280827392000.000000
264589777205399957775342159003648.000000
1203961135429057055630529971355648.000000
362404296675835344282569425289216.000000
36372736067642140840893775609856.000000
349894241718070842614214146654208.000000
-153114985476056408457958593134592.000000
386885818351714637346844006416384.000000
-35831412935624381224032783040512.000000
-13397045814030487253706786996224.000000
95154347068596550363313887772672.000000
548648916412382005787389432168448.000000
-1844462559154701810235497819144192.000000
23059674961279764792477317332992.000000
290528277928672885165166159724544.000000
-758135608106698538494775567319040.000000
-138079761825787639037894387040256.000000
-17623043770781949595492917706752.000000
-894070975772756161011414183444480.000000
120904244538286625158218632921088.000000
229394969465346770270600323661824.000000
-337601764279880299980047649865728.000000
-265343121256974015240546772058112.000000
147324825284176039486304626409472.000000
178581284255610953849533112516608.000000
-380666538074819734599653765677056.000000
290673385509078788409201388421120.000000
-341618445040762868158115350577152.000000
-66243042237248746597625112821760.000000
788460099448883823514061094518784.000000
432177656668299567987390047846400.000000
57930858847428491718229642706944.000000
477230481878352617342429057515520.000000
719860691296449118354933314224128.000000
1233147159180564560272935608123392.000000
132421419882514689470412210831360.000000
-594073576739307306969128197160960.000000
348869874846220840023861026095104.000000
43772956076994949993750312517632.000000
192777416252955259720407407656960.000000
79581676900504392879326046978048.000000
125346201649429026993048593104896.000000
546695746048797686198784269221888.000000
-65974292361603149053701256118272.000000
18729444193714974212063963906048.000000
-725197871021607535883302654181376.000000
320948883268627535221208679186432.000000
-229127823737330097378321930125312.000000
-917359246333035286824325077794816.000000
-883504025993513029197947031519232.000000
-110628319642583833155456695533568.000000
-206593304095397074684549389090816.000000
-387559560917621724343412530872320.000000
615111408599532880723980650020864.000000
-361861822263410486686515703316480.000000
-622201049452453567992615476920320.000000
436835865362036161193236179714048.000000
185204043160268455309442050686976.000000
-962266864108422035633879971266560.000000
601298544005951548765099727519744.000000
447455621749112304046596526440448.000000
-214475216810818558066528029245440.000000
551914043069411796150524865150976.000000
2254068984070438618504379416707072.000000
401478044891110612024048421437440.000000
210675059542172193884418145779712.000000
42716937292299287845477938102272.000000
138099862484061984050949144969216.000000
73541538321497551941870607663104.000000
-66807306520427183449105458266112.000000
404503099137273739292137614213120.000000
-209879151199233601850828501549056.000000
-589028790881292188805063526842368.000000
234701852105923469036651894800384.000000
366030095450198312440530273828864.000000
-268085964833160752112784361127936.000000
-357622880821172554830301401972736.000000
-1953779240662441935770877809393664.000000
-28948225263001299136432008331264.000000
22668780714086842314629863964672.000000
497067190091672027046877952212992.000000
454228001552138729547843493691392.000000
46866788354836325868994025226240.000000
390172953181300864845247831605248.000000
751635164271858481150591661768704.000000
416203283673188491779930966720512.000000
159554405579411546952953556369408.000000
25633667791306105110299351711744.000000
-343079676523976588270261051064320.000000
-227261170044579901598495181635584.000000
54126818805811727798595873669120.000000
62466945977505651298646345383936.000000
133551566109896803007193788973056.000000
1605291798524713619039358426284032.000000
368603216015411051939039092408320.000000
31318844753187643642339383050240.000000
465308822990674300761536043417600.000000
231387127341299151415140448993280.000000
129220591732801356424425372647424.000000
502887149014198582949564448243712.000000
615133412478630675520809978560512.000000
-310487519737427474136255875252224.000000
184613658503820007190557160898560.000000
1990589950844701697456311506042880.000000
1293216216364266918822227713458176.000000
114967565811453352003611148681216.000000
325420382920905483968627599212544.000000
139598444831004548849033768075264.000000
-24912279479729331884568969478144.000000
-639261516233383574727209647079424.000000
276311151644987175439040755269632.000000
1314163307997821069166015294734336.000000
405359044350529288072477980753920.000000
-90729210360683765404911129329664.000000
-84617838552082148849990808633344.000000
416252682491833706622309107761152.000000
515798334685475751340351848185856.000000
716452277103454533534670479425536.000000
91669078322618263528291805691904.000000
-188870842231073238563934433181696.000000
-290705331738351609367946181214208.000000
333780235725224576654279811530752.000000
-127296279004099827251461838864384.000000
-128186163147375694954608851943424.000000
192911135572607672633020806856704.000000
-74434973282330100205427787563008.000000
-59973766432902158639282513772544.000000
514550048089315496002243075768320.000000
-272968380309642174850610843615232.000000
442106798344925013416870475202560.000000
-930952812312406557114532894867456.000000
-184976300516019541591711027298304.000000
33233373377162352267094002761728.000000
-417637807764401355945845626765312.000000
203814698412156428358461455073280.000000
-442616536559231379505547908743168.000000
460278067012400993040161354809344.000000
118069448440183647356432806838272.000000
-25415897007505778185901101285376.000000
41056552773465331688545628192768.000000
388093382590589765663481699237888.000000
-277479724063582539850755969384448.000000
45661533641783350007399459061760.000000
543069969205696401449695257296896.000000
37121385155228827501440817692672.000000
882470776961244087881530337132544.000000
-2954807209597198397886414890991616.000000
135776255322841085261709509132288.000000
375408276899468750674307177250816.000000
1901122466642010241567859771703296.000000
580840160081119534577927206207488.000000
169817510225813577438361330647040.000000
868425001152400124123328569933824.000000
423564386840370726518293694251008.000000
-125717571140344517080957621108736.000000
-453159536803404170540790782623744.000000
335913194378663569779817290137600.000000
-90710484185044848724669223665664.000000
56095094938874006375567974203392.000000
613428546243276118757068530253824.000000
858157556846924326281293875642368.000000
68501833709882268326345834496000.000000
-253858938938186697142203425226752.000000
430587323322510881922970611089408.000000
842130762075977237341337638928384.000000
51648904491993988363832084398080.000000
105736435934325259961977018515456.000000
90317418869414398741207211573248.000000
-149095212755590026927769802244096.000000
52925752397542603774928141418496.000000
1341521916470261203839861391360.000000
149770747620735216855636303151104.000000
-1276879787007436021086847527550976.000000
749992240400480692649251716464640.000000
973043044833659814650459371601920.000000
-327033781950645595937558291808256.000000
1592103195835421725224570745520128.000000
252996277177719026136426957766656.000000
448910347074059347253105872863232.000000
90684162437856506513176922161152.000000
155789815611345255112612325097472.000000
240643434511621534345926077841408.000000
910192695769141429005443194159104.000000
2734137664774276881189743624192.000000
809709306727648454043703984521216.000000
387466255493643785381174623338496.000000
-20483852992112209455408371204096.000000
-72042800963145132709346432516096.000000
257455084400907641527576966463488.000000
345706115620806618000028545843200.000000
1498093592227418869176951998775296.000000
105332812115134340417903474507776.000000
-229784932478592991753884764471296.000000
-25815006903591453164763946680320.000000
539285410708352197117314703818752.000000
116098341661071300551810461204480.000000
-204033247148431756069658479820800.000000
395264014774814502468309225570304.000000
539839863417874694159572410564608.000000
-163801766068697828238528629178368.000000
138426461054254241897469272129536.000000
-423591392349942790058081670660096.000000
635546284746974373095408974954496.000000
615871364860623813002235324923904.000000
502476351128080534820613827592192.000000
-210453052503045169936597679865856.000000
178466375881935968454303513837568.000000
384845030034060410932964194516992.000000
1268164085250125859194514251448320.000000
591507590543535585208224997965824.000000
-69323572544375007681656458838016.000000
228642886731390866866521954582528.000000
-2104747438556891478091228508061696.000000
440143579764245424606607289876480.000000
366252839594102528609620653506560.000000
451274275993110276947353274417152.000000
649972290883021690298099753287680.000000
429736548921472579533408649084928.000000
309212254491170214396227892543488.000000
888066981893662833941463816994816.000000
200746478902597453020418187198464.000000
-96952011657058317145260188237824.000000
695425028569259085204881118593024.000000
352877006533569124936852919287808.000000
171111250586897793028956190932992.000000
54828831535336784154008626397184.000000
701977284658589091975867322597376.000000
285752751335308497942557751246848.000000
-30026071595850407222887755808768.000000
-74965934714888902902103949705216.000000
609122303168636870438583554539520.000000
444160514527960563484873271017472.000000
54983764639001235411971401056256.000000
538968098345461594606281152266240.000000
128529201202733901537864337850368.000000
57722813142591785983585925726208.000000
377652109270426654279881656893440.000000
79406608253163419801027075899392.000000
137574657018023869921692867362816.000000
827019457806599277385008342368256.000000
324642532015353842824748793331712.000000
2212852509224458365101861844811776.000000
494435338651948938707256416927744.000000
420999539642106597383445241921536.000000
253452400501748893779257395773440.000000
-38529532347177580109073701928960.000000
309877837923179696992115459358720.000000
-2925826407828523366132081491968.000000
606194114109286374156721077616640.000000
688653989326247168950687110266880.000000
-329458519023995787745314813771776.000000
237550730618297830465060554670080.000000
498247010140864690682111908118528.000000
1099532894148502238062159968862208.000000
-94001471730676939319284187791360.000000
333774581944376679644782361837568.000000
988527830628157754087455475105792.000000
-15664196399033015523792822206464.000000
4439827555095585700606883397632.000000
-133713903063290767202115148316672.000000
18830126574154053226663006699520.000000
155541636845312792232234751885312.000000
85038521777292498234992612081664.000000
317426485484053838624010346168320.000000
327487249848281225927808730005504.000000
-679493337704615911261876225310720.000000
-239987269490956502501176614322176.000000
-59685411099609446473887874285568.000000
1521398260983330720906695487258624.000000
225313096542999061468790961209344.000000
-100863403876786564801989363892224.000000
132704208624646227870482624937984.000000
588635719013080501861404062515200.000000
531422283197977529902068509179904.000000
1272760213202083717843831610146816.000000
450711591505037910946694079447040.000000
-1740229948056974925545324771540992.000000
404414807285670341296399396634624.000000
-1218231038669099136273126445285376.000000
283602207103232751324058934575104.000000
582820451984318479193551767863296.000000
562198220487188334015226887274496.000000
-477443359257369860921228347310080.000000
-55537587623596800725110814146560.000000
-17972110718312776081672320843776.000000
-117317113877976610000081313071104.000000
217423496477040741983030196830208.000000
270783168857256855945233238589440.000000
230327371882960208748815627321344.000000
640006426947759458716151562895360.000000
459194482197635532126836211318784.000000
-257875664715065665569628075589632.000000
503834863262496725106652113534976.000000
185406012193527396026469673074688.000000
406114689417781724681978779795456.000000
-33909306435280719147430611779584.000000
-24041210901504997760900549050368.000000
-151617749552207243923204289331200.000000
778906814824346311099400654422016.000000
71518167141715600065096493039616.000000
681914721390665513626987155947520.000000
233162216739976161064852429733888.000000
1183761871276391763847483066679296.000000
-241628366734088561096445669670912.000000
21606573404845938701967745351680.000000
57487914147299393851792033841152.000000
946698956642174478488311846404096.000000
888110933164301267013358437007360.000000
1147097827184804456757224248705024.000000
788248224746379847030162010931200.000000
69186648488897609267356436004864.000000
925035661114638950533136637755392.000000
552231992300799769922608285351936.000000
329249754320462446699978564829184.000000
311640100913520302435767349673984.000000
267081464070738525694868513095680.000000
63570143228776094256953171116032.000000
602503373509155864365724910747648.000000
664146992100921448811015576748032.000000
271955140563107350199526529957888.000000
466529113476526526630662632374272.000000
195956085719612360855318131900416.000000
-203958560475577105256739980181504.000000
140917480086090644490330407174144.000000
200971881369129518179445064597504.000000
159178464847801806716812925075456.000000
454522993029886847432594307416064.000000
29486457987047031313837097746432.000000
93965924524199768087986603819008.000000
31837111829292157889638068912128.000000
116481971751693985332074861559808.000000
12008795908539096100716639420416.000000
70971605106057840936637545054208.000000
373207462708344367530401626849280.000000
-24433149743939661473302448177152.000000
484869989370564697359271044579328.000000
540947801849182532937811624984576.000000
306436954802128597792391398686720.000000
208029040042523424572184798953472.000000
543867017527686848684803210870784.000000
321699675266334220749409309687808.000000
512482225558721744579047972667392.000000
125908974378219597407146328719360.000000
244341381553385103663419608793088.000000
942454491455106564800634549174272.000000
213424535181522461332415814041600.000000
322458490540115988104129544192000.000000
-452097746533310425062771655704576.000000
-1251086992261192003660866576711680.000000
-109699026163381490380494010843136.000000
276084224411170040193267852640256.000000
-143627840798550180254469511446528.000000
-129271885341214212997663556632576.000000
102278410046648503855210634936320.000000
362256055707392911594360754143232.000000
922942299620301681798612474920960.000000
128888176042168581223700043399168.000000
839339311720046853976560431529984.000000
-148173686899142861332262781190144.000000
130753698084200486242199556587520.000000
449001475039869278750399717703680.000000
363381463028696495235809740324864.000000
-1136190974028290401781397061632.000000
139673625465793023866688224886784.000000
182238951321949748775106719514624.000000
-591164323713362511355626878140416.000000
97563342836909927135426335735808.000000
6516952828142685244702974803968.000000
128790119939580584826555731017728.000000
147628087992369193778614156394496.000000
755830900178459863483388490940416.000000
10403365079278065195551649955840.000000
84562168271502940325137977704448.000000
541146006521697134880200249573376.000000
831628115802120713546040533319680.000000
331062928300695379094408383168512.000000
713078431557768698081545015001088.000000
570089960023707932813805769195520.000000
86276829849142955202117543919616.000000
352345939137742032321907341131776.000000
-93213723643817146244687135244288.000000
223435249814709366194108404596736.000000
856121614477581842431058068373504.000000
645552337379812809665931720523776.000000
322967098413305799074546274271232.000000
117352130421136832895098810269696.000000
304893874695135056124753104338944.000000
533683815797662138950426623475712.000000
281766049737439881392073484533760.000000
-64709275542802689316540376940544.000000
1148227412390926350713214772183040.000000
689714747091495226304296831156224.000000
-88766240147093062270369579139072.000000
896506112957678582564452483203072.000000
-750428019085054946358082383380480.000000
177207489633590862049630637522944.000000
647175361206602836711361489141760.000000
1100035208016509262207670678454272.000000
180816349699021298958514727682048.000000
870039942844317196669011280003072.000000
1235955559123260029366088350302208.000000
747707968702604345411862764978176.000000
942624126038813371290457129091072.000000
-18788953331040361253925623431168.000000
184808233755987251029397842427904.000000
467987651908701236384895535677440.000000
978459643842099201602879446056960.000000
874216590283749853882752381747200.000000
-45285187860537180342850045345792.000000
-1178566635920297469195116393529344.000000
1179099921773305011273505987100672.000000
361791406530841875189015349559296.000000
794736587474698907366772738883584.000000
317439345550499659734410153951232.000000
218955110689361906525697468268544.000000
588885552421348762573320958771200.000000
193894841278893322446623914065920.000000
-104712373833169879059281249042432.000000
-16981395252905142590636401098752.000000
-273366229435019781879204017078272.000000
338073855751620980552317150429184.000000
341654160150599963795120795418624.000000
1250980914906219832729066203512832.000000
384279653308485179985309709893632.000000
191079870928722992278356373798912.000000
-91665011130680279211765137408000.000000
59316210837961330949214189912064.000000
116063019791839863767600895885312.000000
610710662868098396418733208764416.000000
808419656188071527984275929432064.000000
-786830796209437700819053063438336.000000
-260171852639950101312258403467264.000000
420051409190229831002464093995008.000000
652949340499744319138969642074112.000000
401617090864581789559513514246144.000000
211206644031774308710977065975808.000000
1234482118304848909083427792224256.000000
-74157409539532149358026339385344.000000
-12743877602754486351095345971200.000000
276086751748036168830524690792448.000000
550072965900363355873947838054400.000000
295734824064860755855501225361408.000000
930895195515258545092738741698560.000000
227059445371690708749817145720832.000000
511912018609250075726193432199168.000000
994822454661257823012165248876544.000000
516010257302874321152095897518080.000000
181952790638188659006052663033856.000000
538912203807280861323377845993472.000000
632152697681259478634373826215936.000000
184672814597239790368547451961344.000000
355997178779317870923336694890496.000000
331147851889803029831467050991616.000000
571525828707161967632443471036416.000000
1316822901325646756409412545413120.000000
566385353667682550019334218973184.000000
145466607378273123422664707276800.000000
674394946850215987006895309193216.000000
486070270215668083162715177091072.000000
315739811195696435096528651026432.000000
237072148566801147308201893429248.000000
56639365740754778349580486443008.000000
544787741190311596755590236340224.000000
632404752420502741104507305852928.000000
28175391153907469262806975512576.000000
445881087582196819804727380279296.000000
32758109972038031071371327438848.000000
-603141793582845713834560150568960.000000
576225812838937363221909581332480.000000
837760693962829384503285830909952.000000
248957547268326189060712946466816.000000
-516248108354730606434182970212352.000000
1497899595256750675283538014633984.000000
-267016265860761391485653193064448.000000
977782806026064510529403864743936.000000
717154070064163290679477859778560.000000
913848880604386632979206903955456.000000
-383979711517263734889903785246720.000000
389796941605123163540543569395712.000000
497409695810376524306357761867776.000000
-19236249384617851686695060111360.000000
90547368606613728718191316697088.000000
643713859991208100062924237701120.000000
148847863763848554846710143123456.000000
428214299532688118656973502676992.000000
359196572181772293710615695851520.000000
319124501087345015226254133035008.000000
621830581447170694753013381201920.000000
1009675222829509659623528337506304.000000
373524572449679147100936381399040.000000
173243540219071972466950634733568.000000
502185327251420754325837583482880.000000
294868481628159604934810420641792.000000
619838195033960328289986075951104.000000
134298423005889348669541508448256.000000
451932659666581569630994543149056.000000
-680521290864411098826735175598080.000000
242448072851976596680165495406592.000000
308722089779532843124566142222336.000000
338593217161124696463369194962944.000000
779051252931185449730724071473152.000000
1963932501075049540678947176448.000000
-729227478926615335706089977020416.000000
585576255911595554966696250834944.000000
664189545389605072375701168979968.000000
-888658470867642666302901174927360.000000
-1248343444293102834359165001924608.000000
853806987066093215678291261784064.000000
434344459857454946929061799133184.000000
784599997406790097342442363682816.000000
281162844873065691892449915437056.000000
283462132345653817031347604029440.000000
210172061321645371723489686323200.000000
-2401935224067471406538150683607040.000000
93293172743000493640313443713024.000000
-357376659913434008967521488601088.000000
7063888783561458302211739090944.000000
772681018080776216982518956556288.000000
701078501088272323286163794165760.000000
1096760913362158432169796734812160.000000
27448594799414528657539284860928.000000
457675479793480467772736452689920.000000
200317273402358179137065880387584.000000
741537437078502221046892197838848.000000
208009579926932023919102471962624.000000
-678044662745524708542974407999488.000000
361370460419848627776820915208192.000000
420717375899613788577392043753472.000000
1011016220233813595858603463409664.000000
-701143480981546683442761937453056.000000
117057664737975110920000285704192.000000
186295897811248112819902854725632.000000
565997833158516907802255857549312.000000
-3063634850273684538433453149913088.000000
-416120253090116515344377089884160.000000
290653477524548110550313826516992.000000
-64261461568350402903699733086208.000000
485707959447281010824827046461440.000000
-601426475672959692780713801678848.000000
172676274837501205892256424263680.000000
-114574997679740742641532222308352.000000
594359439278731215695251891027968.000000
211093804409557991233352374419456.000000
446256937056696346345623397597184.000000
910925308164117163691418773880832.000000
339358988083499941042525822779392.000000
502592092421571169161284138565632.000000
808535805009410787837958504316928.000000
195768639935832959571441070637056.000000
387827776364319219025575071973376.000000
-2445868914189206952778679671848960.000000
58167054310174300223139617964032.000000
1460268876474839312190922387619840.000000
-675673390645366512096255768788992.000000
1171407402495476369105902595211264.000000
330471152276089527155463406223360.000000
-251883715420291525028578389393408.000000
114312413596435599581455811870720.000000
1044776552400366491575892372881408.000000
-361365748925527163787338953261056.000000
690769242073838859960505329516544.000000
131367327891421386853441934983168.000000
627631863471327753307904393871360.000000
-111045486239025941866208806567936.000000
330823452317376724713165824196608.000000
789535492073526952215003088814080.000000
261902173824463816094008133812224.000000
583708199439899384955689123184640.000000
-438234317588763886166080168656896.000000
9565470833037888202267078688768.000000
896740549372011132510080832897024.000000
-560275263339473542286901384314880.000000
-280450968052053226968674316845056.000000
945717483028277001479207075708928.000000
-938497793672615283568841345466368.000000
744196208684260247139825871749120.000000
-366373187443460085938433720057856.000000
-403114061407611852926496291160064.000000
718678539897361280377354773856256.000000
439906504817917495591569574592512.000000
140924722187909073859060374175744.000000
777719155502960442409795337584640.000000
-274852502062473387044299893374976.000000
576670953877257567585175567597568.000000
948983994807776323767334260965376.000000
837233109979383750770755519905792.000000
252199712159961456942585244286976.000000
192039275994010218431684760567808.000000
326818182318767581056812554649600.000000
1195228795680316012864267465261056.000000
1010872086205135504177022300585984.000000
981516815181785910659814998933504.000000
1721724926759731764692492520259584.000000
-2392458779397054790647174181945344.000000
700029678957014196914517830533120.000000
29914724943119684434534638551040.000000
-3214212626934202468818428071247872.000000
-508807904379164209044653818773504.000000
951024363562993608945703873150976.000000
-732734726915427843868329487892480.000000
322192671608784456326682211516416.000000
-490311601494188230310311898382336.000000
-2170756364164565354281735011958784.000000
489717808155455465738649378750464.000000
321079840578175613176957989027840.000000
-740963159530517063575632051437568.000000
986775890194043641372764606038016.000000
-47491425524156545252417442152448.000000
203955934099712756307739268874240.000000
284545364515165634257390294532096.000000
104427273311741864119869319938048.000000
1392327311818868021067072933986304.000000
-379821765801732984879796325449728.000000
319134352580664362271716298194944.000000
561334456535002081826757951881216.000000
-495745377790290480131148601098240.000000
540036029788156135296941034569728.000000
254135000893028716400640618659840.000000
-517810513197807948697588094468096.000000
545483663158342967567857504747520.000000
187510782379921250845217527955456.000000
-712843908208267754752002402287616.000000
385207089459969178775155069943808.000000
1626173534407470421097442701213696.000000
-422575509398246163985911517282304.000000
473967384695526931812312906989568.000000
-1612486096298039168170872711151616.000000
909094084021963038944542064640000.000000
-1031058940350822232522376844673024.000000
-38659254797855024501110750576640.000000
-373252059566885359184526025162752.000000
-287908409305121467990686652432384.000000
-422918936662231660470948990025728.000000
288670302553536659795111558774784.000000
1479870555769418778582629256003584.000000
-19759497751914867282471683096576.000000
610271501024996199052053336555520.000000
460671284175569118545220795891712.000000
815119559368866084904148624474112.000000
474558569167215006947140331110400.000000
448672013614880316320675453206528.000000
430251218140226316324712466087936.000000
-82037656187647233186245933793280.000000
1218476822168234880045980397338624.000000
633235089447153009327582522376192.000000
979061286219353917348049573642240.000000
81265836469478308007156176125952.000000
-383485786808948174197550775009280.000000
-288268794155004443444117772435456.000000
-200159678078768602550589146005504.000000
1014142640167455521600519020740608.000000
-205508113494867368863502927134720.000000
-146624748501939948496368196124672.000000
204619725744627612902987573231616.000000
-157841217959924356823572136591360.000000
717493748027194372711670827974656.000000
-290267460718600552513498653917184.000000
-366342567162803919748821181005824.000000
226080279037031171224566763618304.000000
402671497725788759677662415290368.000000
1824266020923989967214707998720.000000
-1842144920362752497400067590717440.000000
749292924719197741496884734722048.000000
-155886436114248748366658604630016.000000
942747467431050551486008514314240.000000
651944320684294891665092610359296.000000
664290885234417808607705129025536.000000
-297642258600641698932508273410048.000000
-447385471657046923486506459856896.000000
650790274090032529994197134999552.000000
484190945058130864238868633223168.000000
-94673541338756271755186956926976.000000
718469774421262372796780121161728.000000
855015451538585618728249790038016.000000
-49024929033547204629827216736256.000000
275518942356169233232762830323712.000000
224753470968187359120490418405376.000000
625076204425180289307726990802944.000000
-661514151052344543961502804082688.000000
-240236668884706389584962736095232.000000
479821524211257535497927502331904.000000
120356245621613793760428314066944.000000
748161641019378838627524345331712.000000
582948258082253285832879788523520.000000
-423010832931037765186099750109184.000000
-93074269361996524189537108230144.000000
-1234544124593950364758896495558656.000000
-508321237958024236988174664990720.000000
645887692200635937128292676534272.000000
-1888737512162582165228184993267712.000000
149307325165091468270509563576320.000000
709550185642068165834632392081408.000000
474716554889377902924423103512576.000000
249979824145369190219183537782784.000000
834836150624706842915263123292160.000000
-277795148440558827803980964298752.000000
775684170016493233715456587595776.000000
994744283189312911704832195166208.000000
681916206978238223950469465636864.000000
341786447924673238132854227992576.000000
-577498937919298241712603749416960.000000
-2057294487736387004899758566277120.000000
1660090773177926848192346102693888.000000
662220317192740760081324142755840.000000
-319998283589878550464515803185152.000000
-858467016135938368113557322596352.000000
1317693443764691485408398650900480.000000
550878447644501178599789998112768.000000
-240457471068263415214445183369216.000000
-84186008364684937626242785476608.000000
473203625368068153709067958747136.000000
-481808105622549538786130607996928.000000
630835072614361678403199089770496.000000
550002422596726969215523951214592.000000
-1309651277576350801880847313010688.000000
806213506542447306881935737880576.000000
-663167945531462065455871658295296.000000
314961267280494107082653626793984.000000
213016359905552948961189365284864.000000
400822651013457759248377905676288.000000
63684258030456400956636973236224.000000
24234879096953651202754617540608.000000
1408922831787893273555110759235584.000000
-430001859654660958501761494024192.000000
419844919531053935872553382838272.000000
691983380266172379399464987656192.000000
390214691294581343115618998550528.000000
591537122954545301054383487713280.000000
424589042133871386293467269300224.000000
-123863687630009324646387435962368.000000
156187591523822501474143259590656.000000
629377158538599099478190820687872.000000
818944444198101519885216304332800.000000
-3073175317933725170272867658498048.000000
-468849309733385413512257549107200.000000
-670344928225387517976828643901440.000000
486010738351625833516638320721920.000000
-388751020893086717946071846223872.000000
1284501258531156994855171549822976.000000
46318125550703622294735173976064.000000
357380096383581876904559596535808.000000
231199984323368939297375621480448.000000
-190538202929991115224566695198720.000000
898168750487523749308052193411072.000000
259176760461881821927920740859904.000000
-402533559235932610873014431514624.000000
-1446232563525564656222043801387008.000000
604456859146278055480840387821568.000000
775811992389249584522012099870720.000000
1160694490637102485225112455872512.000000
-2398314408532569994255163394621440.000000
286982800622279893559377896931328.000000
909786020889579856753978077347840.000000
-314055832048291319291559827996672.000000
537955761699669954885456163241984.000000
561179034975410396403831236722688.000000
-586004704298381445194069923856384.000000
325740880905590801203303666417664.000000
-416170632253442482484962800959488.000000
184914696885011824274580625686528.000000
990041308403706605855665450647552.000000
557494604709788149389693045178368.000000
103168513290859088822532894097408.000000
297224851248036755059989461073920.000000
1299411570045278864874319099461632.000000
-1857218953767152917604895530418176.000000
440140914524822310455677156327424.000000
446654122969031250894621209788416.000000
801938833357451658565938956992512.000000
-668567072179791185914844890005504.000000
-1576923190355188881224061289496576.000000
598189301597397646560554920181760.000000
224947745546426756159670897868800.000000
796396518069632672253212228583424.000000
492286196649439819583788947603456.000000
-559493619597688422991319353262080.000000
1152623341653064960505308598239232.000000
1818488473078058807552047579136.000000
-477911106110405386687411944161280.000000
-160928872403709457635802863370240.000000
525069879759566299976911009349632.000000
-173937467073319508850677762752512.000000
-3156870871649703210726547655753728.000000
-1199295132536030133704806484672512.000000
474812778714837034319782854262784.000000
706487612527043186505239058448384.000000
1770024729230423763766254669660160.000000
-147780353736825588761439347146752.000000
145363477984206703859031651385344.000000
-349514654212667371186716594405376.000000
982670121937971614423652402987008.000000
615833623787338770121343631360000.000000
656908288404956342398055167819776.000000
-377908189639396762832110924857344.000000
-672730930302877036151145532227584.000000
-914825215253302541255838005198848.000000
532332354318851224813420972867584.000000
473133173846253238825484524978176.000000
-751239287813736355912622167556096.000000
755435120680622520976283896119296.000000
311114947750062527608409588498432.000000
231950612656429360307127613128704.000000
-541853256810004628903624565587968.000000
307407071193410071876663511089152.000000
881063979101484001410006202187776.000000
70037253607208728571769264275456.000000
-1892632159051852906945870578057216.000000
781402776059673127298711968284672.000000
402211650640779825844551849869312.000000
-546289824847345611371325442490368.000000
-2105882797273862189259220622245888.000000
99927715201996815436140446220288.000000
827655944595615766130564303683584.000000
106119225396865605066446457536512.000000
-524294181669015993333929379627008.000000
748130609827886091628178049073152.000000
549085592717985742709624072568832.000000
404425506250816889610067651854336.000000
885450468344133321174482528763904.000000
-435829370655236220741683941212160.000000
354277575318215862063036779986944.000000
1517481274253555613912401591664640.000000
203762503650930750423282984419328.000000
120588070949637591688753451106304.000000
610600667764612273938858321641472.000000
-739618673847289973536806978715648.000000
-404894192139353712056092644605952.000000
529881982045213947276053912223744.000000
1034942314266485184399433915170816.000000
888631389055082715620639319785472.000000
753211328469268181639029525053440.000000
-1652002354068752589262356349976576.000000
-764826783792876280523536090529792.000000
-615382800234630242697175164256256.000000
1551614873661178525074550520020992.000000
-145238576018263438824493151158272.000000
233656248467403958341754991673344.000000
923013948486459449611854595227648.000000
367460005059465002135440014180352.000000
829502500855522562367983234056192.000000
-704194649528217844918434645671936.000000
-1000018432170065261216108443074560.000000
1161547746429386199889635111337984.000000
844254022957360642675019062706176.000000
-705956160054504372528284415557632.000000
907888798602434765914505660596224.000000
570237362551835083548761463455744.000000
130916984765364504565878498525184.000000
2415324022074789389665578849927168.000000
427203055971249264481665737031680.000000
661343124841567814613338018545664.000000
289958072629267193478040495587328.000000
311880133659884299620079661744128.000000
531257966227666962670211360096256.000000
994127304185823995102554228785152.000000
-226672414968481303310490889355264.000000
191601686337917409853368109629440.000000
-65733624316357372564162671017984.000000
274011658678834190187537518034944.000000
95325743641429803289517926383616.000000
644056752274703635502578362482688.000000
613243831882654712107743485886464.000000
57404152531904192069074149179392.000000
205475587076513549985369523486720.000000
217828531129055155564670149984256.000000
576694068274605707865970050072576.000000
-297010754525545656700592235479040.000000
684887428192517600690226038046720.000000
-955798015559362403611201389985792.000000
-99064884426144038942832160931840.000000
737917206744287147762008297832448.000000
536017472684427603052469889794048.000000
739582285320297966681836039962624.000000
-716324730606173800260112822042624.000000
637507504825269858382375452409856.000000
-373531406543908531071354409058304.000000
557794026109085390728372519174144.000000
-7395320581812003540065954299904.000000
475466631061698722110620882173952.000000
191120171996066561910690096873472.000000
-182557888118646422735962454884352.000000
148647057088078079748653304512512.000000
16433187068576732762906751401984.000000
1977049560533890257792538637238272.000000
387848627367431693532345743179776.000000
577273286652579373310937615302656.000000
379729735090169371694679956914176.000000
189946046781797804372273573920768.000000
-227919047417770933220762194018304.000000
-474954456866641305473832013791232.000000
-48045882326142483623531713134592.000000
119600809323558517564501280161792.000000
128780307733436113952068805328896.000000
413894583302404917701101391708160.000000
177702250696573372206553428393984.000000
474921403778638784778626159083520.000000
-80468409090190519918260117307392.000000
341607120536008046561310252466176.000000
-130324752807672405470840371544064.000000
602358629842673522931042443329536.000000
-523426341734532681637704872493056.000000
1644844485095531573269541291032576.000000
189837856473499996884940131139584.000000
580801413485655579119166553063424.000000
-34978012921655402861654959980544.000000
-46987228154559094248076027625472.000000
399786613965671156451843743154176.000000
-365574741942383712500847470444544.000000
740907748457248383637740408799232.000000
487356398421291792638615064936448.000000
29943252447994214800737636974592.000000
36287412293352566853055776030720.000000
-126051027210251060252191624265728.000000
367571807483226974111576935628800.000000
-117358841887636940609331931381760.000000
225252152927779764142861432389632.000000
586933481424773168182549712732160.000000
-1059197349230506040675639637311488.000000
545326882170574524981422294302720.000000
454738021531575831974669195411456.000000
560175198736379593157171461750784.000000
242898171077057090192573378592768.000000
-126182315060141051852620832964608.000000
419861997885907188631941133893632.000000
426871509091387465381021839523840.000000
595054227230991129165968359555072.000000
294664370276296127049120457162752.000000
-584733217738792890073984003997696.000000
-289522389536342694855044677763072.000000
616762652617143052356086531096576.000000
346720487910775933686370487238656.000000
-252801867430218578447253481979904.000000
448863768714706135682519549345792.000000
392174625421470513414230780149760.000000
588101075645537869992884455866368.000000
152365684118702474357145094586368.000000
714412297142340798619930859667456.000000
1366620943173046913045695817580544.000000
149312324842332727157492094599168.000000
-114036046758267426748136001896448.000000
882524008072928763430446267629568.000000
-341190159563412279063625609510912.000000
-352241811387368712865496464097280.000000
15135657697470499041652942831616.000000
321618981320660154407862002515968.000000
3916814928976395831367197261824.000000
277034028215917350080927837978624.000000
423989015917993440596388787257344.000000
534950651260102944470070156328960.000000
615473548459064604773567327895552.000000
481089118930383406256965197758464.000000
446821994250113685166568016707584.000000
-709832886296221909845866073554944.000000
492376946184532281631843666624512.000000
-75955048234935015018872419909632.000000
373049575829970553526939256094720.000000
-351205424445639700474767605760.000000
297920439896929149320676746723328.000000
36581358151995246942114249965568.000000
-54083518871216180478467807117312.000000
14298773527469351697813692481536.000000
357157048002976864477764638474240.000000
385435559350856588937009056186368.000000
-42814668827177808336118611968000.000000
-127883286959139866249631650283520.000000
211614028022119946898689111359488.000000
382896020407456915197336030806016.000000
254111340964522776101434073022464.000000
196513350740435836524367932555264.000000
CELL_DATA 2699
TENSORS STRESS float
8817119810896477032995933388800.000000 -4319410930151629724478120919040.000000 0.000000
-4319410930151629724478120919040.000000 1235978909663154744706870542336.000000 0.000000
0.000000 0.000000 0.000000
13410953524971942655862658564096.000000 36431407671001049441066201120768.000000 0.000000
36431407671001049441066201120768.000000 18866423917638067010114290712576.000000 0.000000
0.000000 0.000000 0.000000
40010302446473365284180545503232.000000 -20258624013901484083909830377472.000000 0.000000
-20258624013901484083909830377472.000000 5857292813147241656091496415232.000000 0.000000
0.000000 0.000000 0.000000
19662706492630799947904564854784.000000 23194400978120138974275060105216.000000 0.000000
23194400978120138974275060105216.000000 10339850970487132987789968146432.000000 0.000000
0.000000 0.000000 0.000000
48569866088398343779382676422656.000000 -113107434261328855040025098715136.000000 0.000000
-113107434261328855040025098715136.000000 57634810173927541844686810382336.000000 0.000000
0.000000 0.000000 0.000000
175032446279093741279028451475456.000000 153050414332862450585662056824832.000000 0.000000
153050414332862450585662056824832.000000 61016887476655504594972287434752.000000 0.000000
0.000000 0.000000 0.000000
67945215819914606580601030967296.000000 -16808609474052656965857845444608.000000 0.000000
-16808609474052656965857845444608.000000 2664118762138334204086827614208.000000 0.000000
0.000000 0.000000 0.000000
-23927316674468243135776256163840.000000 11919788932755952274521012043776.000000 0.000000
11919788932755952274521012043776.000000 6089247546960788231463400112128.000000 0.000000
0.000000 0.000000 0.000000
10131934106385287300844135383040.000000 14085753658674343951890187812864.000000 0.000000
14085753658674343951890187812864.000000 6574577489089520883664999677952.000000 0.000000
0.000000 0.000000 0.000000
-22231677846384823478261219590144.000000 -30326786241141501701842733629440.000000 0.000000
-30326786241141501701842733629440.000000 17472848409079399111104514752512.000000 0.000000
0.000000 0.000000 0.000000
4255794952186807829107442712576.000000 868227654311208739020602343424.000000 0.000000
868227654311208739020602343424.000000 176365490540626853160095318016.000000 0.000000
0.000000 0.000000 0.000000
-2991054854131881393205193308372992.000000 200250866293338644732719197585408.000000 0.000000
200250866293338644732719197585408.000000 26115700330883846028403354370048.000000 0.000000
0.000000 0.000000 0.000000
7445378295258729756617672228864.000000 -27742064927570495660763977351168.000000 0.000000
-27742064927570495660763977351168.000000 14705200369295953558692033462272.000000 0.000000
0.000000 0.000000 0.000000
29169873550907720831341481164800.000000 19078860742425283123151271624704.000000 0.000000
19078860742425283123151271624704.000000 6547391102347730296805504581632.000000 0.000000
0.000000 0.000000 0.000000
-75496246146111682461672570617856.000000 -30685329803232431773503784484864.000000 0.000000
-30685329803232431773503784484864.000000 15052541072552986883920138076160.000000 0.000000
0.000000 0.000000 0.000000
43400292510427961797347127590912.000000 18408537756300318558348948537344.000000 0.000000
18408537756300318558348948537344.000000 4725716411725398159300442980352.000000 0.000000
0.000000 0.000000 0.000000
-950759812235094613980268724224.000000 188138246078401933398614474752.000000 0.000000
188138246078401933398614474752.000000 59994749837155077305078382592.000000 0.000000
0.000000 0.000000 0.000000
5923270474849755252373044854784.000000 -1315053494411715566224434790400.000000 0.000000
-1315053494411715566224434790400.000000 729320962921681410933745778688.000000 0.000000
0.000000 0.000000 0.000000
-805728226774494103112736305053696.000000 187256890477059580579257140641792.000000 0.000000
187256890477059580579257140641792.000000 68265665256190735311864770592768.000000 0.000000
0.000000 0.000000 0.000000
-968143588769615125016060077539328.000000 -150622611381861712641749541715968.000000 0.000000
-150622611381861712641749541715968.000000 41330801074474879010745471729664.000000 0.000000
0.000000 0.000000 0.000000
-18412842480219600900386869194260480.000000 448708057233669929078673108893696.000000 0.000000
448708057233669929078673108893696.000000 21787158492069121754618484752384.000000 0.000000
0.000000 0.000000 0.000000
26949015946327718585642015260672.000000 -288514841564057671071088771072.000000 0.000000
-288514841564057671071088771072.000000 31863567508149874214867828736.000000 0.000000
0.000000 0.000000 0.000000
10324159921234056843754488201216.000000 1073574559044750599164981673984.000000 0.000000
1073574559044750599164981673984.000000 73882347592931762734886813696.000000 0.000000
0.000000 0.000000 0.000000
-137185431003591860798294606217216.000000 35541870847307285694440657649664.000000 0.000000
35541870847307285694440657649664.000000 13821368491590707264846783578112.000000 0.000000
0.000000 0.000000 0.000000
21081265509290490976576907247616.000000 -11345832773330654629983200215040.000000 0.000000
-11345832773330654629983200215040.000000 3444727707437690752409423314944.000000 0.000000
0.000000 0.000000 0.000000
1496213050979207861224423292928.000000 26764054393538163866817611694080.000000 0.000000
26764054393538163866817611694080.000000 14762329315192548895220773683200.000000 0.000000
0.000000 0.000000 0.000000
-257739492493375953030405272109056.000000 94950046210783336806211588718592.000000 0.000000
94950046210783336806211588718592.000000 43839956512247051412690907955200.000000 0.000000
0.000000 0.000000 0.000000
28190835643374240379234789883904.000000 31855368724160608737731056500736.000000 0.000000
31855368724160608737731056500736.000000 14034082860494024767148920930304.000000 0.000000
0.000000 0.000000 0.000000
9237022596854039760515557752832.000000 -14680239634358951717789522460672.000000 0.000000
-14680239634358951717789522460672.000000 7062850806465457407323411578880.000000 0.000000
0.000000 0.000000 0.000000
-14563819509804216714149232640.000000 -12640349743210662495493050859520.000000 0.000000
-12640349743210662495493050859520.000000 7049184672848668869899635916800.000000 0.000000
0.000000 0.000000 0.000000
-38141690047266503134725486168506368.000000 -696807649002251840175337600188416.000000 0.000000
-696807649002251840175337600188416.000000 25417052162683003052375995842560.000000 0.000000
0.000000 0.000000 0.000000
8581082640131991906525080715264.000000 -2323510900806129180145199611904.000000 0.000000
-2323510900806129180145199611904.000000 399723635945672838412192710656.000000 0.000000
0.000000 0.000000 0.000000
-9512661277871105099063642554368.000000 15531969148578182793215323668480.000000 0.000000
15531969148578182793215323668480.000000 8991649734486273461833282093056.000000 0.000000
0.000000 0.000000 0.000000
33756288352261536738007375151104.000000 -43805083041156553994344717090816.000000 0.000000
-43805083041156553994344717090816.000000 20089118050008053120410725646336.000000 0.000000
0.000000 0.000000 0.000000
88091041035184431145546057515008.000000 75711205184562038857082349813760.000000 0.000000
75711205184562038857082349813760.000000 29975033628307952184790018424832.000000 0.000000
0.000000 0.000000 0.000000
-1511619888372733614511443935232.000000 40178934229024880571630235942912.000000 0.000000
40178934229024880571630235942912.000000 22457530510372835611160197726208.000000 0.000000
0.000000 0.000000 0.000000
-214334495027291407168018178899968.000000 27448904863957840777791976505344.000000 0.000000
27448904863957840777791976505344.000000 6432727225240625168641488322560.000000 0.000000
0.000000 0.000000 0.000000
-29965840424377407677873566777344.000000 59375605324272064447763705757696.000000 0.000000
59375605324272064447763705757696.000000 34313347440724870450536039579648.000000 0.000000
0.000000 0.000000 0.000000
9354930513656009131890730598400.000000 13209159674329168781580800360448.000000 0.000000
13209159674329168781580800360448.000000 6188202246050849457448383676416.000000 0.000000
0.000000 0.000000 0.000000
-858343478490280901201910300672.000000 -218432178560776587879290765312.000000 0.000000
-218432178560776587879290765312.000000 84051468028157730764858851328.000000 0.000000
0.000000 0.000000 0.000000
28057752525084827009816681512960.000000 -24863843402321640806621988782080.000000 0.000000
-24863843402321640806621988782080.000000 9926158962048052926698278092800.000000 0.000000
0.000000 0.000000 0.000000
17875124228643320026822560710656.000000 -45147751703250641411027614302208.000000 0.000000
-45147751703250641411027614302208.000000 23215821916793712690474807984128.000000 0.000000
0.000000 0.000000 0.000000
2563617353428865292889497796608.000000 2741927498272271545944523145216.000000 0.000000
2741927498272271545944523145216.000000 1184933793266870856814650458112.000000 0.000000
0.000000 0.000000 0.000000
547488270768512345181593272320.000000 -325196868673181352951004790784.000000 0.000000
-325196868673181352951004790784.000000 105158240890565032732621012992.000000 0.000000
0.000000 0.000000 0.000000
-58569736522246872572720593240064.000000 -8052952235196331589001445113856.000000 0.000000
-8052952235196331589001445113856.000000 2003877638539605129426953568256.000000 0.000000
0.000000 0.000000 0.000000
-36283687651322956489224542486528.000000 -45657042521944600971458929229824.000000 0.000000
-45657042521944600971458929229824.000000 26238462365335785579646761828352.000000 0.000000
0.000000 0.000000 0.000000
17609710066514964093335452516352.000000 -12473634893475851806408890646528.000000 0.000000
-12473634893475851806408890646528.000000 4379503723871937984788007223296.000000 0.000000
0.000000 0.000000 0.000000
5323620820447466576194735964160.000000 -32953660256790214755597884063744.000000 0.000000
-32953660256790214755597884063744.000000 17848987009505701379753652518912.000000 0.000000
0.000000 0.000000 0.000000
616277565015052273082286735360.000000 -7182928525548541274764498436096.000000 0.000000
-7182928525548541274764498436096.000000 3942967721272505167724958187520.000000 0.000000
0.000000 0.000000 0.000000
902034525880530450031323381760.000000 -16673669880581483708529153933312.000000 0.000000
-16673669880581483708529153933312.000000 10026789333299941155640847630336.000000 0.000000
0.000000 0.000000 0.000000
-31264668898642263028616931573760.000000 22636313888824598291990574006272.000000 0.000000
22636313888824598291990574006272.000000 12467333162300393017202884739072.000000 0.000000
0.000000 0.000000 0.000000
47319102009189247452597714944.000000 19319974996030084368524378112.000000 0.000000
19319974996030084368524378112.000000 4714833718897537459748339712.000000 0.000000
0.000000 0.000000 0.000000
20735100719046780612563802521600.000000 1021696920554393650626306244608.000000 0.000000
1021696920554393650626306244608.000000 33503862058951891502472626176.000000 0.000000
0.000000 0.000000 0.000000
-7560721350954117482912547864576.000000 3787541438865872927859102711808.000000 0.000000
3787541438865872927859102711808.000000 1963507706107294204659570311168.000000 0.000000
0.000000 0.000000 0.000000
1620464183524432591525376950272.000000 -19239436411123244273054943019008.000000 0.000000
-19239436411123244273054943019008.000000 10627305281682147492626490720256.000000 0.000000
0.000000 0.000000 0.000000
7694601752566275943515339882496.000000 -54140599179093029078395053408256.000000 0.000000
-54140599179093029078395053408256.000000 29432902084174425983107712679936.000000 0.000000
0.000000 0.000000 0.000000
-94347406713102116625979609316327424.000000 835825194423632429600210340020224.000000 0.000000
835825194423632429600210340020224.000000 14798794125552002209268132478976.000000 0.000000
0.000000 0.000000 0.000000
19948392929132603933718478848.000000 -507025364575823299249963008.000000 0.000000
-507025364575823299249963008.000000 734258103096018124243206144.000000 0.000000
0.000000 0.000000 0.000000
135741420024796146017511669760.000000 -140769501887877757908591575040.000000 0.000000
-140769501887877757908591575040.000000 60165682201036064390876495872.000000 0.000000
0.000000 0.000000 0.000000
-10075435496449393443472886726656.000000 -25878800691520876340046179860480.000000 0.000000
-25878800691520876340046179860480.000000 14906534202996584268232684208128.000000 0.000000
0.000000 0.000000 0.000000
27851520191008336150282633216.000000 24861824812304846574881603584.000000 0.000000
24861824812304846574881603584.000000 10008723877916105295993503744.000000 0.000000
0.000000 0.000000 0.000000
60271602715417450539777368522752.000000 47890624027469523244420035510272.000000 0.000000
47890624027469523244420035510272.000000 18301169527074286447826223235072.000000 0.000000
0.000000 0.000000 0.000000
1224887624927063660177595039744.000000 -2084601192925300187314295668736.000000 0.000000
-2084601192925300187314295668736.000000 984329555533812785912599281664.000000 0.000000
0.000000 0.000000 0.000000
-14797878332725058020327800438784.000000 -44424442498341215465090597257216.000000 0.000000
-44424442498341215465090597257216.000000 25951479013929234781187099066368.000000 0.000000
0.000000 0.000000 0.000000
-45293038206514055260252198141952.000000 -16542566611925712312701095510016.000000 0.000000
-16542566611925712312701095510016.000000 7611314426778625341207657578496.000000 0.000000
0.000000 0.000000 0.000000
-1160485287573088925066540875776.000000 -171153770747668980166482198528.000000 0.000000
-171153770747668980166482198528.000000 50273606249143503375084552192.000000 0.000000
0.000000 0.000000 0.000000
30344117456623667091783190315008.000000 -27893546728280237707629648936960.000000 0.000000
-27893546728280237707629648936960.000000 11362058138450617325761786281984.000000 0.000000
0.000000 0.000000 0.000000
6324439040728383929802280665088.000000 9054769028677618353640675737600.000000 0.000000
9054769028677618353640675737600.000000 4298099628332511870115521757184.000000 0.000000
0.000000 0.000000 0.000000
30909719859079909936576832995328.000000 -10607045792945184811774675779584.000000 0.000000
-10607045792945184811774675779584.000000 2249627421962003141761632829440.000000 0.000000
0.000000 0.000000 0.000000
5071484980405467834037018034176.000000 -10909648881000826864780439453696.000000 0.000000
-10909648881000826864780439453696.000000 5507856473969710027904441647104.000000 0.000000
0.000000 0.000000 0.000000
-5499829771721004271833588873297920.000000 -200641284687329406887454501240832.000000 0.000000
-200641284687329406887454501240832.000000 14639985003466335177876059455488.000000 0.000000
0.000000 0.000000 0.000000
48388977482418950665225939976192.000000 -29222183724188785801439460982784.000000 0.000000
-29222183724188785801439460982784.000000 9608811309238830705723849048064.000000 0.000000
0.000000 0.000000 0.000000
27241080834815775850732198035456.000000 31134342116191748509690243317760.000000 0.000000
31134342116191748509690243317760.000000 13756369084534195261223479541760.000000 0.000000
0.000000 0.000000 0.000000
-306290997965528067943372850987008.000000 -58695282035879090671119509749760.000000 0.000000
-58695282035879090671119509749760.000000 18928396002828616747460971200512.000000 0.000000
0.000000 0.000000 0.000000
61804186336769781029156100767744.000000 -24115980178124046239306864394240.000000 0.000000
-24115980178124046239306864394240.000000 5714982545873637712489196027904.000000 0.000000
0.000000 0.000000 0.000000
19353054788938876502274713059328.000000 10599597964694708498956592087040.000000 0.000000
10599597964694708498956592087040.000000 3239084854034234267972967333888.000000 0.000000
0.000000 0.000000 0.000000
79606024989527404018843225423872.000000 -18813501610971233037255767490560.000000 0.000000
-18813501610971233037255767490560.000000 2875518293756991844325158551552.000000 0.000000
0.000000 0.000000 0.000000
3057266720231878207605833728.000000 1152046789615866882226651136.000000 0.000000
1152046789615866882226651136.000000 264563617163112871802961920.000000 0.000000
0.000000 0.000000 0.000000
-207023776321561182295726787395584.000000 -1107851415931366792221132062720.000000 0.000000
-1107851415931366792221132062720.000000 62400318650291887363390963712.000000 0.000000
0.000000 0.000000 0.000000
-13964170683252816999562214140542976.000000 -411067048601401898159693300236288.000000 0.000000
-411067048601401898159693300236288.000000 24112398292194565857188492869632.000000 0.000000
0.000000 0.000000 0.000000
-369936886010136046473138143232.000000 -114955804213085187410535383040.000000 0.000000
-114955804213085187410535383040.000000 49155622522839735929153781760.000000 0.000000
0.000000 0.000000 0.000000
-717710318951666039289269155004416.000000 -129924371187147844262259582828544.000000 0.000000
-129924371187147844262259582828544.000000 39930164317539474498143607848960.000000 0.000000
0.000000 0.000000 0.000000
-485889657524391335874897421271040.000000 -86596935505444930664784782688256.000000 0.000000
-86596935505444930664784782688256.000000 26351153826800392348435501547520.000000 0.000000
0.000000 0.000000 0.000000
46809297672211102881595934113792.000000 29125085734103265329981423616000.000000 0.000000
29125085734103265329981423616000.000000 9677198773806416884014621130752.000000 0.000000
0.000000 0.000000 0.000000
86096544558199568360164818944.000000 -258715807998221903222687137792.000000 0.000000
-258715807998221903222687137792.000000 134136189380790826071308107776.000000 0.000000
0.000000 0.000000 0.000000
1051335002977226090172030910464.000000 -1280731302707988842867685588992.000000 0.000000
-1280731302707988842867685588992.000000 546829931871695679422336073728.000000 0.000000
0.000000 0.000000 0.000000
-704508042536498252874692689920.000000 -52984993362842854478728658944.000000 0.000000
-52984993362842854478728658944.000000 7728565000903977638721224704.000000 0.000000
0.000000 0.000000 0.000000
689648126814689239799886249984.000000 3788662085003470544225578254336.000000 0.000000
3788662085003470544225578254336.000000 2088056165406794174828835241984.000000 0.000000
0.000000 0.000000 0.000000
74718314420605789067592725430272.000000 -39765679848177450658345974235136.000000 0.000000
-39765679848177450658345974235136.000000 11911331651920054319326706008064.000000 0.000000
0.000000 0.000000 0.000000
11717328592589600622486986162176.000000 25240372677557537248385305673728.000000 0.000000
25240372677557537248385305673728.000000 12739311710531375147977428434944.000000 0.000000
0.000000 0.000000 0.000000
5001835753487446547219087360.000000 3335906489333753881156386816.000000 0.000000
3335906489333753881156386816.000000 1156004750546207728964993024.000000 0.000000
0.000000 0.000000 0.000000
1300181794315622376287393284096.000000 -652484447190212352832939491328.000000 0.000000
-652484447190212352832939491328.000000 187532199809638775728067575808.000000 0.000000
0.000000 0.000000 0.000000
110661037814348325422850642018304.000000 175687680510240091595475689406464.000000 0.000000
175687680510240091595475689406464.000000 84442727630010577524185423151104.000000 0.000000
0.000000 0.000000 0.000000
-4485912518811845113650360933679104.000000 297089715424795424986244610785280.000000 0.000000
297089715424795424986244610785280.000000 38353546201785619556304376823808.000000 0.000000
0.000000 0.000000 0.000000
10141137371838133843872500940800.000000 -4183592940389899318864352641024.000000 0.000000
-4183592940389899318864352641024.000000 1034359484111875781643173101568.000000 0.000000
0.000000 0.000000 0.000000
-1236707593995411589052214804480.000000 -5870778383247397863670331473920.000000 0.000000
-5870778383247397863670331473920.000000 3376849256978559427691325423616.000000 0.000000
0.000000 0.000000 0.000000
-26675002335627240445399896424448.000000 11826281249511434135037869555712.000000 0.000000
11826281249511434135037869555712.000000 5846197831340006230250313744384.000000 0.000000
0.000000 0.000000 0.000000
38496455254344409285661609164800.000000 -2342479119813495222958735491072.000000 0.000000
-2342479119813495222958735491072.000000 94796815692615181368440127488.000000 0.000000
0.000000 0.000000 0.000000
13636160519023903403813487247360.000000 8266146238689182160921619857408.000000 0.000000
8266146238689182160921619857408.000000 2706006646336389387122806620160.000000 0.000000
0.000000 0.000000 0.000000
3613246414233640048325646352384.000000 2996027061989000947715329228800.000000 0.000000
2996027061989000947715329228800.000000 1184553746902627435639006560256.000000 0.000000
0.000000 0.000000 0.000000
-7207210655031630492285746020352.000000 -321804189906662792685986775040.000000 0.000000
-321804189906662792685986775040.000000 31995525703074585254958202880.000000 0.000000
0.000000 0.000000 0.000000
-9494274579038676016807366623232.000000 -8145021029913484375065131745280.000000 0.000000
-8145021029913484375065131745280.000000 4583507108422742503934339842048.000000 0.000000
0.000000 0.000000 0.000000
10392695713946203751034698858496.000000 3237872193513690832238681260032.000000 0.000000
3237872193513690832238681260032.000000 631752352323153961421688012800.000000 0.000000
0.000000 0.000000 0.000000
-339331165765714206942972052766720.000000 53620121658542041051070487068672.000000 0.000000
53620121658542041051070487068672.000000 14890216600584326563038538760192.000000 0.000000
0.000000 0.000000 0.000000
-22749610052650576703855397961728.000000 64885428802214760956086561275904.000000 0.000000
64885428802214760956086561275904.000000 37259679627843997573738101997568.000000 0.000000
0.000000 0.000000 0.000000
7849429017848580134382906376192.000000 44139862492113788364071364460544.000000 0.000000
44139862492113788364071364460544.000000 23831127655701706723357945233408.000000 0.000000
0.000000 0.000000 0.000000
-164067749369451388182616445288448.000000 40747362149716091680597909438464.000000 0.000000
40747362149716091680597909438464.000000 15456100093988266934735202156544.000000 0.000000
0.000000 0.000000 0.000000
627879385531703047182243332096.000000 -795957021715054225202880708608.000000 0.000000
-795957021715054225202880708608.000000 390349195036363019457537245184.000000 0.000000
0.000000 0.000000 0.000000
-5614311269842810735731654262784.000000 -16018678703659484942786172551168.000000 0.000000
-16018678703659484942786172551168.000000 9197694958792417675252116488192.000000 0.000000
0.000000 0.000000 0.000000
-55106340207332667423204363468800.000000 35827187512985016604441767313408.000000 0.000000
35827187512985016604441767313408.000000 19410207995469761146521682706432.000000 0.000000
0.000000 0.000000 0.000000
7409018726533269936029141303296.000000 4798114715650445589037117865984.000000 0.000000
4798114715650445589037117865984.000000 1636131533321843783840051494912.000000 0.000000
0.000000 0.000000 0.000000
-1235669666589881404880905568256.000000 275668159574906575701407694848.000000 0.000000
275668159574906575701407694848.000000 109585928592798507478588325888.000000 0.000000
0.000000 0.000000 0.000000
96120686934961023835780939776.000000 27388995448358995984779086659584.000000 0.000000
27388995448358995984779086659584.000000 15239456144234786036046505181184.000000 0.000000
0.000000 0.000000 0.000000
25082196066305958793519799730176.000000 -25688537586063948998191404285952.000000 0.000000
-25688537586063948998191404285952.000000 11644475524149526614640831758336.000000 0.000000
0.000000 0.000000 0.000000
-40671577146964948492394581458944.000000 29181061735757583603657433153536.000000 0.000000
29181061735757583603657433153536.000000 16056494403157684836114997706752.000000 0.000000
0.000000 0.000000 0.000000
7213591167608186174337166868480.000000 -3903340777827173406051680649216.000000 0.000000
-3903340777827173406051680649216.000000 1182749334798722853426320900096.000000 0.000000
0.000000 0.000000 0.000000
-51855719765239959237582204698624.000000 46252407581140431195300534681600.000000 0.000000
46252407581140431195300534681600.000000 26093486201152212313420651823104.000000 0.000000
0.000000 0.000000 0.000000
10418529179160446182616184389632.000000 4929536047279943456467974094848.000000 0.000000
4929536047279943456467974094848.000000 1355475029268184943597495255040.000000 0.000000
0.000000 0.000000 0.000000
-49271422283626607714285842857984.000000 -3824910286803302520657585111040.000000 0.000000
-3824910286803302520657585111040.000000 573393888276257935342692204544.000000 0.000000
0.000000 0.000000 0.000000
17828394121161790380871692320768.000000 -7629486225779761018432791773184.000000 0.000000
-7629486225779761018432791773184.000000 1944156579869755789253730631680.000000 0.000000
0.000000 0.000000 0.000000
-27798445467406438872809042083840.000000 -8078792859159412060048181952512.000000 0.000000
-8078792859159412060048181952512.000000 3339431638950608355076249485312.000000 0.000000
0.000000 0.000000 0.000000
-168811469273289225071304510537728.000000 43663765754692591620157696114688.000000 0.000000
43663765754692591620157696114688.000000 16960069065698523468508122054656.000000 0.000000
0.000000 0.000000 0.000000
-63515445973299463416521634611200.000000 24790862293765640095670376333312.000000 0.000000
24790862293765640095670376333312.000000 11698720102372639241371314552832.000000 0.000000
0.000000 0.000000 0.000000
-269158268467638073463657797255168.000000 -2703995714968758289334311845888.000000 0.000000
-2703995714968758289334311845888.000000 172876164131633188130279915520.000000 0.000000
0.000000 0.000000 0.000000
40653809095907513219217555980288.000000 -17510369113312277807328990855168.000000 0.000000
-17510369113312277807328990855168.000000 4483829789595826834417957994496.000000 0.000000
0.000000 0.000000 0.000000
-5103249991929547112444317401088.000000 -21829967486735929058188767264768.000000 0.000000
-21829967486735929058188767264768.000000 12502863061211670911323574632448.000000 0.000000
0.000000 0.000000 0.000000
4809973576323425206228261797888.000000 -9433978288927124628305912791040.000000 0.000000
-9433978288927124628305912791040.000000 4702753504702563156837428887552.000000 0.000000
0.000000 0.000000 0.000000
6424468911946820462397609738240.000000 2295339116173529395327978700800.000000 0.000000
2295339116173529395327978700800.000000 489634612081053914861651623936.000000 0.000000
0.000000 0.000000 0.000000
20044514195454829939733878013952.000000 -9214219727968087763382840590336.000000 0.000000
-9214219727968087763382840590336.000000 2593856975175704851933831364608.000000 0.000000
0.000000 0.000000 0.000000
-61857499793935978965580770181120.000000 -73584706854209654036984911364096.000000 0.000000
-73584706854209654036984911364096.000000 42220731034239039391853273153536.000000 0.000000
0.000000 0.000000 0.000000
31644382580188129246050254848.000000 -81296037940448795033952321536.000000 0.000000
-81296037940448795033952321536.000000 40796088940176172463092137984.000000 0.000000
0.000000 0.000000 0.000000
-312425973287997219444621312.000000 9593066017673719669925609472.000000 0.000000
9593066017673719669925609472.000000 5358415369604415595550343168.000000 0.000000
0.000000 0.000000 0.000000
12208055153780792943419909472256.000000 -39869162736564425774350192345088.000000 0.000000
-39869162736564425774350192345088.000000 20929105670465781751695143862272.000000 0.000000
0.000000 0.000000 0.000000
-25541037733428072727363715072.000000 5146841806929138591366905856.000000 0.000000
5146841806929138591366905856.000000 1079202244027432888990433280.000000 0.000000
0.000000 0.000000 0.000000
-241725423200693134516922439696384.000000 -32415087424748291914377367388160.000000 0.000000
-32415087424748291914377367388160.000000 7892223887461374939262565220352.000000 0.000000
0.000000 0.000000 0.000000
20617871600442446525382772391936.000000 -23224236094663081774710874177536.000000 0.000000
-23224236094663081774710874177536.000000 10213387312605657709405272014848.000000 0.000000
0.000000 0.000000 0.000000
11344366676888347863140108599296.000000 -1785352237302580305153469972480.000000 0.000000
-1785352237302580305153469972480.000000 185389408435650181110534504448.000000 0.000000
0.000000 0.000000 0.000000
2254709599199422144275546112.000000 -1088554221233663299712712704.000000 0.000000
-1088554221233663299712712704.000000 303912478682012918480896000.000000 0.000000
0.000000 0.000000 0.000000
8936398341956789916739120922624.000000 -8092601962643826826282872602624.000000 0.000000
-8092601962643826826282872602624.000000 3278439066777138261747960905728.000000 0.000000
0.000000 0.000000 0.000000
77868569939887739356272060792832.000000 78326276536323818786419912998912.000000 0.000000
78326276536323818786419912998912.000000 33077085611863809258914213527552.000000 0.000000
0.000000 0.000000 0.000000
20818557204545699280503066066944.000000 12106929993287750471156800421888.000000 0.000000
12106929993287750471156800421888.000000 3851728320178846650099075907584.000000 0.000000
0.000000 0.000000 0.000000
14742376992904825221400450039808.000000 8997960126224163611490656452608.000000 0.000000
8997960126224163611490656452608.000000 2967290001616507863158665248768.000000 0.000000
0.000000 0.000000 0.000000
-40494763456356057134292633911296.000000 3134329300081442274442204938240.000000 0.000000
3134329300081442274442204938240.000000 468722842318619907403001364480.000000 0.000000
0.000000 0.000000 0.000000
21068266574677540064645382930432.000000 15929925357919268817142192013312.000000 0.000000
15929925357919268817142192013312.000000 6100739400847129127940215799808.000000 0.000000
0.000000 0.000000 0.000000
-19406974582262780032260658692096.000000 -19106033765561259005113761005568.000000 0.000000
-19106033765561259005113761005568.000000 10857338478748179733676115886080.000000 0.000000
0.000000 0.000000 0.000000
16746884005094165595776257884160.000000 -14079975974694741540877992198144.000000 0.000000
-14079975974694741540877992198144.000000 5516540891444494247129811779584.000000 0.000000
0.000000 0.000000 0.000000
-4736350868802237440225968128.000000 13357809427867978195634487296.000000 0.000000
13357809427867978195634487296.000000 8094256842689601686143500288.000000 0.000000
0.000000 0.000000 0.000000
10905803117670786435082681843712.000000 12428605405691452352989109420032.000000 0.000000
12428605405691452352989109420032.000000 4262655825870860975660989415424.000000 0.000000
0.000000 0.000000 0.000000
32659392727712686158458214416384.000000 -7556184285902350574042749075456.000000 0.000000
-7556184285902350574042749075456.000000 1126659175956227250627316547584.000000 0.000000
0.000000 0.000000 0.000000
12790116206329164275046628196352.000000 -4134659015344953901924816519168.000000 0.000000
-4134659015344953901924816519168.000000 836007600183744004800307527680.000000 0.000000
0.000000 0.000000 0.000000
-7751834347640300696011538432.000000 22122925600097399686104612864.000000 0.000000
22122925600097399686104612864.000000 12704003657960789854218354688.000000 0.000000
0.000000 0.000000 0.000000
-1346383826230203878488106074112.000000 -66029454077008156987344660987904.000000 0.000000
-66029454077008156987344660987904.000000 36822123614365543539828376731648.000000 0.000000
0.000000 0.000000 0.000000
29902621253708935644837754961920.000000 -100983855335360278350618739867648.000000 0.000000
-100983855335360278350618739867648.000000 53198736242765266319646778195968.000000 0.000000
0.000000 0.000000 0.000000
-60047506282490002397367199858688.000000 13412863525115563304571170193408.000000 0.000000
13412863525115563304571170193408.000000 4932066627817580654690794733568.000000 0.000000
0.000000 0.000000 0.000000
2498349653108779677130831167488.000000 -16149906845185603094194019106816.000000 0.000000
-16149906845185603094194019106816.000000 8757988945825181048992117555200.000000 0.000000
0.000000 0.000000 0.000000
-5648525818788482124500267171840.000000 13632345376396315058434591424512.000000 0.000000
13632345376396315058434591424512.000000 7883037884246567434054575063040.000000 0.000000
0.000000 0.000000 0.000000
-445968952333381279929132384256.000000 -103976915267616348760189173760.000000 0.000000
-103976915267616348760189173760.000000 37965492953921404353019641856.000000 0.000000
0.000000 0.000000 0.000000
2691775095517056804224761856.000000 -908523406591084255518916608.000000 0.000000
-908523406591084255518916608.000000 1566839719732910061596442624.000000 0.000000
0.000000 0.000000 0.000000
60241534915679852125192613527552.000000 57542219907353051682364802990080.000000 0.000000
57542219907353051682364802990080.000000 23854097880048706947354808287232.000000 0.000000
0.000000 0.000000 0.000000
-265069287760254700943081033695232.000000 98270682836433718107531462574080.000000 0.000000
98270682836433718107531462574080.000000 45481720983687773581360043655168.000000 0.000000
0.000000 0.000000 0.000000
25840951070601847316261573230592.000000 -186136060928468145538005467136.000000 0.000000
-186136060928468145538005467136.000000 3324037584973123979403329536.000000 0.000000
0.000000 0.000000 0.000000
-79530179396014343681560039915520.000000 49740020490251885525401948127232.000000 0.000000
49740020490251885525401948127232.000000 26821019870338091643851511955456.000000 0.000000
0.000000 0.000000 0.000000
6989421206583790968947255279616.000000 -10835455983162837761193267953664.000000 0.000000
-10835455983162837761193267953664.000000 5179112099804350163810097561600.000000 0.000000
0.000000 0.000000 0.000000
30126232363616297872384231211008.000000 21525157336600129909913225789440.000000 0.000000
21525157336600129909913225789440.000000 7760559156618469602099929808896.000000 0.000000
0.000000 0.000000 0.000000
12687480397791285265062344785920.000000 2699715361851891218981006082048.000000 0.000000
2699715361851891218981006082048.000000 386178923899119421951121031168.000000 0.000000
0.000000 0.000000 0.000000
48703939069608110004157546496.000000 119520796246591410940963454976.000000 0.000000
119520796246591410940963454976.000000 61829420695082350799581347840.000000 0.000000
0.000000 0.000000 0.000000
11508471690950636105815436558336.000000 -7819982153598505952693895299072.000000 0.000000
-7819982153598505952693895299072.000000 2740324280455354462358594387968.000000 0.000000
0.000000 0.000000 0.000000
-338443922666676500286934584655872.000000 -67053533225841076725276194373632.000000 0.000000
-67053533225841076725276194373632.000000 22002976192578344082714853900288.000000 0.000000
0.000000 0.000000 0.000000
-177776750456168509181508752244736.000000 -54436961080376637676193480441856.000000 0.000000
-54436961080376637676193480441856.000000 23133645634625656193985737129984.000000 0.000000
0.000000 0.000000 0.000000
15813206436485929939750331875328.000000 -25590883873156076406027442978816.000000 0.000000
-25590883873156076406027442978816.000000 12347061630246700024154432733184.000000 0.000000
0.000000 0.000000 0.000000
118736030861389048010826030514176.000000 -40335808436621253625318008160256.000000 0.000000
-40335808436621253625318008160256.000000 8484332617991402304707672145920.000000 0.000000
0.000000 0.000000 0.000000
43719623867837108730471183810560.000000 21649365643427133134278129352704.000000 0.000000
21649365643427133134278129352704.000000 6166597230028958496440933416960.000000 0.000000
0.000000 0.000000 0.000000
-20756902202837474057791171723264.000000 -8526924264011072721778211028992.000000 0.000000
-8526924264011072721778211028992.000000 4121346806283876966955774640128.000000 0.000000
0.000000 0.000000 0.000000
4383401310291042591970275885056.000000 68906059032602263847891369984.000000 0.000000
68906059032602263847891369984.000000 2291215226962536532623228928.000000 0.000000
0.000000 0.000000 0.000000
-841149182168779405348738957312.000000 152338890942798508352883130368.000000 0.000000
152338890942798508352883130368.000000 26556234705266849381676482560.000000 0.000000
0.000000 0.000000 0.000000
33431249169143190933660579659776.000000 -12622647647120344953267471515648.000000 0.000000
-12622647647120344953267471515648.000000 2903066183976169222198209282048.000000 0.000000
0.000000 0.000000 0.000000
1412134570116245366690860236800.000000 12793056152457154657499364720640.000000 0.000000
12793056152457154657499364720640.000000 6989714904753608101714831867904.000000 0.000000
0.000000 0.000000 0.000000
-13617987478420314277735984791552.000000 -21987699632263436797560263540736.000000 0.000000
-21987699632263436797560263540736.000000 12689614443319317736743988363264.000000 0.000000
0.000000 0.000000 0.000000
-696352154517185815600140103188480.000000 94445391160978504444027848359936.000000 0.000000
94445391160978504444027848359936.000000 23211668438365595146953972252672.000000 0.000000
0.000000 0.000000 0.000000
121018725555479230550986719232.000000 -160457554201064638606634647552.000000 0.000000
-160457554201064638606634647552.000000 83470656814528493125036408832.000000 0.000000
0.000000 0.000000 0.000000
-75847889410465302922522802520064.000000 34528827297053238541096172126208.000000 0.000000
34528827297053238541096172126208.000000 17185915028894879337794727051264.000000 0.000000
0.000000 0.000000 0.000000
-11984692005723949846367859376128.000000 11156358496211685048591203696640.000000 0.000000
11156358496211685048591203696640.000000 6315774053084020299399461601280.000000 0.000000
0.000000 0.000000 0.000000
32829228020626230848052342554624.000000 17844121164698826715898459455488.000000 0.000000
17844121164698826715898459455488.000000 5424282401630777546832531685376.000000 0.000000
0.000000 0.000000 0.000000
17040133876565622067268943872.000000 -12149194172498962977644347392.000000 0.000000
-12149194172498962977644347392.000000 6275658159917304011535941632.000000 0.000000
0.000000 0.000000 0.000000
-2715739745995386068216301223936.000000 4565882705737265622318061715456.000000 0.000000
4565882705737265622318061715456.000000 2662639204578918741167371714560.000000 0.000000
0.000000 0.000000 0.000000
32818439914840211997564975710208.000000 51185521054563751091643697070080.000000 0.000000
51185521054563751091643697070080.000000 24513675856853266995716084989952.000000 0.000000
0.000000 0.000000 0.000000
-6052579392770846363737915392.000000 5657044352658955927981916160.000000 0.000000
5657044352658955927981916160.000000 3202732606421936184546557952.000000 0.000000
0.000000 0.000000 0.000000
2398191601234543785951247728640.000000 -1683053635024192906830635073536.000000 0.000000
-1683053635024192906830635073536.000000 478663066993749452393470230528.000000 0.000000
0.000000 0.000000 0.000000
49748277835995246605528492670976.000000 -57648791105781464312980264976384.000000 0.000000
-57648791105781464312980264976384.000000 25583107094866732177665455816704.000000 0.000000
0.000000 0.000000 0.000000
-15508669965930530943057606475776.000000 12283926667279850883245362118656.000000 0.000000
12283926667279850883245362118656.000000 6851694448763505513799545257984.000000 0.000000
0.000000 0.000000 0.000000
-564211890011190723851107434496.000000 1153198142420262136098152513536.000000 0.000000
1153198142420262136098152513536.000000 681855527963630345833584525312.000000 0.000000
0.000000 0.000000 0.000000
-24153108987313409332624526147584.000000 -11947920338793937186212089430016.000000 0.000000
-11947920338793937186212089430016.000000 6092405682992753571612992733184.000000 0.000000
0.000000 0.000000 0.000000
7759921770913841543370372022272.000000 7095142712317874456326727270400.000000 0.000000
7095142712317874456326727270400.000000 2891472824562143990690453913600.000000 0.000000
0.000000 0.000000 0.000000
4222971812793577208508202352640.000000 3502381093414792960910232125440.000000 0.000000
3502381093414792960910232125440.000000 1411429235825385471719988264960.000000 0.000000
0.000000 0.000000 0.000000
5677505951436485901201583374336.000000 31897565971901599663700939112448.000000 0.000000
31897565971901599663700939112448.000000 17224309378725317119355442429952.000000 0.000000
0.000000 0.000000 0.000000
-117262407314011242413061295833088.000000 -342847866684274864914021310529536.000000 0.000000
-342847866684274864914021310529536.000000 196884811198048197358829313196032.000000 0.000000
0.000000 0.000000 0.000000
-51231277535053102785142097707008.000000 -9123424602276997264672710197248.000000 0.000000
-9123424602276997264672710197248.000000 2782441520842844284139813732352.000000 0.000000
0.000000 0.000000 0.000000
-166155246851199408836318330880.000000 83993386117756677365715435520.000000 0.000000
83993386117756677365715435520.000000 43081812652148492793240616960.000000 0.000000
0.000000 0.000000 0.000000
-2456195808880113465848538071040.000000 -15720584367619862442432054427648.000000 0.000000
-15720584367619862442432054427648.000000 8908237797099215425291360927744.000000 0.000000
0.000000 0.000000 0.000000
6249231589964440783306759340032.000000 -10286250607434059263687224459264.000000 0.000000
-10286250607434059263687224459264.000000 4976319443833820165352649129984.000000 0.000000
0.000000 0.000000 0.000000
3767448635438486317002865508352.000000 -3440395980493291477755775418368.000000 0.000000
-3440395980493291477755775418368.000000 1398633032984768427282256625664.000000 0.000000
0.000000 0.000000 0.000000
1955899881105969420440338169856.000000 -429421768879373361910007201792.000000 0.000000
-429421768879373361910007201792.000000 60891734731365937634523217920.000000 0.000000
0.000000 0.000000 0.000000
-7234807093750515542036334749155328.000000 -427474309862250847471647938576384.000000 0.000000
-427474309862250847471647938576384.000000 49531357767158842254200810766336.000000 0.000000
0.000000 0.000000 0.000000
2324907534473701079940480368640.000000 -12524872829484126995256549834752.000000 0.000000
-12524872829484126995256549834752.000000 6756409843254385568126100045824.000000 0.000000
0.000000 0.000000 0.000000
-66419459235137678650549131542528.000000 -18589751073463504420691119177728.000000 0.000000
-18589751073463504420691119177728.000000 7570306609044054386629136089088.000000 0.000000
0.000000 0.000000 0.000000
5404345412439043300461478150144.000000 -5427431777883395144175226716160.000000 0.000000
-5427431777883395144175226716160.000000 2452533070799988908520539947008.000000 0.000000
0.000000 0.000000 0.000000
11100267192521446361344199622656.000000 2821243270680262272427954798592.000000 0.000000
2821243270680262272427954798592.000000 458275653672839875652325736448.000000 0.000000
0.000000 0.000000 0.000000
-370373437541702454680223744.000000 357063425218239571054034944.000000 0.000000
357063425218239571054034944.000000 202606223460038186863951872.000000 0.000000
0.000000 0.000000 0.000000
20192933686677128788704634077184.000000 -19712624082393200418783154405376.000000 0.000000
-19712624082393200418783154405376.000000 8242943099531806511146402316288.000000 0.000000
0.000000 0.000000 0.000000
4254476422648636440369002708992.000000 3885875346596174298763646468096.000000 0.000000
3885875346596174298763646468096.000000 1583413515308660347787578179584.000000 0.000000
0.000000 0.000000 0.000000
8370467315781552023674229358592.000000 -14450892877684979268232109096960.000000 0.000000
-14450892877684979268232109096960.000000 7058183479421222743737475530752.000000 0.000000
0.000000 0.000000 0.000000
20741923207399580145916196159488.000000 43380707953267754150635600084992.000000 0.000000
43380707953267754150635600084992.000000 21356083746321463936918247964672.000000 0.000000
0.000000 0.000000 0.000000
-8685237936402773339460450910208.000000 -20772912652688215905278460166144.000000 0.000000
-20772912652688215905278460166144.000000 11960457835690161797218521055232.000000 0.000000
0.000000 0.000000 0.000000
-18130265592227524715251658391552.000000 -32017612656357773426186386407424.000000 0.000000
-32017612656357773426186386407424.000000 18479824970851821889065809084416.000000 0.000000
0.000000 0.000000 0.000000
-19741510695013117896904176304128.000000 -111904031981868214711749512790016.000000 0.000000
-111904031981868214711749512790016.000000 63499114076594671237794961031168.000000 0.000000
0.000000 0.000000 0.000000
-1521090202009154974649195933204480.000000 75865301928869275825749595521024.000000 0.000000
75865301928869275825749595521024.000000 7455972087218181789805430439936.000000 0.000000
0.000000 0.000000 0.000000
6926572353799418224193470201856.000000 -11849922092118318562813149184000.000000 0.000000
-11849922092118318562813149184000.000000 5781348780656607962133501575168.000000 0.000000
0.000000 0.000000 0.000000
20693937993666387264671221547008.000000 -18461449434848492333288438890496.000000 0.000000
-18461449434848492333288438890496.000000 7408379206169072418124317327360.000000 0.000000
0.000000 0.000000 0.000000
3245390771401506021215295242240.000000 4102678220096354827039850627072.000000 0.000000
4102678220096354827039850627072.000000 1896498571638124880966574931968.000000 0.000000
0.000000 0.000000 0.000000
-98957252458494454964770832384.000000 -820064417363272856397414400.000000 0.000000
-820064417363272856397414400.000000 2869941814530669190095831040.000000 0.000000
0.000000 0.000000 0.000000
25794824504817247198193335140352.000000 37297725746609482858806395273216.000000 0.000000
37297725746609482858806395273216.000000 17571013135334453950737129930752.000000 0.000000
0.000000 0.000000 0.000000
-18221445427984988659194527744.000000 -11075807548742241201759977472.000000 0.000000
-11075807548742241201759977472.000000 5926260373244795861963112448.000000 0.000000
0.000000 0.000000 0.000000
8976976683191730031262957568.000000 788502535380915594511515648.000000 0.000000
788502535380915594511515648.000000 300023907468741590686629888.000000 0.000000
0.000000 0.000000 0.000000
56541622970506757022380623659008.000000 20569390109324539859867474591744.000000 0.000000
20569390109324539859867474591744.000000 4615837678928083224010199924736.000000 0.000000
0.000000 0.000000 0.000000
47727366216790541764498221432832.000000 7050453070560899212615299891200.000000 0.000000
7050453070560899212615299891200.000000 704463778720916414485269315584.000000 0.000000
0.000000 0.000000 0.000000
-641200108554734312929061742051328.000000 -90074020817454797049600531234816.000000 0.000000
-90074020817454797049600531234816.000000 22782923828925715161869746962432.000000 0.000000
0.000000 0.000000 0.000000
74462455787984340611311337472.000000 47266881360809851137384513536.000000 0.000000
47266881360809851137384513536.000000 15910626978042383476996440064.000000 0.000000
0.000000 0.000000 0.000000
20828548118164780481440422821888.000000 12563125820334074809507058286592.000000 0.000000
12563125820334074809507058286592.000000 4094853114605239031081790865408.000000 0.000000
0.000000 0.000000 0.000000
324067033119739360773257822208.000000 -2225155836857525303966942887936.000000 0.000000
-2225155836857525303966942887936.000000 1208962548374990199947568087040.000000 0.000000
0.000000 0.000000 0.000000
13275354950644423427269330993152.000000 17753440976295865179826909347840.000000 0.000000
17753440976295865179826909347840.000000 8305221276983263453765670273024.000000 0.000000
0.000000 0.000000 0.000000
-3293309451847098368608174080.000000 2673468938901401981817978880.000000 0.000000
2673468938901401981817978880.000000 1493889933439057811627573248.000000 0.000000
0.000000 0.000000 0.000000
-2622298846767515762668907528192.000000 -271658943301362987974369738752.000000 0.000000
-271658943301362987974369738752.000000 54060208391554829286021005312.000000 0.000000
0.000000 0.000000 0.000000
-74319238964907110124732475768832.000000 -13970965009515423585983682052096.000000 0.000000
-13970965009515423585983682052096.000000 4417327171146231473548430409728.000000 0.000000
0.000000 0.000000 0.000000
73924391399166329323012405329920.000000 -19358366434422630575533258178560.000000 0.000000
-19358366434422630575533258178560.000000 3232201143195081306804943060992.000000 0.000000
0.000000 0.000000 0.000000
17986151925851874592812085280768.000000 1066870224990981638400660996096.000000 0.000000
1066870224990981638400660996096.000000 54328158284273922722026749952.000000 0.000000
0.000000 0.000000 0.000000
-50635260778490434668418039808.000000 57645667280045661272959614976.000000 0.000000
57645667280045661272959614976.000000 33018994665532300484996497408.000000 0.000000
0.000000 0.000000 0.000000
24428663104224711598656653885440.000000 3942059853861697948913131061248.000000 0.000000
3942059853861697948913131061248.000000 416975251823091377587034783744.000000 0.000000
0.000000 0.000000 0.000000
-183916642682314527798781280256.000000 -86771991582550827248547528704.000000 0.000000
-86771991582550827248547528704.000000 13666633799204796927509004288.000000 0.000000
0.000000 0.000000 0.000000
13968811866741009326752728612864.000000 -14813987789451807606962747604992.000000 0.000000
-14813987789451807606962747604992.000000 6369416675387272239364316332032.000000 0.000000
0.000000 0.000000 0.000000
-713021128333619381561303498752.000000 253895999834711740925337403392.000000 0.000000
253895999834711740925337403392.000000 12484591005724939427497639936.000000 0.000000
0.000000 0.000000 0.000000
515759019347389954707425329152.000000 243429843611019723711178604544.000000 0.000000
243429843611019723711178604544.000000 68488849842733693919815532544.000000 0.000000
0.000000 0.000000 0.000000
-237150899560426486050294364897280.000000 113983521652834931603986987352064.000000 0.000000
113983521652834931603986987352064.000000 57695942657885875452278346874880.000000 0.000000
0.000000 0.000000 0.000000
5890573407142566390948228497408.000000 -7498924072371209057196532826112.000000 0.000000
-7498924072371209057196532826112.000000 3407680892120825808611612557312.000000 0.000000
0.000000 0.000000 0.000000
41247904148703371641364047462400.000000 -21969395724217428564020220133376.000000 0.000000
-21969395724217428564020220133376.000000 6585535155919464722871019896832.000000 0.000000
0.000000 0.000000 0.000000
-1264613195923319483835984010805248.000000 -109817590741211087417122626732032.000000 0.000000
-109817590741211087417122626732032.000000 18290988674840422242143065604096.000000 0.000000
0.000000 0.000000 0.000000
4161809516420132862253307265024.000000 3983989302188832021338868678656.000000 0.000000
3983989302188832021338868678656.000000 1314344237133522589680926720000.000000 0.000000
0.000000 0.000000 0.000000
-137069911535072189521229948911616.000000 22517890658859375607823695085568.000000 0.000000
22517890658859375607823695085568.000000 6450207463298159692308662976512.000000 0.000000
0.000000 0.000000 0.000000
-81134290356719505153107699957760.000000 17419717180362713205960630861824.000000 0.000000
17419717180362713205960630861824.000000 6034395310187767106093115768832.000000 0.000000
0.000000 0.000000 0.000000
-3731292020404905050152667971584.000000 -14788983645290135550214233128960.000000 0.000000
-14788983645290135550214233128960.000000 8441481799482871238118221021184.000000 0.000000
0.000000 0.000000 0.000000
3839003179480948418558799380480.000000 -3677300404794635299186666373120.000000 0.000000
-3677300404794635299186666373120.000000 1549244605820624268512022495232.000000 0.000000
0.000000 0.000000 0.000000
-341635571536073531981496844288.000000 -59433397621619419092160086016.000000 0.000000
-59433397621619419092160086016.000000 17779227955508139529951248384.000000 0.000000
0.000000 0.000000 0.000000
14713008579007702111503257698304.000000 -11424887874352958943627172642816.000000 0.000000
-11424887874352958943627172642816.000000 4292554509881331372950097494016.000000 0.000000
0.000000 0.000000 0.000000
-286362783737686665749121766260736.000000 -168063053067736634482857336635392.000000 0.000000
-168063053067736634482857336635392.000000 89280596672536392162985396666368.000000 0.000000
0.000000 0.000000 0.000000
462546158669104369664182452224.000000 2511368676006956573240022007808.000000 0.000000
2511368676006956573240022007808.000000 1354332602975276830811827994624.000000 0.000000
0.000000 0.000000 0.000000
159280499891477762314805968896.000000 52490350990484116631904583680.000000 0.000000
52490350990484116631904583680.000000 10755332292739088716012716032.000000 0.000000
0.000000 0.000000 0.000000
-1425421463382411869622928146432.000000 2291738735987458602061250166784.000000 0.000000
2291738735987458602061250166784.000000 1323937494822463372458090037248.000000 0.000000
0.000000 0.000000 0.000000
413762862231755802149006606336.000000 2035714838736965444725047820288.000000 0.000000
2035714838736965444725047820288.000000 1510662903234515861263196618752.000000 0.000000
0.000000 0.000000 0.000000
-139530353652531015258424213504.000000 4733816672714033262461315973120.000000 0.000000
4733816672714033262461315973120.000000 2652143647862048889013178204160.000000 0.000000
0.000000 0.000000 0.000000
13435307813940120059616606289920.000000 -21822562806087565098964186300416.000000 0.000000
-21822562806087565098964186300416.000000 10536512161166782386232922996736.000000 0.000000
0.000000 0.000000 0.000000
19430424753850497863500557189120.000000 -9208598449764306726352783933440.000000 0.000000
-9208598449764306726352783933440.000000 2535398532806947781903734800384.000000 0.000000
0.000000 0.000000 0.000000
-134011439193530013026086276825088.000000 75151394864107631746199664459776.000000 0.000000
75151394864107631746199664459776.000000 39566755480739799562896598368256.000000 0.000000
0.000000 0.000000 0.000000
5285955452801511055938230943744.000000 4268266960573021536728354127872.000000 0.000000
4268266960573021536728354127872.000000 1642470172502876574472028028928.000000 0.000000
0.000000 0.000000 0.000000
-5199899328222303130165834678272.000000 504948942099032249277867884544.000000 0.000000
504948942099032249277867884544.000000 63104750104169814946415116288.000000 0.000000
0.000000 0.000000 0.000000
42649321529285910126591383437312.000000 38202932493637289122045957767168.000000 0.000000
38202932493637289122045957767168.000000 15399723144572916329158262390784.000000 0.000000
0.000000 0.000000 0.000000
-11670818373775996435773469491200.000000 -29517272910594420157217538834432.000000 0.000000
-29517272910594420157217538834432.000000 16983806856104868135588516069376.000000 0.000000
0.000000 0.000000 0.000000
-8591815104028769983071319490560.000000 2458441387570230021920642826240.000000 0.000000
2458441387570230021920642826240.000000 1009033941430292033833210478592.000000 0.000000
0.000000 0.000000 0.000000
-1514548682242504759571717816320.000000 -72542562113999342563936738213888.000000 0.000000
-72542562113999342563936738213888.000000 40460065063037879945710972960768.000000 0.000000
0.000000 0.000000 0.000000
-372822457088229297102457405440.000000 -52868720673751682351819128832.000000 0.000000
-52868720673751682351819128832.000000 13461942061067252819348684800.000000 0.000000
0.000000 0.000000 0.000000
-7880397196996184931543791173632.000000 -12391422249878501740869626888192.000000 0.000000
-12391422249878501740869626888192.000000 7265506149177942162144617299968.000000 0.000000
0.000000 0.000000 0.000000
11828926887360180066103395876864.000000 -4959893380643855178494854037504.000000 0.000000
-4959893380643855178494854037504.000000 1239788090688847788763332476928.000000 0.000000
0.000000 0.000000 0.000000
24626673339595809979234766553088.000000 -22014186698334606149754292273152.000000 0.000000
-22014186698334606149754292273152.000000 8884424737633657890494992089088.000000 0.000000
0.000000 0.000000 0.000000
16814994328357181339126359654400.000000 -10222582311787120988194668019712.000000 0.000000
-10222582311787120988194668019712.000000 3343178503554608292557934821376.000000 0.000000
0.000000 0.000000 0.000000
2388198813288378830757174444032.000000 -6661601366801412673503601098752.000000 0.000000
-6661601366801412673503601098752.000000 3469286655298973070869607219200.000000 0.000000
0.000000 0.000000 0.000000
-1305821721762114233106704629760.000000 3360848910671596576543357272064.000000 0.000000
3360848910671596576543357272064.000000 1934457398749793383856792928256.000000 0.000000
0.000000 0.000000 0.000000
-71790893296629798151940349100032.000000 -47111301293888588882531810541568.000000 0.000000
-47111301293888588882531810541568.000000 25564089196394252979301418795008.000000 0.000000
0.000000 0.000000 0.000000
100453369381672328414363648.000000 -291022222150256534742892544.000000 0.000000
-291022222150256534742892544.000000 151560009959977495446945792.000000 0.000000
0.000000 0.000000 0.000000
8885272808121989857557025390592.000000 -3103997952254913111661681311744.000000 0.000000
-3103997952254913111661681311744.000000 668913907374400801765903564800.000000 0.000000
0.000000 0.000000 0.000000
-364958660794429227686428672.000000 -8977739062970432815745728512.000000 0.000000
-8977739062970432815745728512.000000 5492078225346218542499889152.000000 0.000000
0.000000 0.000000 0.000000
3290358319182948864970719232.000000 -3755849348200026490777108480.000000 0.000000
-3755849348200026490777108480.000000 1658881357717040184569102336.000000 0.000000
0.000000 0.000000 0.000000
-1215276521144666394193905582080.000000 -15874054178014174571446612787200.000000 0.000000
-15874054178014174571446612787200.000000 8915842973987195433466187481088.000000 0.000000
0.000000 0.000000 0.000000
-11159130574856918600245923807232.000000 16231719767455821763836383330304.000000 0.000000
16231719767455821763836383330304.000000 9372717458607147278193162977280.000000 0.000000
0.000000 0.000000 0.000000
50885461174153276373149065150464.000000 9968320966449202778181858230272.000000 0.000000
9968320966449202778181858230272.000000 1269687478153610721045795307520.000000 0.000000
0.000000 0.000000 0.000000
8579762108593897348803023863808.000000 -1467826028166117219064185094144.000000 0.000000
-1467826028166117219064185094144.000000 164300172483902369864253177856.000000 0.000000
0.000000 0.000000 0.000000
-30823107551315917150456991711232.000000 -158895257143909538264259747643392.000000 0.000000
-158895257143909538264259747643392.000000 90298480821029121554603770380288.000000 0.000000
0.000000 0.000000 0.000000
879649790647937214679997218816.000000 -132832578195387108030800723968.000000 0.000000
-132832578195387108030800723968.000000 16670207469493997541087248384.000000 0.000000
0.000000 0.000000 0.000000
39724008132406472687405336887296.000000 -72465797338217283122206324293632.000000 0.000000
-72465797338217283122206324293632.000000 35721049916848636723717459673088.000000 0.000000
0.000000 0.000000 0.000000
76253765913425625421153566720.000000 -21108617640077053469971709952.000000 0.000000
-21108617640077053469971709952.000000 3742818950593900209741234176.000000 0.000000
0.000000 0.000000 0.000000
-154059471466921802532799905792.000000 2338205325772585792852283359232.000000 0.000000
2338205325772585792852283359232.000000 1301858164822937169205233975296.000000 0.000000
0.000000 0.000000 0.000000
16590407373169830625283841982464.000000 10483405474662749384308999323648.000000 0.000000
10483405474662749384308999323648.000000 3517235838784677722708946976768.000000 0.000000
0.000000 0.000000 0.000000
25428737227102073328793850740736.000000 -8219199968392514739191458824192.000000 0.000000
-8219199968392514739191458824192.000000 1668215217901479075428232593408.000000 0.000000
0.000000 0.000000 0.000000
24200477463109793363970278555648.000000 19073285196823004286606169341952.000000 0.000000
19073285196823004286606169341952.000000 7242674440925175051221561507840.000000 0.000000
0.000000 0.000000 0.000000
109541629003791358775334535168.000000 58023100825849859371868094464.000000 0.000000
58023100825849859371868094464.000000 17323507954273151419269775360.000000 0.000000
0.000000 0.000000 0.000000
4468985600490344066936257642496.000000 -3905823846282459799495146209280.000000 0.000000
-3905823846282459799495146209280.000000 1569050279533923868611681714176.000000 0.000000
0.000000 0.000000 0.000000
19049593221375662720220550660096.000000 10670392665240647843416064917504.000000 0.000000
10670392665240647843416064917504.000000 3316235789754879359669818621952.000000 0.000000
0.000000 0.000000 0.000000
3526758029669246799245545046016.000000 -4155209340223193483447436836864.000000 0.000000
-4155209340223193483447436836864.000000 1862504482500576403283484082176.000000 0.000000
0.000000 0.000000 0.000000
29077908143200330118933593980928.000000 -19725474927322848275052311347200.000000 0.000000
-19725474927322848275052311347200.000000 6905134477302099500514301444096.000000 0.000000
0.000000 0.000000 0.000000
52888485435362406442926738505728.000000 -52984702753242646255378284675072.000000 0.000000
-52984702753242646255378284675072.000000 22358506745941929117899930206208.000000 0.000000
0.000000 0.000000 0.000000
5191231333297471120664667619328.000000 -2046637628045836199439183642624.000000 0.000000
-2046637628045836199439183642624.000000 482874858209415131832332058624.000000 0.000000
0.000000 0.000000 0.000000
17031627798354122844959106138112.000000 -1296294310609180253686333440000.000000 0.000000
-1296294310609180253686333440000.000000 67302954121523518655854280704.000000 0.000000
0.000000 0.000000 0.000000
23354725718732117977706985947136.000000 10031708119934472334634370727936.000000 0.000000
10031708119934472334634370727936.000000 2563841212538280639524946051072.000000 0.000000
0.000000 0.000000 0.000000
144926295142676652129077166080.000000 -514243931250929252373639462912.000000 0.000000
-514243931250929252373639462912.000000 271761558315655938712319033344.000000 0.000000
0.000000 0.000000 0.000000
22995422214922689625772169101312.000000 -17067335809996222786651918696448.000000 0.000000
-17067335809996222786651918696448.000000 6390859471999003870551603150848.000000 0.000000
0.000000 0.000000 0.000000
-862004439403048468480.000000 -81558438159319610425344.000000 0.000000
-81558438159319610425344.000000 45297943746957923057664.000000 0.000000
0.000000 0.000000 0.000000
-57194413457910838958689852850176.000000 44483166453296826559929463603200.000000 0.000000
44483166453296826559929463603200.000000 24734451729199795200516524343296.000000 0.000000
0.000000 0.000000 0.000000
-9875828828897771323386195083264.000000 12387503058694672633036011470848.000000 0.000000
12387503058694672633036011470848.000000 7123428575598845881729603862528.000000 0.000000
0.000000 0.000000 0.000000
3482073285725923646665459236864.000000 -446313462414457526276707057664.000000 0.000000
-446313462414457526276707057664.000000 37998485241689813604202708992.000000 0.000000
0.000000 0.000000 0.000000
34175663024628356776754711363584.000000 -16220919477982964796318139023360.000000 0.000000
-16220919477982964796318139023360.000000 4472494789113564407195219525632.000000 0.000000
0.000000 0.000000 0.000000
26990887704735890992965548507136.000000 -559028073311004379728305979392.000000 0.000000
-559028073311004379728305979392.000000 12978163172484321277774921728.000000 0.000000
0.000000 0.000000 0.000000
1175864863900703310110898782208.000000 -1249893125901719060828991258624.000000 0.000000
-1249893125901719060828991258624.000000 540431137909344314982777487360.000000 0.000000
0.000000 0.000000 0.000000
-552268443489404762477723385856.000000 2537191069655939830788592238592.000000 0.000000
2537191069655939830788592238592.000000 1462692158848468443192291753984.000000 0.000000
0.000000 0.000000 0.000000
4943301852231538630891405312.000000 717574563048221495256940544.000000 0.000000
717574563048221495256940544.000000 2895635094723495116427755520.000000 0.000000
0.000000 0.000000 0.000000
2046591753846943734934011904.000000 11620907705435464966237847552.000000 0.000000
11620907705435464966237847552.000000 6888586906300540019076497408.000000 0.000000
0.000000 0.000000 0.000000
-1434878386000973005653490532352.000000 -1796350651651682478732037062656.000000 0.000000
-1796350651651682478732037062656.000000 1033830134328152018524265512960.000000 0.000000
0.000000 0.000000 0.000000
7104215074518249210429596237824.000000 55215324157596311001444080680960.000000 0.000000
55215324157596311001444080680960.000000 30094844239581957445151023431680.000000 0.000000
0.000000 0.000000 0.000000
-9425956419544655781317629181952.000000 -45558674914287281439318510403584.000000 0.000000
-45558674914287281439318510403584.000000 25916628870978107147934733697024.000000 0.000000
0.000000 0.000000 0.000000
3394067677850852598199307206656.000000 25439149448442824168535480074240.000000 0.000000
25439149448442824168535480074240.000000 13857009553622941571098123173888.000000 0.000000
0.000000 0.000000 0.000000
20777380855550122751985090297856.000000 20509255145330696192335041003520.000000 0.000000
20509255145330696192335041003520.000000 8609758713884660014532043735040.000000 0.000000
0.000000 0.000000 0.000000
71205990368604091752041550970880.000000 -22299503704136854048126680432640.000000 0.000000
-22299503704136854048126680432640.000000 4404252148294817374296017469440.000000 0.000000
0.000000 0.000000 0.000000
-49367748124467412751118302707712.000000 -30696531103414936756331143495680.000000 0.000000
-30696531103414936756331143495680.000000 16495753659250831939783557644288.000000 0.000000
0.000000 0.000000 0.000000
-335715955807840078177083347435520.000000 -61412707694973874113569445904384.000000 0.000000
-61412707694973874113569445904384.000000 19038154845561962945473092255744.000000 0.000000
0.000000 0.000000 0.000000
-10878141740004180946963572719616.000000 -15895015634272600453743250505728.000000 0.000000
-15895015634272600453743250505728.000000 9142255302863275697291244077056.000000 0.000000
0.000000 0.000000 0.000000
-1479747843296624782558420271104.000000 -1884392251942945414879318638592.000000 0.000000
-1884392251942945414879318638592.000000 1082042126854436810556589473792.000000 0.000000
0.000000 0.000000 0.000000
-9117471384164987495398902857728.000000 -7824657632519129872103045595136.000000 0.000000
-7824657632519129872103045595136.000000 4393364691596438715706399260672.000000 0.000000
0.000000 0.000000 0.000000
-13151493136077673389742765375488.000000 42448484890170573547604757446656.000000 0.000000
42448484890170573547604757446656.000000 24359517542137545588289407287296.000000 0.000000
0.000000 0.000000 0.000000
90256543771879650142238122442752.000000 106821089014759342215954840944640.000000 0.000000
106821089014759342215954840944640.000000 47784736247944899044157327147008.000000 0.000000
0.000000 0.000000 0.000000
-389192367726988740446544587653120.000000 151266892148108192200537600425984.000000 0.000000
151266892148108192200537600425984.000000 71246674868218626695222580477952.000000 0.000000
0.000000 0.000000 0.000000
-28337962143983498061026913419264.000000 -9492102208540920127739167506432.000000 0.000000
-9492102208540920127739167506432.000000 4206319565389538627136994148352.000000 0.000000
0.000000 0.000000 0.000000
-3696769027451748635374212322689024.000000 -260292000944017166401237919203328.000000 0.000000
-260292000944017166401237919203328.000000 35642930253092340870437572444160.000000 0.000000
0.000000 0.000000 0.000000
4823018340629146905327156854784.000000 16871748115805087390283094556672.000000 0.000000
16871748115805087390283094556672.000000 5690300250363493931207675084800.000000 0.000000
0.000000 0.000000 0.000000
66816862559727631229704520859648.000000 85273180358650689968095595855872.000000 0.000000
85273180358650689968095595855872.000000 38945760903826615155116637945856.000000 0.000000
0.000000 0.000000 0.000000
-27575425044548303907665144184832.000000 -20147147676873753844003865886720.000000 0.000000
-20147147676873753844003865886720.000000 11110951104447401323869079863296.000000 0.000000
0.000000 0.000000 0.000000
9395011885246694021525061763072.000000 5500030310547711023540149944320.000000 0.000000
5500030310547711023540149944320.000000 1757466210146492043163921809408.000000 0.000000
0.000000 0.000000 0.000000
16350485803327210011946444128256.000000 -12395151202004499373926735937536.000000 0.000000
-12395151202004499373926735937536.000000 4613819855339190359015911587840.000000 0.000000
0.000000 0.000000 0.000000
-4984950518552552626253855719424.000000 4172336375403178452791007903744.000000 0.000000
4172336375403178452791007903744.000000 2426625068749448594677439660032.000000 0.000000
0.000000 0.000000 0.000000
2599017844109875324542886346752.000000 -4468791010623554855157060599808.000000 0.000000
-4468791010623554855157060599808.000000 2179653165316284071088993861632.000000 0.000000
0.000000 0.000000 0.000000
-14776829031755043285858332442624.000000 -15334343157417982066673286381568.000000 0.000000
-15334343157417982066673286381568.000000 8770251210954547898399095521280.000000 0.000000
0.000000 0.000000 0.000000
13649673357596705803783372800.000000 -3176685329536231905798651904.000000 0.000000
-3176685329536231905798651904.000000 899715194361887871182307328.000000 0.000000
0.000000 0.000000 0.000000
4672866560714041863576714477568.000000 -39696460444694135726491180204032.000000 0.000000
-39696460444694135726491180204032.000000 21696639340762923153816152965120.000000 0.000000
0.000000 0.000000 0.000000
-1154101093265653394506537500672.000000 -98749710356050226597062508544.000000 0.000000
-98749710356050226597062508544.000000 16357529226495655809566900224.000000 0.000000
0.000000 0.000000 0.000000
9538790141567735317719794319360.000000 -29050141680572771050870208987136.000000 0.000000
-29050141680572771050870208987136.000000 15297801985053555811447623122944.000000 0.000000
0.000000 0.000000 0.000000
-3418442126932125910666315825152.000000 37078099437108641362867067551744.000000 0.000000
37078099437108641362867067551744.000000 20867429376892714344579554344960.000000 0.000000
0.000000 0.000000 0.000000
-645222758447190176923012562944.000000 3014274955213077009753488490496.000000 0.000000
3014274955213077009753488490496.000000 1712795370415668130908198666240.000000 0.000000
0.000000 0.000000 0.000000
5160680945060932688922103775232.000000 -2441800763221687976325508235264.000000 0.000000
-2441800763221687976325508235264.000000 671496064623824232708118151168.000000 0.000000
0.000000 0.000000 0.000000
11394476279237311267769986056192.000000 -755690605425843852100962877440.000000 0.000000
-755690605425843852100962877440.000000 34362827017658378488410800128.000000 0.000000
0.000000 0.000000 0.000000
-260965866733460790630527533056.000000 -26693005238475919934323949568.000000 0.000000
-26693005238475919934323949568.000000 5137383833429667190698672128.000000 0.000000
0.000000 0.000000 0.000000
-226646859956411994867591702118400.000000 129469545453751864250576337371136.000000 0.000000
129469545453751864250576337371136.000000 68388004830169061143427428646912.000000 0.000000
0.000000 0.000000 0.000000
554283781049814118497301561344.000000 -8014990924088262064695008034816.000000 0.000000
-8014990924088262064695008034816.000000 4411545561224588974137152634880.000000 0.000000
0.000000 0.000000 0.000000
58818682481347554856405762572288.000000 -6183324423468981575639873093632.000000 0.000000
-6183324423468981575639873093632.000000 434130451685742466962739429376.000000 0.000000
0.000000 0.000000 0.000000
3360956150907541127685275123712.000000 -613667107205835786569331507200.000000 0.000000
-613667107205835786569331507200.000000 73065689441901178715744763904.000000 0.000000
0.000000 0.000000 0.000000
36238425461173840967193734414336.000000 -24729190883539994554977384136704.000000 0.000000
-24729190883539994554977384136704.000000 8687139521326178973811591872512.000000 0.000000
0.000000 0.000000 0.000000
-180713553284669459548962138619904.000000 67979277152092803540253759504384.000000 0.000000
67979277152092803540253759504384.000000 31649096194762950183014100893696.000000 0.000000
0.000000 0.000000 0.000000
8493753761504460371601574068224.000000 31181508096936756801512304279552.000000 0.000000
31181508096936756801512304279552.000000 16517818682413268991219993673728.000000 0.000000
0.000000 0.000000 0.000000
-312893961674444946050010578944.000000 97596849092316283220451655680.000000 0.000000
97596849092316283220451655680.000000 41850842382617868756492222464.000000 0.000000
0.000000 0.000000 0.000000
293842443501777066339963240448.000000 1107091455305424041431531520.000000 0.000000
1107091455305424041431531520.000000 873451101957345932749045760.000000 0.000000
0.000000 0.000000 0.000000
-9672747461875409374700109824.000000 4304280535075899832572837888.000000 0.000000
4304280535075899832572837888.000000 2386786973960734709039235072.000000 0.000000
0.000000 0.000000 0.000000
-3989704360379114669443492347904.000000 34661733159296452145138680987648.000000 0.000000
34661733159296452145138680987648.000000 19554373879870395099201253933056.000000 0.000000
0.000000 0.000000 0.000000
-473164752369381631882237927489536.000000 94016756799684321424466694373376.000000 0.000000
94016756799684321424466694373376.000000 30895717727691355274443854184448.000000 0.000000
0.000000 0.000000 0.000000
-28228591787270735989743701458944.000000 -16163012169906892715490965192704.000000 0.000000
-16163012169906892715490965192704.000000 8590655285917061301625560236032.000000 0.000000
0.000000 0.000000 0.000000
-170674501791369081642807633903616.000000 58680214336633069333638029508608.000000 0.000000
58680214336633069333638029508608.000000 26390838927250259797677300514816.000000 0.000000
0.000000 0.000000 0.000000
34078890477776205555828558659584.000000 -10146427184695669024024281743360.000000 0.000000
-10146427184695669024024281743360.000000 1902077069474509884266456809472.000000 0.000000
0.000000 0.000000 0.000000
-4629383810669082001157407113216.000000 -4978198779310027823369475325952.000000 0.000000
-4978198779310027823369475325952.000000 2882332005982223865128423522304.000000 0.000000
0.000000 0.000000 0.000000
-988531125758228430794917425446912.000000 -119223965921960701410063794831360.000000 0.000000
-119223965921960701410063794831360.000000 26553728616721429912106060218368.000000 0.000000
0.000000 0.000000 0.000000
10080782190995466596246355968.000000 -33912606502972204576430620672.000000 0.000000
-33912606502972204576430620672.000000 19173513030189501190875643904.000000 0.000000
0.000000 0.000000 0.000000
32020909208574829716329275064320.000000 42081269301154728409825280000000.000000 0.000000
42081269301154728409825280000000.000000 19363455595087545301644236292096.000000 0.000000
0.000000 0.000000 0.000000
-4969877005874891907912995700736.000000 20746532295021085461345531330560.000000 0.000000
20746532295021085461345531330560.000000 11843641598681187584658718588928.000000 0.000000
0.000000 0.000000 0.000000
1646592263399933453032568651776.000000 -966434947582540009659181301760.000000 0.000000
-966434947582540009659181301760.000000 310119619880801461274979336192.000000 0.000000
0.000000 0.000000 0.000000
2089307423096142752571669348352.000000 4248004037121024313622773366784.000000 0.000000
4248004037121024313622773366784.000000 2128640434022020379178279370752.000000 0.000000
0.000000 0.000000 0.000000
3523220785730539945498433814528.000000 2905776048256230338658769567744.000000 0.000000
2905776048256230338658769567744.000000 1130723733442144166095420915712.000000 0.000000
0.000000 0.000000 0.000000
74275016036929097170699321081856.000000 44900180971732539208551586856960.000000 0.000000
44900180971732539208551586856960.000000 14648976676485797163743263588352.000000 0.000000
0.000000 0.000000 0.000000
29719072281272562212725105623040.000000 12021353266318335585894050824192.000000 0.000000
12021353266318335585894050824192.000000 3072525846313564986521501564928.000000 0.000000
0.000000 0.000000 0.000000
-129147883392949771878473425485824.000000 38121599972235035765159858536448.000000 0.000000
38121599972235035765159858536448.000000 16018877962378837471822140669952.000000 0.000000
0.000000 0.000000 0.000000
20793115497631341548247147610112.000000 -15633741172147770153739495669760.000000 0.000000
-15633741172147770153739495669760.000000 5794411935751011528703893045248.000000 0.000000
0.000000 0.000000 0.000000
4472377362077128176955276918784.000000 4176622851208998420738838888448.000000 0.000000
4176622851208998420738838888448.000000 1781750825317315877559819304960.000000 0.000000
0.000000 0.000000 0.000000
-623641280792888054161048862720.000000 4002186333612619406952594669568.000000 0.000000
4002186333612619406952594669568.000000 2327376287839501238473922183168.000000 0.000000
0.000000 0.000000 0.000000
1165933019082494166212416634880.000000 1836143093895594461385883385856.000000 0.000000
1836143093895594461385883385856.000000 934375439422989462866258558976.000000 0.000000
0.000000 0.000000 0.000000
1332035456209774633960647688192.000000 64485508980759048064478478336.000000 0.000000
64485508980759048064478478336.000000 6741745077247150290951471104.000000 0.000000
0.000000 0.000000 0.000000
46836072811951495570723354705920.000000 1793459063661885491459353739264.000000 0.000000
1793459063661885491459353739264.000000 46556274904960806884151918592.000000 0.000000
0.000000 0.000000 0.000000
9801091739004295001964793561088.000000 -9015113146813810180548263411712.000000 0.000000
-9015113146813810180548263411712.000000 3674758736704942597434389823488.000000 0.000000
0.000000 0.000000 0.000000
-739722930720246143768408421826560.000000 -106547962372354299557483959549952.000000 0.000000
-106547962372354299557483959549952.000000 27504277084523542803942329024512.000000 0.000000
0.000000 0.000000 0.000000
-101370112912717408488127942916833280.000000 -1423776944653003603126320829038592.000000 0.000000
-1423776944653003603126320829038592.000000 39934515449023467088892238233600.000000 0.000000
0.000000 0.000000 0.000000
1426818699436434659139777462272.000000 -997393055010134968870279053312.000000 0.000000
-997393055010134968870279053312.000000 352878334838610040955917565952.000000 0.000000
0.000000 0.000000 0.000000
-18786235996677537104234270425088.000000 5918286209668506359427426680832.000000 0.000000
5918286209668506359427426680832.000000 2550618318731005731620446535680.000000 0.000000
0.000000 0.000000 0.000000
24853153851294474973623397384192.000000 63084984997504437474432542310400.000000 0.000000
63084984997504437474432542310400.000000 32635848310986051011777195409408.000000 0.000000
0.000000 0.000000 0.000000
11971541016885793150641840848896.000000 6950552165152686569035847958528.000000 0.000000
6950552165152686569035847958528.000000 2283542533735539630368605863936.000000 0.000000
0.000000 0.000000 0.000000
25240855304496265086020809129984.000000 -725507638417578091468176752640.000000 0.000000
-725507638417578091468176752640.000000 42634011726801966755773153280.000000 0.000000
0.000000 0.000000 0.000000
-1943869334464988031386998800384.000000 -14941356036624998916349054943232.000000 0.000000
-14941356036624998916349054943232.000000 8440607047349528124363276025856.000000 0.000000
0.000000 0.000000 0.000000
18593126659928402152845972865024.000000 6840161167953606372247289724928.000000 0.000000
6840161167953606372247289724928.000000 1598331022180257874225118838784.000000 0.000000
0.000000 0.000000 0.000000
-1866406534964582033003743543296.000000 -139207490178607446236977954816.000000 0.000000
-139207490178607446236977954816.000000 15802559811284359853039943680.000000 0.000000
0.000000 0.000000 0.000000
-1160448388305020505706116782489600.000000 -97332291207598034426236642525184.000000 0.000000
-97332291207598034426236642525184.000000 15677731377072921963306422370304.000000 0.000000
0.000000 0.000000 0.000000
-501824391974022400758036956184576.000000 126229726655114910304425176203264.000000 0.000000
126229726655114910304425176203264.000000 48232141533863705263481196380160.000000 0.000000
0.000000 0.000000 0.000000
73290876796828400369293852672.000000 -2087616731459251827253083897856.000000 0.000000
-2087616731459251827253083897856.000000 1194524918974004831757472366592.000000 0.000000
0.000000 0.000000 0.000000
21334188469211990998883929948160.000000 -10556074530418879572893203693568.000000 0.000000
-10556074530418879572893203693568.000000 3001877919538759389885486858240.000000 0.000000
0.000000 0.000000 0.000000
-70471280979774067253952722763776.000000 -35784336804105296416723831881728.000000 0.000000
-35784336804105296416723831881728.000000 18421685434840227979980064161792.000000 0.000000
0.000000 0.000000 0.000000
30397633616322053082692165042176.000000 -5647355089113550287843771809792.000000 0.000000
-5647355089113550287843771809792.000000 733208411254803485286429884416.000000 0.000000
0.000000 0.000000 0.000000
15590608054880121910811982561280.000000 5669314759659790480330060726272.000000 0.000000
5669314759659790480330060726272.000000 1264439005737551136479057543168.000000 0.000000
0.000000 0.000000 0.000000
-8030982729281436583466568253440.000000 -49800365251594508408861763829760.000000 0.000000
-49800365251594508408861763829760.000000 28222971078521440427338249535488.000000 0.000000
0.000000 0.000000 0.000000
-2562465339613744160048697835520.000000 868828708086066825373440540672.000000 0.000000
868828708086066825373440540672.000000 454713107618201433558206119936.000000 0.000000
0.000000 0.000000 0.000000
104526911427919276938499714973696.000000 26377156952466536861682735513600.000000 0.000000
26377156952466536861682735513600.000000 4258744923803825524778612031488.000000 0.000000
0.000000 0.000000 0.000000
2511420116284638253055343591424.000000 16835827975548392633261380075520.000000 0.000000
16835827975548392633261380075520.000000 9140692660711208326692115316736.000000 0.000000
0.000000 0.000000 0.000000
19380942105416564287741779509248.000000 -4450233343492983301618175836160.000000 0.000000
-4450233343492983301618175836160.000000 662442416232344133801999335424.000000 0.000000
0.000000 0.000000 0.000000
-3058171895734183213662157668352.000000 -6358316849663811678748689825792.000000 0.000000
-6358316849663811678748689825792.000000 3660466260785779358931521372160.000000 0.000000
0.000000 0.000000 0.000000
16641874741645380577469950590976.000000 17712493865532481618530111848448.000000 0.000000
17712493865532481618530111848448.000000 7210969712646109851656768192512.000000 0.000000
0.000000 0.000000 0.000000
-28864181709192371262264715509760.000000 -30582992764884181547386146914304.000000 0.000000
-30582992764884181547386146914304.000000 17475748714448067861690208747520.000000 0.000000
0.000000 0.000000 0.000000
10373672295308983716749294698496.000000 8739058125543200008140333514752.000000 0.000000
8739058125543200008140333514752.000000 3620044752748507534278105497600.000000 0.000000
0.000000 0.000000 0.000000
-10331576831490388160878676541440.000000 5636815486084356490262403350528.000000 0.000000
5636815486084356490262403350528.000000 2947724683666752739436566413312.000000 0.000000
0.000000 0.000000 0.000000
-488440719800282129536909312000.000000 -303276943817519805664998719488.000000 0.000000
-303276943817519805664998719488.000000 164648828273628003565123403776.000000 0.000000
0.000000 0.000000 0.000000
-7340626428047946317585344102400.000000 -6487394016925655290692107239424.000000 0.000000
-6487394016925655290692107239424.000000 3920278585568378400833114472448.000000 0.000000
0.000000 0.000000 0.000000
-17965698048062973122035847266304.000000 -9294794775907784861382810271744.000000 0.000000
-9294794775907784861382810271744.000000 4881996860715343291417964314624.000000 0.000000
0.000000 0.000000 0.000000
5500432990680281406877313531904.000000 2630509533443973942951469383680.000000 0.000000
2630509533443973942951469383680.000000 758371856576244370237586145280.000000 0.000000
0.000000 0.000000 0.000000
786147854861987251755121901568.000000 1164985390633086112748231720960.000000 0.000000
1164985390633086112748231720960.000000 552314511274066418146211790848.000000 0.000000
0.000000 0.000000 0.000000
92850831185411261657161998008320.000000 201504717001457797402268329312256.000000 0.000000
201504717001457797402268329312256.000000 101841639410324058488604022800384.000000 0.000000
0.000000 0.000000 0.000000
-91665224396045623207515318648832.000000 -20596922245844745105388087541760.000000 0.000000
-20596922245844745105388087541760.000000 7347046715358809243263793364992.000000 0.000000
0.000000 0.000000 0.000000
27179071661930049820243905216512.000000 9409074960637353886313686761472.000000 0.000000
9409074960637353886313686761472.000000 2029193111679873186858667081728.000000 0.000000
0.000000 0.000000 0.000000
-488224133776591440583294692884480.000000 57685086414134914340689425727488.000000 0.000000
57685086414134914340689425727488.000000 12676515949628588448644174184448.000000 0.000000
0.000000 0.000000 0.000000
-4194767146088518575447867392.000000 381430471704719275344265216.000000 0.000000
381430471704719275344265216.000000 976986342446056942849753088.000000 0.000000
0.000000 0.000000 0.000000
2255344206420369141479596097536.000000 507645966605840824515887628288.000000 0.000000
507645966605840824515887628288.000000 74004952150624555136612040704.000000 0.000000
0.000000 0.000000 0.000000
-203238863130061772229089165312.000000 -218880146418678406477076496384.000000 0.000000
-218880146418678406477076496384.000000 45053993518337871194299039744.000000 0.000000
0.000000 0.000000 0.000000
4633992363812936238015883247616.000000 39937493119800071780922816462848.000000 0.000000
39937493119800071780922816462848.000000 21838190465044145400249474613248.000000 0.000000
0.000000 0.000000 0.000000
-103835926442529038610089075802112.000000 -53863829972058293758373107073024.000000 0.000000
-53863829972058293758373107073024.000000 28133961519537929298099377799168.000000 0.000000
0.000000 0.000000 0.000000
2151771928061846916959783878656.000000 -17016324618811184797207490461696.000000 0.000000
-17016324618811184797207490461696.000000 9285686537208289853427299647488.000000 0.000000
0.000000 0.000000 0.000000
-13884229966267541419535600975872.000000 1315764540425856198867014385664.000000 0.000000
1315764540425856198867014385664.000000 238632569815643480371698335744.000000 0.000000
0.000000 0.000000 0.000000
-671629569689618372134053085184.000000 -16423109269554808679635020152832.000000 0.000000
-16423109269554808679635020152832.000000 9620363721890901532956923265024.000000 0.000000
0.000000 0.000000 0.000000
4008411322749596206243826892800.000000 -6698215531352916485190432325632.000000 0.000000
-6698215531352916485190432325632.000000 3254593443447546217892971282432.000000 0.000000
0.000000 0.000000 0.000000
19433101545769102125867873599488.000000 42440127012585551478954464903168.000000 0.000000
42440127012585551478954464903168.000000 21467475402874262807136413155328.000000 0.000000
0.000000 0.000000 0.000000
-15090438214023875578213794054144.000000 5843315735252925812450374189056.000000 0.000000
5843315735252925812450374189056.000000 2737962624422094049372801073152.000000 0.000000
0.000000 0.000000 0.000000
-17018349160717385478185240494080.000000 -37367675037679495601750181675008.000000 0.000000
-37367675037679495601750181675008.000000 21537879485462624285124785602560.000000 0.000000
0.000000 0.000000 0.000000
-142597609617063797894283993808896.000000 34428901144804557097463663558656.000000 0.000000
34428901144804557097463663558656.000000 12935419483365486308677734367232.000000 0.000000
0.000000 0.000000 0.000000
5758094137584861768741208195072.000000 3654908307698675317504049414144.000000 0.000000
3654908307698675317504049414144.000000 1236940836653153508280334548992.000000 0.000000
0.000000 0.000000 0.000000
4471323107728154978216723873792.000000 29364430130331551697499722874880.000000 0.000000
29364430130331551697499722874880.000000 15955939559968464070946479669248.000000 0.000000
0.000000 0.000000 0.000000
5374703435182918476979844939776.000000 -20566417337804710027513724665856.000000 0.000000
-20566417337804710027513724665856.000000 10921580934273864191788420431872.000000 0.000000
0.000000 0.000000 0.000000
8226169775455443682312637644800.000000 -1876686624075965744999145930752.000000 0.000000
-1876686624075965744999145930752.000000 281519320706327272496576856064.000000 0.000000
0.000000 0.000000 0.000000
42733912118739428467375534505984.000000 -36715490074408870523589829328896.000000 0.000000
-36715490074408870523589829328896.000000 14517746741244519238593203404800.000000 0.000000
0.000000 0.000000 0.000000
2570672511114742938702897479680.000000 1991442330431854622350227013632.000000 0.000000
1991442330431854622350227013632.000000 749832351544019784002447605760.000000 0.000000
0.000000 0.000000 0.000000
71127538829028989671535317876736.000000 -22854274571810015691762013569024.000000 0.000000
-22854274571810015691762013569024.000000 4562450014439296597687367892992.000000 0.000000
0.000000 0.000000 0.000000
69822865794306197686608243720192.000000 -10361158022256809453470112284672.000000 0.000000
-10361158022256809453470112284672.000000 1018039354378032163699680083968.000000 0.000000
0.000000 0.000000 0.000000
-486928815960317092092365869416448.000000 63556144764583688201650330140672.000000 0.000000
63556144764583688201650330140672.000000 15124660159453396707464590655488.000000 0.000000
0.000000 0.000000 0.000000
29698682940506023155375424929792.000000 -1825238344560812932722791022592.000000 0.000000
-1825238344560812932722791022592.000000 192694821120601677321811787776.000000 0.000000
0.000000 0.000000 0.000000
10785239837347389379707886632960.000000 25731191776345909367596208095232.000000 0.000000
25731191776345909367596208095232.000000 13198235103962329646938739179520.000000 0.000000
0.000000 0.000000 0.000000
5675277084004679371717045387264.000000 6065752825541503495715294281728.000000 0.000000
6065752825541503495715294281728.000000 2621013529329305617608015347712.000000 0.000000
0.000000 0.000000 0.000000
-4130131741982597141390514192384.000000 6682835986038194767927829331968.000000 0.000000
6682835986038194767927829331968.000000 3863233143590564991834479656960.000000 0.000000
0.000000 0.000000 0.000000
195282931252239645596706668544.000000 -159845995131159569719688691712.000000 0.000000
-159845995131159569719688691712.000000 65892791414313571510111961088.000000 0.000000
0.000000 0.000000 0.000000
-13485001410383588992004908908544.000000 -16685155834444526618022548340736.000000 0.000000
-16685155834444526618022548340736.000000 9591129276980377054806187966464.000000 0.000000
0.000000 0.000000 0.000000
-1705448327923672049017035948032.000000 111657794296104955322034028544.000000 0.000000
111657794296104955322034028544.000000 92652081189505351661234683904.000000 0.000000
0.000000 0.000000 0.000000
-45368884620189992678523404288.000000 54689623301915684090404667392.000000 0.000000
54689623301915684090404667392.000000 31068736137415367440453337088.000000 0.000000
0.000000 0.000000 0.000000
7768811735879129572073524953088.000000 9516544396073452831368070299648.000000 0.000000
9516544396073452831368070299648.000000 4291376637432293245873119297536.000000 0.000000
0.000000 0.000000 0.000000
86715388858611286498739224576.000000 -13815525897511600688442900480.000000 0.000000
-13815525897511600688442900480.000000 1740140001666630001383964672.000000 0.000000
0.000000 0.000000 0.000000
15401322972258362399729838456832.000000 23355415700815243694966438887424.000000 0.000000
23355415700815243694966438887424.000000 11122870972213743212221853335552.000000 0.000000
0.000000 0.000000 0.000000
-29113911901850855110027446845440.000000 -18772834696554448421488783523840.000000 0.000000
-18772834696554448421488783523840.000000 10157451834961024507933548871680.000000 0.000000
0.000000 0.000000 0.000000
-5944992519580676425977790726144.000000 7473286457203143980934143934464.000000 0.000000
7473286457203143980934143934464.000000 4293895586444015878415396634624.000000 0.000000
0.000000 0.000000 0.000000
-476138822226029984706741690957824.000000 187128192376463187668680944123904.000000 0.000000
187128192376463187668680944123904.000000 89636979919430364596317695508480.000000 0.000000
0.000000 0.000000 0.000000
263846331268402180709754601472.000000 -95670205350451558878852153344.000000 0.000000
-95670205350451558878852153344.000000 21279199776743694972137504768.000000 0.000000
0.000000 0.000000 0.000000
-18318494633789858918446524914466816.000000 -549118529652983380859546568228864.000000 0.000000
-549118529652983380859546568228864.000000 32735541505785162966814085349376.000000 0.000000
0.000000 0.000000 0.000000
2620036125551836606251401216.000000 -1729135129811332326825656320.000000 0.000000
-1729135129811332326825656320.000000 2120425357655897012946599936.000000 0.000000
0.000000 0.000000 0.000000
10983358924906151407894646489088.000000 -5162508804478936932842251223040.000000 0.000000
-5162508804478936932842251223040.000000 1446236600062550061086519853056.000000 0.000000
0.000000 0.000000 0.000000
3534644619416463343043225845760.000000 -5592080969346153424246343204864.000000 0.000000
-5592080969346153424246343204864.000000 2685767265332421423483058126848.000000 0.000000
0.000000 0.000000 0.000000
-6419121544798345762369154395930624.000000 -289751820432022669309429990555648.000000 0.000000
-289751820432022669309429990555648.000000 25873238672073671228612086333440.000000 0.000000
0.000000 0.000000 0.000000
34934623788421758988335615836160.000000 82690744940010161389204194459648.000000 0.000000
82690744940010161389204194459648.000000 42227315626690477868743443611648.000000 0.000000
0.000000 0.000000 0.000000
-4349420938378688702385506746368.000000 -23084011118157070817756952133632.000000 0.000000
-23084011118157070817756952133632.000000 13113111279641832773078042542080.000000 0.000000
0.000000 0.000000 0.000000
3217595567558214511954577326080.000000 -4635800678830012162969794772992.000000 0.000000
-4635800678830012162969794772992.000000 2196347077069808304326323470336.000000 0.000000
0.000000 0.000000 0.000000
-1563348203795936833712641015808.000000 26705860580932908853940453376.000000 0.000000
26705860580932908853940453376.000000 3897556719913019429789630464.000000 0.000000
0.000000 0.000000 0.000000
27340324941115828494792680013824.000000 -17690911093192635612317876224000.000000 0.000000
-17690911093192635612317876224000.000000 6024414675892297576006509658112.000000 0.000000
0.000000 0.000000 0.000000
-1373670967502725911553245184.000000 -10933616976421760038793641984.000000 0.000000
-10933616976421760038793641984.000000 6065141990438231798588637184.000000 0.000000
0.000000 0.000000 0.000000
112015746511241405707022910881792.000000 12505179175315340018909767008256.000000 0.000000
12505179175315340018909767008256.000000 1055159608955148890670859550720.000000 0.000000
0.000000 0.000000 0.000000
7158373525339112154675405651968.000000 -3803468237841754423766735126528.000000 0.000000
-3803468237841754423766735126528.000000 1138441296657418443392194445312.000000 0.000000
0.000000 0.000000 0.000000
-5214649347140570879224759451648.000000 1461182238503605147580355313664.000000 0.000000
1461182238503605147580355313664.000000 604442523005980950483917864960.000000 0.000000
0.000000 0.000000 0.000000
-100656036349182576698832453632.000000 -27254525938210574897422270464.000000 0.000000
-27254525938210574897422270464.000000 7324954237556806862975795200.000000 0.000000
0.000000 0.000000 0.000000
14427406605542110788718648360960.000000 -27825717654432345492728949243904.000000 0.000000
-27825717654432345492728949243904.000000 13836181259810585851210493853696.000000 0.000000
0.000000 0.000000 0.000000
41093281783953334879938762768384.000000 -16369933809974784230733377437696.000000 0.000000
-16369933809974784230733377437696.000000 3937373803924761034665555394560.000000 0.000000
0.000000 0.000000 0.000000
42137682640869860125297562615808.000000 -19177624061296679061030508167168.000000 0.000000
-19177624061296679061030508167168.000000 4999009769912036810450668617728.000000 0.000000
0.000000 0.000000 0.000000
552129024024750990120171077632.000000 -1253483073177480849327787081728.000000 0.000000
-1253483073177480849327787081728.000000 652996115322549644209940332544.000000 0.000000
0.000000 0.000000 0.000000
4156400640235426094114089730048.000000 2108753073022622907036266921984.000000 0.000000
2108753073022622907036266921984.000000 643264331206525617752823037952.000000 0.000000
0.000000 0.000000 0.000000
-72705540316960104716598228549632.000000 -13910298532801026105340606808064.000000 0.000000
-13910298532801026105340606808064.000000 4462977374875509588903900217344.000000 0.000000
0.000000 0.000000 0.000000
11012458757454645780820816560128.000000 -7799427513714766356927209275392.000000 0.000000
-7799427513714766356927209275392.000000 2798161662342399152608447037440.000000 0.000000
0.000000 0.000000 0.000000
-18425691213173103070377861447680.000000 -16432060425235312857759489196032.000000 0.000000
-16432060425235312857759489196032.000000 9295873228117903184912831217664.000000 0.000000
0.000000 0.000000 0.000000
52996139823085024252652421120.000000 33155259763178753796423548928.000000 0.000000
33155259763178753796423548928.000000 18909079339715566551011688448.000000 0.000000
0.000000 0.000000 0.000000
14721508176119614394520838340608.000000 3524513757218156960021756248064.000000 0.000000
3524513757218156960021756248064.000000 542876482494444524509719429120.000000 0.000000
0.000000 0.000000 0.000000
45361030047970663762021077483520.000000 -7679907814494706560794649165824.000000 0.000000
-7679907814494706560794649165824.000000 856055460436581038867653591040.000000 0.000000
0.000000 0.000000 0.000000
-11663031066172699664547881624272896.000000 366480254806503519036725767700480.000000 0.000000
366480254806503519036725767700480.000000 22888249194620374146678796582912.000000 0.000000
0.000000 0.000000 0.000000
28607510726418323282890579771392.000000 -14046786338651061562256855662592.000000 0.000000
-14046786338651061562256855662592.000000 3970857037588370849589247344640.000000 0.000000
0.000000 0.000000 0.000000
-1663367776095118957507969548288.000000 33786174536651513374233484853248.000000 0.000000
33786174536651513374233484853248.000000 18885983929048640973256959983616.000000 0.000000
0.000000 0.000000 0.000000
22348698274762963394981439471616.000000 14402940624550943799584497860608.000000 0.000000
14402940624550943799584497860608.000000 4894107615405586958618229473280.000000 0.000000
0.000000 0.000000 0.000000
-219833304981673890765720273289216.000000 88429851065576910822259204030464.000000 0.000000
88429851065576910822259204030464.000000 42199939946743863903878641614848.000000 0.000000
0.000000 0.000000 0.000000
-25859121725042693695729674747904.000000 -15341904386379725385969577230336.000000 0.000000
-15341904386379725385969577230336.000000 8169419121207744116208403742720.000000 0.000000
0.000000 0.000000 0.000000
21906145745907999392626808717312.000000 -18950453123152270156910311768064.000000 0.000000
-18950453123152270156910311768064.000000 7800727842812312924075293933568.000000 0.000000
0.000000 0.000000 0.000000
-1703361958167933338718538400006144.000000 128025987406703841361252107419648.000000 0.000000
128025987406703841361252107419648.000000 18622614260698378738665047195648.000000 0.000000
0.000000 0.000000 0.000000
11696896479709946245044882112512.000000 -5282874828050699387229368745984.000000 0.000000
-5282874828050699387229368745984.000000 1402829166311254016187191787520.000000 0.000000
0.000000 0.000000 0.000000
-84768606352124378635317542912.000000 97692231994034678017176895488.000000 0.000000
97692231994034678017176895488.000000 67555206331897871506014732288.000000 0.000000
0.000000 0.000000 0.000000
-2969313025204685285582954299392.000000 -4983188312168251551667892256768.000000 0.000000
-4983188312168251551667892256768.000000 2878870091507772728611631529984.000000 0.000000
0.000000 0.000000 0.000000
-19101028842624353095935212912640.000000 -23459475186840631267651210969088.000000 0.000000
-23459475186840631267651210969088.000000 13523740900598231896329723838464.000000 0.000000
0.000000 0.000000 0.000000
100964477660657825125399407886336.000000 125432139967949031941265384538112.000000 0.000000
125432139967949031941265384538112.000000 56842739059197803036688475226112.000000 0.000000
0.000000 0.000000 0.000000
-211452558505244915602773084471296.000000 3412863194325300717683954679808.000000 0.000000
3412863194325300717683954679808.000000 424477862470060717513816145920.000000 0.000000
0.000000 0.000000 0.000000
4866898698120072672255244500992.000000 -12024152622327049979374489042944.000000 0.000000
-12024152622327049979374489042944.000000 5402362433777543457597254795264.000000 0.000000
0.000000 0.000000 0.000000
15900840458167858703445216198656.000000 -823174320842362206016199720960.000000 0.000000
-823174320842362206016199720960.000000 28541663010048132982446751744.000000 0.000000
0.000000 0.000000 0.000000
2043020405819865584577147830272.000000 1660664641113325995262138646528.000000 0.000000
1660664641113325995262138646528.000000 643336759523052346047561990144.000000 0.000000
0.000000 0.000000 0.000000
-79796141852543201002657939456.000000 -2311574396262338283912036352.000000 0.000000
-2311574396262338283912036352.000000 1718335985731465074695995392.000000 0.000000
0.000000 0.000000 0.000000
233871461629166518106358546432.000000 516356495037958951400558821376.000000 0.000000
516356495037958951400558821376.000000 261418796429896119117213073408.000000 0.000000
0.000000 0.000000 0.000000
135023638523687209413449082732544.000000 157959819260581129747056084123648.000000 0.000000
157959819260581129747056084123648.000000 70306441748901154212382259544064.000000 0.000000
0.000000 0.000000 0.000000
69144503733502900934168018944.000000 -65068803944792078589265707008.000000 0.000000
-65068803944792078589265707008.000000 26444134019063165591171891200.000000 0.000000
0.000000 0.000000 0.000000
219785481926263914775051742740480.000000 -81449357989508602678332599828480.000000 0.000000
-81449357989508602678332599828480.000000 18503457967125130284992152207360.000000 0.000000
0.000000 0.000000 0.000000
37401346093712450219252356481024.000000 -28905311246882140521192136638464.000000 0.000000
-28905311246882140521192136638464.000000 10929252262578418627813763448832.000000 0.000000
0.000000 0.000000 0.000000
3325726795690552299347670728704.000000 -2517362712884357805771614846976.000000 0.000000
-2517362712884357805771614846976.000000 943341109323898790497142964224.000000 0.000000
0.000000 0.000000 0.000000
28891084499103375256117659566080.000000 1860407360987158385508864753664.000000 0.000000
1860407360987158385508864753664.000000 99962408803600749627336294400.000000 0.000000
0.000000 0.000000 0.000000
1153417405725787172026449920.000000 -886955511997419310970568704.000000 0.000000
-886955511997419310970568704.000000 332447293709351047196049408.000000 0.000000
0.000000 0.000000 0.000000
36190328955494944908825451298816.000000 101549276106576065627232701251584.000000 0.000000
101549276106576065627232701251584.000000 52811853292472571260887006969856.000000 0.000000
0.000000 0.000000 0.000000
137775858007286490263119661629440.000000 -87949465201037027496207923019776.000000 0.000000
-87949465201037027496207923019776.000000 29697691771878911919705267634176.000000 0.000000
0.000000 0.000000 0.000000
20300826023244939329925264965632.000000 -1795376310391063998090331553792.000000 0.000000
-1795376310391063998090331553792.000000 125593190976279269388043943936.000000 0.000000
0.000000 0.000000 0.000000
-16656845813397641172433906958336.000000 -46484847073425973033554598166528.000000 0.000000
-46484847073425973033554598166528.000000 26702862030872565612880097968128.000000 0.000000
0.000000 0.000000 0.000000
14977868689156805783706478313472.000000 -437636215453320314773179465728.000000 0.000000
-437636215453320314773179465728.000000 10269229642500705925143199744.000000 0.000000
0.000000 0.000000 0.000000
-202974502417486779011777999929344.000000 83810933857306391567044746149888.000000 0.000000
83810933857306391567044746149888.000000 40581006426663385802200724799488.000000 0.000000
0.000000 0.000000 0.000000
-1746111593802986463577908445184.000000 17799671121237685545123971072.000000 0.000000
17799671121237685545123971072.000000 31734350054484718466774335488.000000 0.000000
0.000000 0.000000 0.000000
100302986928348165564360617361408.000000 77932714006943026724327053590528.000000 0.000000
77932714006943026724327053590528.000000 29378203579043924499501053640704.000000 0.000000
0.000000 0.000000 0.000000
3404570233856345223816122728448.000000 8004785034344081510504318631936.000000 0.000000
8004785034344081510504318631936.000000 4084712378251535513991182811136.000000 0.000000
0.000000 0.000000 0.000000
9725756096515259681462412115968.000000 34141661492579820626188053774336.000000 0.000000
34141661492579820626188053774336.000000 18028820192775402341471182913536.000000 0.000000
0.000000 0.000000 0.000000
-8751511205094386766693955272704.000000 31420066332358488389429890121728.000000 0.000000
31420066332358488389429890121728.000000 17971028170417164489579508531200.000000 0.000000
0.000000 0.000000 0.000000
4166254659881761874093941981184.000000 -4215703493138227345731830677504.000000 0.000000
-4215703493138227345731830677504.000000 1870765481592887737737495445504.000000 0.000000
0.000000 0.000000 0.000000
-129463124389082820033902207303680.000000 -52791484287237172554946310045696.000000 0.000000
-52791484287237172554946310045696.000000 25335538659656046100661890187264.000000 0.000000
0.000000 0.000000 0.000000
89337568452643272489263521857536.000000 151047260643557719170132144553984.000000 0.000000
151047260643557719170132144553984.000000 73555785716146767168424084766720.000000 0.000000
0.000000 0.000000 0.000000
11756440715664516965106324602880.000000 -688654123044864392389688557568.000000 0.000000
-688654123044864392389688557568.000000 26848905376110565022077288448.000000 0.000000
0.000000 0.000000 0.000000
134254843726954834221256077737984.000000 -63972418798319151037090273165312.000000 0.000000
-63972418798319151037090273165312.000000 17691030346443111750930633064448.000000 0.000000
0.000000 0.000000 0.000000
-6169897923645346738266641006592.000000 4243826580934771540555772985344.000000 0.000000
4243826580934771540555772985344.000000 2341253115070520947714071461888.000000 0.000000
0.000000 0.000000 0.000000
76938230103634683982282850566144.000000 6459351622829035372349141024768.000000 0.000000
6459351622829035372349141024768.000000 361704415397308096642631598080.000000 0.000000
0.000000 0.000000 0.000000
31022068671267959466030488616960.000000 3739820366405472071107144056832.000000 0.000000
3739820366405472071107144056832.000000 298889327369916099010190376960.000000 0.000000
0.000000 0.000000 0.000000
-196970307929356294567987804897280.000000 -70893163736450663825212151169024.000000 0.000000
-70893163736450663825212151169024.000000 32372352524604914057649531650048.000000 0.000000
0.000000 0.000000 0.000000
16222810879151479094927152906240.000000 -3757592608527909527961007554560.000000 0.000000
-3757592608527909527961007554560.000000 561357971980882685623537762304.000000 0.000000
0.000000 0.000000 0.000000
-98797046327223649289946267648.000000 -815915046085751790587476967424.000000 0.000000
-815915046085751790587476967424.000000 520714738230046614557965680640.000000 0.000000
0.000000 0.000000 0.000000
23259433576983756529264320577536.000000 -34650916627321172217696866009088.000000 0.000000
-34650916627321172217696866009088.000000 16471286261302965614372399874048.000000 0.000000
0.000000 0.000000 0.000000
3837473381961967099832801689600.000000 -2633869911127456381623068524544.000000 0.000000
-2633869911127456381623068524544.000000 925499401317518408002496888832.000000 0.000000
0.000000 0.000000 0.000000
78043437838806083342336845152256.000000 31537186517267675203761707417600.000000 0.000000
31537186517267675203761707417600.000000 7666444526534586678182554894336.000000 0.000000
0.000000 0.000000 0.000000
42464612109813181106391590371328.000000 1481398791051025950709152481280.000000 0.000000
1481398791051025950709152481280.000000 35937193586471717426308317184.000000 0.000000
0.000000 0.000000 0.000000
-33183156027035648089568724385792.000000 4966761282123486951534919417856.000000 0.000000
4966761282123486951534919417856.000000 1331127876445520273591320444928.000000 0.000000
0.000000 0.000000 0.000000
35250114575606401153483256365056.000000 11458515663407023244614742048768.000000 0.000000
11458515663407023244614742048768.000000 2324247603122516149371452522496.000000 0.000000
0.000000 0.000000 0.000000
10501426770917914120272151052288.000000 -11943080663185753307348471906304.000000 0.000000
-11943080663185753307348471906304.000000 5254216956486281313913602572288.000000 0.000000
0.000000 0.000000 0.000000
25824573976076106556408535711744.000000 45301712573433802335130088374272.000000 0.000000
45301712573433802335130088374272.000000 22182860475633150523054783201280.000000 0.000000
0.000000 0.000000 0.000000
-18996733096754752996260772608737280.000000 -407042204273847975764689256710144.000000 0.000000
-407042204273847975764689256710144.000000 17389716545540623705748545732608.000000 0.000000
0.000000 0.000000 0.000000
-287747874082699418530708516241408.000000 122406731898993648470275404070912.000000 0.000000
122406731898993648470275404070912.000000 59616617535808374326738177490944.000000 0.000000
0.000000 0.000000 0.000000
-155104878561662337418399330598912.000000 -131982326751267793209732689297408.000000 0.000000
-131982326751267793209732689297408.000000 74110831144900161243219075530752.000000 0.000000
0.000000 0.000000 0.000000
10823219360376157744339095650304.000000 -9622736912810107451150153285632.000000 0.000000
-9622736912810107451150153285632.000000 3863069141847040667088179953664.000000 0.000000
0.000000 0.000000 0.000000
3344881024109580842955928764416.000000 3580466812985590388091521073152.000000 0.000000
3580466812985590388091521073152.000000 1552607775907332781254717210624.000000 0.000000
0.000000 0.000000 0.000000
-2763579527358433004856803328.000000 4311547388071964450786115584.000000 0.000000
4311547388071964450786115584.000000 3902819679836617280042565632.000000 0.000000
0.000000 0.000000 0.000000
14575974916902724445433101287424.000000 5162358317412383202259471695872.000000 0.000000
5162358317412383202259471695872.000000 1139044999010190829038283522048.000000 0.000000
0.000000 0.000000 0.000000
10107370842505728165587414155264.000000 2913652235194444137782770139136.000000 0.000000
2913652235194444137782770139136.000000 543968932285452209235114852352.000000 0.000000
0.000000 0.000000 0.000000
7325261087927116003110052429824.000000 -13096039654661866079477825536000.000000 0.000000
-13096039654661866079477825536000.000000 6515364061405579167462145916928.000000 0.000000
0.000000 0.000000 0.000000
1238538127921178785620315602944.000000 735211368829205609847459938304.000000 0.000000
735211368829205609847459938304.000000 237111717280837463805205151744.000000 0.000000
0.000000 0.000000 0.000000
-183694065779869048491923583533056.000000 16875088833396050472803621666816.000000 0.000000
16875088833396050472803621666816.000000 2965726611029780568670967169024.000000 0.000000
0.000000 0.000000 0.000000
63172120539871523752572866265088.000000 -56448263127546505566128644816896.000000 0.000000
-56448263127546505566128644816896.000000 22734682688736515000143297118208.000000 0.000000
0.000000 0.000000 0.000000
-25438224391045364093596779675648.000000 11444246662557411391497962520576.000000 0.000000
11444246662557411391497962520576.000000 5638109623174315373815522131968.000000 0.000000
0.000000 0.000000 0.000000
42413841784626283704099943743488.000000 46400033765987108023906200453120.000000 0.000000
46400033765987108023906200453120.000000 20212403584543040157164729532416.000000 0.000000
0.000000 0.000000 0.000000
49115235054711430278447479390208.000000 -55627768239082336718111251628032.000000 0.000000
-55627768239082336718111251628032.000000 24506749193070040724926189535232.000000 0.000000
0.000000 0.000000 0.000000
5436319517672442494486071738368.000000 6453347398937054845233212162048.000000 0.000000
6453347398937054845233212162048.000000 2885024567906296430842634829824.000000 0.000000
0.000000 0.000000 0.000000
744704171303487637479281917952.000000 -913413595577991457788892545024.000000 0.000000
-913413595577991457788892545024.000000 412438768462691361457732321280.000000 0.000000
0.000000 0.000000 0.000000
4994363212712286466076506587136.000000 -10947008017074014797279369625600.000000 0.000000
-10947008017074014797279369625600.000000 5541514983410360857608606187520.000000 0.000000
0.000000 0.000000 0.000000
-305244287020221603278838330032128.000000 -52714811419712919648267103371264.000000 0.000000
-52714811419712919648267103371264.000000 15668487324718853218817085014016.000000 0.000000
0.000000 0.000000 0.000000
64839435264312085611314644254720.000000 64735624171663315415694833614848.000000 0.000000
64735624171663315415694833614848.000000 27281068662928856261608068874240.000000 0.000000
0.000000 0.000000 0.000000
-6502066948656171825864843984896.000000 -75071032929416596901540558536704.000000 0.000000
-75071032929416596901540558536704.000000 42208251297191514235536597319680.000000 0.000000
0.000000 0.000000 0.000000
21178946005069791622022490488832.000000 -101742294549301960004025523896320.000000 0.000000
-101742294549301960004025523896320.000000 54617360697723694243204080599040.000000 0.000000
0.000000 0.000000 0.000000
66525296509590811533564367077376.000000 -34126776075551336911200973750272.000000 0.000000
-34126776075551336911200973750272.000000 10031788957400925573969403183104.000000 0.000000
0.000000 0.000000 0.000000
42126894219350540645100626640896.000000 38084528867601193514310064668672.000000 0.000000
38084528867601193514310064668672.000000 15416014093760537037847195025408.000000 0.000000
0.000000 0.000000 0.000000
3750273028118250444513874018304.000000 4707293908913285877006398914560.000000 0.000000
4707293908913285877006398914560.000000 2186508438501337614107547795456.000000 0.000000
0.000000 0.000000 0.000000
34234609601275108215476180746240.000000 -7287383744362849422977477378048.000000 0.000000
-7287383744362849422977477378048.000000 1004325444981634556568029626368.000000 0.000000
0.000000 0.000000 0.000000
-270645012672114805822105482952704.000000 -199161080676878816527777792000.000000 0.000000
-199161080676878816527777792000.000000 1171804234490409683930578944.000000 0.000000
0.000000 0.000000 0.000000
-63857554311615034806408933539840.000000 -37364226773663945609699601154048.000000 0.000000
-37364226773663945609699601154048.000000 19838028558824924168875646386176.000000 0.000000
0.000000 0.000000 0.000000
13658013638945249428814954496.000000 22903698556916624226340831232.000000 0.000000
22903698556916624226340831232.000000 6485709620711729568652722176.000000 0.000000
0.000000 0.000000 0.000000
2301804867109043244487409664.000000 -863183507478348510540070912.000000 0.000000
-863183507478348510540070912.000000 455907961841481622224896000.000000 0.000000
0.000000 0.000000 0.000000
-124623678628247165483352064.000000 -108768579542272557560365056.000000 0.000000
-108768579542272557560365056.000000 61218648279929481477488640.000000 0.000000
0.000000 0.000000 0.000000
244364990222687943620082794496.000000 138361376042349574305091682304.000000 0.000000
138361376042349574305091682304.000000 43416814276795183048737947648.000000 0.000000
0.000000 0.000000 0.000000
-21186083535823772748220674867200.000000 25566720570089197157944490196992.000000 0.000000
25566720570089197157944490196992.000000 14691376052783017381181224124416.000000 0.000000
0.000000 0.000000 0.000000
-277478228361224919212554715136.000000 2111716674246429334610164842496.000000 0.000000
2111716674246429334610164842496.000000 1189603841148146000296929132544.000000 0.000000
0.000000 0.000000 0.000000
-265892197649277198147839328256.000000 -60702731062750063282708545536.000000 0.000000
-60702731062750063282708545536.000000 21910262947914568517550080000.000000 0.000000
0.000000 0.000000 0.000000
6681137464415364364350793973760.000000 19817847034789163505121543323648.000000 0.000000
19817847034789163505121543323648.000000 10351924506610596276663696228352.000000 0.000000
0.000000 0.000000 0.000000
-9514466212182783437586389008384.000000 -4351078131345667060580634066944.000000 0.000000
-4351078131345667060580634066944.000000 2169962041276419846995563249664.000000 0.000000
0.000000 0.000000 0.000000
-5565653931582380913527852367872.000000 7512209298704432627478729588736.000000 0.000000
7512209298704432627478729588736.000000 4326839042448127542392986271744.000000 0.000000
0.000000 0.000000 0.000000
3754178735661946139284546256896.000000 3127780540067732632760548851712.000000 0.000000
3127780540067732632760548851712.000000 1220620848087889979608651530240.000000 0.000000
0.000000 0.000000 0.000000
-12511821269556681523770249183232.000000 54352237507524761291126193782784.000000 0.000000
54352237507524761291126193782784.000000 30766806011553711026201964838912.000000 0.000000
0.000000 0.000000 0.000000
4378104804098678912875426217984.000000 4597829777654416706408359657472.000000 0.000000
4597829777654416706408359657472.000000 1975343217590275204418728099840.000000 0.000000
0.000000 0.000000 0.000000
-18526989219674394461992743075840.000000 -17108750710128409384424522645504.000000 0.000000
-17108750710128409384424522645504.000000 9732458191423056235620210835456.000000 0.000000
0.000000 0.000000 0.000000
1561965770110709425259996512256.000000 -3119966425264382360119234527232.000000 0.000000
-3119966425264382360119234527232.000000 1580528390965222206167157047296.000000 0.000000
0.000000 0.000000 0.000000
-19307487832196101350671431761920.000000 -16211237841840290581841205788672.000000 0.000000
-16211237841840290581841205788672.000000 9148033148804131398569254977536.000000 0.000000
0.000000 0.000000 0.000000
-11820636805465629670466650112.000000 6420135915105856850904481792.000000 0.000000
6420135915105856850904481792.000000 3021626909091643226098499584.000000 0.000000
0.000000 0.000000 0.000000
1599485286051134048642978021376.000000 3589862810201775422717950951424.000000 0.000000
3589862810201775422717950951424.000000 1821090898266166171890666700800.000000 0.000000
0.000000 0.000000 0.000000
34644248085629830823261354590208.000000 -7887995666119357941267323420672.000000 0.000000
-7887995666119357941267323420672.000000 1342335165177196261738524180480.000000 0.000000
0.000000 0.000000 0.000000
-49938567502886859520023115857920.000000 -66622359356651746315914654515200.000000 0.000000
-66622359356651746315914654515200.000000 38312306352661392027589474779136.000000 0.000000
0.000000 0.000000 0.000000
528514144398537338654449205248.000000 -3741586581746086452860425338880.000000 0.000000
-3741586581746086452860425338880.000000 2044245627770712648782832467968.000000 0.000000
0.000000 0.000000 0.000000
-179544536492354385468477948297216.000000 71368164648263874495280891035648.000000 0.000000
71368164648263874495280891035648.000000 33959226056508748572889389727744.000000 0.000000
0.000000 0.000000 0.000000
123907508343950531106247001767936.000000 82749194580937171946939724333056.000000 0.000000
82749194580937171946939724333056.000000 28712984767857687463424155451392.000000 0.000000
0.000000 0.000000 0.000000
168226475183853649484304089088.000000 -156075836566885152925417472.000000 0.000000
-156075836566885152925417472.000000 834026343928730858666590208.000000 0.000000
0.000000 0.000000 0.000000
26200343818627655933423563833344.000000 8894137366258981361259342987264.000000 0.000000
8894137366258981361259342987264.000000 1908661685084883597327733882880.000000 0.000000
0.000000 0.000000 0.000000
-3007775354073263288112186480656384.000000 66807333392862494429038178729984.000000 0.000000
66807333392862494429038178729984.000000 2980750961145073758861382385664.000000 0.000000
0.000000 0.000000 0.000000
-2247020092676909403204481831665664.000000 -198767272718832841857595953119232.000000 0.000000
-198767272718832841857595953119232.000000 33654514546872084249119897419776.000000 0.000000
0.000000 0.000000 0.000000
-56204306339767827341707837440.000000 569292864016030982635140415488.000000 0.000000
569292864016030982635140415488.000000 320525678193954755484632219648.000000 0.000000
0.000000 0.000000 0.000000
15485760400211339440327491584.000000 102031732986442484409121636352.000000 0.000000
102031732986442484409121636352.000000 55283774082991370735584280576.000000 0.000000
0.000000 0.000000 0.000000
540951606542285096785805312.000000 -21316171219073292149446410240.000000 0.000000
-21316171219073292149446410240.000000 18258016255947456770796945408.000000 0.000000
0.000000 0.000000 0.000000
13338016141702873721648269230080.000000 12418675741404135334218137862144.000000 0.000000
12418675741404135334218137862144.000000 5091057188382779657622881566720.000000 0.000000
0.000000 0.000000 0.000000
-1416884230890548522380190285824.000000 -439013552832403060024458346496.000000 0.000000
-439013552832403060024458346496.000000 187661144415952411713345683456.000000 0.000000
0.000000 0.000000 0.000000
69913699454852732945432576.000000 -3259917173515136800479248384.000000 0.000000
-3259917173515136800479248384.000000 1807387078931968114733088768.000000 0.000000
0.000000 0.000000 0.000000
20100088497874647042502565036032.000000 -4456357800504465375370168762368.000000 0.000000
-4456357800504465375370168762368.000000 656925010282587404937459662848.000000 0.000000
0.000000 0.000000 0.000000
67192968525021857460689234296832.000000 -43165119726089208797624621072384.000000 0.000000
-43165119726089208797624621072384.000000 14628703033196141968032553500672.000000 0.000000
0.000000 0.000000 0.000000
26878607931498079303155826294784.000000 19341806881882205429906964217856.000000 0.000000
19341806881882205429906964217856.000000 7001253471945136043989877653504.000000 0.000000
0.000000 0.000000 0.000000
-124972757995498788146492469149696.000000 -40798084070247025346082078982144.000000 0.000000
-40798084070247025346082078982144.000000 17875028169941949185611674943488.000000 0.000000
0.000000 0.000000 0.000000
-941337032576871975717191804780544.000000 33938221116421851560092914155520.000000 0.000000
33938221116421851560092914155520.000000 2526445810820082298923698356224.000000 0.000000
0.000000 0.000000 0.000000
21671949147049916744469711945728.000000 10104543520409261509082991296512.000000 0.000000
10104543520409261509082991296512.000000 2749791275922867524729856589824.000000 0.000000
0.000000 0.000000 0.000000
-915672766310802703415203210461184.000000 -112490257315947160455391844761600.000000 0.000000
-112490257315947160455391844761600.000000 25447132436419260138083890233344.000000 0.000000
0.000000 0.000000 0.000000
210112553301477439188355776512.000000 302595106544730104476626583552.000000 0.000000
302595106544730104476626583552.000000 145979235155368936007880671232.000000 0.000000
0.000000 0.000000 0.000000
-14939038189521065605447664271360.000000 3562097795469346968374291202048.000000 0.000000
3562097795469346968374291202048.000000 1323557621471508826148736860160.000000 0.000000
0.000000 0.000000 0.000000
4013759579105129824288732348416.000000 16930219540556654879293004840960.000000 0.000000
16930219540556654879293004840960.000000 9034884809910040353397155037184.000000 0.000000
0.000000 0.000000 0.000000
27855996804519599304972429164544.000000 -9463018847766622812504919638016.000000 0.000000
-9463018847766622812504919638016.000000 1992665870059361738163199410176.000000 0.000000
0.000000 0.000000 0.000000
-29629917118708595184951950835712.000000 63927919666787439011561446834176.000000 0.000000
63927919666787439011561446834176.000000 36929662261759228388534529294336.000000 0.000000
0.000000 0.000000 0.000000
2395832229404936604007748599808.000000 1274566927792640989116053323776.000000 0.000000
1274566927792640989116053323776.000000 449749001345034792991425822720.000000 0.000000
0.000000 0.000000 0.000000
15732732205474248535323355119616.000000 -8458983596952872082599409876992.000000 0.000000
-8458983596952872082599409876992.000000 2565124007923902796352647593984.000000 0.000000
0.000000 0.000000 0.000000
6548795564971786354036750417920.000000 -2823487427535306629411432824832.000000 0.000000
-2823487427535306629411432824832.000000 722866544807279191915134713856.000000 0.000000
0.000000 0.000000 0.000000
8335893572566999711973571035136.000000 -5724942478596981443933755146240.000000 0.000000
-5724942478596981443933755146240.000000 2080926439151232229285986041856.000000 0.000000
0.000000 0.000000 0.000000
1605955311753124981336598118400.000000 -3356004849674483393286725697536.000000 0.000000
-3356004849674483393286725697536.000000 1672176106521620871436625248256.000000 0.000000
0.000000 0.000000 0.000000
19101066099812538255979577344.000000 -9110944354561282742742417408.000000 0.000000
-9110944354561282742742417408.000000 2520734625152779233102135296.000000 0.000000
0.000000 0.000000 0.000000
-36386175081133031579995695218688.000000 30764492519101681221186506194944.000000 0.000000
30764492519101681221186506194944.000000 17260250433889271469391086616576.000000 0.000000
0.000000 0.000000 0.000000
-8202639896662752437983539888128.000000 759238985127739440307980206080.000000 0.000000
759238985127739440307980206080.000000 193303586603767481899482611712.000000 0.000000
0.000000 0.000000 0.000000
5055833663941863668909797801984.000000 6437802508049707547892706705408.000000 0.000000
6437802508049707547892706705408.000000 2937242258606688327176458076160.000000 0.000000
0.000000 0.000000 0.000000
-16533980944137852047943593361408.000000 19552062547888168926512710418432.000000 0.000000
19552062547888168926512710418432.000000 11181582770968642241417575399424.000000 0.000000
0.000000 0.000000 0.000000
10853333001138814780103521730560.000000 -9418909553715885501970894553088.000000 0.000000
-9418909553715885501970894553088.000000 3858602288589838700187565948928.000000 0.000000
0.000000 0.000000 0.000000
-2619861781653548780297476112384.000000 1694522105705865013861894062080.000000 0.000000
1694522105705865013861894062080.000000 945536205984965498356619018240.000000 0.000000
0.000000 0.000000 0.000000
-21253432602321295042973272113152.000000 -64557371946676199263342151335936.000000 0.000000
-64557371946676199263342151335936.000000 37050454949653783042561744568320.000000 0.000000
0.000000 0.000000 0.000000
2700383893751401895532953600.000000 10268588986712323471389491200.000000 0.000000
10268588986712323471389491200.000000 5437391060500317207183491072.000000 0.000000
0.000000 0.000000 0.000000
-252412400685199022298079690752.000000 -166446426377470969952144982016.000000 0.000000
-166446426377470969952144982016.000000 91271329407252922729330900992.000000 0.000000
0.000000 0.000000 0.000000
5263532301722765934862255783936.000000 10285024162572116119574328377344.000000 0.000000
10285024162572116119574328377344.000000 5149413238187488385939886047232.000000 0.000000
0.000000 0.000000 0.000000
-6731416154068967646423531755929600.000000 -316642982093631170060227094511616.000000 0.000000
-316642982093631170060227094511616.000000 29392815632235077000206653325312.000000 0.000000
0.000000 0.000000 0.000000
-328216984735589743376122591051776.000000 76494489428624702731195489714176.000000 0.000000
76494489428624702731195489714176.000000 27916221600031446909377805549568.000000 0.000000
0.000000 0.000000 0.000000
-3524664486292060489276628926464.000000 6731588905286605205925655478272.000000 0.000000
6731588905286605205925655478272.000000 3926221378703142465141888516096.000000 0.000000
0.000000 0.000000 0.000000
3915406905915129613812498432.000000 2252460062053152097763852288.000000 0.000000
2252460062053152097763852288.000000 1067568580668581018033192960.000000 0.000000
0.000000 0.000000 0.000000
30888599321875264144589316947968.000000 11728037741383595643787376852992.000000 0.000000
11728037741383595643787376852992.000000 2721995848799499511295505334272.000000 0.000000
0.000000 0.000000 0.000000
73087073350834289736639645220864.000000 -30153164598773819823616119799808.000000 0.000000
-30153164598773819823616119799808.000000 7455459427759003831354007748608.000000 0.000000
0.000000 0.000000 0.000000
84111414227809888467241280733184.000000 53558859786043870143268119379968.000000 0.000000
53558859786043870143268119379968.000000 18052751644210617845174738354176.000000 0.000000
0.000000 0.000000 0.000000
-341024857792793537619695613266362368.000000 2068387259898164836064279075487744.000000 0.000000
2068387259898164836064279075487744.000000 25076290837733930631603838517248.000000 0.000000
0.000000 0.000000 0.000000
45774823660760776657913188974592.000000 -24263048116044161393325345079296.000000 0.000000
-24263048116044161393325345079296.000000 7250472024107674912505255165952.000000 0.000000
0.000000 0.000000 0.000000
-22577318916041482143146843308032.000000 59488193106747106157413869289472.000000 0.000000
59488193106747106157413869289472.000000 34292204743197681981457164140544.000000 0.000000
0.000000 0.000000 0.000000
16103846372121418114718293295104.000000 -330443223433334371434350247936.000000 0.000000
-330443223433334371434350247936.000000 18409227988498980654834253824.000000 0.000000
0.000000 0.000000 0.000000
25046163004712355330407624867840.000000 -24715086115820281590162428788736.000000 0.000000
-24715086115820281590162428788736.000000 10355076078629314179004624797696.000000 0.000000
0.000000 0.000000 0.000000
11165392990354385810035033767936.000000 765332670402356298771987431424.000000 0.000000
765332670402356298771987431424.000000 35028216593683888072413937664.000000 0.000000
0.000000 0.000000 0.000000
6750778075173481480020939505664.000000 -997691455136859346691428450304.000000 0.000000
-997691455136859346691428450304.000000 100032904578338181357630390272.000000 0.000000
0.000000 0.000000 0.000000
-936914616046319615382204186624.000000 -701455390341568304714384146432.000000 0.000000
-701455390341568304714384146432.000000 388118066905086623967103418368.000000 0.000000
0.000000 0.000000 0.000000
-3864223113282142820229875062800384.000000 -199371206028705982392783696035840.000000 0.000000
-199371206028705982392783696035840.000000 20247207560228838551278449590272.000000 0.000000
0.000000 0.000000 0.000000
22523750121788196942037601222656.000000 1884123190478708100101872549888.000000 0.000000
1884123190478708100101872549888.000000 107983506867013148560821583872.000000 0.000000
0.000000 0.000000 0.000000
11673226759882200428237096484864.000000 2720399750424642993582178828288.000000 0.000000
2720399750424642993582178828288.000000 421032459581991643632738762752.000000 0.000000
0.000000 0.000000 0.000000
6318723247334448483570649399296.000000 -48566550984748297749287923613696.000000 0.000000
-48566550984748297749287923613696.000000 26478661643921970664911944024064.000000 0.000000
0.000000 0.000000 0.000000
-112318391351574639148090706100224.000000 -19053383758851874635552821084160.000000 0.000000
-19053383758851874635552821084160.000000 5583863630761764971643783872512.000000 0.000000
0.000000 0.000000 0.000000
13389937799531033189402279936.000000 -21915996264307536218703265792.000000 0.000000
-21915996264307536218703265792.000000 5670167817391779592370388992.000000 0.000000
0.000000 0.000000 0.000000
12937553854376761322555136016384.000000 -33242046855030689754015359565824.000000 0.000000
-33242046855030689754015359565824.000000 17116229312367739455187724533760.000000 0.000000
0.000000 0.000000 0.000000
2593532023268606675783996407808.000000 2083898203506499842234271137792.000000 0.000000
2083898203506499842234271137792.000000 797939639775417634088915304448.000000 0.000000
0.000000 0.000000 0.000000
-157225669561015178830813599891456.000000 30798324732026639955255200055296.000000 0.000000
30798324732026639955255200055296.000000 10016896531900486301152062734336.000000 0.000000
0.000000 0.000000 0.000000
-98155980054822937167835118436352.000000 102821965577237097291702998138880.000000 0.000000
102821965577237097291702998138880.000000 58721894286535003187528522006528.000000 0.000000
0.000000 0.000000 0.000000
42807717414565125680259731030016.000000 19241840810542553536071297138688.000000 0.000000
19241840810542553536071297138688.000000 5092936729964174561470050205696.000000 0.000000
0.000000 0.000000 0.000000
595897820256754797531837235200.000000 -10976081559840821067895898374144.000000 0.000000
-10976081559840821067895898374144.000000 6074950358312150082695704084480.000000 0.000000
0.000000 0.000000 0.000000
25692134420615505204573296918528.000000 37837915176573815002570407542784.000000 0.000000
37837915176573815002570407542784.000000 17899594740513745891325879779328.000000 0.000000
0.000000 0.000000 0.000000
-55784965161864625653589303361536.000000 -69946379497407012321375341772800.000000 0.000000
-69946379497407012321375341772800.000000 40205500537364651499121360764928.000000 0.000000
0.000000 0.000000 0.000000
16349464848464805892060086272.000000 -3559801440317500481410695168.000000 0.000000
-3559801440317500481410695168.000000 500858875608626450734776320.000000 0.000000
0.000000 0.000000 0.000000
-1953765831622259954055076686856192.000000 -5678689758240426255652311007232.000000 0.000000
-5678689758240426255652311007232.000000 133058285467828543042116124672.000000 0.000000
0.000000 0.000000 0.000000
20152295145448718315605146468352.000000 4680254924348281686503523876864.000000 0.000000
4680254924348281686503523876864.000000 699935610248122532070619611136.000000 0.000000
0.000000 0.000000 0.000000
26369814306345932091416605884416.000000 -48450835246711649403273761259520.000000 0.000000
-48450835246711649403273761259520.000000 23910826316926080557522435964928.000000 0.000000
0.000000 0.000000 0.000000
-3084330737308500338524729460654080.000000 -108357946309912774027901356998656.000000 0.000000
-108357946309912774027901356998656.000000 7560893765183773842585258295296.000000 0.000000
0.000000 0.000000 0.000000
-129213148165458182135156326793216.000000 71903098979766057703439855517696.000000 0.000000
71903098979766057703439855517696.000000 37760791811023029214140889563136.000000 0.000000
0.000000 0.000000 0.000000
47374403902282458476394651320320.000000 27376692192815181448170916806656.000000 0.000000
27376692192815181448170916806656.000000 8673526633077519248774855131136.000000 0.000000
0.000000 0.000000 0.000000
22240197527100469369854882742272.000000 52944393118538150910466038169600.000000 0.000000
52944393118538150910466038169600.000000 27094418349091445396012095504384.000000 0.000000
0.000000 0.000000 0.000000
34168009413862633460993290665984.000000 56164192135761866481269236301824.000000 0.000000
56164192135761866481269236301824.000000 27180940963476971615942422298624.000000 0.000000
0.000000 0.000000 0.000000
22080590067786483504516295557120.000000 1455215691764909090523479801856.000000 0.000000
1455215691764909090523479801856.000000 67834255340488265856754647040.000000 0.000000
0.000000 0.000000 0.000000
21587561969100952857933242171392.000000 -15439933423339727673215445630976.000000 0.000000
-15439933423339727673215445630976.000000 5736351526265024634533554683904.000000 0.000000
0.000000 0.000000 0.000000
32108943696097865145958531072000.000000 -25970487327827741923157452259328.000000 0.000000
-25970487327827741923157452259328.000000 9988143448991040782247189807104.000000 0.000000
0.000000 0.000000 0.000000
165448010683932324953171586711552.000000 58941878396415636950100222148608.000000 0.000000
58941878396415636950100222148608.000000 12984093420171269188980979007488.000000 0.000000
0.000000 0.000000 0.000000
4700115715373206892515807985664.000000 6849958579878812792624798236672.000000 0.000000
6849958579878812792624798236672.000000 3232866628084882009378544156672.000000 0.000000
0.000000 0.000000 0.000000
9775425781129051227009488781312.000000 21988628706843252197740513329152.000000 0.000000
21988628706843252197740513329152.000000 11190853451841361534994610126848.000000 0.000000
0.000000 0.000000 0.000000
-50801712993932493744715302174720.000000 -22030573287289858996987074969600.000000 0.000000
-22030573287289858996987074969600.000000 10896555595980334759372788858880.000000 0.000000
0.000000 0.000000 0.000000
1835925879125656527937030062080.000000 2448208124504762897213681565696.000000 0.000000
2448208124504762897213681565696.000000 1141531184701308267307596775424.000000 0.000000
0.000000 0.000000 0.000000
33466367390077114399559730069504.000000 -26396820620449297169986212593664.000000 0.000000
-26396820620449297169986212593664.000000 10027811918489220633401688588288.000000 0.000000
0.000000 0.000000 0.000000
-61587251302885621070187986944.000000 48878340065681749080163745792.000000 0.000000
48878340065681749080163745792.000000 31401715081012145110808264704.000000 0.000000
0.000000 0.000000 0.000000
52003736284339239334113823424512.000000 65503517558530354868167957807104.000000 0.000000
65503517558530354868167957807104.000000 29796040735713264450674817499136.000000 0.000000
0.000000 0.000000 0.000000
7812146876120486838006014017536.000000 1945803311893246985293986267136.000000 0.000000
1945803311893246985293986267136.000000 347608862655472564764349038592.000000 0.000000
0.000000 0.000000 0.000000
1830675352775229098761895542784.000000 3587626453687267755564547964928.000000 0.000000
3587626453687267755564547964928.000000 1862951250994966837356914540544.000000 0.000000
0.000000 0.000000 0.000000
40594147114939343419864594251776.000000 71419005433662400467921715331072.000000 0.000000
71419005433662400467921715331072.000000 34988121112128753014960497360896.000000 0.000000
0.000000 0.000000 0.000000
-644698713312192940767352281104384.000000 148473542015990017991953445027840.000000 0.000000
148473542015990017991953445027840.000000 53902748118692811820836082155520.000000 0.000000
0.000000 0.000000 0.000000
255173354882134373697778089984.000000 283576669758816365362752258048.000000 0.000000
283576669758816365362752258048.000000 128936399114874816878157496320.000000 0.000000
0.000000 0.000000 0.000000
-11013905834243313920062242422784.000000 22593162185933320988857378799616.000000 0.000000
22593162185933320988857378799616.000000 13091930786565329635971577151488.000000 0.000000
0.000000 0.000000 0.000000
38224729748559767926198312632320.000000 -10890598989979065064213251620864.000000 0.000000
-10890598989979065064213251620864.000000 1986170634649523411749651349504.000000 0.000000
0.000000 0.000000 0.000000
4905374208857385266320515268608.000000 -2696738423156906140645619400704.000000 0.000000
-2696738423156906140645619400704.000000 825877332040562326499925950464.000000 0.000000
0.000000 0.000000 0.000000
201763868962136888360138663002112.000000 114129169291944699720103148650496.000000 0.000000
114129169291944699720103148650496.000000 35646091551974310997304354537472.000000 0.000000
0.000000 0.000000 0.000000
2101239322426627021193602924544.000000 304224079881222303027010994176.000000 0.000000
304224079881222303027010994176.000000 61874674066512848437368586240.000000 0.000000
0.000000 0.000000 0.000000
-10999963055742531287375138521088.000000 7168783593685379469779360808960.000000 0.000000
7168783593685379469779360808960.000000 3885714235305907515192462278656.000000 0.000000
0.000000 0.000000 0.000000
-15138454271619797357213534650368.000000 7440495304617468414460721889280.000000 0.000000
7440495304617468414460721889280.000000 3801664327329268714818961932288.000000 0.000000
0.000000 0.000000 0.000000
22510397064692312710923098783744.000000 -5620142362432027885969780768768.000000 0.000000
-5620142362432027885969780768768.000000 898093249107375581602254946304.000000 0.000000
0.000000 0.000000 0.000000
15948120219412985563675004764160.000000 -61510150629096333415980990464.000000 0.000000
-61510150629096333415980990464.000000 929941785573121755124334592.000000 0.000000
0.000000 0.000000 0.000000
8724657349227953301345009664.000000 -11636982528154177337934479360.000000 0.000000
-11636982528154177337934479360.000000 4721560504880952086771007488.000000 0.000000
0.000000 0.000000 0.000000
13863894892594438693741955907584.000000 -12927021438885425239824850223104.000000 0.000000
-12927021438885425239824850223104.000000 5303141759238757909616371171328.000000 0.000000
0.000000 0.000000 0.000000
-13309799702986959639876097540096.000000 -25474338112981194952868146184192.000000 0.000000
-25474338112981194952868146184192.000000 14699581069235680661834223845376.000000 0.000000
0.000000 0.000000 0.000000
-689113027837883050699563991040.000000 -2886250038307165309926339772416.000000 0.000000
-2886250038307165309926339772416.000000 1651860976142131922580432486400.000000 0.000000
0.000000 0.000000 0.000000
-69784101075347067198962172690432.000000 -83260398248915109399149364117504.000000 0.000000
-83260398248915109399149364117504.000000 47792983774022095588705412579328.000000 0.000000
0.000000 0.000000 0.000000
23642595235162157793756749758464.000000 -21480262040196581885656917082112.000000 0.000000
-21480262040196581885656917082112.000000 8694104693471760578213639618560.000000 0.000000
0.000000 0.000000 0.000000
-266513791302189998035779452928.000000 -627961359179345144057937526784.000000 0.000000
-627961359179345144057937526784.000000 359318954616079701116499001344.000000 0.000000
0.000000 0.000000 0.000000
140095566913093508372352997523456.000000 -10115941292512436346703222669312.000000 0.000000
-10115941292512436346703222669312.000000 501545255265469864032788807680.000000 0.000000
0.000000 0.000000 0.000000
17682951952043389106640658628608.000000 -8088152178216983424625870372864.000000 0.000000
-8088152178216983424625870372864.000000 2168494849579814030149513379840.000000 0.000000
0.000000 0.000000 0.000000
-7007190600929327525668421894144.000000 -8123121658647167108687041921024.000000 0.000000
-8123121658647167108687041921024.000000 4688615493402115063475836289024.000000 0.000000
0.000000 0.000000 0.000000
14683678667595775102096553017344.000000 -27685697404493004994095343468544.000000 0.000000
-27685697404493004994095343468544.000000 13717333706976731385017606864896.000000 0.000000
0.000000 0.000000 0.000000
3049155067276742287165975691264.000000 5300549407394236196392273969152.000000 0.000000
5300549407394236196392273969152.000000 2591386437905646149325568344064.000000 0.000000
0.000000 0.000000 0.000000
15579980420492849858657562656768.000000 -41075978915659312724334553858048.000000 0.000000
-41075978915659312724334553858048.000000 21222200096659135585891536338944.000000 0.000000
0.000000 0.000000 0.000000
1178909185085742252070386270208.000000 -1186087275484112354544235577344.000000 0.000000
-1186087275484112354544235577344.000000 516740709299552743740646883328.000000 0.000000
0.000000 0.000000 0.000000
-32705221462701794019812311040.000000 58126919891898723918487224320.000000 0.000000
58126919891898723918487224320.000000 35378729068820698144081707008.000000 0.000000
0.000000 0.000000 0.000000
-571574809223485102933290254336.000000 49726622718125915859528450048.000000 0.000000
49726622718125915859528450048.000000 8294975194435911770546634752.000000 0.000000
0.000000 0.000000 0.000000
-30510026388920707029463138828288.000000 35211717208432483100441530335232.000000 0.000000
35211717208432483100441530335232.000000 20195977606574001305345889140736.000000 0.000000
0.000000 0.000000 0.000000
-15470111886081283316396905725952.000000 -7994200725547634995691238981632.000000 0.000000
-7994200725547634995691238981632.000000 4123908025758211352489252356096.000000 0.000000
0.000000 0.000000 0.000000
23362650996048480371080486191104.000000 -13669746175010829421207407820800.000000 0.000000
-13669746175010829421207407820800.000000 4317605997681519998433304248320.000000 0.000000
0.000000 0.000000 0.000000
12998236062482201514467005562880.000000 -19219285718189305747097765543936.000000 0.000000
-19219285718189305747097765543936.000000 9433730495462011721140504887296.000000 0.000000
0.000000 0.000000 0.000000
7152444575135433548562905956352.000000 -13431284355319249116006956662784.000000 0.000000
-13431284355319249116006956662784.000000 6776312878030218579165879205888.000000 0.000000
0.000000 0.000000 0.000000
-3842830572363956232766095360.000000 -172493061166598324886700032.000000 0.000000
-172493061166598324886700032.000000 165019913404498472565997568.000000 0.000000
0.000000 0.000000 0.000000
-2528116917614222402847445614592.000000 388296288054736875575157194752.000000 0.000000
388296288054736875575157194752.000000 105486316416751933695820038144.000000 0.000000
0.000000 0.000000 0.000000
1292909658038681556022420570112.000000 3358804676463007592521041707008.000000 0.000000
3358804676463007592521041707008.000000 1731793244175623065390643412992.000000 0.000000
0.000000 0.000000 0.000000
9000863080384445419175586824192.000000 12391226342190784280032943538176.000000 0.000000
12391226342190784280032943538176.000000 5768053019862439980458120839168.000000 0.000000
0.000000 0.000000 0.000000
112148017379824428356891689615360.000000 -6265202468216903012016730406912.000000 0.000000
-6265202468216903012016730406912.000000 233234169649498019704499863552.000000 0.000000
0.000000 0.000000 0.000000
-23550339044880388390233026068480.000000 -141116398364918038847251294453760.000000 0.000000
-141116398364918038847251294453760.000000 80001659534911329038520811520000.000000 0.000000
0.000000 0.000000 0.000000
27643511075238471009883389952.000000 -20730068288512221739598479360.000000 0.000000
-20730068288512221739598479360.000000 7675056330745256573384261632.000000 0.000000
0.000000 0.000000 0.000000
1847450084257321479148450873344.000000 -5512878889333895633360193060864.000000 0.000000
-5512878889333895633360193060864.000000 2877804864502652592163521560576.000000 0.000000
0.000000 0.000000 0.000000
31976854779284031577203106906112.000000 -32673547930541920388400000532480.000000 0.000000
-32673547930541920388400000532480.000000 13941922262654880422857690578944.000000 0.000000
0.000000 0.000000 0.000000
9028420663935098253056141164544.000000 -2781214614532836303710999019520.000000 0.000000
-2781214614532836303710999019520.000000 539700568851613052241168039936.000000 0.000000
0.000000 0.000000 0.000000
21006428739487989291209419915264.000000 212684963921273038406967885824.000000 0.000000
212684963921273038406967885824.000000 48871446903080552044737593344.000000 0.000000
0.000000 0.000000 0.000000
432564060920478828192051983548416.000000 -41513915690215188770636368445440.000000 0.000000
-41513915690215188770636368445440.000000 2644892892995750945824129941504.000000 0.000000
0.000000 0.000000 0.000000
2749291811853659136766873960448.000000 6881752423676349746429462315008.000000 0.000000
6881752423676349746429462315008.000000 3502973259151675056697657786368.000000 0.000000
0.000000 0.000000 0.000000
-688590462784737868367955755008.000000 797796182276029004173432324096.000000 0.000000
797796182276029004173432324096.000000 456866301938766834310240534528.000000 0.000000
0.000000 0.000000 0.000000
969850876934242622542624849920.000000 -1606055011099210362828126945280.000000 0.000000
-1606055011099210362828126945280.000000 785039877028897133898766483456.000000 0.000000
0.000000 0.000000 0.000000
3454409593633278969215482593280.000000 -129815444294605861057361323491328.000000 0.000000
-129815444294605861057361323491328.000000 71979341482225209100870608748544.000000 0.000000
0.000000 0.000000 0.000000
49951825233762103774399311118336.000000 -16943579308541873724534227468288.000000 0.000000
-16943579308541873724534227468288.000000 3583489030857332066843533246464.000000 0.000000
0.000000 0.000000 0.000000
-53826683733222520654653292544.000000 -1844119817561147231915823071232.000000 0.000000
-1844119817561147231915823071232.000000 1029543494388732577151348375552.000000 0.000000
0.000000 0.000000 0.000000
7122081278645462325798503448576.000000 -2655583433482787124145960255488.000000 0.000000
-2655583433482787124145960255488.000000 477023831804827258954656514048.000000 0.000000
0.000000 0.000000 0.000000
-64583027263220752757546693951488.000000 -44564327017547799923308416204800.000000 0.000000
-44564327017547799923308416204800.000000 24401785001320490997503594856448.000000 0.000000
0.000000 0.000000 0.000000
3428050138815315101787573190656.000000 1135710558390753926252429574144.000000 0.000000
1135710558390753926252429574144.000000 234655346898722393110708486144.000000 0.000000
0.000000 0.000000 0.000000
17984940820283667722844585852928.000000 2956031301715853668006215286784.000000 0.000000
2956031301715853668006215286784.000000 238970609284855252886155689984.000000 0.000000
0.000000 0.000000 0.000000
-4713103470892522563536945705648128.000000 283847735049759310296206622588928.000000 0.000000
283847735049759310296206622588928.000000 33467659714168973707948228345856.000000 0.000000
0.000000 0.000000 0.000000
23281581716481058961117910401024.000000 29443399334822064844451631595520.000000 0.000000
29443399334822064844451631595520.000000 13408432867499571415888284352512.000000 0.000000
0.000000 0.000000 0.000000
9707712609515848249610977935360.000000 64012661243645606608868728635392.000000 0.000000
64012661243645606608868728635392.000000 34912265305686016833267678838784.000000 0.000000
0.000000 0.000000 0.000000
-199486582178194474072216183450370048.000000 -3294988859977750923999845933907968.000000 0.000000
-3294988859977750923999845933907968.000000 108675025993062756658997769535488.000000 0.000000
0.000000 0.000000 0.000000
-6447875293961902503423285133312.000000 22084746167980904248920531533824.000000 0.000000
22084746167980904248920531533824.000000 12641049353744030099207343833088.000000 0.000000
0.000000 0.000000 0.000000
-73572698257991167806480735797248.000000 -16992715371767808290185640148992.000000 0.000000
-16992715371767808290185640148992.000000 6166636141303243530870542303232.000000 0.000000
0.000000 0.000000 0.000000
-18615724671899916360081001676800.000000 20696667796131061647189831843840.000000 0.000000
20696667796131061647189831843840.000000 11848636962872789969769966075904.000000 0.000000
0.000000 0.000000 0.000000
-16877863183680248953607607549952.000000 64370263013016003772430914945024.000000 0.000000
64370263013016003772430914945024.000000 36832902081272100659578422689792.000000 0.000000
0.000000 0.000000 0.000000
-15991959200260187642955487510528.000000 -53311547981606817315644355117056.000000 0.000000
-53311547981606817315644355117056.000000 30530098669181687892271863693312.000000 0.000000
0.000000 0.000000 0.000000
2849717622320526443203939794944.000000 -7633089932423306423073958264832.000000 0.000000
-7633089932423306423073958264832.000000 3950781913028486222677052227584.000000 0.000000
0.000000 0.000000 0.000000
38643799287610415408329948921856.000000 -20249787679831435642937540608000.000000 0.000000
-20249787679831435642937540608000.000000 5999410596019791674948536238080.000000 0.000000
0.000000 0.000000 0.000000
12267481938532776214157726842880.000000 4591090785280751678865444700160.000000 0.000000
4591090785280751678865444700160.000000 1049117880783067050592067125248.000000 0.000000
0.000000 0.000000 0.000000
39503496556234624403058240520192.000000 -66593301835473718124898632597504.000000 0.000000
-66593301835473718124898632597504.000000 32338961933148101815065234112512.000000 0.000000
0.000000 0.000000 0.000000
15500385925620064747916999262208.000000 756220579791510494778197278720.000000 0.000000
756220579791510494778197278720.000000 31232141110456040144846716928.000000 0.000000
0.000000 0.000000 0.000000
-139885596098811228299449954467840.000000 -53271578755838344172274226036736.000000 0.000000
-53271578755838344172274226036736.000000 24925387198450395467836446212096.000000 0.000000
0.000000 0.000000 0.000000
-23077419782205142853399114416128.000000 39048287400773398786102653878272.000000 0.000000
39048287400773398786102653878272.000000 22538197951126167728882356060160.000000 0.000000
0.000000 0.000000 0.000000
31690217410902233566116011048960.000000 -22011632463945707182310427721728.000000 0.000000
-22011632463945707182310427721728.000000 7810828536144714473604351262720.000000 0.000000
0.000000 0.000000 0.000000
25652029403864868004245752774656.000000 -803064643377005206171885240320.000000 0.000000
-803064643377005206171885240320.000000 17092610166630698096323985408.000000 0.000000
0.000000 0.000000 0.000000
1166478820888105669574147440640.000000 42184421708425462148395503190016.000000 0.000000
42184421708425462148395503190016.000000 23392143396540687811501487030272.000000 0.000000
0.000000 0.000000 0.000000
5491919263467730969128788295680.000000 -4961871982560972611713046151168.000000 0.000000
-4961871982560972611713046151168.000000 2007216333334987503529283813376.000000 0.000000
0.000000 0.000000 0.000000
46414175582788908695924043153408.000000 -43026141552309273852152492589056.000000 0.000000
-43026141552309273852152492589056.000000 17599060253201276951180978683904.000000 0.000000
0.000000 0.000000 0.000000
-131529851010582206570946338226176.000000 -68150983006625448291106889400320.000000 0.000000
-68150983006625448291106889400320.000000 35171759533731093374695483899904.000000 0.000000
0.000000 0.000000 0.000000
-36915418776544422942327590354944.000000 21406259186278960706992381886464.000000 0.000000
21406259186278960706992381886464.000000 11351266881236408016612074979328.000000 0.000000
0.000000 0.000000 0.000000
4710027761779964751610462076928.000000 5658100686596829980170318249984.000000 0.000000
5658100686596829980170318249984.000000 2560448838899851339186120425472.000000 0.000000
0.000000 0.000000 0.000000
20842942999192133605043208192.000000 -14271531090019903944708325376.000000 0.000000
-14271531090019903944708325376.000000 5023393621386856458295967744.000000 0.000000
0.000000 0.000000 0.000000
-970740328404804668007634698240000.000000 46386328699163604471850209378304.000000 0.000000
46386328699163604471850209378304.000000 4373981086233006046226776326144.000000 0.000000
0.000000 0.000000 0.000000
-8056246675916928542534342547603456.000000 205860256759708015272956906176512.000000 0.000000
205860256759708015272956906176512.000000 10525582067313644568096423280640.000000 0.000000
0.000000 0.000000 0.000000
37591537379988837758349845987328.000000 -28529926534546936065993769746432.000000 0.000000
-28529926534546936065993769746432.000000 10606130609912682805815964336128.000000 0.000000
0.000000 0.000000 0.000000
134954518080355252274831818752.000000 68696415822441441984038043648.000000 0.000000
68696415822441441984038043648.000000 19969499830991918757299879936.000000 0.000000
0.000000 0.000000 0.000000
-8619525796764214667198827855872.000000 -13200993620441110126077337927680.000000 0.000000
-13200993620441110126077337927680.000000 7619766136363588522871235805184.000000 0.000000
0.000000 0.000000 0.000000
309441207190893859041450198564864.000000 68815293802402353167424821395456.000000 0.000000
68815293802402353167424821395456.000000 9931214522421979862451263373312.000000 0.000000
0.000000 0.000000 0.000000
2903714318605681341195018567680.000000 -8977001631689981027231331254272.000000 0.000000
-8977001631689981027231331254272.000000 4724187543678360978470954074112.000000 0.000000
0.000000 0.000000 0.000000
4447003077523534083006140514304.000000 -8135664957484406836741367922688.000000 0.000000
-8135664957484406836741367922688.000000 4011266264857530584002411364352.000000 0.000000
0.000000 0.000000 0.000000
293823961778832594831216214016.000000 239983622345556462623063539712.000000 0.000000
239983622345556462623063539712.000000 92746735480217001476409524224.000000 0.000000
0.000000 0.000000 0.000000
33465152377863351818494872125440.000000 -16772659044332785336056748703744.000000 0.000000
-16772659044332785336056748703744.000000 4966649693889269368883215597568.000000 0.000000
0.000000 0.000000 0.000000
69420454167287580083676243820544.000000 9511660455646088506865650499584.000000 0.000000
9511660455646088506865650499584.000000 895869344689861116636417753088.000000 0.000000
0.000000 0.000000 0.000000
21860242547838524731661746176.000000 -25441275170118670116857053184.000000 0.000000
-25441275170118670116857053184.000000 11304932190018535009166557184.000000 0.000000
0.000000 0.000000 0.000000
14983330162232147738051141959680.000000 -52446002910445323516780430229504.000000 0.000000
-52446002910445323516780430229504.000000 27779239517826682837227880316928.000000 0.000000
0.000000 0.000000 0.000000
-25422438754788118300566788996333568.000000 1006367851770149846391413834514432.000000 0.000000
1006367851770149846391413834514432.000000 78915310258722032819416474845184.000000 0.000000
0.000000 0.000000 0.000000
23574463323607834011438711570432.000000 -22557473052603702069986049654784.000000 0.000000
-22557473052603702069986049654784.000000 9340809815456169463311652356096.000000 0.000000
0.000000 0.000000 0.000000
1232527781251684466774922756096.000000 -45983461707466047076193569603584.000000 0.000000
-45983461707466047076193569603584.000000 25472548272877657278663903674368.000000 0.000000
0.000000 0.000000 0.000000
2147017217133059018876124135424.000000 -5767740975958850683509103656960.000000 0.000000
-5767740975958850683509103656960.000000 2983681529608819819632798990336.000000 0.000000
0.000000 0.000000 0.000000
-25635381160043829897681759633408.000000 16511086020433912461203423100928.000000 0.000000
16511086020433912461203423100928.000000 9091351835170208277855853346816.000000 0.000000
0.000000 0.000000 0.000000
-181882408435326398688209322115072.000000 19518366505595821187582601986048.000000 0.000000
19518366505595821187582601986048.000000 3927974415531112448370583535616.000000 0.000000
0.000000 0.000000 0.000000
-9692148719155444967119911911424.000000 51002814494191436385616719249408.000000 0.000000
51002814494191436385616719249408.000000 29008786116448655661776188211200.000000 0.000000
0.000000 0.000000 0.000000
15364342931827632973729752940544.000000 -10236207179083901013445715165184.000000 0.000000
-10236207179083901013445715165184.000000 3546011317800452548767197954048.000000 0.000000
0.000000 0.000000 0.000000
20572857952454441528332763791360.000000 -8086614575827618810070986391552.000000 0.000000
-8086614575827618810070986391552.000000 1926960529890186750082173370368.000000 0.000000
0.000000 0.000000 0.000000
-10063438191398314079188454211584.000000 2533967865404647553696360562688.000000 0.000000
2533967865404647553696360562688.000000 965796782414384950643527778304.000000 0.000000
0.000000 0.000000 0.000000
1999283950512159550271880429568.000000 -3830228356781831446184977235968.000000 0.000000
-3830228356781831446184977235968.000000 1932762251511552578721920581632.000000 0.000000
0.000000 0.000000 0.000000
23977864015071656886832417734656.000000 -27231521890549588336076180684800.000000 0.000000
-27231521890549588336076180684800.000000 12022341213984065024103911784448.000000 0.000000
0.000000 0.000000 0.000000
49890207652328024844721664819200.000000 36476809758658507883354867630080.000000 0.000000
36476809758658507883354867630080.000000 13320216493994428311298151284736.000000 0.000000
0.000000 0.000000 0.000000
-7576341997720582758909469523968.000000 6847112743092629229816485249024.000000 0.000000
6847112743092629229816485249024.000000 3866242208648365363391677595648.000000 0.000000
0.000000 0.000000 0.000000
22808416591255140634941447995392.000000 -16128338939525312821999817457664.000000 0.000000
-16128338939525312821999817457664.000000 5826992408302612210058772086784.000000 0.000000
0.000000 0.000000 0.000000
58522261825414237904922126319616.000000 60007464575683066582009871597568.000000 0.000000
60007464575683066582009871597568.000000 25542853739302341223821462208512.000000 0.000000
0.000000 0.000000 0.000000
26542428898026813913083945156608.000000 6968268988580750525272460099584.000000 0.000000
6968268988580750525272460099584.000000 1194565748003890368264710127616.000000 0.000000
0.000000 0.000000 0.000000
3559628774331998914883065217024.000000 3154802310321961672773453479936.000000 0.000000
3154802310321961672773453479936.000000 1268679306273392864245871280128.000000 0.000000
0.000000 0.000000 0.000000
-1611561487106021306526999773184.000000 -24208972657355962387532915671040.000000 0.000000
-24208972657355962387532915671040.000000 13619104984221316639167413747712.000000 0.000000
0.000000 0.000000 0.000000
38693732210520676641265955110912.000000 30665619119969910334890369351680.000000 0.000000
30665619119969910334890369351680.000000 11693564406116357690174671421440.000000 0.000000
0.000000 0.000000 0.000000
52429965558025001035481072271360.000000 16051421010702869977650364940288.000000 0.000000
16051421010702869977650364940288.000000 3085220245869125264733756194816.000000 0.000000
0.000000 0.000000 0.000000
711777791678550436865976041472.000000 538562075105904666816223903744.000000 0.000000
538562075105904666816223903744.000000 200312350467523948686004453376.000000 0.000000
0.000000 0.000000 0.000000
-119453387244298834365075974397100032.000000 -846610684205607713623076994285568.000000 0.000000
-846610684205607713623076994285568.000000 12001078177495776727112081211392.000000 0.000000
0.000000 0.000000 0.000000
-6495359488101655765707267244032.000000 -8354911356158523984130439380992.000000 0.000000
-8354911356158523984130439380992.000000 4889278895218265799267979362304.000000 0.000000
0.000000 0.000000 0.000000
-2051234863062153185369106939904.000000 71631479583215039211645173760.000000 0.000000
71631479583215039211645173760.000000 25663174034646660480206110720.000000 0.000000
0.000000 0.000000 0.000000
-3073611307529956421060150354247680.000000 211863786893524384290371857809408.000000 0.000000
211863786893524384290371857809408.000000 28405414324245035159489813151744.000000 0.000000
0.000000 0.000000 0.000000
-4676905009243627877178036715520.000000 -5465387369440478825852180627456.000000 0.000000
-5465387369440478825852180627456.000000 3133975074788016744887494901760.000000 0.000000
0.000000 0.000000 0.000000
17007274598636078682045023256576.000000 -25703624762994084571263069585408.000000 0.000000
-25703624762994084571263069585408.000000 12228619609116993029508490592256.000000 0.000000
0.000000 0.000000 0.000000
84883412225960537883301463982080.000000 -49532291420839182719104774569984.000000 0.000000
-49532291420839182719104774569984.000000 15813851941549418839515468922880.000000 0.000000
0.000000 0.000000 0.000000
-1131789792544972496720447406080.000000 256168057168404919560609726464.000000 0.000000
256168057168404919560609726464.000000 96432128974603295102941003776.000000 0.000000
0.000000 0.000000 0.000000
-133348992547234748349259672715264.000000 18405716198580267091701354463232.000000 0.000000
18405716198580267091701354463232.000000 4598475579145845263715794944000.000000 0.000000
0.000000 0.000000 0.000000
-14887728214923820904646393481658368.000000 -907146855357635035182304310853632.000000 0.000000
-907146855357635035182304310853632.000000 108168683414371255278968705646592.000000 0.000000
0.000000 0.000000 0.000000
9173094912189889398040218828800.000000 -7427765136301802226279807713280.000000 0.000000
-7427765136301802226279807713280.000000 2858772002110853008485653676032.000000 0.000000
0.000000 0.000000 0.000000
178553041342768548449808709320704.000000 -67983410606214455717520539123712.000000 0.000000
-67983410606214455717520539123712.000000 15744481878718112567207959461888.000000 0.000000
0.000000 0.000000 0.000000
-30813987920685649616917495808.000000 4160828534341233212622110720.000000 0.000000
4160828534341233212622110720.000000 2002559856723076101378670592.000000 0.000000
0.000000 0.000000 0.000000
3988192520652749934544073785344.000000 -221571616991505053867015405568.000000 0.000000
-221571616991505053867015405568.000000 12728642301897014498981576704.000000 0.000000
0.000000 0.000000 0.000000
138079602871044217477937152131072.000000 27084794385890459288143279423488.000000 0.000000
27084794385890459288143279423488.000000 3453506942563705378044727263232.000000 0.000000
0.000000 0.000000 0.000000
72772944304737358700290081030144.000000 107019031243635758600733289611264.000000 0.000000
107019031243635758600733289611264.000000 50618936483595867840686806007808.000000 0.000000
0.000000 0.000000 0.000000
64180945777832096172069475057664.000000 10815291164173068880736247873536.000000 0.000000
10815291164173068880736247873536.000000 1306768112441769621136936534016.000000 0.000000
0.000000 0.000000 0.000000
122332998122780190256540841672704.000000 -47575797667375045288530362236928.000000 0.000000
-47575797667375045288530362236928.000000 11213097986343445670990102659072.000000 0.000000
0.000000 0.000000 0.000000
-18330979651599729549861978112000.000000 16970919267995201316065814511616.000000 0.000000
16970919267995201316065814511616.000000 9596045371765179654244927537152.000000 0.000000
0.000000 0.000000 0.000000
55833437149414463501489930240.000000 102841647393965501175033757696.000000 0.000000
102841647393965501175033757696.000000 50772089246331899765040611328.000000 0.000000
0.000000 0.000000 0.000000
23214295694379565682048458817536.000000 22337891339794513331634040733696.000000 0.000000
22337891339794513331634040733696.000000 9224862462562399892204601475072.000000 0.000000
0.000000 0.000000 0.000000
32680011483079274601887200968704.000000 2349051481147595059935238422528.000000 0.000000
2349051481147595059935238422528.000000 112339007948684095232678035456.000000 0.000000
0.000000 0.000000 0.000000
-6413730349680128344540548431872.000000 73225032595779515800029757440.000000 0.000000
73225032595779515800029757440.000000 1709649191033271191452254208.000000 0.000000
0.000000 0.000000 0.000000
-26053604545247466693328896.000000 229777547685409399328735232.000000 0.000000
229777547685409399328735232.000000 129563816517672699009433600.000000 0.000000
0.000000 0.000000 0.000000
49109453398330355659606851584000.000000 19508237869902995727721609297920.000000 0.000000
19508237869902995727721609297920.000000 4832085423361289270740251574272.000000 0.000000
0.000000 0.000000 0.000000
16847326420956908743847969816576.000000 11522644859047890906816102531072.000000 0.000000
11522644859047890906816102531072.000000 4046024136546005078459251949568.000000 0.000000
0.000000 0.000000 0.000000
-11136880702556499304665000706048.000000 24835545955896700995348392312832.000000 0.000000
24835545955896700995348392312832.000000 14312270568147105861146498826240.000000 0.000000
0.000000 0.000000 0.000000
-158610878638146292025577701376.000000 81418396910352283561258647552.000000 0.000000
81418396910352283561258647552.000000 29390903103653479178831921152.000000 0.000000
0.000000 0.000000 0.000000
27195168147702355490461754327040.000000 11799865094430465675606706094080.000000 0.000000
11799865094430465675606706094080.000000 3064302560149770941595507490816.000000 0.000000
0.000000 0.000000 0.000000
-3256653763336190143679768297472.000000 2585422776119946208887479205888.000000 0.000000
2585422776119946208887479205888.000000 1455607567959577852890874642432.000000 0.000000
0.000000 0.000000 0.000000
5395560234030092029911304765440.000000 8573017175007691059989957312512.000000 0.000000
8573017175007691059989957312512.000000 3999464144375821336734997676032.000000 0.000000
0.000000 0.000000 0.000000
55577098401459230984710687555584.000000 74365971378820825650228600242176.000000 0.000000
74365971378820825650228600242176.000000 34379716818672078965005160022016.000000 0.000000
0.000000 0.000000 0.000000
1614683583324641139553537622016.000000 -142300852213736758258064949248.000000 0.000000
-142300852213736758258064949248.000000 10960207509440939692230967296.000000 0.000000
0.000000 0.000000 0.000000
16801899056447894304634735427584.000000 31297780953187152184630686253056.000000 0.000000
31297780953187152184630686253056.000000 15798846644764412838258323488768.000000 0.000000
0.000000 0.000000 0.000000
5798440239235421774306860859392.000000 -8692933548666654643781762023424.000000 0.000000
-8692933548666654643781762023424.000000 4128858073289644726375323533312.000000 0.000000
0.000000 0.000000 0.000000
-1255527465950977656205801947136.000000 -2479681796231529980787391725568.000000 0.000000
-2479681796231529980787391725568.000000 1453743876981592963437001965568.000000 0.000000
0.000000 0.000000 0.000000
-4304269301514350299957071708160.000000 -28277675881471060155854579826688.000000 0.000000
-28277675881471060155854579826688.000000 16007901241925366375895642669056.000000 0.000000
0.000000 0.000000 0.000000
131056346192242377088953221120.000000 36346827286900530090426236928.000000 0.000000
36346827286900530090426236928.000000 6403978111201474150053969920.000000 0.000000
0.000000 0.000000 0.000000
-2520118521321140864984761237504.000000 12048686609438613806476796362752.000000 0.000000
12048686609438613806476796362752.000000 6856191839446475106762788700160.000000 0.000000
0.000000 0.000000 0.000000
-68083103196479523509128524726272.000000 -44134610075039742512619874942976.000000 0.000000
-44134610075039742512619874942976.000000 23896464885494928885413922734080.000000 0.000000
0.000000 0.000000 0.000000
-6950335250182993827203481862144.000000 -21269029978079806783701792063488.000000 0.000000
-21269029978079806783701792063488.000000 12198801273738124258531394715648.000000 0.000000
0.000000 0.000000 0.000000
-87797162578820221003148296192.000000 -142233392706265861358622867456.000000 0.000000
-142233392706265861358622867456.000000 81320582684365279572474724352.000000 0.000000
0.000000 0.000000 0.000000
-2216914739052487666045546397696.000000 -1686894007393227307342073167872.000000 0.000000
-1686894007393227307342073167872.000000 940355922240100011324846637056.000000 0.000000
0.000000 0.000000 0.000000
5064018238767724499298257207296.000000 2705224417165443001383221460992.000000 0.000000
2705224417165443001383221460992.000000 810089418843182855377538514944.000000 0.000000
0.000000 0.000000 0.000000
109593767209527371177359967256576.000000 16650831922702441198902730293248.000000 0.000000
16650831922702441198902730293248.000000 1663458618168003357520187883520.000000 0.000000
0.000000 0.000000 0.000000
16864333714814737510160666722304.000000 -136140874529169845309474022096896.000000 0.000000
-136140874529169845309474022096896.000000 74249196059522568018903674388480.000000 0.000000
0.000000 0.000000 0.000000
21938700667250481908103600144384.000000 1068103995861177659097771671552.000000 0.000000
1068103995861177659097771671552.000000 36929073425130049602871885824.000000 0.000000
0.000000 0.000000 0.000000
-253648076534707162800159981568.000000 145778459165698040093460135936.000000 0.000000
145778459165698040093460135936.000000 14665730829542823814852771840.000000 0.000000
0.000000 0.000000 0.000000
110547238035432861925930554097664.000000 -26677624479181093414141228482560.000000 0.000000
-26677624479181093414141228482560.000000 4138084070367504537166679113728.000000 0.000000
0.000000 0.000000 0.000000
6165935527201601547167594446848.000000 -390787361473341788383814352896.000000 0.000000
-390787361473341788383814352896.000000 16585344781514484802710929408.000000 0.000000
0.000000 0.000000 0.000000
-455441848116472919244161417216.000000 -113557501482872064008660189184.000000 0.000000
-113557501482872064008660189184.000000 49755666895531451876099751936.000000 0.000000
0.000000 0.000000 0.000000
4641160740441761125785703284736.000000 -1765387940088157960835881238528.000000 0.000000
-1765387940088157960835881238528.000000 435764715864156374036499136512.000000 0.000000
0.000000 0.000000 0.000000
-3668284472933849415116209642274816.000000 -140262755125475565038786914025472.000000 0.000000
-140262755125475565038786914025472.000000 10633898477030842333606002556928.000000 0.000000
0.000000 0.000000 0.000000
139860656863808451889613175259136.000000 -107358821888884742066012092891136.000000 0.000000
-107358821888884742066012092891136.000000 40222910851820173751060623523840.000000 0.000000
0.000000 0.000000 0.000000
5586245231716295235994162036736.000000 8849278938325670494897442914304.000000 0.000000
8849278938325670494897442914304.000000 4265549825797658158546450120704.000000 0.000000
0.000000 0.000000 0.000000
-9775215232400541094719803883520.000000 12124065415187001840786804310016.000000 0.000000
12124065415187001840786804310016.000000 6972346224493690923184956637184.000000 0.000000
0.000000 0.000000 0.000000
-20462016935906538434622581112832.000000 -24535433606173581038048094715904.000000 0.000000
-24535433606173581038048094715904.000000 14088462466280624571781371396096.000000 0.000000
0.000000 0.000000 0.000000
255542354640788894253056.000000 -80136463347137239842816.000000 0.000000
-80136463347137239842816.000000 15724362592588140642304.000000 0.000000
0.000000 0.000000 0.000000
-241191808755751702019950247936.000000 -21583581769503077510511878733824.000000 0.000000
-21583581769503077510511878733824.000000 12021484598236728044842236510208.000000 0.000000
0.000000 0.000000 0.000000
-1511129123026747536461828980736.000000 -3765977580181730436407009214464.000000 0.000000
-3765977580181730436407009214464.000000 2165466530227597764230612254720.000000 0.000000
0.000000 0.000000 0.000000
705095925944957491729565483008.000000 2314977771082764171689785819136.000000 0.000000
2314977771082764171689785819136.000000 1256073850762630670718863409152.000000 0.000000
0.000000 0.000000 0.000000
208911261895202384980947763200.000000 -58885953753532168767782518784.000000 0.000000
-58885953753532168767782518784.000000 12182724811161326357969895424.000000 0.000000
0.000000 0.000000 0.000000
29950283090194596467516196782080.000000 -10243419704341658181578577149952.000000 0.000000
-10243419704341658181578577149952.000000 2174510197461551126450993627136.000000 0.000000
0.000000 0.000000 0.000000
1128054143037069463860019200.000000 243843104667574498085568512.000000 0.000000
243843104667574498085568512.000000 47185085655925227815698432.000000 0.000000
0.000000 0.000000 0.000000
-19684921580851616824336654008320.000000 72821158566360380615754042572800.000000 0.000000
72821158566360380615754042572800.000000 41596732652382509518294618210304.000000 0.000000
0.000000 0.000000 0.000000
22647522404134606782091487084544.000000 -22774774707292685937903298150400.000000 0.000000
-22774774707292685937903298150400.000000 9624867958387153836489364733952.000000 0.000000
0.000000 0.000000 0.000000
70613355582899295841022784831488.000000 -14171676253387426508125256024064.000000 0.000000
-14171676253387426508125256024064.000000 1850316123060689616284982181888.000000 0.000000
0.000000 0.000000 0.000000
59707096608936069087698884755456.000000 5525956133712414237335794745344.000000 0.000000
5525956133712414237335794745344.000000 341262719979689459653053251584.000000 0.000000
0.000000 0.000000 0.000000
-93407806616630291531846123520.000000 -2464540433659136291483986952192.000000 0.000000
-2464540433659136291483986952192.000000 1377259231250238597308256092160.000000 0.000000
0.000000 0.000000 0.000000
779832977528086905050783285248.000000 -10374607242909910979983863447552.000000 0.000000
-10374607242909910979983863447552.000000 5700205695064375532145757650944.000000 0.000000
0.000000 0.000000 0.000000
68186355929690279619800464359424.000000 -5377093292297824126057735782400.000000 0.000000
-5377093292297824126057735782400.000000 321006309558062815798282420224.000000 0.000000
0.000000 0.000000 0.000000
-47887575504063147882082143737741312.000000 1146018729132536973971831589437440.000000 0.000000
1146018729132536973971831589437440.000000 54684157004817368650504288075776.000000 0.000000
0.000000 0.000000 0.000000
-447389219961181658061381096701952.000000 -30780973347746243633162976493568.000000 0.000000
-30780973347746243633162976493568.000000 4116375097218931558688898416640.000000 0.000000
0.000000 0.000000 0.000000
-76324011820125084002291625754624.000000 26858227700562736923393193410560.000000 0.000000
26858227700562736923393193410560.000000 12758916365563370792920924815360.000000 0.000000
0.000000 0.000000 0.000000
584672925590458187690679468032.000000 21049592847550974909433161711616.000000 0.000000
21049592847550974909433161711616.000000 11668267824158395002185400188928.000000 0.000000
0.000000 0.000000 0.000000
1156942316212259957038181777408.000000 -149900945840357876862236365946880.000000 0.000000
-149900945840357876862236365946880.000000 83272632736299160921209250512896.000000 0.000000
0.000000 0.000000 0.000000
-17449379109488902585910997024768.000000 10269308976736728914713915686912.000000 0.000000
10269308976736728914713915686912.000000 5459811781716508930171423686656.000000 0.000000
0.000000 0.000000 0.000000
-11656512298299277981997343034048512.000000 -360970380751294926823747242426368.000000 0.000000
-360970380751294926823747242426368.000000 22223361285489806543751447838720.000000 0.000000
0.000000 0.000000 0.000000
-49059291176755512190047975636992.000000 -81431807139849761544854373924864.000000 0.000000
-81431807139849761544854373924864.000000 46997706637473441832235278794752.000000 0.000000
0.000000 0.000000 0.000000
87957750163186434876652535152640.000000 -7017579836900086047050767007744.000000 0.000000
-7017579836900086047050767007744.000000 422474221082666851880916746240.000000 0.000000
0.000000 0.000000 0.000000
23712451367351471841051406237696.000000 14095901568599916228382986076160.000000 0.000000
14095901568599916228382986076160.000000 4621242047719134951922674434048.000000 0.000000
0.000000 0.000000 0.000000
54408500223351430181411216162816.000000 -6065420590166806338576758865920.000000 0.000000
-6065420590166806338576758865920.000000 448970259785072494037616820224.000000 0.000000
0.000000 0.000000 0.000000
6750276648846282353841012736.000000 -15408537919032187893302951936.000000 0.000000
-15408537919032187893302951936.000000 9246967241611675870427086848.000000 0.000000
0.000000 0.000000 0.000000
-1632649788914246504798658494464.000000 -4119165317059085653545525968896.000000 0.000000
-4119165317059085653545525968896.000000 2444920082522742830991606284288.000000 0.000000
0.000000 0.000000 0.000000
35198964549372655683476561854464.000000 -5164572384318303909946784219136.000000 0.000000
-5164572384318303909946784219136.000000 650404067384530428686577434624.000000 0.000000
0.000000 0.000000 0.000000
130306024592588863901403361312768.000000 -49854098782827029606791750090752.000000 0.000000
-49854098782827029606791750090752.000000 11598989556316464318401096974336.000000 0.000000
0.000000 0.000000 0.000000
-2567949175499333976576871104512.000000 -24287969739479737959166114791424.000000 0.000000
-24287969739479737959166114791424.000000 13721711073117602789723050344448.000000 0.000000
0.000000 0.000000 0.000000
-7749680855057205449618909822976.000000 6772516549027234670507374673920.000000 0.000000
6772516549027234670507374673920.000000 3812470057366653957509692260352.000000 0.000000
0.000000 0.000000 0.000000
7296302292230363978746176733184.000000 2516711262897961374958407909376.000000 0.000000
2516711262897961374958407909376.000000 566598590298925941730259763200.000000 0.000000
0.000000 0.000000 0.000000
52578612307653184311436288983040.000000 62566626580713727101397035384832.000000 0.000000
62566626580713727101397035384832.000000 27993621719979358211913528901632.000000 0.000000
0.000000 0.000000 0.000000
-9981560321382385176921709215744.000000 -747487871849027531990940778496.000000 0.000000
-747487871849027531990940778496.000000 111360106590918313705107095552.000000 0.000000
0.000000 0.000000 0.000000
-39832457849417175709993406562304.000000 -2806465259111597889898095312896.000000 0.000000
-2806465259111597889898095312896.000000 396116739647704782411315281920.000000 0.000000
0.000000 0.000000 0.000000
47567100123489301955617635696640.000000 23584470516933306729829477908480.000000 0.000000
23584470516933306729829477908480.000000 6725393051531759439457701330944.000000 0.000000
0.000000 0.000000 0.000000
3070142969015456837512279883776.000000 -961399939554472719009867366400.000000 0.000000
-961399939554472719009867366400.000000 189923834761074374923769610240.000000 0.000000
0.000000 0.000000 0.000000
33550433845195852151256988516352.000000 -35079910826675734937042610552832.000000 0.000000
-35079910826675734937042610552832.000000 15024717960978903098908915793920.000000 0.000000
0.000000 0.000000 0.000000
14191800137329788725191568785408.000000 4151973091917883420623968927744.000000 0.000000
4151973091917883420623968927744.000000 770281990642123046602879795200.000000 0.000000
0.000000 0.000000 0.000000
-1568897730223826935643897856.000000 -6934775480016979458898526208.000000 0.000000
-6934775480016979458898526208.000000 5067315021873990147835428864.000000 0.000000
0.000000 0.000000 0.000000
59510422958177581322001694326784.000000 -50055526614884083103248674717696.000000 0.000000
-50055526614884083103248674717696.000000 19616470448938365917746708873216.000000 0.000000
0.000000 0.000000 0.000000
5571262085781172124799761121280.000000 532377826190196590158882537472.000000 0.000000
532377826190196590158882537472.000000 48088838424320392882980651008.000000 0.000000
0.000000 0.000000 0.000000
35530107436080307729575679361024.000000 23060218309992302681620054278144.000000 0.000000
23060218309992302681620054278144.000000 7899366078115584667487016321024.000000 0.000000
0.000000 0.000000 0.000000
-43302889905411009703927605100544.000000 34177397681184952893705944039424.000000 0.000000
34177397681184952893705944039424.000000 19038456619262842206104573706240.000000 0.000000
0.000000 0.000000 0.000000
5852792651051427072955239104512.000000 3193485790160659171783789772800.000000 0.000000
3193485790160659171783789772800.000000 996937181603098035984634216448.000000 0.000000
0.000000 0.000000 0.000000
-1561292699093493108503609704710144.000000 71622647603703238826082902736896.000000 0.000000
71622647603703238826082902736896.000000 6487499463191049377472931954688.000000 0.000000
0.000000 0.000000 0.000000
22307496244820067659959762944.000000 38366912432692911290703675392.000000 0.000000
38366912432692911290703675392.000000 18716442625703534452233207808.000000 0.000000
0.000000 0.000000 0.000000
28575248547220289386175040323584.000000 -45131663171001600114944120979456.000000 0.000000
-45131663171001600114944120979456.000000 21676248394932491099248456105984.000000 0.000000
0.000000 0.000000 0.000000
157879341774816324695447568384.000000 -4065373835246592159152059973632.000000 0.000000
-4065373835246592159152059973632.000000 2253267828735278680403213287424.000000 0.000000
0.000000 0.000000 0.000000
-38748679763764527561177458278400.000000 32699557174157377197051381547008.000000 0.000000
32699557174157377197051381547008.000000 18315058279712425175032029773824.000000 0.000000
0.000000 0.000000 0.000000
84228932962437857308504489984.000000 32246215892045063351208771584.000000 0.000000
32246215892045063351208771584.000000 7754408894096850155714117632.000000 0.000000
0.000000 0.000000 0.000000
13621873768083626971383562502144.000000 16894020698552863434624164954112.000000 0.000000
16894020698552863434624164954112.000000 7651102790787843811538066472960.000000 0.000000
0.000000 0.000000 0.000000
-1292923415041738272237272250187776.000000 -58217304975121224858480087662592.000000 0.000000
-58217304975121224858480087662592.000000 5178503151477017905232844161024.000000 0.000000
0.000000 0.000000 0.000000
36620141699703391221681471094784.000000 -12909586524853802752538541293568.000000 0.000000
-12909586524853802752538541293568.000000 2806235294864714408451760979968.000000 0.000000
0.000000 0.000000 0.000000
19003366635770896296580134993920.000000 -7888048196338790375222820208640.000000 0.000000
-7888048196338790375222820208640.000000 1999785089674828047655515455488.000000 0.000000
0.000000 0.000000 0.000000
-879246244964435623673000361984.000000 -3627588992870390733437266821120.000000 0.000000
-3627588992870390733437266821120.000000 2069092815807470842862299512832.000000 0.000000
0.000000 0.000000 0.000000
11663392684392770060065626390528.000000 8476038158410117612900127342592.000000 0.000000
8476038158410117612900127342592.000000 3085139177131102097644221104128.000000 0.000000
0.000000 0.000000 0.000000
19555684532019554024255651840.000000 -40936552384622052568767397888.000000 0.000000
-40936552384622052568767397888.000000 20811781491894148378988118016.000000 0.000000
0.000000 0.000000 0.000000
-16466626671337353419630791622656.000000 7806255069058827082442802724864.000000 0.000000
7806255069058827082442802724864.000000 3941983977942503409967184216064.000000 0.000000
0.000000 0.000000 0.000000
24558807627210630417302085959680.000000 17614672689740835946298112737280.000000 0.000000
17614672689740835946298112737280.000000 6369034112264493686573584351232.000000 0.000000
0.000000 0.000000 0.000000
29858005018970159529306594738176.000000 -84597838512328715629586429247488.000000 0.000000
-84597838512328715629586429247488.000000 43972638326904565753495624351744.000000 0.000000
0.000000 0.000000 0.000000
3127128428513667795426666872832.000000 -3967247418970012689587425509376.000000 0.000000
-3967247418970012689587425509376.000000 1839743410839652158945238188032.000000 0.000000
0.000000 0.000000 0.000000
26061396508365331002829045760.000000 -17865949599902727808271515648.000000 0.000000
-17865949599902727808271515648.000000 10711908598154479365703860224.000000 0.000000
0.000000 0.000000 0.000000
53084010060846660948501320433664.000000 -46243664324537941481530780024832.000000 0.000000
-46243664324537941481530780024832.000000 18417046599382188963781947686912.000000 0.000000
0.000000 0.000000 0.000000
50404142401800749101623894081536.000000 -10722433097909101567675021131776.000000 0.000000
-10722433097909101567675021131776.000000 1484124225430110266900040646656.000000 0.000000
0.000000 0.000000 0.000000
9111297738282046182070473981952.000000 18554812574190658797677815267328.000000 0.000000
18554812574190658797677815267328.000000 9315215784703283118667596824576.000000 0.000000
0.000000 0.000000 0.000000
-121689005198507865301222120488960.000000 -34734926100374733146607149121536.000000 0.000000
-34734926100374733146607149121536.000000 14242179899272266025425143070720.000000 0.000000
0.000000 0.000000 0.000000
5764990633351772076093393076224.000000 24665420543048385767591410401280.000000 0.000000
24665420543048385767591410401280.000000 13195531394620385970564865458176.000000 0.000000
0.000000 0.000000 0.000000
-159091106101456921773804135383040.000000 16864529179723473544294543917056.000000 0.000000
16864529179723473544294543917056.000000 3385600023405036704688211230720.000000 0.000000
0.000000 0.000000 0.000000
-1851338703712704215035802550272.000000 73308338061799099407192293376.000000 0.000000
73308338061799099407192293376.000000 15477724561397385896176648192.000000 0.000000
0.000000 0.000000 0.000000
-2330231605500307901306524013690880.000000 109226558993509417849399545954304.000000 0.000000
109226558993509417849399545954304.000000 10112386844105697428873926410240.000000 0.000000
0.000000 0.000000 0.000000
-1878656383813007297127257210880.000000 21196589897165907803321919340544.000000 0.000000
21196589897165907803321919340544.000000 11944183227447986374440969568256.000000 0.000000
0.000000 0.000000 0.000000
1051433252694596320368762290176.000000 -1577199850951595613929938616320.000000 0.000000
-1577199850951595613929938616320.000000 748839560301453241974551216128.000000 0.000000
0.000000 0.000000 0.000000
-415038891362817764270542946304.000000 8131436248735971941133970309120.000000 0.000000
8131436248735971941133970309120.000000 4552554834977736031239468482560.000000 0.000000
0.000000 0.000000 0.000000
7265347840552131964276509245440.000000 13079098432195316796338238128128.000000 0.000000
13079098432195316796338238128128.000000 6437732045957092046377085566976.000000 0.000000
0.000000 0.000000 0.000000
579143325060945420791832379392.000000 -4432505532848597094736313974784.000000 0.000000
-4432505532848597094736313974784.000000 2421030585429568852062512349184.000000 0.000000
0.000000 0.000000 0.000000
8061484634500205298586553942016.000000 -7230519247104374906220416335872.000000 0.000000
-7230519247104374906220416335872.000000 3001222724015010933347377479680.000000 0.000000
0.000000 0.000000 0.000000
12986237232035502028830539776.000000 5793485927990879113755754496.000000 0.000000
5793485927990879113755754496.000000 1525368472959075419642920960.000000 0.000000
0.000000 0.000000 0.000000
38983103788262747017894929891328.000000 -23224362358192567059037607165952.000000 0.000000
-23224362358192567059037607165952.000000 7506242129222231738650481131520.000000 0.000000
0.000000 0.000000 0.000000
11546983427064493384535818371072.000000 -11115879048905630523132284502016.000000 0.000000
-11115879048905630523132284502016.000000 4633929664507135944039184990208.000000 0.000000
0.000000 0.000000 0.000000
-82607042248075229187973054464.000000 53565414724901433354798235648.000000 0.000000
53565414724901433354798235648.000000 29295695111668840826859945984.000000 0.000000
0.000000 0.000000 0.000000
21311009699248460849437736960.000000 -1411083263680896255658033152.000000 0.000000
-1411083263680896255658033152.000000 62113139161147687705772032.000000 0.000000
0.000000 0.000000 0.000000
1607551058136755056559588900864.000000 155045936581727036848342040576.000000 0.000000
155045936581727036848342040576.000000 13758846873797342476317491200.000000 0.000000
0.000000 0.000000 0.000000
22144177846165319110843500068864.000000 25190471436988557737577529999360.000000 0.000000
25190471436988557737577529999360.000000 11155415967242892223546512113664.000000 0.000000
0.000000 0.000000 0.000000
-132606868388153233725452156141568.000000 34390676133765191024705137541120.000000 0.000000
34390676133765191024705137541120.000000 13373731490235244201718117826560.000000 0.000000
0.000000 0.000000 0.000000
41648653158040345304904914436096.000000 14523370455250147082974774951936.000000 0.000000
14523370455250147082974774951936.000000 3124408814217989970125480001536.000000 0.000000
0.000000 0.000000 0.000000
110838629093677630697603334144.000000 -2480096781862301542465404928.000000 0.000000
-2480096781862301542465404928.000000 774925833544085504203423744.000000 0.000000
0.000000 0.000000 0.000000
131504706641256408087901052600320.000000 190680860338160247905283991404544.000000 0.000000
190680860338160247905283991404544.000000 89871499594101990296201407234048.000000 0.000000
0.000000 0.000000 0.000000
-1309276627094217885133912923963392.000000 209005764926993046281524615315456.000000 0.000000
209005764926993046281524615315456.000000 58511776984232962481327395831808.000000 0.000000
0.000000 0.000000 0.000000
-1632880114267815289730280565243904.000000 240690331837497134120913711661056.000000 0.000000
240690331837497134120913711661056.000000 63300874922752821623615349850112.000000 0.000000
0.000000 0.000000 0.000000
32818764666011112973105364992.000000 19458398824881140328531230720.000000 0.000000
19458398824881140328531230720.000000 6370229611593669583344500736.000000 0.000000
0.000000 0.000000 0.000000
-5272019119604150603654774128640.000000 488640971113930757496316624896.000000 0.000000
488640971113930757496316624896.000000 90953904290021673282536734720.000000 0.000000
0.000000 0.000000 0.000000
-14319900621253482911382099722240.000000 -49830459734593949642862178074624.000000 0.000000
-49830459734593949642862178074624.000000 28521268175753025690045150920704.000000 0.000000
0.000000 0.000000 0.000000
2067456508044649656810995712.000000 -1398656244454110726616776704.000000 0.000000
-1398656244454110726616776704.000000 488837079579057058138292224.000000 0.000000
0.000000 0.000000 0.000000
-905087452941515697559741399040.000000 -9437144033707181688215557898240.000000 0.000000
-9437144033707181688215557898240.000000 5390452511991997840503448010752.000000 0.000000
0.000000 0.000000 0.000000
23802545188801895712558153728.000000 2761482983467250925254475776.000000 0.000000
2761482983467250925254475776.000000 317067132782330853028003840.000000 0.000000
0.000000 0.000000 0.000000
40973962175585965472521075556352.000000 7092118793650709815119004565504.000000 0.000000
7092118793650709815119004565504.000000 806292858834375173976595890176.000000 0.000000
0.000000 0.000000 0.000000
-11871075894998730239246260502528.000000 34715793106036823538049285619712.000000 0.000000
34715793106036823538049285619712.000000 19956191715169846565273247678464.000000 0.000000
0.000000 0.000000 0.000000
-946799873890452401674489167872.000000 18258022812464115429463646273536.000000 0.000000
18258022812464115429463646273536.000000 10235203891439336466775789273088.000000 0.000000
0.000000 0.000000 0.000000
8767909111860803494632140832768.000000 14356144512783523270335771181056.000000 0.000000
14356144512783523270335771181056.000000 7061417373158843348315111686144.000000 0.000000
0.000000 0.000000 0.000000
-11741278056399387669435917533184.000000 -2946807494794334468116691550208.000000 0.000000
-2946807494794334468116691550208.000000 1248287936127708641942059352064.000000 0.000000
0.000000 0.000000 0.000000
-3088496130595281812391309869056.000000 -5477631715706753535039284183040.000000 0.000000
-5477631715706753535039284183040.000000 3163642970700467143528952102912.000000 0.000000
0.000000 0.000000 0.000000
-19609288476524060138611601833984.000000 -47187956934101755840921585319936.000000 0.000000
-47187956934101755840921585319936.000000 27166284450491628965502658805760.000000 0.000000
0.000000 0.000000 0.000000
4199611457805265647161552404480.000000 14515783709245481631076661067776.000000 0.000000
14515783709245481631076661067776.000000 7806191441942088443187360169984.000000 0.000000
0.000000 0.000000 0.000000
34594331392950041601834693427200.000000 15398649779828082881163125850112.000000 0.000000
15398649779828082881163125850112.000000 4042261068538624366434739814400.000000 0.000000
0.000000 0.000000 0.000000
11517095999997769401872941056.000000 19050294170223309190282084352.000000 0.000000
19050294170223309190282084352.000000 9295402958708565989121851392.000000 0.000000
0.000000 0.000000 0.000000
106395201550527800872734403067904.000000 -98797305319277938522938559954944.000000 0.000000
-98797305319277938522938559954944.000000 40447315695933757765509640617984.000000 0.000000
0.000000 0.000000 0.000000
3674916887170515072539244363776.000000 -2150944766232338556509591961600.000000 0.000000
-2150944766232338556509591961600.000000 757331283833882912604614033408.000000 0.000000
0.000000 0.000000 0.000000
9158819614323167077055347032064.000000 5479564932586973078048215138304.000000 0.000000
5479564932586973078048215138304.000000 1794165606798855791254570008576.000000 0.000000
0.000000 0.000000 0.000000
25377671747778911901107355648.000000 -5983135120888975815818084352.000000 0.000000
-5983135120888975815818084352.000000 943558843864466314733027328.000000 0.000000
0.000000 0.000000 0.000000
962040502027440597441183744.000000 -9213251928102140115431718912.000000 0.000000
-9213251928102140115431718912.000000 5705709768882072686516240384.000000 0.000000
0.000000 0.000000 0.000000
221340711688455704081976000512.000000 509842768258108383983355035648.000000 0.000000
509842768258108383983355035648.000000 182488885541066279681012006912.000000 0.000000
0.000000 0.000000 0.000000
-153017398791138873916344238080.000000 -43192134629125967265333772288.000000 0.000000
-43192134629125967265333772288.000000 17605409508637882488021057536.000000 0.000000
0.000000 0.000000 0.000000
74710772143664003273533966778368.000000 10637283134025860263933552623616.000000 0.000000
10637283134025860263933552623616.000000 997629708106438205209065816064.000000 0.000000
0.000000 0.000000 0.000000
139620533933095293143808802291712.000000 -117672568720786017527007583141888.000000 0.000000
-117672568720786017527007583141888.000000 46156037528787649479371455987712.000000 0.000000
0.000000 0.000000 0.000000
4826956566671713301636933746688.000000 -5554574336100855375989120696320.000000 0.000000
-5554574336100855375989120696320.000000 2457647582467037138534793216000.000000 0.000000
0.000000 0.000000 0.000000
5307807360381397804040566341632.000000 -348503490357142884872083210240.000000 0.000000
-348503490357142884872083210240.000000 76694778270668789937202003968.000000 0.000000
0.000000 0.000000 0.000000
7075303431231530003366104006656.000000 -52026594971323026604523186552832.000000 0.000000
-52026594971323026604523186552832.000000 28311362885702847145868596871168.000000 0.000000
0.000000 0.000000 0.000000
3314929373019340726097705697280.000000 1051469497822535528798662688768.000000 0.000000
1051469497822535528798662688768.000000 208425859324890487532466208768.000000 0.000000
0.000000 0.000000 0.000000
28277789311673075213657352175616.000000 3332204489942054150809732513792.000000 0.000000
3332204489942054150809732513792.000000 259343040614853350972995928064.000000 0.000000
0.000000 0.000000 0.000000
35677497850055909730406105088.000000 16781952161959810348231950336.000000 0.000000
16781952161959810348231950336.000000 4608956352169035878847479808.000000 0.000000
0.000000 0.000000 0.000000
50207480016094690078909425254400.000000 69212409287412634000190473240576.000000 0.000000
69212409287412634000190473240576.000000 32187815157288934797369069797376.000000 0.000000
0.000000 0.000000 0.000000
48938044293198220986061760233472.000000 -47114139895831395852665223118848.000000 0.000000
-47114139895831395852665223118848.000000 19576542300647317094254784806912.000000 0.000000
0.000000 0.000000 0.000000
2936649478682116122706375081984.000000 -8528358654619122101710594506752.000000 0.000000
-8528358654619122101710594506752.000000 4426624297251657423360159121408.000000 0.000000
0.000000 0.000000 0.000000
16313816387235229041916964241408.000000 6417696783550289740080036708352.000000 0.000000
6417696783550289740080036708352.000000 1527014667260989541448184496128.000000 0.000000
0.000000 0.000000 0.000000
56773301506807763254602891264.000000 8721401742051708027891875840.000000 0.000000
8721401742051708027891875840.000000 922882645213198381496664064.000000 0.000000
0.000000 0.000000 0.000000
-80967740704829633703445016870912.000000 45725086442376800455466158129152.000000 0.000000
45725086442376800455466158129152.000000 24087383709778499902681112379392.000000 0.000000
0.000000 0.000000 0.000000
5331661392259208145646410268672.000000 -14642999587499964364325646237696.000000 0.000000
-14642999587499964364325646237696.000000 7588516196981988744403886276608.000000 0.000000
0.000000 0.000000 0.000000
-39982079396918957758237936451584.000000 23823905297942244606663999881216.000000 0.000000
23823905297942244606663999881216.000000 12815732118387612582850542436352.000000 0.000000
0.000000 0.000000 0.000000
7271479946672950418634197434368.000000 -4522377840829684878286600011776.000000 0.000000
-4522377840829684878286600011776.000000 1502206715983970191411123322880.000000 0.000000
0.000000 0.000000 0.000000
-44572032587935099702703627960320.000000 28971265521783390680886703816704.000000 0.000000
28971265521783390680886703816704.000000 15702295490666722359691578441728.000000 0.000000
0.000000 0.000000 0.000000
-42308181280734180629747384493015040.000000 -352308461671933603260602486095872.000000 0.000000
-352308461671933603260602486095872.000000 5863338053064921501224155480064.000000 0.000000
0.000000 0.000000 0.000000
11178515372487846192120686706688.000000 6132265456784644327532132302848.000000 0.000000
6132265456784644327532132302848.000000 1876579748451469262295744380928.000000 0.000000
0.000000 0.000000 0.000000
13302089665930098873577492185088.000000 2808074292566868632159045812224.000000 0.000000
2808074292566868632159045812224.000000 388847496591793448658730483712.000000 0.000000
0.000000 0.000000 0.000000
2537895905764726241704049377280.000000 -159066508106595893380439343104.000000 0.000000
-159066508106595893380439343104.000000 8186613938040177668258791424.000000 0.000000
0.000000 0.000000 0.000000
-10452110717174137458643311788032.000000 28026805918432091508226935226368.000000 0.000000
28026805918432091508226935226368.000000 16115760954862105377454470201344.000000 0.000000
0.000000 0.000000 0.000000
137719106599629913428945446895616.000000 75214413214098600467396388978688.000000 0.000000
75214413214098600467396388978688.000000 22936851311759719356828124971008.000000 0.000000
0.000000 0.000000 0.000000
-81707665334139069611942871040.000000 121908657553441288417831813120.000000 0.000000
121908657553441288417831813120.000000 87371265805290264661707456512.000000 0.000000
0.000000 0.000000 0.000000
-86485065374081861711082083581952.000000 76320788121373413469794150121472.000000 0.000000
76320788121373413469794150121472.000000 43002860408356339904901476777984.000000 0.000000
0.000000 0.000000 0.000000
4891819564059357302570239393792.000000 2620664970823011326083693805568.000000 0.000000
2620664970823011326083693805568.000000 789761037810375175205417910272.000000 0.000000
0.000000 0.000000 0.000000
22844725985135865237610692608.000000 62893387346352731462341492736.000000 0.000000
62893387346352731462341492736.000000 32332158249678644247632281600.000000 0.000000
0.000000 0.000000 0.000000
356138368555581333000419278848.000000 5569375607653008746105668632576.000000 0.000000
5569375607653008746105668632576.000000 3106982870164396998429155262464.000000 0.000000
0.000000 0.000000 0.000000
11211250156568806339486926503936.000000 62111980669907741929103599599616.000000 0.000000
62111980669907741929103599599616.000000 34044033901725825264395032199168.000000 0.000000
0.000000 0.000000 0.000000
35195666344914298039191927259136.000000 11744264984690799776056800706560.000000 0.000000
11744264984690799776056800706560.000000 2439609612909775904997885607936.000000 0.000000
0.000000 0.000000 0.000000
4249311338505796786139074396160.000000 5616733838807165293350076022784.000000 0.000000
5616733838807165293350076022784.000000 2613546353076018898770556092416.000000 0.000000
0.000000 0.000000 0.000000
106005667114079349109375893504.000000 1053159537837908566523389149184.000000 0.000000
1053159537837908566523389149184.000000 582569010306782444243916947456.000000 0.000000
0.000000 0.000000 0.000000
21285011781700390742100069580800.000000 -52076982170732935538942173773824.000000 0.000000
-52076982170732935538942173773824.000000 26692321717397184423079849230336.000000 0.000000
0.000000 0.000000 0.000000
52463301828131505037518045184.000000 19406359302146899369615425536.000000 0.000000
19406359302146899369615425536.000000 4421772417066240540103671808.000000 0.000000
0.000000 0.000000 0.000000
-1252693370213856505704646443008.000000 -7953247034510167570413416087552.000000 0.000000
-7953247034510167570413416087552.000000 4508828231064143979330351923200.000000 0.000000
0.000000 0.000000 0.000000
26461865194483749872097795506176.000000 -8759191065331856842024518942720.000000 0.000000
-8759191065331856842024518942720.000000 1802873970590779680340741980160.000000 0.000000
0.000000 0.000000 0.000000
11121399563568654494207762759680.000000 14936064522100596497645186318336.000000 0.000000
14936064522100596497645186318336.000000 6912940281513301528733183639552.000000 0.000000
0.000000 0.000000 0.000000
-43659492369733905638661306712064.000000 -16898401870733340194000624156672.000000 0.000000
-16898401870733340194000624156672.000000 7957160322235862928163195584512.000000 0.000000
0.000000 0.000000 0.000000
-71016271768474208140216196136960.000000 46608227458443432323199405129728.000000 0.000000
46608227458443432323199405129728.000000 25343687580674514051951566520320.000000 0.000000
0.000000 0.000000 0.000000
-2164534894816618206820950867968.000000 2014944801526024021398253469696.000000 0.000000
2014944801526024021398253469696.000000 1146388999040898938680163434496.000000 0.000000
0.000000 0.000000 0.000000
3642913991659445505170264293376.000000 3018270540450506754100062846976.000000 0.000000
3018270540450506754100062846976.000000 1180816864574931558137507872768.000000 0.000000
0.000000 0.000000 0.000000
8588028452015171722720892157952.000000 -1603370301377665533238610755584.000000 0.000000
-1603370301377665533238610755584.000000 220220596624258720445929357312.000000 0.000000
0.000000 0.000000 0.000000
1116787789862936383898964197376.000000 29837860217177361053345881522176.000000 0.000000
29837860217177361053345881522176.000000 16600625773367358775523184476160.000000 0.000000
0.000000 0.000000 0.000000
-273397921756829044006558105600.000000 109212829175809912044144033792.000000 0.000000
109212829175809912044144033792.000000 18344584846826396582886244352.000000 0.000000
0.000000 0.000000 0.000000
94250013966104828115662405632.000000 -101089373592896296156548562944.000000 0.000000
-101089373592896296156548562944.000000 39677082203096058244269867008.000000 0.000000
0.000000 0.000000 0.000000
-9730608634665823296541538742435840.000000 -136082270987633236343673650675712.000000 0.000000
-136082270987633236343673650675712.000000 3886238499771166323985308712960.000000 0.000000
0.000000 0.000000 0.000000
-11505337006839889514303563235328.000000 19296835438093652448336576249856.000000 0.000000
19296835438093652448336576249856.000000 11166609967450015920845202915328.000000 0.000000
0.000000 0.000000 0.000000
30955817953057455186123805425664.000000 21431923709004581695159915249664.000000 0.000000
21431923709004581695159915249664.000000 7602810687842966381223489830912.000000 0.000000
0.000000 0.000000 0.000000
6894820181729810634921476096.000000 -4548833087006113252209852416.000000 0.000000
-4548833087006113252209852416.000000 1566481970265197126197706752.000000 0.000000
0.000000 0.000000 0.000000
-4702924833853721070907663843328000.000000 228925576666226369375723795251200.000000 0.000000
228925576666226369375723795251200.000000 21976796435056207203162686226432.000000 0.000000
0.000000 0.000000 0.000000
88723079818324450307739746304.000000 535871938144364307958688907264.000000 0.000000
535871938144364307958688907264.000000 290046671140029524550923321344.000000 0.000000
0.000000 0.000000 0.000000
-15937280810165401654431068454912.000000 87812148739608178839913144254464.000000 0.000000
87812148739608178839913144254464.000000 49855193687142692144705326546944.000000 0.000000
0.000000 0.000000 0.000000
-38235769464181557669926975569920.000000 -74724223712132872159100089139200.000000 0.000000
-74724223712132872159100089139200.000000 42949303424903897558948700487680.000000 0.000000
0.000000 0.000000 0.000000
19331069726317761514285563904.000000 2098328676069622327397056512.000000 0.000000
2098328676069622327397056512.000000 150677049185213020970680320.000000 0.000000
0.000000 0.000000 0.000000
5378132663216118539372390776832.000000 6767339775645243039011578052608.000000 0.000000
6767339775645243039011578052608.000000 3086691823542734232865371848704.000000 0.000000
0.000000 0.000000 0.000000
35395864989301197826704877289472.000000 -5137638034476550344372765327360.000000 0.000000
-5137638034476550344372765327360.000000 527199520613708331547929608192.000000 0.000000
0.000000 0.000000 0.000000
102382609745941840503286305652736.000000 74576394005313268954840818515968.000000 0.000000
74576394005313268954840818515968.000000 27175096996035591472548820287488.000000 0.000000
0.000000 0.000000 0.000000
28727393735324414346713349750784.000000 -18326920731796092384670472208384.000000 0.000000
-18326920731796092384670472208384.000000 6242671827675317492974662713344.000000 0.000000
0.000000 0.000000 0.000000
-3005300509474104642207267946496.000000 3500052255415862678688502906880.000000 0.000000
3500052255415862678688502906880.000000 2018261704711188558014675156992.000000 0.000000
0.000000 0.000000 0.000000
2609795631403929357583573319680.000000 1986143864887269136785127505920.000000 0.000000
1986143864887269136785127505920.000000 681274073497740920685353500672.000000 0.000000
0.000000 0.000000 0.000000
-7503286416567162564997610995712.000000 -344833911778742174546772623360.000000 0.000000
-344833911778742174546772623360.000000 26075145188966698526936399872.000000 0.000000
0.000000 0.000000 0.000000
4019199202410214973480688943104.000000 8307570824330352307787609931776.000000 0.000000
8307570824330352307787609931776.000000 4171868128193825611812150706176.000000 0.000000
0.000000 0.000000 0.000000
-42679206305743020726505170796544.000000 12109849465229290635992332500992.000000 0.000000
12109849465229290635992332500992.000000 4912596812589376836906118021120.000000 0.000000
0.000000 0.000000 0.000000
8528331466334959384629046411264.000000 1025277874600364602906975928320.000000 0.000000
1025277874600364602906975928320.000000 83161085949747122686931238912.000000 0.000000
0.000000 0.000000 0.000000
-20369686729674896620591775744.000000 -11342033567317245953300234240.000000 0.000000
-11342033567317245953300234240.000000 5957264391049368116584775680.000000 0.000000
0.000000 0.000000 0.000000
34723084923015833939948498583552.000000 -112614176155124964542443719491584.000000 0.000000
-112614176155124964542443719491584.000000 59158851501507698024358464192512.000000 0.000000
0.000000 0.000000 0.000000
297263591722939984290565324800.000000 -828649125436712185557157937152.000000 0.000000
-828649125436712185557157937152.000000 544934135738663645808047423488.000000 0.000000
0.000000 0.000000 0.000000
41682061487391038507968758808576.000000 26651978069229666412317061939200.000000 0.000000
26651978069229666412317061939200.000000 9001383970082410836616324055040.000000 0.000000
0.000000 0.000000 0.000000
680484248063201570226157125632.000000 -987735382709135787605090107392.000000 0.000000
-987735382709135787605090107392.000000 498012118977197544352289652736.000000 0.000000
0.000000 0.000000 0.000000
51874416617869653521685981167616.000000 -31294068504422804510307927457792.000000 0.000000
-31294068504422804510307927457792.000000 10196314722001042885346687188992.000000 0.000000
0.000000 0.000000 0.000000
9144066860979192587693867401216.000000 -23974956020018027871233202192384.000000 0.000000
-23974956020018027871233202192384.000000 12577187804948750354505302802432.000000 0.000000
0.000000 0.000000 0.000000
-24500537664809664076061087891456.000000 -42419134911401747664552836726784.000000 0.000000
-42419134911401747664552836726784.000000 24484249324922301734900729905152.000000 0.000000
0.000000 0.000000 0.000000
-14355817932022826637636975722496.000000 8980153862788348936877500268544.000000 0.000000
8980153862788348936877500268544.000000 4828692328544886274234525941760.000000 0.000000
0.000000 0.000000 0.000000
7090222983137467998528608403456.000000 6735601464072466345327845179392.000000 0.000000
6735601464072466345327845179392.000000 2926035801021497241510738919424.000000 0.000000
0.000000 0.000000 0.000000
-59085559459308390891760123904.000000 27174888605743510796359434240.000000 0.000000
27174888605743510796359434240.000000 13596043350539088155117617152.000000 0.000000
0.000000 0.000000 0.000000
97543272838309634092765806592000.000000 -18616708265808301293588786970624.000000 0.000000
-18616708265808301293588786970624.000000 2320530898153804687051801493504.000000 0.000000
0.000000 0.000000 0.000000
-1673757692670023663950755790848.000000 21573804096974051104671137792000.000000 0.000000
21573804096974051104671137792000.000000 12132587575131376058675694141440.000000 0.000000
0.000000 0.000000 0.000000
9969775687670211766655324782592.000000 -176301255671465359215595356160.000000 0.000000
-176301255671465359215595356160.000000 2134863776563200672229490688.000000 0.000000
0.000000 0.000000 0.000000
6649274637323200992636259270656.000000 9090514758729199929439482281984.000000 0.000000
9090514758729199929439482281984.000000 4242489231269914182931579928576.000000 0.000000
0.000000 0.000000 0.000000
50557514746486142939754041180160.000000 -4288822205623909509590666969088.000000 0.000000
-4288822205623909509590666969088.000000 244951411840367611852005310464.000000 0.000000
0.000000 0.000000 0.000000
15933632400766607585643857969152.000000 2233470791230292765498654326784.000000 0.000000
2233470791230292765498654326784.000000 287788211051868438691384918016.000000 0.000000
0.000000 0.000000 0.000000
-23280692687790190073229237813248.000000 -12911644501736196647381719056384.000000 0.000000
-12911644501736196647381719056384.000000 6776091022097375120757696233472.000000 0.000000
0.000000 0.000000 0.000000
1208689858805441186674635702272.000000 1735235808338264889235486015488.000000 0.000000
1735235808338264889235486015488.000000 794221717036474414530031517696.000000 0.000000
0.000000 0.000000 0.000000
1314194068044118760300795133952.000000 -24562306027262445549111664967680.000000 0.000000
-24562306027262445549111664967680.000000 13551661552271375113357480689664.000000 0.000000
0.000000 0.000000 0.000000
14919239148994155221070255226880.000000 -5348814387735845317863731625984.000000 0.000000
-5348814387735845317863731625984.000000 1178283623397523160723951190016.000000 0.000000
0.000000 0.000000 0.000000
32466612383147644867502206353408.000000 -11843177575169820185141557854208.000000 0.000000
-11843177575169820185141557854208.000000 2647179439702873910670027390976.000000 0.000000
0.000000 0.000000 0.000000
-223586978935861982704373383743668224.000000 1938263868953848164165517167296512.000000 0.000000
1938263868953848164165517167296512.000000 33579202698273826116367099625472.000000 0.000000
0.000000 0.000000 0.000000
-11083150492128756268115653820416.000000 -7182205222101500869917542449152.000000 0.000000
-7182205222101500869917542449152.000000 3901290518866423356608349208576.000000 0.000000
0.000000 0.000000 0.000000
-15505975232505136434418397741056.000000 -7530962571042601610671648931840.000000 0.000000
-7530962571042601610671648931840.000000 3820868113459878858335092473856.000000 0.000000
0.000000 0.000000 0.000000
15170683817755136199277674496.000000 -4490703006264882942256873472.000000 0.000000
-4490703006264882942256873472.000000 2814028641476395804422832128.000000 0.000000
0.000000 0.000000 0.000000
14089414931800646574090909384704.000000 -11625259293760141042062588903424.000000 0.000000
-11625259293760141042062588903424.000000 4514304433861829240633616760832.000000 0.000000
0.000000 0.000000 0.000000
22943083501506357061054594285568.000000 -18015613874382539067828801110016.000000 0.000000
-18015613874382539067828801110016.000000 6851914100153452443504870424576.000000 0.000000
0.000000 0.000000 0.000000
28256757364170650974819450880.000000 15843436900688291348090978304.000000 0.000000
15843436900688291348090978304.000000 4937849550730776217754009600.000000 0.000000
0.000000 0.000000 0.000000
121660384624772882427061425143808.000000 77794678335265120594865638342656.000000 0.000000
77794678335265120594865638342656.000000 26305761620479783953869895106560.000000 0.000000
0.000000 0.000000 0.000000
2329414731784057477415489765376.000000 -2143748855371471072139151409152.000000 0.000000
-2143748855371471072139151409152.000000 874372900594416317179726135296.000000 0.000000
0.000000 0.000000 0.000000
102988971268459688348186283343872.000000 69083101396434980913591420452864.000000 0.000000
69083101396434980913591420452864.000000 24057305756585334480776894349312.000000 0.000000
0.000000 0.000000 0.000000
5944111331549212074557046784.000000 -16653408176039319841198309376.000000 0.000000
-16653408176039319841198309376.000000 6559254450166219292570288128.000000 0.000000
0.000000 0.000000 0.000000
-486069389010277217269731819520.000000 62682889609502119118673805312.000000 0.000000
62682889609502119118673805312.000000 14773357883079273183520489472.000000 0.000000
0.000000 0.000000 0.000000
-15598346589511507239082651432255488.000000 408999279213767400279533569441792.000000 0.000000
408999279213767400279533569441792.000000 21355157221997482004024194498560.000000 0.000000
0.000000 0.000000 0.000000
59083947327000114433296538009600.000000 -650245225010957270018896691200.000000 0.000000
-650245225010957270018896691200.000000 21032871843912660055610097664.000000 0.000000
0.000000 0.000000 0.000000
-487822497212673203669489489543168.000000 -67041349297139825851844156981248.000000 0.000000
-67041349297139825851844156981248.000000 16656557849388341832397719863296.000000 0.000000
0.000000 0.000000 0.000000
-121928914106726669613211530035200.000000 10261691709600253986385030021120.000000 0.000000
10261691709600253986385030021120.000000 1658533087708892121399371497472.000000 0.000000
0.000000 0.000000 0.000000
-9921724160838285991601609113600.000000 23070029563058759922535419084800.000000 0.000000
23070029563058759922535419084800.000000 13298494325699747237904741564416.000000 0.000000
0.000000 0.000000 0.000000
-89016435467031259444127032200396800.000000 2035595137874862290644573746102272.000000 0.000000
2035595137874862290644573746102272.000000 93661070951518340076846119387136.000000 0.000000
0.000000 0.000000 0.000000
-26108191259466056142169955106816.000000 42383657024608291319307143479296.000000 0.000000
42383657024608291319307143479296.000000 24461224426976863490722483929088.000000 0.000000
0.000000 0.000000 0.000000
-1153462099249624224171489755136.000000 1686935312656633320298644504576.000000 0.000000
1686935312656633320298644504576.000000 972568089921354011280481976320.000000 0.000000
0.000000 0.000000 0.000000
25653696773294150019474417254400.000000 -7308876293037241976942229454848.000000 0.000000
-7308876293037241976942229454848.000000 1317333264422602731781030412288.000000 0.000000
0.000000 0.000000 0.000000
-368673824761873887392123376893952.000000 73869511759778836639829842722816.000000 0.000000
73869511759778836639829842722816.000000 24528278668332819735468115492864.000000 0.000000
0.000000 0.000000 0.000000
1857311380299037009525046509568.000000 -1295683515859968814915384246272.000000 0.000000
-1295683515859968814915384246272.000000 465111398325323655138269724672.000000 0.000000
0.000000 0.000000 0.000000
23624718564280880625902258487296.000000 -15869952513999196606159508209664.000000 0.000000
-15869952513999196606159508209664.000000 5539494731398984784541521018880.000000 0.000000
0.000000 0.000000 0.000000
-882977399828694504105312256.000000 -4869433074766455042683699200.000000 0.000000
-4869433074766455042683699200.000000 2689188604175868849568088064.000000 0.000000
0.000000 0.000000 0.000000
51961602777173007153340706979840.000000 87429873765057445419508658339840.000000 0.000000
87429873765057445419508658339840.000000 42907052843051060058779910406144.000000 0.000000
0.000000 0.000000 0.000000
-26193039319479011413344951205888.000000 -9219914154739480852290624028672.000000 0.000000
-9219914154739480852290624028672.000000 4360075562864200918548233584640.000000 0.000000
0.000000 0.000000 0.000000
-707288192760058285894131515392.000000 980989888472494343967029067776.000000 0.000000
980989888472494343967029067776.000000 620467630872308951898497482752.000000 0.000000
0.000000 0.000000 0.000000
14151222436915162316587701108736.000000 -494155499126015992922757922816.000000 0.000000
-494155499126015992922757922816.000000 13922321505891349410692988928.000000 0.000000
0.000000 0.000000 0.000000
-403706003773521014037892994957312.000000 -66485896802734498836911084273664.000000 0.000000
-66485896802734498836911084273664.000000 19134770893474541946120414691328.000000 0.000000
0.000000 0.000000 0.000000
354826857296304760356197105664.000000 1895128351163080369516838912.000000 0.000000
1895128351163080369516838912.000000 1142273663771987089173774336.000000 0.000000
0.000000 0.000000 0.000000
-6612383461706168975826616320.000000 -6365262980715968459995873280.000000 0.000000
-6365262980715968459995873280.000000 3611562704175055664169615360.000000 0.000000
0.000000 0.000000 0.000000
143831749333907408253393829888.000000 -74706001005118676641343602688.000000 0.000000
-74706001005118676641343602688.000000 22130403441824998893931200512.000000 0.000000
0.000000 0.000000 0.000000
2995559746424689486592999424.000000 -52816725199676664920965906432.000000 0.000000
-52816725199676664920965906432.000000 29121478989327400775366737920.000000 0.000000
0.000000 0.000000 0.000000
-36175453452750335567912415264768.000000 -35411924059418703845282023473152.000000 0.000000
-35411924059418703845282023473152.000000 20117047886143283081437998219264.000000 0.000000
0.000000 0.000000 0.000000
-469510747825411955425050991001600.000000 124251937762852005532937897377792.000000 0.000000
124251937762852005532937897377792.000000 48893193454336189599526657458176.000000 0.000000
0.000000 0.000000 0.000000
2109738453215480149229103480832.000000 -8535603548738402280732224389120.000000 0.000000
-8535603548738402280732224389120.000000 4551143880427416502345761030144.000000 0.000000
0.000000 0.000000 0.000000
71967528602820255325403998060544.000000 8483288645849840859313181032448.000000 0.000000
8483288645849840859313181032448.000000 672736043304126539893942779904.000000 0.000000
0.000000 0.000000 0.000000
23827127758508276299500598853632.000000 11954204393813139780144570826752.000000 0.000000
11954204393813139780144570826752.000000 3433093800588579044523784536064.000000 0.000000
0.000000 0.000000 0.000000
71302216694426815351990050095104.000000 7424331467088410765183972016128.000000 0.000000
7424331467088410765183972016128.000000 536948713732346138038808608768.000000 0.000000
0.000000 0.000000 0.000000
-3423826463889700974012441559040.000000 -101363807770090753054211592683520.000000 0.000000
-101363807770090753054211592683520.000000 56764231924356694975517370089472.000000 0.000000
0.000000 0.000000 0.000000
1544205489290698779105706377216.000000 2051197097463254908882953175040.000000 0.000000
2051197097463254908882953175040.000000 945641748317302732447926976512.000000 0.000000
0.000000 0.000000 0.000000
140124689517489446222573359595520.000000 11313070828708394520880655368192.000000 0.000000
11313070828708394520880655368192.000000 606862434925337320372500955136.000000 0.000000
0.000000 0.000000 0.000000
-3168636474649749930819715072.000000 -1072913317476255697379262464.000000 0.000000
-1072913317476255697379262464.000000 477940787353649608457715712.000000 0.000000
0.000000 0.000000 0.000000
2856035566724287223735145988096.000000 -689893788904230936683294490624.000000 0.000000
-689893788904230936683294490624.000000 108447390594811944353558167552.000000 0.000000
0.000000 0.000000 0.000000
18750369654252136348492343803904.000000 -229867731693746920674390179840.000000 0.000000
-229867731693746920674390179840.000000 2464563516006681785321652224.000000 0.000000
0.000000 0.000000 0.000000
-193089764466119457458798723072.000000 -8611934806442507293967400304640.000000 0.000000
-8611934806442507293967400304640.000000 4806928339150775605273510805504.000000 0.000000
0.000000 0.000000 0.000000
70262281112257230055056569532416.000000 36540690783461371600163829710848.000000 0.000000
36540690783461371600163829710848.000000 10767379371387840505417585131520.000000 0.000000
0.000000 0.000000 0.000000
-1339691742391136490331558767493120.000000 -56383356474481532576233756295168.000000 0.000000
-56383356474481532576233756295168.000000 4698085667093229249897223421952.000000 0.000000
0.000000 0.000000 0.000000
53560968188027976283287959109632.000000 -52570258712734999930942980620288.000000 0.000000
-52570258712734999930942980620288.000000 22009064723889917490355691847680.000000 0.000000
0.000000 0.000000 0.000000
100333222393432851029998698496.000000 45390451950771682347078123520.000000 0.000000
45390451950771682347078123520.000000 12078604694039119374005043200.000000 0.000000
0.000000 0.000000 0.000000
7125715091326756348607036653568.000000 -2598725137308111580514775728128.000000 0.000000
-2598725137308111580514775728128.000000 582589492000970453724361129984.000000 0.000000
0.000000 0.000000 0.000000
16123647293893284398990111014912.000000 -18758798684266364405752646336512.000000 0.000000
-18758798684266364405752646336512.000000 8335496604655260716265589702656.000000 0.000000
0.000000 0.000000 0.000000
37484607299449887450305207992320.000000 -1588811483871500981281717485568.000000 0.000000
-1588811483871500981281717485568.000000 46727869132297986252971442176.000000 0.000000
0.000000 0.000000 0.000000
-81312787390320773867201626112.000000 -655745313541225448309165916160.000000 0.000000
-655745313541225448309165916160.000000 370129620420052787848586199040.000000 0.000000
0.000000 0.000000 0.000000
63889393875141277519798505308160.000000 31789039316852637310542388658176.000000 0.000000
31789039316852637310542388658176.000000 9073922860432940387751172243456.000000 0.000000
0.000000 0.000000 0.000000
4540858918824967075043825680384.000000 2376140358987448758416705585152.000000 0.000000
2376140358987448758416705585152.000000 708390734342475081610541662208.000000 0.000000
0.000000 0.000000 0.000000
12144695599741853411938681225216.000000 -10197035881191636884967535935488.000000 0.000000
-10197035881191636884967535935488.000000 3998923756886584040727758503936.000000 0.000000
0.000000 0.000000 0.000000
7490042420821585094386909184.000000 -7245467176758802052873715712.000000 0.000000
-7245467176758802052873715712.000000 3023488959291277944828198912.000000 0.000000
0.000000 0.000000 0.000000
-68961723444114155022267257127436288.000000 -809563040562500359663871535874048.000000 0.000000
-809563040562500359663871535874048.000000 18987373950987138768859740241920.000000 0.000000
0.000000 0.000000 0.000000
-510858792508276935743436453052416.000000 2745991778057970769481665871872.000000 0.000000
2745991778057970769481665871872.000000 308889577444593532816448290816.000000 0.000000
0.000000 0.000000 0.000000
43410116333245546035190878437376.000000 -21164105977570449598154752917504.000000 0.000000
-21164105977570449598154752917504.000000 5965873486927411415589045927936.000000 0.000000
0.000000 0.000000 0.000000
5658617140747394538548586610688.000000 -2269757270894957608018336808960.000000 0.000000
-2269757270894957608018336808960.000000 547666506251927601233612767232.000000 0.000000
0.000000 0.000000 0.000000
79660992408755143578277520605184.000000 84709015976699691132793764446208.000000 0.000000
84709015976699691132793764446208.000000 36531704377930304096552632713216.000000 0.000000
0.000000 0.000000 0.000000
-163677761173968535064533492826112.000000 1538913830364963637971679969280.000000 0.000000
1538913830364963637971679969280.000000 202516485445528736242566430720.000000 0.000000
0.000000 0.000000 0.000000
8276609599726339197409819623424.000000 7885573412018255853146578354176.000000 0.000000
7885573412018255853146578354176.000000 3263958355625681891200126156800.000000 0.000000
0.000000 0.000000 0.000000
-3635758662752978623669849691258880.000000 227726421587274358415256690098176.000000 0.000000
227726421587274358415256690098176.000000 27872582802364759427473767137280.000000 0.000000
0.000000 0.000000 0.000000
11356987316902155687351684169728.000000 4202318263675902205502567743488.000000 0.000000
4202318263675902205502567743488.000000 949727324298798557518989623296.000000 0.000000
0.000000 0.000000 0.000000
14257471712490794380275312754688.000000 1441711230165960145913484673024.000000 0.000000
1441711230165960145913484673024.000000 98448663370351137533525491712.000000 0.000000
0.000000 0.000000 0.000000
30429788678785077676202585489408.000000 6334899678657460028463367847936.000000 0.000000
6334899678657460028463367847936.000000 868656039314611362621122674688.000000 0.000000
0.000000 0.000000 0.000000
4104440762100924744280255234048.000000 57966230897715377978494192451584.000000 0.000000
57966230897715377978494192451584.000000 32003957685448623459191241048064.000000 0.000000
0.000000 0.000000 0.000000
-6367160186064479793887649464320.000000 424921557491005161245423697920.000000 0.000000
424921557491005161245423697920.000000 56544763635635189346513977344.000000 0.000000
0.000000 0.000000 0.000000
-11666307523885598637026189508608.000000 -4860309370717740072208716267520.000000 0.000000
-4860309370717740072208716267520.000000 2378828385954791729283188391936.000000 0.000000
0.000000 0.000000 0.000000
15119499488096608332529639882752.000000 33070479164170886133212757622784.000000 0.000000
33070479164170886133212757622784.000000 16731252039942029123108881825792.000000 0.000000
0.000000 0.000000 0.000000
4156115235927767858564470669312.000000 -5247247384502913378922331635712.000000 0.000000
-5247247384502913378922331635712.000000 2389461644992785915275118641152.000000 0.000000
0.000000 0.000000 0.000000
-1459196957405233791397082955776.000000 -711094192227507712560025567232.000000 0.000000
-711094192227507712560025567232.000000 358092692095005134602488512512.000000 0.000000
0.000000 0.000000 0.000000
3428274185117223884746666278912.000000 -1857943852852429111260642017280.000000 0.000000
-1857943852852429111260642017280.000000 564464924167870573220724736000.000000 0.000000
0.000000 0.000000 0.000000
29609566203162992617766262931456.000000 -111412746367019472766850643787776.000000 0.000000
-111412746367019472766850643787776.000000 59081644157876223017080963727360.000000 0.000000
0.000000 0.000000 0.000000
495321229537996952938030825472.000000 -628753338773243625285068259328.000000 0.000000
-628753338773243625285068259328.000000 286808617635949006537199976448.000000 0.000000
0.000000 0.000000 0.000000
81642264177030510380349858512896.000000 -46093219197752750396342678847488.000000 0.000000
-46093219197752750396342678847488.000000 14453320980245719402732629000192.000000 0.000000
0.000000 0.000000 0.000000
-7263366604083444599832629477376.000000 -6719360348292494680601881739264.000000 0.000000
-6719360348292494680601881739264.000000 3793151071875525073421740277760.000000 0.000000
0.000000 0.000000 0.000000
4790363063708019961509233819648.000000 -6850832385076655847774330290176.000000 0.000000
-6850832385076655847774330290176.000000 3237412988112863029967959621632.000000 0.000000
0.000000 0.000000 0.000000
178725305045097797552384770048.000000 -264892120687706243072738197504.000000 0.000000
-264892120687706243072738197504.000000 154590793818937095858507743232.000000 0.000000
0.000000 0.000000 0.000000
-145416695118899735159996678144.000000 -49980965236800319312940236800.000000 0.000000
-49980965236800319312940236800.000000 22415966238587787785302704128.000000 0.000000
0.000000 0.000000 0.000000
36879289818843840481884226191360.000000 19248495524351846021197666975744.000000 0.000000
19248495524351846021197666975744.000000 5686890945683135491009467645952.000000 0.000000
0.000000 0.000000 0.000000
-5067535712978910465471397603835904.000000 113644553275685052119927603855360.000000 0.000000
113644553275685052119927603855360.000000 5083203070379586952477680861184.000000 0.000000
0.000000 0.000000 0.000000
36049463967969557999058201608192.000000 -97619085066490415803620233576448.000000 0.000000
-97619085066490415803620233576448.000000 50535996828172941093716482850816.000000 0.000000
0.000000 0.000000 0.000000
57952201675664521339010690318336.000000 -16854310695973582091808738902016.000000 0.000000
-16854310695973582091808738902016.000000 3099123023229204664243032424448.000000 0.000000
0.000000 0.000000 0.000000
-622544112622056862326515040256.000000 5260537598981455201610298818560.000000 0.000000
5260537598981455201610298818560.000000 2965414593843590584364418727936.000000 0.000000
0.000000 0.000000 0.000000
-6054286655201257652806001623040.000000 485741514432977327667944620032.000000 0.000000
485741514432977327667944620032.000000 69742630197065391955727351808.000000 0.000000
0.000000 0.000000 0.000000
5556436191415287946226341773312.000000 -27589011293563980480022038183936.000000 0.000000
-27589011293563980480022038183936.000000 14830004417106966108220642295808.000000 0.000000
0.000000 0.000000 0.000000
280209956648334614059013898240.000000 503196476707276536329801826304.000000 0.000000
503196476707276536329801826304.000000 247385220967688132875908022272.000000 0.000000
0.000000 0.000000 0.000000
6852912774929965790188722454528.000000 -2836837319997710518824174878720.000000 0.000000
-2836837319997710518824174878720.000000 703861037767023815064188616704.000000 0.000000
0.000000 0.000000 0.000000
6315860096884388475834827014144.000000 14288026120067727510302447632384.000000 0.000000
14288026120067727510302447632384.000000 7331493168293602326490826932224.000000 0.000000
0.000000 0.000000 0.000000
294290566814585469604604527247360.000000 -15485936390737914547830404415488.000000 0.000000
-15485936390737914547830404415488.000000 546527546266248659201807089664.000000 0.000000
0.000000 0.000000 0.000000
12827603886950759409632935936.000000 64140506151001391707644231680.000000 0.000000
64140506151001391707644231680.000000 12506954004368274026611605504.000000 0.000000
0.000000 0.000000 0.000000
-6849173700651551939477840592896.000000 -138263542947917805824990248960.000000 0.000000
-138263542947917805824990248960.000000 25064763363476512019513868288.000000 0.000000
0.000000 0.000000 0.000000
16831707826013897605917228138496.000000 -17189833564541339955433415114752.000000 0.000000
-17189833564541339955433415114752.000000 7323794564594370794840213422080.000000 0.000000
0.000000 0.000000 0.000000
1051004677047964398122262593536.000000 -1766464726552719778371237576704.000000 0.000000
-1766464726552719778371237576704.000000 902655060774709096881600856064.000000 0.000000
0.000000 0.000000 0.000000
155338034803741721281297383424.000000 -498838567732562858371627089920.000000 0.000000
-498838567732562858371627089920.000000 263432014642865677467736080384.000000 0.000000
0.000000 0.000000 0.000000
-5642520025903537919544247975936.000000 -24121076640403524162719991201792.000000 0.000000
-24121076640403524162719991201792.000000 13752913772153563269514720706560.000000 0.000000
0.000000 0.000000 0.000000
130580142315000919058429247488.000000 -62619073215234952842100867072.000000 0.000000
-62619073215234952842100867072.000000 17670743512550848115601571840.000000 0.000000
0.000000 0.000000 0.000000
21943174959249980980906784980992.000000 -11221146425069616842423253598208.000000 0.000000
-11221146425069616842423253598208.000000 3267956901862360399020329795584.000000 0.000000
0.000000 0.000000 0.000000
-1356250972430575299974922240.000000 -29028667280895336793782616064.000000 0.000000
-29028667280895336793782616064.000000 16243539364100798363862040576.000000 0.000000
0.000000 0.000000 0.000000
10950100770594375535995979300864.000000 11256996681241130880379752808448.000000 0.000000
11256996681241130880379752808448.000000 4807424047675327069244710977536.000000 0.000000
0.000000 0.000000 0.000000
3200881729998652371101280108544.000000 3503054694049579827082744037376.000000 0.000000
3503054694049579827082744037376.000000 1525412396934712665185166819328.000000 0.000000
0.000000 0.000000 0.000000
32362828769273975107435985108992.000000 29370076343857195742047852560384.000000 0.000000
29370076343857195742047852560384.000000 11908904221072542931624434597888.000000 0.000000
0.000000 0.000000 0.000000
-2440969287757744213188855988224.000000 -4644286969603721036096964919296.000000 0.000000
-4644286969603721036096964919296.000000 2680027295884621428517473615872.000000 0.000000
0.000000 0.000000 0.000000
46468673269142394385244572614656.000000 24468874641170559061713605361664.000000 0.000000
24468874641170559061713605361664.000000 7273719978063348002143093129216.000000 0.000000
0.000000 0.000000 0.000000
131543013249643996682195105218560.000000 -31396886555167181455514878869504.000000 0.000000
-31396886555167181455514878869504.000000 4815427392429825271473905860608.000000 0.000000
0.000000 0.000000 0.000000
10944165349751435124376602673152.000000 5022279975020640605789862494208.000000 0.000000
5022279975020640605789862494208.000000 1363083398123254973156076552192.000000 0.000000
0.000000 0.000000 0.000000
2150989448261096527248165437440.000000 -4744336730923897447195126792192.000000 0.000000
-4744336730923897447195126792192.000000 2402786667832404207428748443648.000000 0.000000
0.000000 0.000000 0.000000
9690048417543033772240801890304.000000 1687386798099534971852273221632.000000 0.000000
1687386798099534971852273221632.000000 192602304637907637526572564480.000000 0.000000
0.000000 0.000000 0.000000
-2253317698339901818817339262567972864.000000 -10790210879950236139084861897965568.000000 0.000000
-10790210879950236139084861897965568.000000 103301868733775459085684400193536.000000 0.000000
0.000000 0.000000 0.000000
14505751688839080885983641600.000000 2501589704438162721920253952.000000 0.000000
2501589704438162721920253952.000000 439717724580350871621074944.000000 0.000000
0.000000 0.000000 0.000000
-96978288318591480389388734562304.000000 -35293883293420708254172990930944.000000 0.000000
-35293883293420708254172990930944.000000 16218125605950154303436861997056.000000 0.000000
0.000000 0.000000 0.000000
13606587554428309890195859177472.000000 -16270926936768896540848425009152.000000 0.000000
-16270926936768896540848425009152.000000 7111159011856828447241113960448.000000 0.000000
0.000000 0.000000 0.000000
-1361713365976036165394641107025920.000000 -110692179921955572548133420269568.000000 0.000000
-110692179921955572548133420269568.000000 17368671597883547271951487598592.000000 0.000000
0.000000 0.000000 0.000000
10423280202421523289169356390400.000000 -1544497659356700961899857051648.000000 0.000000
-1544497659356700961899857051648.000000 161878613307672178136165908480.000000 0.000000
0.000000 0.000000 0.000000
-8962853851265875966935452090368.000000 8534733631074173435409181179904.000000 0.000000
8534733631074173435409181179904.000000 4865087974043310606293523234816.000000 0.000000
0.000000 0.000000 0.000000
-41614831889339106036905374908416.000000 -46655386218217917411601529438208.000000 0.000000
-46655386218217917411601529438208.000000 26776535791891241232096554909696.000000 0.000000
0.000000 0.000000 0.000000
3374873522886623290803672317952.000000 1565648238255333203981493075968.000000 0.000000
1565648238255333203981493075968.000000 432953550532276184298547052544.000000 0.000000
0.000000 0.000000 0.000000
5728218125490690965412773888.000000 743302344422790241949057024.000000 0.000000
743302344422790241949057024.000000 288093258965319679463129088.000000 0.000000
0.000000 0.000000 0.000000
53823918932150145220132818911232.000000 -16016432302754282090695348977664.000000 0.000000
-16016432302754282090695348977664.000000 3002945869491806268961926938624.000000 0.000000
0.000000 0.000000 0.000000
59224412808888550828481301184512.000000 12703435138845341075455348834304.000000 0.000000
12703435138845341075455348834304.000000 1762486394110851002144177258496.000000 0.000000
0.000000 0.000000 0.000000
9569184659047139454635558830080.000000 -20401936308803262649005624000512.000000 0.000000
-20401936308803262649005624000512.000000 6890271406155269497588891516928.000000 0.000000
0.000000 0.000000 0.000000
3336248353914134954989911539712.000000 2038044142400929436774126583808.000000 0.000000
2038044142400929436774126583808.000000 669368916307042056096266059776.000000 0.000000
0.000000 0.000000 0.000000
5291324627619847759110078464000.000000 -2102332040956745022389058797568.000000 0.000000
-2102332040956745022389058797568.000000 483644948560900682072597725184.000000 0.000000
0.000000 0.000000 0.000000
-22956434895492637144474756055040.000000 22543096753003341266913977171968.000000 0.000000
22543096753003341266913977171968.000000 12808427620674771918972986064896.000000 0.000000
0.000000 0.000000 0.000000
139920395965962017075737133056.000000 49615412297570977051146452992.000000 0.000000
49615412297570977051146452992.000000 10872900096092017239472996352.000000 0.000000
0.000000 0.000000 0.000000
-11469926386890288902041308758016.000000 33415191594248071030228480163840.000000 0.000000
33415191594248071030228480163840.000000 19177738607875653980989446684672.000000 0.000000
0.000000 0.000000 0.000000
51612985027183632645929687842816.000000 -122287001008927141030429533929472.000000 0.000000
-122287001008927141030429533929472.000000 62166916709503274921348481155072.000000 0.000000
0.000000 0.000000 0.000000
6908783890698536634164042530816.000000 1289288535506789671869320527872.000000 0.000000
1289288535506789671869320527872.000000 159859872671272588649057746944.000000 0.000000
0.000000 0.000000 0.000000
30888816511750542953731502112768.000000 -49374778010257463904768236716032.000000 0.000000
-49374778010257463904768236716032.000000 23809003443359472048217096454144.000000 0.000000
0.000000 0.000000 0.000000
8383177695764657808032644726784.000000 779552169745514252397776470016.000000 0.000000
779552169745514252397776470016.000000 48379188587122790739157712896.000000 0.000000
0.000000 0.000000 0.000000
11858966095616505411856098131968.000000 -18582725127636792143812803690496.000000 0.000000
-18582725127636792143812803690496.000000 8909172695027347198971457044480.000000 0.000000
0.000000 0.000000 0.000000
-168753696632858843350111342297088.000000 -44724490498040384945246357684224.000000 0.000000
-44724490498040384945246357684224.000000 17619495897754034869080248287232.000000 0.000000
0.000000 0.000000 0.000000
-54131993508169490288104737603584.000000 -60081246253090861812353689714688.000000 0.000000
-60081246253090861812353689714688.000000 34377019083604112572985955581952.000000 0.000000
0.000000 0.000000 0.000000
23762057297518286259694212218880.000000 40397547105856732088184392908800.000000 0.000000
40397547105856732088184392908800.000000 19666239290297229849319434092544.000000 0.000000
0.000000 0.000000 0.000000
-3919004123068264764716944982016.000000 -21978664098564618120375304192000.000000 0.000000
-21978664098564618120375304192000.000000 12471617370771597176858006781952.000000 0.000000
0.000000 0.000000 0.000000
7842328096953829745149746348032.000000 -1212246721148684099814523142144.000000 0.000000
-1212246721148684099814523142144.000000 122997389612224852730476232704.000000 0.000000
0.000000 0.000000 0.000000
15575784193352356687658419748864.000000 -22862024823384576695946551754752.000000 0.000000
-22862024823384576695946551754752.000000 10811418453937419012005892718592.000000 0.000000
0.000000 0.000000 0.000000
2248041642654070524797658333184.000000 -2120952280609263814772680294400.000000 0.000000
-2120952280609263814772680294400.000000 913459990070089439112891203584.000000 0.000000
0.000000 0.000000 0.000000
-1690857678847333178385849384960.000000 -2088734922061282911443335774208.000000 0.000000
-2088734922061282911443335774208.000000 1196134113486015922761474506752.000000 0.000000
0.000000 0.000000 0.000000
-11478807528278757419392172032.000000 -2112031918289795941291524096.000000 0.000000
-2112031918289795941291524096.000000 657569527979518231884857344.000000 0.000000
0.000000 0.000000 0.000000
-109606577601719842497911039459328.000000 29772100754749017428967777370112.000000 0.000000
29772100754749017428967777370112.000000 11885642952963863295645896933376.000000 0.000000
0.000000 0.000000 0.000000
-78901422042841709217869908148224.000000 -70232374821641252083029201911808.000000 0.000000
-70232374821641252083029201911808.000000 39599763409746710409753158221824.000000 0.000000
0.000000 0.000000 0.000000
-5711546783270129175868292988928.000000 23403874778883444963329582301184.000000 0.000000
23403874778883444963329582301184.000000 13358094355655134518239098306560.000000 0.000000
0.000000 0.000000 0.000000
15616197284375980273087545344.000000 6366707622965284209678090240.000000 0.000000
6366707622965284209678090240.000000 1560785881858846056731639808.000000 0.000000
0.000000 0.000000 0.000000
260241048087250524034398420992.000000 -145416281331987681262927085568.000000 0.000000
-145416281331987681262927085568.000000 45387247683128008268039847936.000000 0.000000
0.000000 0.000000 0.000000
6434710999548022643868957671424.000000 110475602813649764172341182464.000000 0.000000
110475602813649764172341182464.000000 20596826590309037014291316736.000000 0.000000
0.000000 0.000000 0.000000
-28326314377505135671557385879552.000000 19072977688820967698179865706496.000000 0.000000
19072977688820967698179865706496.000000 10392569341530724554975498731520.000000 0.000000
0.000000 0.000000 0.000000
-248117609762887329079974709690368.000000 62490849229589853009114715652096.000000 0.000000
62490849229589853009114715652096.000000 23903028170219131217960759197696.000000 0.000000
0.000000 0.000000 0.000000
53955723565142508267745753169920.000000 49820644210266385561675427217408.000000 0.000000
49820644210266385561675427217408.000000 20348819905105744002675772489728.000000 0.000000
0.000000 0.000000 0.000000
-10903995641841146241399000137728.000000 15902840664828844467440402300928.000000 0.000000
15902840664828844467440402300928.000000 9167592287363195119269708824576.000000 0.000000
0.000000 0.000000 0.000000
-39036228792173333866204847144960.000000 15115361253931701520215140466688.000000 0.000000
15115361253931701520215140466688.000000 7116562662460050059481099272192.000000 0.000000
0.000000 0.000000 0.000000
385594776881538009703819247616.000000 637597716227042638589247619072.000000 0.000000
637597716227042638589247619072.000000 329899344449402395149740277760.000000 0.000000
0.000000 0.000000 0.000000
3659300631107198513734850969600.000000 1889446560526573701651027197952.000000 0.000000
1889446560526573701651027197952.000000 554207782176039364833937719296.000000 0.000000
0.000000 0.000000 0.000000
-4038273877828538595731363069952.000000 108227079061488947021706428416.000000 0.000000
108227079061488947021706428416.000000 13219411449837064638162796544.000000 0.000000
0.000000 0.000000 0.000000
7541335428963350865488002416640.000000 -8635697181382906922979246997504.000000 0.000000
-8635697181382906922979246997504.000000 3840949332767857373478853279744.000000 0.000000
0.000000 0.000000 0.000000
3742256167878256599468821446656.000000 1354545853225208256041853124608.000000 0.000000
1354545853225208256041853124608.000000 612303836115226961484890243072.000000 0.000000
0.000000 0.000000 0.000000
-215594042847851887133348356685824.000000 82337015952410635611521595473920.000000 0.000000
82337015952410635611521595473920.000000 39408009959003137939832146231296.000000 0.000000
0.000000 0.000000 0.000000
-18693500704044729188982009626624.000000 21550117104545233557684146405376.000000 0.000000
21550117104545233557684146405376.000000 12350624503583503699044529602560.000000 0.000000
0.000000 0.000000 0.000000
-325810644269975709668751611789312.000000 -123295652398489617791682175041536.000000 0.000000
-123295652398489617791682175041536.000000 57802037105355336653311622250496.000000 0.000000
0.000000 0.000000 0.000000
32283305284151844931581679501312.000000 6758955268969785531283282067456.000000 0.000000
6758955268969785531283282067456.000000 917194887951462898551834542080.000000 0.000000
0.000000 0.000000 0.000000
8345438686007890719745844969472.000000 -7479443861842936344146203377664.000000 0.000000
-7479443861842936344146203377664.000000 3025710975446631405176093671424.000000 0.000000
0.000000 0.000000 0.000000
42207717920143159529599865454592.000000 -5218510542611405303567911747584.000000 0.000000
-5218510542611405303567911747584.000000 437053643446230851098446397440.000000 0.000000
0.000000 0.000000 0.000000
506608340707236569049668255744.000000 203201629188661613554296684544.000000 0.000000
203201629188661613554296684544.000000 44630968196981739638596042752.000000 0.000000
0.000000 0.000000 0.000000
599784245582939052145591189504.000000 -8296987311591600190365559160832.000000 0.000000
-8296987311591600190365559160832.000000 4564627960562986600297226305536.000000 0.000000
0.000000 0.000000 0.000000
-16170850490477386327078522060800.000000 9826524073668397193783951753216.000000 0.000000
9826524073668397193783951753216.000000 5239095955658533881578977755136.000000 0.000000
0.000000 0.000000 0.000000
6519144813462259121636872552448.000000 29445122634555806150739242254336.000000 0.000000
29445122634555806150739242254336.000000 15764965287426689901734272172032.000000 0.000000
0.000000 0.000000 0.000000
175339025176099329723194146816.000000 80195788799722480488452980736.000000 0.000000
80195788799722480488452980736.000000 22320943966551141138900713472.000000 0.000000
0.000000 0.000000 0.000000
2185396798695287887377459052544.000000 -1493849785146424304298409066496.000000 0.000000
-1493849785146424304298409066496.000000 531161804965284337638390628352.000000 0.000000
0.000000 0.000000 0.000000
161377295160497579857918759534592.000000 80064654959825348834689472790528.000000 0.000000
80064654959825348834689472790528.000000 22805751802465164063658326622208.000000 0.000000
0.000000 0.000000 0.000000
1486016989931746765020728393728.000000 1867410211904843064553313927168.000000 0.000000
1867410211904843064553313927168.000000 855357244397644428166784090112.000000 0.000000
0.000000 0.000000 0.000000
460830635813234299078791135232.000000 487819461780599707952843063296.000000 0.000000
487819461780599707952843063296.000000 210146557759322333211896315904.000000 0.000000
0.000000 0.000000 0.000000
23260991068395956177591024484352.000000 31496756919453538021447431094272.000000 0.000000
31496756919453538021447431094272.000000 14981438751656282602409826451456.000000 0.000000
0.000000 0.000000 0.000000
-7238479492934243275313145446400.000000 -23628564851875282440572253503488.000000 0.000000
-23628564851875282440572253503488.000000 13538149951119750884234606149632.000000 0.000000
0.000000 0.000000 0.000000
-172448203838780087743774805983232.000000 -149958227927012773805608149188608.000000 0.000000
-149958227927012773805608149188608.000000 84368156574967369001054085578752.000000 0.000000
0.000000 0.000000 0.000000
20704338196079834401263845376.000000 1652905015560420828534276096.000000 0.000000
1652905015560420828534276096.000000 102268707185786169837223936.000000 0.000000
0.000000 0.000000 0.000000
-11789187395281560467403794546688.000000 4897972535151267102378944364544.000000 0.000000
4897972535151267102378944364544.000000 2365133623814496805640487305216.000000 0.000000
0.000000 0.000000 0.000000
-75610499124465225602068119552.000000 36279826032824380350716182528.000000 0.000000
36279826032824380350716182528.000000 19111852290520091425794686976.000000 0.000000
0.000000 0.000000 0.000000
4058022615373564907092220837888.000000 -5603185305603502381514639802368.000000 0.000000
-5603185305603502381514639802368.000000 2611138349030111546446241071104.000000 0.000000
0.000000 0.000000 0.000000
10638522827835896487165879648256.000000 -10709986525022299822196216823808.000000 0.000000
-10709986525022299822196216823808.000000 4527791609186930545804957450240.000000 0.000000
0.000000 0.000000 0.000000
8797239951225050352419631792128.000000 -5136468620811012650210760327168.000000 0.000000
-5136468620811012650210760327168.000000 1641034457387425970823412842496.000000 0.000000
0.000000 0.000000 0.000000
27943593207566604152277397667840.000000 103930246021325753871170917105664.000000 0.000000
103930246021325753871170917105664.000000 55084529789515791852217818939392.000000 0.000000
0.000000 0.000000 0.000000
20390667556083340434948996726784.000000 -12246413110630141504937709797376.000000 0.000000
-12246413110630141504937709797376.000000 3978319468479211785275995848704.000000 0.000000
0.000000 0.000000 0.000000
223702228692308770409412961501184.000000 -66508573844740658221759500124160.000000 0.000000
-66508573844740658221759500124160.000000 12471029639103531828121647972352.000000 0.000000
0.000000 0.000000 0.000000
594490486983803716453269504.000000 -3193016120935334263163715584.000000 0.000000
-3193016120935334263163715584.000000 2292739264544642828278431744.000000 0.000000
0.000000 0.000000 0.000000
-396431994707342292561317330944.000000 8041506112363692395375171207168.000000 0.000000
8041506112363692395375171207168.000000 4534490601347081046554107183104.000000 0.000000
0.000000 0.000000 0.000000
-5731699691803351584901936659300352.000000 296104063744687002549492228554752.000000 0.000000
296104063744687002549492228554752.000000 30108203950395987626357606580224.000000 0.000000
0.000000 0.000000 0.000000
13962880159074821299511274504192.000000 -15162192423878872141864791703552.000000 0.000000
-15162192423878872141864791703552.000000 6598366206060648864881513070592.000000 0.000000
0.000000 0.000000 0.000000
-640159699907480550220699816427520.000000 -209596203173548923570238934482944.000000 0.000000
-209596203173548923570238934482944.000000 91964949983873213232740074258432.000000 0.000000
0.000000 0.000000 0.000000
3160099186072633930026745593856.000000 -1755947525902965089328814882816.000000 0.000000
-1755947525902965089328814882816.000000 541868641588850380421638127616.000000 0.000000
0.000000 0.000000 0.000000
-31266698147546496167431184056320.000000 -86671443766979075062952420704256.000000 0.000000
-86671443766979075062952420704256.000000 49792233926773202370890737647616.000000 0.000000
0.000000 0.000000 0.000000
5105940429377548601046828318720.000000 67925380708323235052479469060096.000000 0.000000
67925380708323235052479469060096.000000 37367982736250924832194237038592.000000 0.000000
0.000000 0.000000 0.000000
-4225010710989657466935145660416.000000 8701017015802336715216473030656.000000 0.000000
8701017015802336715216473030656.000000 5046474498780465604905635151872.000000 0.000000
0.000000 0.000000 0.000000
-3918051376869913982286461665280.000000 -24948189612381391723723489280.000000 0.000000
-24948189612381391723723489280.000000 1265060820609755833058721792.000000 0.000000
0.000000 0.000000 0.000000
147160961845185424840774893174784.000000 -23875504586490310573707906514944.000000 0.000000
-23875504586490310573707906514944.000000 2551036350863261159858091589632.000000 0.000000
0.000000 0.000000 0.000000
23490106394594714649128138178560.000000 22077098689697510146896046325760.000000 0.000000
22077098689697510146896046325760.000000 9090965936972475978604104122368.000000 0.000000
0.000000 0.000000 0.000000
-3494572675604803783874641395712.000000 -7584751738871509246375494680576.000000 0.000000
-7584751738871509246375494680576.000000 4373797666284445482219311464448.000000 0.000000
0.000000 0.000000 0.000000
-193339928239623968864803034759168.000000 98001147447378898624111389442048.000000 0.000000
98001147447378898624111389442048.000000 50373998526974329216912016277504.000000 0.000000
0.000000 0.000000 0.000000
8833400259088101746889434595328.000000 27881320922372224078221567590400.000000 0.000000
27881320922372224078221567590400.000000 14618540975294227007351235280896.000000 0.000000
0.000000 0.000000 0.000000
-422005375179931346264655921152.000000 -47080319238838186271353864192.000000 0.000000
-47080319238838186271353864192.000000 9822691498110325294553366528.000000 0.000000
0.000000 0.000000 0.000000
36051382173919285106325118255104.000000 -269666603089317899884761710592.000000 0.000000
-269666603089317899884761710592.000000 8588577982481140980067074048.000000 0.000000
0.000000 0.000000 0.000000
-1620403943440727265200171909120.000000 7039372389563277342181104287744.000000 0.000000
7039372389563277342181104287744.000000 4038714258921875179137709113344.000000 0.000000
0.000000 0.000000 0.000000
-102738005848294156520624983375872.000000 53371514029106109523803842281472.000000 0.000000
53371514029106109523803842281472.000000 27573993801105315061128056799232.000000 0.000000
0.000000 0.000000 0.000000
-1142993633412666799828050162745344.000000 -132030862291115918076057703415808.000000 0.000000
-132030862291115918076057703415808.000000 28339384695541562922947292692480.000000 0.000000
0.000000 0.000000 0.000000
55823991369591698075563763695616.000000 -45388116237616228968195292135424.000000 0.000000
-45388116237616228968195292135424.000000 17431302945684897321494721331200.000000 0.000000
0.000000 0.000000 0.000000
867084425097874581443575808.000000 -693528827667732871472218112.000000 0.000000
-693528827667732871472218112.000000 265273873266071867219771392.000000 0.000000
0.000000 0.000000 0.000000
11271995212685612138021850710016.000000 6697759982560945602146290630656.000000 0.000000
6697759982560945602146290630656.000000 2160743752953645598473487122432.000000 0.000000
0.000000 0.000000 0.000000
-42574532304537347330621820633088.000000 -8072352949489172417864439693312.000000 0.000000
-8072352949489172417864439693312.000000 2572535722791495037868591546368.000000 0.000000
0.000000 0.000000 0.000000
-72413465269110973303212434522112.000000 21253769538795433920099896000512.000000 0.000000
21253769538795433920099896000512.000000 8892580635847978103411318980608.000000 0.000000
0.000000 0.000000 0.000000
1065780969508288881426452971520.000000 243359329733656876016014983168.000000 0.000000
243359329733656876016014983168.000000 132570474287962120748017909760.000000 0.000000
0.000000 0.000000 0.000000
-673623747202716898574737604608.000000 -10873565479062616632457250734080.000000 0.000000
-10873565479062616632457250734080.000000 6106756800824896507629824638976.000000 0.000000
0.000000 0.000000 0.000000
211449945879300569915340095488.000000 78578999111959607425206583296.000000 0.000000
78578999111959607425206583296.000000 18881592676822467647641747456.000000 0.000000
0.000000 0.000000 0.000000
-164232961345682568065355721211904.000000 -64052372068264268560040827289600.000000 0.000000
-64052372068264268560040827289600.000000 30238631881194000085886370316288.000000 0.000000
0.000000 0.000000 0.000000
13245647776390040583811593404416.000000 -54207724509285619428423685373952.000000 0.000000
-54207724509285619428423685373952.000000 28879343077417929491628207112192.000000 0.000000
0.000000 0.000000 0.000000
-1118182817604614918060959072256.000000 -3979375895115039410644297187328.000000 0.000000
-3979375895115039410644297187328.000000 2311268696656049877244364980224.000000 0.000000
0.000000 0.000000 0.000000
-26435171002753659295766339911680.000000 -84122563068088227200001932001280.000000 0.000000
-84122563068088227200001932001280.000000 48134238868413636639819701420032.000000 0.000000
0.000000 0.000000 0.000000
-57400629138124089922603188224.000000 320976949152118783241275572224.000000 0.000000
320976949152118783241275572224.000000 182165845779540067725273464832.000000 0.000000
0.000000 0.000000 0.000000
3227321171768438357860340989952.000000 2911625652918532479301881692160.000000 0.000000
2911625652918532479301881692160.000000 1183370760532835600612450107392.000000 0.000000
0.000000 0.000000 0.000000
-138068022972931223588425433088.000000 49321277256609775539890159616.000000 0.000000
49321277256609775539890159616.000000 24421944048149168733204512768.000000 0.000000
0.000000 0.000000 0.000000
670784323600216827144167227392.000000 -108936645830615994203321139200.000000 0.000000
-108936645830615994203321139200.000000 11986951415682544767573426176.000000 0.000000
0.000000 0.000000 0.000000
36829978672829980824661290647552.000000 -11444925215809970129638613057536.000000 0.000000
-11444925215809970129638613057536.000000 2227902705261641074449724735488.000000 0.000000
0.000000 0.000000 0.000000
-35228270722224822235524830855168.000000 33643073187984653754199636443136.000000 0.000000
33643073187984653754199636443136.000000 19066729190615283116305358520320.000000 0.000000
0.000000 0.000000 0.000000
335645385650821523043262660608.000000 -2138338745100608652896297287680.000000 0.000000
-2138338745100608652896297287680.000000 1154470931210509710727084769280.000000 0.000000
0.000000 0.000000 0.000000
-2354508899069724424361169911808.000000 898723080802772150270656774144.000000 0.000000
898723080802772150270656774144.000000 423401127093402164752640114688.000000 0.000000
0.000000 0.000000 0.000000
14740473224134132850584019009536.000000 23143456600312048418034299174912.000000 0.000000
23143456600312048418034299174912.000000 11098917467139775020370575228928.000000 0.000000
0.000000 0.000000 0.000000
56150009033930838933486333591552.000000 39519772061438162914319838216192.000000 0.000000
39519772061438162914319838216192.000000 14111716851940788892703448367104.000000 0.000000
0.000000 0.000000 0.000000
23546737073635606130954365566976.000000 -26397612383990182828869779718144.000000 0.000000
-26397612383990182828869779718144.000000 11602325744158828737201210130432.000000 0.000000
0.000000 0.000000 0.000000
-196858014563431756627720687058944.000000 -22314385804045855176810397958144.000000 0.000000
-22314385804045855176810397958144.000000 4706476485427737641464029511680.000000 0.000000
0.000000 0.000000 0.000000
237918897818030776017485824.000000 -151639140947904418151399424.000000 0.000000
-151639140947904418151399424.000000 51137964594005420789465088.000000 0.000000
0.000000 0.000000 0.000000
486161973893247284216332288.000000 128445308561263208624553984.000000 0.000000
128445308561263208624553984.000000 21620049790860733337042944.000000 0.000000
0.000000 0.000000 0.000000
268765736250047992286556782067712.000000 -150695017110039617089050435911680.000000 0.000000
-150695017110039617089050435911680.000000 46862211830852655578889140043776.000000 0.000000
0.000000 0.000000 0.000000
6070565440765904221272507678720.000000 3681162068018016154760591179776.000000 0.000000
3681162068018016154760591179776.000000 1194364107777035563780517396480.000000 0.000000
0.000000 0.000000 0.000000
29794530661729440814107459584.000000 15828501536859162193491394560.000000 0.000000
15828501536859162193491394560.000000 17168467071657376262823870464.000000 0.000000
0.000000 0.000000 0.000000
-2412355974773479845919979470848.000000 -4989879169961082095136938131456.000000 0.000000
-4989879169961082095136938131456.000000 2889715701569720444924609953792.000000 0.000000
0.000000 0.000000 0.000000
2628580343262511286543492055040.000000 449479508032455560043505385472.000000 0.000000
449479508032455560043505385472.000000 137354998347978450902567616512.000000 0.000000
0.000000 0.000000 0.000000
-71202348997849792232797530750976.000000 25033354154245620222097159618560.000000 0.000000
25033354154245620222097159618560.000000 11338428743960492403358584274944.000000 0.000000
0.000000 0.000000 0.000000
23126184454025874528159137792.000000 18860260217651177170906644480.000000 0.000000
18860260217651177170906644480.000000 7544249214237136878544355328.000000 0.000000
0.000000 0.000000 0.000000
-50589328343181910547930793639936.000000 -162142171937158156958734221312.000000 0.000000
-162142171937158156958734221312.000000 6360502657664298902339190784.000000 0.000000
0.000000 0.000000 0.000000
8973925666142453533314176253952.000000 -122651217639608526396113027072.000000 0.000000
-122651217639608526396113027072.000000 5638156283502184801297760256.000000 0.000000
0.000000 0.000000 0.000000
5061087454355043671630413824.000000 1612706280223045825698201600.000000 0.000000
1612706280223045825698201600.000000 323984003976900564364558336.000000 0.000000
0.000000 0.000000 0.000000
-183272249245077189739752688975872.000000 -72459113055366127553973793587200.000000 0.000000
-72459113055366127553973793587200.000000 34379141517324977423900617998336.000000 0.000000
0.000000 0.000000 0.000000
-26008767702292435508482999450599424.000000 468019733009300807710427863580672.000000 0.000000
468019733009300807710427863580672.000000 16809737258556450915406909014016.000000 0.000000
0.000000 0.000000 0.000000
14145471143596012918938712145920.000000 11940950335154103054436975771648.000000 0.000000
11940950335154103054436975771648.000000 4686978869157076231846455410688.000000 0.000000
0.000000 0.000000 0.000000
28808061712110764263936622592.000000 3549687407637032914242240512.000000 0.000000
3549687407637032914242240512.000000 504440921266054597489721344.000000 0.000000
0.000000 0.000000 0.000000
1286423035592794304676158767104.000000 -129752200981665220201919021056.000000 0.000000
-129752200981665220201919021056.000000 8649102356169225835103911936.000000 0.000000
0.000000 0.000000 0.000000
18703226637118075602781004103680.000000 -34016042727813995874559855689728.000000 0.000000
-34016042727813995874559855689728.000000 16760920759475938650405247909888.000000 0.000000
0.000000 0.000000 0.000000
-583686119430403397384050573312.000000 -1177121609719238133733771968512.000000 0.000000
-1177121609719238133733771968512.000000 672262158893397183310875066368.000000 0.000000
0.000000 0.000000 0.000000
-20448718941995774724742815154176.000000 -25856541776036324388075405836288.000000 0.000000
-25856541776036324388075405836288.000000 14864274500711231941833843015680.000000 0.000000
0.000000 0.000000 0.000000
8997182212794118467397766610944.000000 -16487862446385310645509584584704.000000 0.000000
-16487862446385310645509584584704.000000 8133589257635459313326041858048.000000 0.000000
0.000000 0.000000 0.000000
7855446520515757633712624238592.000000 41957098330094094285099461771264.000000 0.000000
41957098330094094285099461771264.000000 22618904209398267799100389851136.000000 0.000000
0.000000 0.000000 0.000000
-1328116117743881642874639482880.000000 8153297980325165226961584259072.000000 0.000000
8153297980325165226961584259072.000000 4620891013262814490572093390848.000000 0.000000
0.000000 0.000000 0.000000
22518866125262687363316532117504.000000 -17555741613881600430666797809664.000000 0.000000
-17555741613881600430666797809664.000000 6633168766746174651242752507904.000000 0.000000
0.000000 0.000000 0.000000
-2649376149282488823825433624576.000000 -3742752284258800694183877148672.000000 0.000000
-3742752284258800694183877148672.000000 2159984388329024664438208200704.000000 0.000000
0.000000 0.000000 0.000000
246976741931363998186717839360.000000 42767247340769079282873925632.000000 0.000000
42767247340769079282873925632.000000 5566262961171732189839097856.000000 0.000000
0.000000 0.000000 0.000000
18457074089178740465452971982848.000000 -13812367978180001984630826729472.000000 0.000000
-13812367978180001984630826729472.000000 5110154732262054355080285519872.000000 0.000000
0.000000 0.000000 0.000000
2181801185555171306234909294592.000000 594483934848840303214132723712.000000 0.000000
594483934848840303214132723712.000000 103565069651938417620729987072.000000 0.000000
0.000000 0.000000 0.000000
-786634206540885068926486036086784.000000 141859217974625377669866567237632.000000 0.000000
141859217974625377669866567237632.000000 43544169320136084434331533049856.000000 0.000000
0.000000 0.000000 0.000000
5457713297440933666268278423552.000000 20006570184091855762100062257152.000000 0.000000
20006570184091855762100062257152.000000 10590508821468121655388256862208.000000 0.000000
0.000000 0.000000 0.000000
-980182670595006041252509515776.000000 -10433297469242068113440599179264.000000 0.000000
-10433297469242068113440599179264.000000 5991238191788490155800959909888.000000 0.000000
0.000000 0.000000 0.000000
-41773427242859357907907841622016.000000 -27338130390155783675803198291968.000000 0.000000
-27338130390155783675803198291968.000000 14805794013135786433233899487232.000000 0.000000
0.000000 0.000000 0.000000
-153337433850869427056984723554304.000000 -110610929060143571888054179201024.000000 0.000000
-110610929060143571888054179201024.000000 60905232601842074113692517007360.000000 0.000000
0.000000 0.000000 0.000000
-101480287445646868305969938432.000000 83150545069517008343452876800.000000 0.000000
83150545069517008343452876800.000000 46682441277712072037290213376.000000 0.000000
0.000000 0.000000 0.000000
42395161659194448019808321536.000000 -3059657323096476684843483136.000000 0.000000
-3059657323096476684843483136.000000 214146790281650502966968320.000000 0.000000
0.000000 0.000000 0.000000
9266535420418348101973988868096.000000 6683429521241997609964161466368.000000 0.000000
6683429521241997609964161466368.000000 2437774565522461502100190789632.000000 0.000000
0.000000 0.000000 0.000000
-27498677175775389171325612326912.000000 33680432355805140849315255681024.000000 0.000000
33680432355805140849315255681024.000000 19369717524706602916993216544768.000000 0.000000
0.000000 0.000000 0.000000
1464208427473326712887237935104.000000 5834298871187118032503676338176.000000 0.000000
5834298871187118032503676338176.000000 3104459007579505729953782038528.000000 0.000000
0.000000 0.000000 0.000000
1916894765826883490969196429312.000000 -4350724793665145665954932326400.000000 0.000000
-4350724793665145665954932326400.000000 2210723279692789236942784954368.000000 0.000000
0.000000 0.000000 0.000000
-11216555917990799753798530105344.000000 -145124237583667543991212719472640.000000 0.000000
-145124237583667543991212719472640.000000 81508815465010470643838717263872.000000 0.000000
0.000000 0.000000 0.000000
36701768700995449047233377337344.000000 -1357114457140829465913637994496.000000 0.000000
-1357114457140829465913637994496.000000 33681111300071719705176440832.000000 0.000000
0.000000 0.000000 0.000000
22068807697327762794319569747968.000000 974072562078225688300617728000.000000 0.000000
974072562078225688300617728000.000000 36424066373496078852067164160.000000 0.000000
0.000000 0.000000 0.000000
5341348310947509379638344286208.000000 863738295927634332537925402624.000000 0.000000
863738295927634332537925402624.000000 104279764720487070989981581312.000000 0.000000
0.000000 0.000000 0.000000
-488050488790029332656825565184.000000 -4951208093360735308833873723392.000000 0.000000
-4951208093360735308833873723392.000000 2791010899134391539165642620928.000000 0.000000
0.000000 0.000000 0.000000
19344372738651832230457515180032.000000 12533001086545242552643872620544.000000 0.000000
12533001086545242552643872620544.000000 4272276296597376078813241278464.000000 0.000000
0.000000 0.000000 0.000000
-13552663759308227614910405672960.000000 -8974635520172377911923033767936.000000 0.000000
-8974635520172377911923033767936.000000 4879626382997082194221964722176.000000 0.000000
0.000000 0.000000 0.000000
-4401298755421520511260669425745920.000000 106453802608878690527042449965056.000000 0.000000
106453802608878690527042449965056.000000 5132325873652329932675595894784.000000 0.000000
0.000000 0.000000 0.000000
6858467064819542921988613865472.000000 4674456005430910952070421938176.000000 0.000000
4674456005430910952070421938176.000000 1682098854990326159155293847552.000000 0.000000
0.000000 0.000000 0.000000
20196639175875066273734164742144.000000 -43400122788463045226491019264.000000 0.000000
-43400122788463045226491019264.000000 62251163944451978911809536.000000 0.000000
0.000000 0.000000 0.000000
36265596660401667237793190903808.000000 33763916184632473418117203099648.000000 0.000000
33763916184632473418117203099648.000000 13839349746889290318412662177792.000000 0.000000
0.000000 0.000000 0.000000
101934075897267868010620649472000.000000 -82897597272638731440689061560320.000000 0.000000
-82897597272638731440689061560320.000000 31967643369067487169944802557952.000000 0.000000
0.000000 0.000000 0.000000
-605945706618726471633400452087808.000000 97567227934314690744388591550464.000000 0.000000
97567227934314690744388591550464.000000 27579361822693875762959417868288.000000 0.000000
0.000000 0.000000 0.000000
-8895326056274519520970801152.000000 -337458824568457321179512832.000000 0.000000
-337458824568457321179512832.000000 1089049937775298869601501184.000000 0.000000
0.000000 0.000000 0.000000
59057123039535688167489416462336.000000 -17400784739181127909843455180800.000000 0.000000
-17400784739181127909843455180800.000000 3245223181382835835535810887680.000000 0.000000
0.000000 0.000000 0.000000
5028500338747016473070238957568.000000 -2688399822927655990876876832768.000000 0.000000
-2688399822927655990876876832768.000000 838470810816479153573897175040.000000 0.000000
0.000000 0.000000 0.000000
-28706587503943563827342213120.000000 1586941549498813232196853170176.000000 0.000000
1586941549498813232196853170176.000000 884616396917844093188993712128.000000 0.000000
0.000000 0.000000 0.000000
2106087845614561715401193947136.000000 100195705969083306536673354973184.000000 0.000000
100195705969083306536673354973184.000000 55548980146120669668070404390912.000000 0.000000
0.000000 0.000000 0.000000
3533987023057863798871403003904.000000 1910762047364725800261094735872.000000 0.000000
1910762047364725800261094735872.000000 579824004254835659664242245632.000000 0.000000
0.000000 0.000000 0.000000
-10549819015304153107076088856576.000000 -5443627334638478924322770518016.000000 0.000000
-5443627334638478924322770518016.000000 2809813100624610481665277427712.000000 0.000000
0.000000 0.000000 0.000000
-142993833923789973105702877528064.000000 73388976556444078312271076392960.000000 0.000000
73388976556444078312271076392960.000000 37808910212964838940392202174464.000000 0.000000
0.000000 0.000000 0.000000
27414073955716254689136083992576.000000 -6562521806109962345041092411392.000000 0.000000
-6562521806109962345041092411392.000000 1017956795116965977877207056384.000000 0.000000
0.000000 0.000000 0.000000
1377976586153941193084370944.000000 5989834692499691238689079296.000000 0.000000
5989834692499691238689079296.000000 3336937424859568627844644864.000000 0.000000
0.000000 0.000000 0.000000
-10615103175035324094355125305344.000000 7200639416190901228991317803008.000000 0.000000
7200639416190901228991317803008.000000 3928104097552723475990575054848.000000 0.000000
0.000000 0.000000 0.000000
193015658337947698840786173952.000000 118543250543593804006802063360.000000 0.000000
118543250543593804006802063360.000000 39212304346166131975220363264.000000 0.000000
0.000000 0.000000 0.000000
11284268015996760256258590638080.000000 7665556154405204835752860450816.000000 0.000000
7665556154405204835752860450816.000000 2685691992869826495414177628160.000000 0.000000
0.000000 0.000000 0.000000
-13987002995257846135777518419968.000000 -7371204999822753390815493488640.000000 0.000000
-7371204999822753390815493488640.000000 3824828277030947217697813823488.000000 0.000000
0.000000 0.000000 0.000000
4588145207757552959365316608.000000 -3474698284819362105803145216.000000 0.000000
-3474698284819362105803145216.000000 1438250363617890590401757184.000000 0.000000
0.000000 0.000000 0.000000
33090558990323286270565932859392.000000 -6095378048945704035720806531072.000000 0.000000
-6095378048945704035720806531072.000000 734002323917555496729452740608.000000 0.000000
0.000000 0.000000 0.000000
-40575987186600830698185031680.000000 -117293620808747973507566010368.000000 0.000000
-117293620808747973507566010368.000000 62946256777411866048560365568.000000 0.000000
0.000000 0.000000 0.000000
-2949582408634009413881476153344.000000 16218009108023383086918537314304.000000 0.000000
16218009108023383086918537314304.000000 9207556084261612370062368309248.000000 0.000000
0.000000 0.000000 0.000000
1010777659475600736609059733504.000000 1112808634315458239422894440448.000000 0.000000
1112808634315458239422894440448.000000 501966411857074419382215507968.000000 0.000000
0.000000 0.000000 0.000000
-165237556029108419142987057987584.000000 12526483802541273655238696370176.000000 0.000000
12526483802541273655238696370176.000000 1837301129047986776346955087872.000000 0.000000
0.000000 0.000000 0.000000
39448974198933065692334172143616.000000 56245722813679531935354251640832.000000 0.000000
56245722813679531935354251640832.000000 26410417824005192457621285634048.000000 0.000000
0.000000 0.000000 0.000000
1283813370935381132463738716160.000000 3668540701024225279392522174464.000000 0.000000
3668540701024225279392522174464.000000 1984044577009678029060908777472.000000 0.000000
0.000000 0.000000 0.000000
29624906009934514966836145029120.000000 -21729119745840781332273428430848.000000 0.000000
-21729119745840781332273428430848.000000 7947273737249852192419760570368.000000 0.000000
0.000000 0.000000 0.000000
1274421786561610770893758267392.000000 351761320137006193134308163584.000000 0.000000
351761320137006193134308163584.000000 61788902856332569432475828224.000000 0.000000
0.000000 0.000000 0.000000
36546329817270852136690996215808.000000 -104910304301797164952235796332544.000000 0.000000
-104910304301797164952235796332544.000000 54591733452686107128498636193792.000000 0.000000
0.000000 0.000000 0.000000
5044956794665322139509451653120.000000 4972822503968798851246021672960.000000 0.000000
4972822503968798851246021672960.000000 2086170710829510704855202660352.000000 0.000000
0.000000 0.000000 0.000000
50561659459265553741900920389632.000000 15003081491167242699236316282880.000000 0.000000
15003081491167242699236316282880.000000 2908275197706522017509463293952.000000 0.000000
0.000000 0.000000 0.000000
4735326214030695373382237552640.000000 17719475252881090631017846276096.000000 0.000000
17719475252881090631017846276096.000000 9394883013862997663223264575488.000000 0.000000
0.000000 0.000000 0.000000
23682016847027451195840230588416.000000 25732686340036416711761860755456.000000 0.000000
25732686340036416711761860755456.000000 11181923932397318143838351523840.000000 0.000000
0.000000 0.000000 0.000000
6626459632228508819917226639360.000000 -2952623654858203301642091102208.000000 0.000000
-2952623654858203301642091102208.000000 633391761746097163554212806656.000000 0.000000
0.000000 0.000000 0.000000
5993305564256764032463142912.000000 -5768544308328426657242152960.000000 0.000000
-5768544308328426657242152960.000000 2397980796428201705886187520.000000 0.000000
0.000000 0.000000 0.000000
-3332054026285039020613044273152.000000 -18291564146656734295161885949952.000000 0.000000
-18291564146656734295161885949952.000000 10400483310584594609182970216448.000000 0.000000
0.000000 0.000000 0.000000
5508453039976276473295688171520.000000 -32627023018496041535376065560576.000000 0.000000
-32627023018496041535376065560576.000000 17649368464002050700024513298432.000000 0.000000
0.000000 0.000000 0.000000
10133876863107596072679330807808.000000 7136083618821099500710815334400.000000 0.000000
7136083618821099500710815334400.000000 2558416576421768473540227497984.000000 0.000000
0.000000 0.000000 0.000000
160857893516809902292467712.000000 303292114618173251209134080.000000 0.000000
303292114618173251209134080.000000 150287133047919934166794240.000000 0.000000
0.000000 0.000000 0.000000
1482440251353436875831847682048.000000 37021095600156734771439475884032.000000 0.000000
37021095600156734771439475884032.000000 20869315489087011519077497700352.000000 0.000000
0.000000 0.000000 0.000000
5224659550708875102906849689600.000000 -9608867193041578084051690979328.000000 0.000000
-9608867193041578084051690979328.000000 4754170420025037593377079558144.000000 0.000000
0.000000 0.000000 0.000000
47539841889620933417066418929664.000000 -33348527800474456501664197115904.000000 0.000000
-33348527800474456501664197115904.000000 11892236527721880098957349093376.000000 0.000000
0.000000 0.000000 0.000000
45393586278223412744576816906240.000000 -40594725265549727955868027191296.000000 0.000000
-40594725265549727955868027191296.000000 16354966031093761137181577969664.000000 0.000000
0.000000 0.000000 0.000000
-188945732114845800372513911341056.000000 -22359969875454405626417905664000.000000 0.000000
-22359969875454405626417905664000.000000 4899533128916054230051590242304.000000 0.000000
0.000000 0.000000 0.000000
20427172560128774154906515800064.000000 -15318188871752369674671343271936.000000 0.000000
-15318188871752369674671343271936.000000 5670968678120959541850687930368.000000 0.000000
0.000000 0.000000 0.000000
-8379690311292471714377789079552.000000 -42819322433103765756921329483776.000000 0.000000
-42819322433103765756921329483776.000000 24451196809746376141809878302720.000000 0.000000
0.000000 0.000000 0.000000
-23823161470583589512278395846656.000000 36256834248237746810282909368320.000000 0.000000
36256834248237746810282909368320.000000 20915963422178149376376006770688.000000 0.000000
0.000000 0.000000 0.000000
-12836083562962101213989928173568.000000 -4874150236313498440617122856960.000000 0.000000
-4874150236313498440617122856960.000000 2274358594917353154368302481408.000000 0.000000
0.000000 0.000000 0.000000
13470798601939224902965919744.000000 10773148421799752051047006208.000000 0.000000
10773148421799752051047006208.000000 4221560397435819981493239808.000000 0.000000
0.000000 0.000000 0.000000
3008807621748988211747937583104.000000 -371367007159315714953866903552.000000 0.000000
-371367007159315714953866903552.000000 32084444930059767897126862848.000000 0.000000
0.000000 0.000000 0.000000
-627375283135164249730894004224.000000 -2957465002037394840500383514624.000000 0.000000
-2957465002037394840500383514624.000000 1683368528763831591912639299584.000000 0.000000
0.000000 0.000000 0.000000
-11714186867927091794639958573056.000000 6857736864253274976945369513984.000000 0.000000
6857736864253274976945369513984.000000 3641453506848558113261623443456.000000 0.000000
0.000000 0.000000 0.000000
3119105153551657746045075456.000000 -1596647704951208564370702336.000000 0.000000
-1596647704951208564370702336.000000 465216433442245758450401280.000000 0.000000
0.000000 0.000000 0.000000
128753996265622570198892040683520.000000 84304440440750855543156245528576.000000 0.000000
84304440440750855543156245528576.000000 28907141152371166861736825323520.000000 0.000000
0.000000 0.000000 0.000000
773792124907151519932804497408.000000 -4060173423999398749392684974080.000000 0.000000
-4060173423999398749392684974080.000000 2267437153516916893338862354432.000000 0.000000
0.000000 0.000000 0.000000
-729887273141787098871624630272.000000 577277104233495633127507230720.000000 0.000000
577277104233495633127507230720.000000 321573877918010780341342568448.000000 0.000000
0.000000 0.000000 0.000000
-29066809547869535897772279988224.000000 -11623357171311835668321073627136.000000 0.000000
-11623357171311835668321073627136.000000 5560932511106254241965275086848.000000 0.000000
0.000000 0.000000 0.000000
3082000171911073111212032000.000000 7882688689374851367373373440.000000 0.000000
7882688689374851367373373440.000000 4058572561475346255600156672.000000 0.000000
0.000000 0.000000 0.000000
2606350715564933243112754511872.000000 -1621269212263188040915821264896.000000 0.000000
-1621269212263188040915821264896.000000 653085217857912240164579573760.000000 0.000000
0.000000 0.000000 0.000000
25658094175920877507506610372608.000000 20335716068139611105565203234816.000000 0.000000
20335716068139611105565203234816.000000 7778320021185851272030171693056.000000 0.000000
0.000000 0.000000 0.000000
10272496393500331238964739440640.000000 1695327762938014210050769289216.000000 0.000000
1695327762938014210050769289216.000000 221624366985532267050378985472.000000 0.000000
0.000000 0.000000 0.000000
7858244071444000086320994058240.000000 21399994325839236587632679976960.000000 0.000000
21399994325839236587632679976960.000000 11084254943939160755572169506816.000000 0.000000
0.000000 0.000000 0.000000
-283960217860712220812542260281344.000000 -65031417321391565852189904601088.000000 0.000000
-65031417321391565852189904601088.000000 23547336776309593454019507912704.000000 0.000000
0.000000 0.000000 0.000000
28317740643011664138394918715392.000000 67766158592470284363812757831680.000000 0.000000
67766158592470284363812757831680.000000 34648593671020503939828833845248.000000 0.000000
0.000000 0.000000 0.000000
-50658708255973442876231122944.000000 10993538749507552618376855552.000000 0.000000
10993538749507552618376855552.000000 3826612570539191177398190080.000000 0.000000
0.000000 0.000000 0.000000
-273680233578804696085588497924096.000000 -41637108455351867504423763705856.000000 0.000000
-41637108455351867504423763705856.000000 11226902935874783930743456268288.000000 0.000000
0.000000 0.000000 0.000000
1604820412829540936645410291712.000000 -1950130404783081367866563362816.000000 0.000000
-1950130404783081367866563362816.000000 878993070854074953654106849280.000000 0.000000
0.000000 0.000000 0.000000
14459573133422945734105780715520.000000 -12147236867242059127363729358848.000000 0.000000
-12147236867242059127363729358848.000000 4758443528980712735264982695936.000000 0.000000
0.000000 0.000000 0.000000
-49753362217801637125366715777024.000000 47788350630052543431638356328448.000000 0.000000
47788350630052543431638356328448.000000 27111378619663484240636646785024.000000 0.000000
0.000000 0.000000 0.000000
-32566654170589379837560914706432.000000 -66746048679713591600351230820352.000000 0.000000
-66746048679713591600351230820352.000000 38497011373171357103200367804416.000000 0.000000
0.000000 0.000000 0.000000
-69944719942064235969330179735552.000000 51723512078038941958326066348032.000000 0.000000
51723512078038941958326066348032.000000 28607939280939677801600369295360.000000 0.000000
0.000000 0.000000 0.000000
-29012311113093943681496383488.000000 -36640336331348786388142129152.000000 0.000000
-36640336331348786388142129152.000000 21064519800623588050984763392.000000 0.000000
0.000000 0.000000 0.000000
10989099193595448499507742900224.000000 3214221530493104003436502843392.000000 0.000000
3214221530493104003436502843392.000000 612556664992716328430886453248.000000 0.000000
0.000000 0.000000 0.000000
-4300240371796128059922040487936.000000 1622756605468692045045893693440.000000 0.000000
1622756605468692045045893693440.000000 756056163519126783528513044480.000000 0.000000
0.000000 0.000000 0.000000
-1995565645671719072332639109120.000000 3679813513957719466471868858368.000000 0.000000
3679813513957719466471868858368.000000 2124054370818376853773021609984.000000 0.000000
0.000000 0.000000 0.000000
29851023105991024436683596627968.000000 -44190261907932751307472946331648.000000 0.000000
-44190261907932751307472946331648.000000 20928614093557813855434993303552.000000 0.000000
0.000000 0.000000 0.000000
-323520655393498238641837703168.000000 -39233358274537877420103870447616.000000 0.000000
-39233358274537877420103870447616.000000 21841850029243646454287768223744.000000 0.000000
0.000000 0.000000 0.000000
-3358691984868986659918812545024.000000 -123941274084897019643675363246080.000000 0.000000
-123941274084897019643675363246080.000000 69150071533964215922962410242048.000000 0.000000
0.000000 0.000000 0.000000
10821766921053292384804143104.000000 -10201327487568543756297699328.000000 0.000000
-10201327487568543756297699328.000000 4202557151893176237263159296.000000 0.000000
0.000000 0.000000 0.000000
34556112340737891559501593575424.000000 -45966388430285374475492724310016.000000 0.000000
-45966388430285374475492724310016.000000 21224707354634829099592226701312.000000 0.000000
0.000000 0.000000 0.000000
-3057511402546769317817483264.000000 -19950796186257342755814506496.000000 0.000000
-19950796186257342755814506496.000000 11289067123999460487392657408.000000 0.000000
0.000000 0.000000 0.000000
-72294981712458666631516030763008.000000 58965424522413821964619066900480.000000 0.000000
58965424522413821964619066900480.000000 33033010977718916534911813812224.000000 0.000000
0.000000 0.000000 0.000000
112767740741247579573536786743296.000000 -117688127381119973456327238221824.000000 0.000000
-117688127381119973456327238221824.000000 50419519240929926689682410700800.000000 0.000000
0.000000 0.000000 0.000000
-1344584196716047851726688489570304.000000 65965344765879178234652476309504.000000 0.000000
65965344765879178234652476309504.000000 6400589140253536199773526163456.000000 0.000000
0.000000 0.000000 0.000000
70165950344952202348501607120896.000000 -28035172475286067896543946473472.000000 0.000000
-28035172475286067896543946473472.000000 6754703628071677513947645214720.000000 0.000000
0.000000 0.000000 0.000000
3675891282289047474519670784.000000 4066234524268536682994728960.000000 0.000000
4066234524268536682994728960.000000 1846541227204551786629169152.000000 0.000000
0.000000 0.000000 0.000000
435863204002226900009784180736.000000 1697342150455978859528437366784.000000 0.000000
1697342150455978859528437366784.000000 901796962257297530978503229440.000000 0.000000
0.000000 0.000000 0.000000
36581431370126925885935273902080.000000 31371400556556448931849189720064.000000 0.000000
31371400556556448931849189720064.000000 12404822211736989937924652924928.000000 0.000000
0.000000 0.000000 0.000000
1076610758196779202286511456256.000000 -1928755992440793039205035933696.000000 0.000000
-1928755992440793039205035933696.000000 965601870031680978500771119104.000000 0.000000
0.000000 0.000000 0.000000
-395948223718718414213974953958572032.000000 -1780945461665610617441094729728000.000000 0.000000
-1780945461665610617441094729728000.000000 16015537254501600605384302657536.000000 0.000000
0.000000 0.000000 0.000000
30567002216294654724562577522688.000000 13220567342728102491218425937920.000000 0.000000
13220567342728102491218425937920.000000 3426615822580189038661922193408.000000 0.000000
0.000000 0.000000 0.000000
-2188410960980512202121533194240.000000 33495182990825001374317895745536.000000 0.000000
33495182990825001374317895745536.000000 18829440374358293975943627145216.000000 0.000000
0.000000 0.000000 0.000000
40478341430448878989609227255808.000000 -9034866682620976703419489189888.000000 0.000000
-9034866682620976703419489189888.000000 1277151251130525592707873636352.000000 0.000000
0.000000 0.000000 0.000000
54775683757871799497638551748608.000000 -44554369147665365587741701570560.000000 0.000000
-44554369147665365587741701570560.000000 17214083392594052507887829254144.000000 0.000000
0.000000 0.000000 0.000000
-53051378678467132600796676358144.000000 92561813001130948630798567211008.000000 0.000000
92561813001130948630798567211008.000000 53652948361673445549701077139456.000000 0.000000
0.000000 0.000000 0.000000
1577487259265569777478493274112.000000 357286564404028022307824861184.000000 0.000000
357286564404028022307824861184.000000 53057787847148582267147780096.000000 0.000000
0.000000 0.000000 0.000000
-5945900151707639357562184269824.000000 316409389638076222290457001984.000000 0.000000
316409389638076222290457001984.000000 49157492963805529179399651328.000000 0.000000
0.000000 0.000000 0.000000
80608609791672794901683965526016.000000 -32434041256626012807360354975744.000000 0.000000
-32434041256626012807360354975744.000000 7862957683606451064753975459840.000000 0.000000
0.000000 0.000000 0.000000
11021353457341165536684604915712.000000 4416845079441842768475135672320.000000 0.000000
4416845079441842768475135672320.000000 1066873875470578091202025881600.000000 0.000000
0.000000 0.000000 0.000000
4267035513840064120578868510720.000000 -3739297444198840647687491026944.000000 0.000000
-3739297444198840647687491026944.000000 1493081588791089682788944707584.000000 0.000000
0.000000 0.000000 0.000000
22390353478768639804708977901568.000000 -5553942555286037273197278134272.000000 0.000000
-5553942555286037273197278134272.000000 882463652374626719398566559744.000000 0.000000
0.000000 0.000000 0.000000
1299011315214484400937231187968.000000 28810028506046157487771551268864.000000 0.000000
28810028506046157487771551268864.000000 15892864236232878716316542828544.000000 0.000000
0.000000 0.000000 0.000000
4368519918714185710172152791040.000000 2979140513545210960348624977920.000000 0.000000
2979140513545210960348624977920.000000 1066105516641671804078658682880.000000 0.000000
0.000000 0.000000 0.000000
1564543288384329417843743391744.000000 -703355320646372508534969466880.000000 0.000000
-703355320646372508534969466880.000000 141122421336364143968971128832.000000 0.000000
0.000000 0.000000 0.000000
-15450957740244103614335836749824.000000 -65438172494148750847661320437760.000000 0.000000
-65438172494148750847661320437760.000000 37315949593512375266230453403648.000000 0.000000
0.000000 0.000000 0.000000
155011993391115145257462792192.000000 -866690469896318639777628815360.000000 0.000000
-866690469896318639777628815360.000000 467839770836644333896626864128.000000 0.000000
0.000000 0.000000 0.000000
106181828421098746271731309084672.000000 20782788225943082236342125461504.000000 0.000000
20782788225943082236342125461504.000000 2646593750876490768754990383104.000000 0.000000
0.000000 0.000000 0.000000
-23336578880533663721591930880.000000 8351431418998678508238012416.000000 0.000000
8351431418998678508238012416.000000 4508956683915069952085721088.000000 0.000000
0.000000 0.000000 0.000000
-4377009680844220197439071584256.000000 -5782179449620072641519004155904.000000 0.000000
-5782179449620072641519004155904.000000 3330503718773117713062089981952.000000 0.000000
0.000000 0.000000 0.000000
27671999416635244641534345216.000000 -10189887173815310070937812992.000000 0.000000
-10189887173815310070937812992.000000 2520076593712768249554272256.000000 0.000000
0.000000 0.000000 0.000000
10900223249812149133832232108032.000000 1464955887557252918186172481536.000000 0.000000
1464955887557252918186172481536.000000 130347096037493628830276911104.000000 0.000000
0.000000 0.000000 0.000000
3932391666235872446962747834368.000000 862604291965548725712826925056.000000 0.000000
862604291965548725712826925056.000000 122562881576893989961775185920.000000 0.000000
0.000000 0.000000 0.000000
23340226025125295046508654100480.000000 -767383658339107975907994763264.000000 0.000000
-767383658339107975907994763264.000000 44252165429193707584766345216.000000 0.000000
0.000000 0.000000 0.000000
38160860358215547652764818472960.000000 -11499238894401667169236247642112.000000 0.000000
-11499238894401667169236247642112.000000 2185731456930153980566737780736.000000 0.000000
0.000000 0.000000 0.000000
-22764525422489124169425337974784.000000 7251335543221673367448217190400.000000 0.000000
7251335543221673367448217190400.000000 3142496467257914685649284235264.000000 0.000000
0.000000 0.000000 0.000000
-2218154136431915286006404743168.000000 -1306187049055590134533414977536.000000 0.000000
-1306187049055590134533414977536.000000 703970264993253883217711202304.000000 0.000000
0.000000 0.000000 0.000000
2443905361027384342803319357440.000000 -3826293701039149807988157448192.000000 0.000000
-3826293701039149807988157448192.000000 1850533123970532790697417768960.000000 0.000000
0.000000 0.000000 0.000000
-105122290745552014777981717184512.000000 45637163343024364129676622299136.000000 0.000000
45637163343024364129676622299136.000000 22363809704041057695385400639488.000000 0.000000
0.000000 0.000000 0.000000
-4469670280178634982811525709824.000000 -680709185257038089006629257216.000000 0.000000
-680709185257038089006629257216.000000 183687444981337384200393719808.000000 0.000000
0.000000 0.000000 0.000000
-1528905805935165339111151108096.000000 -2390071353485883041179966111744.000000 0.000000
-2390071353485883041179966111744.000000 1377516425958752373406823350272.000000 0.000000
0.000000 0.000000 0.000000
6217591160184225940292402937856.000000 -602668613754422068176618520576.000000 0.000000
-602668613754422068176618520576.000000 38855887413409934104638521344.000000 0.000000
0.000000 0.000000 0.000000
-3634472102320966070369318338560.000000 -6364610455722822089804045352960.000000 0.000000
-6364610455722822089804045352960.000000 3699774066191094114285728563200.000000 0.000000
0.000000 0.000000 0.000000
8656573715686684925009418256384.000000 14918429928086436403795130843136.000000 0.000000
14918429928086436403795130843136.000000 7282558392513151249422651228160.000000 0.000000
0.000000 0.000000 0.000000
51652190014324036920118071001088.000000 -25672177580376409378725660983296.000000 0.000000
-25672177580376409378725660983296.000000 7322148380505491840686857650176.000000 0.000000
0.000000 0.000000 0.000000
9948031888026589016998560137216.000000 3027819755868606609256246935552.000000 0.000000
3027819755868606609256246935552.000000 638759655337687841183610437632.000000 0.000000
0.000000 0.000000 0.000000
-3116721366653681020182456172544.000000 28568877341275111654990656045056.000000 0.000000
28568877341275111654990656045056.000000 16271709628946867617465012060160.000000 0.000000
0.000000 0.000000 0.000000
-198563885003897800884903477248.000000 -549562397283349494351167225856.000000 0.000000
-549562397283349494351167225856.000000 349706399614803746677483110400.000000 0.000000
0.000000 0.000000 0.000000
-181395406482112392320467861504.000000 -6847659478689324939007473221632.000000 0.000000
-6847659478689324939007473221632.000000 3821856829610773394847285903360.000000 0.000000
0.000000 0.000000 0.000000
-209650532426016629295357716594688.000000 126308267544487386198348006424576.000000 0.000000
126308267544487386198348006424576.000000 67503854163889240388912740827136.000000 0.000000
0.000000 0.000000 0.000000
12164957982324337432738446442496.000000 -6333523615692528222799933734912.000000 0.000000
-6333523615692528222799933734912.000000 1868434399706494874646900375552.000000 0.000000
0.000000 0.000000 0.000000
-2654450040522866256049970048139264.000000 -65858897532238747250688589299712.000000 0.000000
-65858897532238747250688589299712.000000 3256191168903194664687928082432.000000 0.000000
0.000000 0.000000 0.000000
-1110072477102476709756223340150784.000000 74349981754484549967148134432768.000000 0.000000
74349981754484549967148134432768.000000 9708737054804080095294404952064.000000 0.000000
0.000000 0.000000 0.000000
-119289186383279495859814919045120.000000 27800944944728819133051486339072.000000 0.000000
27800944944728819133051486339072.000000 10146045451174847304159859834880.000000 0.000000
0.000000 0.000000 0.000000
-80186249210691573492261578604544.000000 56789680346891625896035573825536.000000 0.000000
56789680346891625896035573825536.000000 31155689768465224848223235997696.000000 0.000000
0.000000 0.000000 0.000000
-4096675920596279787873714044928.000000 7869156292001244991690649894912.000000 0.000000
7869156292001244991690649894912.000000 4540825715490738399636313079808.000000 0.000000
0.000000 0.000000 0.000000
-32244074705563236281712130392064.000000 5333578162335863229184013762560.000000 0.000000
5333578162335863229184013762560.000000 1559598008944271119058340937728.000000 0.000000
0.000000 0.000000 0.000000
-2956141966525860181769732489216.000000 -49207727110565856502583664836608.000000 0.000000
-49207727110565856502583664836608.000000 27580606555037808712627838255104.000000 0.000000
0.000000 0.000000 0.000000
22089460990902553095588290756608.000000 16473295016544402774049521926144.000000 0.000000
16473295016544402774049521926144.000000 6083465845804086195974796476416.000000 0.000000
0.000000 0.000000 0.000000
-128429835401220168186132611203072.000000 23535101821997745892938695573504.000000 0.000000
23535101821997745892938695573504.000000 7306716382307086314380225150976.000000 0.000000
0.000000 0.000000 0.000000
-1293231907334273408425955164160.000000 2477726004372619197265670569984.000000 0.000000
2477726004372619197265670569984.000000 1429659874708877381599424937984.000000 0.000000
0.000000 0.000000 0.000000
4363501222032269614415794405376.000000 11337022156240288843170991570944.000000 0.000000
11337022156240288843170991570944.000000 5864901825640674845848120590336.000000 0.000000
0.000000 0.000000 0.000000
59215044148427935916357087920128.000000 110018644488305067639809415053312.000000 0.000000
110018644488305067639809415053312.000000 54389087278193013190803633209344.000000 0.000000
0.000000 0.000000 0.000000
-73205531147936924255032692441088.000000 18985471007270077229799800045568.000000 0.000000
18985471007270077229799800045568.000000 7385265608659073036825317605376.000000 0.000000
0.000000 0.000000 0.000000
14133270624294372345538016182272.000000 -12300454165697806342856848179200.000000 0.000000
-12300454165697806342856848179200.000000 4903568383427446852053211545600.000000 0.000000
0.000000 0.000000 0.000000
12872331674771379235073755709440.000000 -1575188409567779757969786273792.000000 0.000000
-1575188409567779757969786273792.000000 127387761191591015339232591872.000000 0.000000
0.000000 0.000000 0.000000
14392706600730731083466801152.000000 -17579467382948443645976510464.000000 0.000000
-17579467382948443645976510464.000000 7928230345346043846150062080.000000 0.000000
0.000000 0.000000 0.000000
7702423989771051411449330008064.000000 12065861786713743281357437534208.000000 0.000000
12065861786713743281357437534208.000000 5784169000102905376848004251648.000000 0.000000
0.000000 0.000000 0.000000
10690253129764878968266908762112.000000 -9572585216985210885735626833920.000000 0.000000
-9572585216985210885735626833920.000000 3851476379543121622418711379968.000000 0.000000
0.000000 0.000000 0.000000
-2517529349561029875933712293560320.000000 272143262063634792524980376567808.000000 0.000000
272143262063634792524980376567808.000000 55121550096525959309296337420288.000000 0.000000
0.000000 0.000000 0.000000
6285916196506139809332330496.000000 -1446279695040468502718709760.000000 0.000000
-1446279695040468502718709760.000000 379686353494586504834449408.000000 0.000000
0.000000 0.000000 0.000000
2009828526628190721478313902080.000000 -17963242093450774281606106447872.000000 0.000000
-17963242093450774281606106447872.000000 9824870555304064666502634143744.000000 0.000000
0.000000 0.000000 0.000000
755367513327191238847854804992.000000 299095721174337475622951976960.000000 0.000000
299095721174337475622951976960.000000 79980338681809781929472425984.000000 0.000000
0.000000 0.000000 0.000000
50793429827103166915621163106304.000000 -20806441033953487263190956900352.000000 0.000000
-20806441033953487263190956900352.000000 5119869578321935248386689073152.000000 0.000000
0.000000 0.000000 0.000000
20027465457608081670336937984.000000 15202971431287436060105558196224.000000 0.000000
15202971431287436060105558196224.000000 8453133220218204986810212286464.000000 0.000000
0.000000 0.000000 0.000000
2416500080087083347588123983872.000000 -915024541439341260698860650496.000000 0.000000
-915024541439341260698860650496.000000 210230975766426063372629835776.000000 0.000000
0.000000 0.000000 0.000000
15215540859715888343999840256.000000 -14046730114314502180122956660736.000000 0.000000
-14046730114314502180122956660736.000000 7853284966916655107236786339840.000000 0.000000
0.000000 0.000000 0.000000
11378904661526390600227568484352.000000 13732531743913412989818691911680.000000 0.000000
13732531743913412989818691911680.000000 6173244606339434921241549471744.000000 0.000000
0.000000 0.000000 0.000000
-23075334161971631571811172352.000000 -19573054471523569104016375808.000000 0.000000
-19573054471523569104016375808.000000 10986797884050912871840743424.000000 0.000000
0.000000 0.000000 0.000000
968778934344867783179763712.000000 525315236436304723397574656.000000 0.000000
525315236436304723397574656.000000 179633516175753152213024768.000000 0.000000
0.000000 0.000000 0.000000
22637231684497381271523150528512.000000 -3810986894969522350800261611520.000000 0.000000
-3810986894969522350800261611520.000000 419771329034050829860147822592.000000 0.000000
0.000000 0.000000 0.000000
-110599478354562959179995429208064.000000 110079829845921601426905389596672.000000 0.000000
110079829845921601426905389596672.000000 62632106851923031962818095087616.000000 0.000000
0.000000 0.000000 0.000000
1110370442296686940898052800512.000000 1387116121738182543013369085952.000000 0.000000
1387116121738182543013369085952.000000 629681767378071456287945654272.000000 0.000000
0.000000 0.000000 0.000000
10908141041788444106219965120512.000000 10068306876183936314548443676672.000000 0.000000
10068306876183936314548443676672.000000 4111676237745930549057592229888.000000 0.000000
0.000000 0.000000 0.000000
10111126153237489834524588113920.000000 8734189689244673501265854988288.000000 0.000000
8734189689244673501265854988288.000000 3463759131082910643863068606464.000000 0.000000
0.000000 0.000000 0.000000
34456886594958251834961035264.000000 86025491724092387280354803712.000000 0.000000
86025491724092387280354803712.000000 44554405761881154339037249536.000000 0.000000
0.000000 0.000000 0.000000
-36613347361769585702617732874240.000000 19627223151394267136502611836928.000000 0.000000
19627223151394267136502611836928.000000 10216772829400104517809091903488.000000 0.000000
0.000000 0.000000 0.000000
339173176040156903228877832192.000000 -670482925807856164302395277312.000000 0.000000
-670482925807856164302395277312.000000 334535860315924953329244831744.000000 0.000000
0.000000 0.000000 0.000000
2062095943711098657424317349888.000000 2638336711713458550858294755328.000000 0.000000
2638336711713458550858294755328.000000 1241041746136962667118776549376.000000 0.000000
0.000000 0.000000 0.000000
5682105855281587648997722423296.000000 1990725846823402274053341315072.000000 0.000000
1990725846823402274053341315072.000000 429992932095624399552612663296.000000 0.000000
0.000000 0.000000 0.000000
-11321708116369502189574741295104.000000 18879720111589661998283459919872.000000 0.000000
18879720111589661998283459919872.000000 10897287487984377681227009753088.000000 0.000000
0.000000 0.000000 0.000000
1008801910724010822729098854400.000000 832474205963726588963090071552.000000 0.000000
832474205963726588963090071552.000000 333829262748488822893465042944.000000 0.000000
0.000000 0.000000 0.000000
-37155146749819697379064961245904896.000000 -1372352291919358816090677464530944.000000 0.000000
-1372352291919358816090677464530944.000000 100502750559983656181914497187840.000000 0.000000
0.000000 0.000000 0.000000
383869475768784181739464425472.000000 -116669266057903585044662845440.000000 0.000000
-116669266057903585044662845440.000000 22418494808713116747223269376.000000 0.000000
0.000000 0.000000 0.000000
14242743371166540343645325754368.000000 11076750531154420518311893663744.000000 0.000000
11076750531154420518311893663744.000000 4177712616954524858151881146368.000000 0.000000
0.000000 0.000000 0.000000
16213975502089015106392276598784.000000 -41596505966917843559341180846080.000000 0.000000
-41596505966917843559341180846080.000000 21423319597921950171854232616960.000000 0.000000
0.000000 0.000000 0.000000
1500899528605969054532265574400.000000 -6209256246667369236822459678720.000000 0.000000
-6209256246667369236822459678720.000000 3320147301139937514502941048832.000000 0.000000
0.000000 0.000000 0.000000
43844645362854998032230094209024.000000 -6469438818586480025737719971840.000000 0.000000
-6469438818586480025737719971840.000000 629313647677889113071856648192.000000 0.000000
0.000000 0.000000 0.000000
-258395124586459785553137215391924224.000000 903357729083573542716553184673792.000000 0.000000
903357729083573542716553184673792.000000 6314684127578597817779488817152.000000 0.000000
0.000000 0.000000 0.000000
2271229743681847158245030887424.000000 3270727499977241790155663081472.000000 0.000000
3270727499977241790155663081472.000000 1542759448213619771453147709440.000000 0.000000
0.000000 0.000000 0.000000
2520575152738278338426044416.000000 -1064562846583421781629992960.000000 0.000000
-1064562846583421781629992960.000000 268160501109487726030225408.000000 0.000000
0.000000 0.000000 0.000000
-532766641003892436036246044672.000000 1647614191311269612714289266688.000000 0.000000
1647614191311269612714289266688.000000 944822528213178227330601975808.000000 0.000000
0.000000 0.000000 0.000000
73298589194649972923944363098112.000000 -85455509423873837234015044632576.000000 0.000000
-85455509423873837234015044632576.000000 38130835748410103806370168963072.000000 0.000000
0.000000 0.000000 0.000000
1393168663138268580282896482304.000000 -1168329297433751797999771582464.000000 0.000000
-1168329297433751797999771582464.000000 492622037475692785389627506688.000000 0.000000
0.000000 0.000000 0.000000
5391629686755728735934087168.000000 -1301688796739464974653456384.000000 0.000000
-1301688796739464974653456384.000000 201658909930734965147828224.000000 0.000000
0.000000 0.000000 0.000000
41446614644802464280711822049280.000000 -17665913289970343620092572467200.000000 0.000000
-17665913289970343620092572467200.000000 4493007687707409212273781112832.000000 0.000000
0.000000 0.000000 0.000000
-123089277375628316272972020056064.000000 42499264093323673576479081365504.000000 0.000000
42499264093323673576479081365504.000000 19094794681939697565251554770944.000000 0.000000
0.000000 0.000000 0.000000
-4102935248247463898409875800064.000000 -2444562809868612834167151919104.000000 0.000000
-2444562809868612834167151919104.000000 1304364834207391969288382316544.000000 0.000000
0.000000 0.000000 0.000000
13281442028898403021737689088.000000 -11523664146159202940957491200.000000 0.000000
-11523664146159202940957491200.000000 4580781862596214671810756608.000000 0.000000
0.000000 0.000000 0.000000
1966599257784642803537887100928.000000 3355704418770555225737334358016.000000 0.000000
3355704418770555225737334358016.000000 1647051541402298367375174533120.000000 0.000000
0.000000 0.000000 0.000000
168145793728920824070067453952.000000 -273612747115862074165777399808.000000 0.000000
-273612747115862074165777399808.000000 132600073109377453254852476928.000000 0.000000
0.000000 0.000000 0.000000
792570479291372575042459140096.000000 1442594868250077277204707803136.000000 0.000000
1442594868250077277204707803136.000000 710833143714033182451169230848.000000 0.000000
0.000000 0.000000 0.000000
-2208337119035570809621970944.000000 -1926137829346273653090680832.000000 0.000000
-1926137829346273653090680832.000000 253536329190357948365275136.000000 0.000000
0.000000 0.000000 0.000000
-111535953462342189090091302912.000000 -9998668588115425102066089984.000000 0.000000
-9998668588115425102066089984.000000 2083275730427563107472637952.000000 0.000000
0.000000 0.000000 0.000000
-2443491008549884659966035361792.000000 4045212521878166286834537070592.000000 0.000000
4045212521878166286834537070592.000000 2334784856519719389700431020032.000000 0.000000
0.000000 0.000000 0.000000
61556606698385021707331722805248.000000 87878379113029542554021216124928.000000 0.000000
87878379113029542554021216124928.000000 41275555394828838088755793362944.000000 0.000000
0.000000 0.000000 0.000000
2104706919298089339323525627904.000000 5965618144625447390485311127552.000000 0.000000
5965618144625447390485311127552.000000 3100947442588688310931432669184.000000 0.000000
0.000000 0.000000 0.000000
9209604728343992053041182277632.000000 11953698519223347676182982164480.000000 0.000000
11953698519223347676182982164480.000000 5482310634381555484911598567424.000000 0.000000
0.000000 0.000000 0.000000
-5904105955456744154670045331456.000000 -10548779922226794170799353757696.000000 0.000000
-10548779922226794170799353757696.000000 6088049285773804732928225181696.000000 0.000000
0.000000 0.000000 0.000000
-28876604954728273179211397595136.000000 -4422668939577157617382372409344.000000 0.000000
-4422668939577157617382372409344.000000 1204310389323917792542575296512.000000 0.000000
0.000000 0.000000 0.000000
3762164782156738045889478656000.000000 4160372943729587991886151286784.000000 0.000000
4160372943729587991886151286784.000000 1818518357773696550772785807360.000000 0.000000
0.000000 0.000000 0.000000
8124277608294686849294990835712.000000 175586415869300257726652219392.000000 0.000000
175586415869300257726652219392.000000 2575319535410572237547241472.000000 0.000000
0.000000 0.000000 0.000000
-147381393470556757193618351980544.000000 -47256366271873545245881643565056.000000 0.000000
-47256366271873545245881643565056.000000 20533874445338979107911803863040.000000 0.000000
0.000000 0.000000 0.000000
4497876209507604995958422634496.000000 1189145207571011202721702215680.000000 0.000000
1189145207571011202721702215680.000000 200843142193095803432691826688.000000 0.000000
0.000000 0.000000 0.000000
-113926542984670919901386375168.000000 29323435799649441209621938176.000000 0.000000
29323435799649441209621938176.000000 15606260188795392235969445888.000000 0.000000
0.000000 0.000000 0.000000
-4467808030284520868043544330240.000000 -40654186462134216759942578176.000000 0.000000
-40654186462134216759942578176.000000 1591519106885427517303291904.000000 0.000000
0.000000 0.000000 0.000000
10107252058929700029036580831232.000000 14212757152356207043272205402112.000000 0.000000
14212757152356207043272205402112.000000 6658988802461149326275984228352.000000 0.000000
0.000000 0.000000 0.000000
4784134625310821634034106368.000000 -15520667706457271220960231424.000000 0.000000
-15520667706457271220960231424.000000 8233289860099628855550017536.000000 0.000000
0.000000 0.000000 0.000000
3604274378297940249153634304.000000 -9801620120150166803247529984.000000 0.000000
-9801620120150166803247529984.000000 5892285296608741108431716352.000000 0.000000
0.000000 0.000000 0.000000
-2286178246582806155688704737280.000000 -56143433038700089392710549504.000000 0.000000
-56143433038700089392710549504.000000 2841793376004383837928816640.000000 0.000000
0.000000 0.000000 0.000000
7334983816516727087082168647680.000000 3258683571280828888883457425408.000000 0.000000
3258683571280828888883457425408.000000 854911557873694206382720417792.000000 0.000000
0.000000 0.000000 0.000000
733609787314124834878028513280.000000 -1040697519079522954114838298624.000000 0.000000
-1040697519079522954114838298624.000000 453563195652731965066193141760.000000 0.000000
0.000000 0.000000 0.000000
198166446277950789477440006651904.000000 -62470830374994530653308532555776.000000 0.000000
-62470830374994530653308532555776.000000 12323679338380676349158244745216.000000 0.000000
0.000000 0.000000 0.000000
631431747676472212788418183168.000000 3971307882858394632784294445056.000000 0.000000
3971307882858394632784294445056.000000 2152226089877931619478314942464.000000 0.000000
0.000000 0.000000 0.000000
-59101385753026269565452269125632.000000 25694606109206643454748299100160.000000 0.000000
25694606109206643454748299100160.000000 12603959190054121483527373455360.000000 0.000000
0.000000 0.000000 0.000000
61678470952232810550038347382784.000000 53543022409963558228605246898176.000000 0.000000
53543022409963558228605246898176.000000 21305969324934157487308732891136.000000 0.000000
0.000000 0.000000 0.000000
-3684704489065378218216867758080.000000 -35027749362579584180613856362496.000000 0.000000
-35027749362579584180613856362496.000000 19735101090841401949829271126016.000000 0.000000
0.000000 0.000000 0.000000
51727032931036536535071831621632.000000 -68693727501238325036323660890112.000000 0.000000
-68693727501238325036323660890112.000000 31695605319208224267569259872256.000000 0.000000
0.000000 0.000000 0.000000
2520464627920890877641211510784.000000 113215989118802622937542164480.000000 0.000000
113215989118802622937542164480.000000 3543608825326681782151544832.000000 0.000000
0.000000 0.000000 0.000000
754742852088477152387809673216.000000 220928541972371899886589706240.000000 0.000000
220928541972371899886589706240.000000 40790116591067715367499464704.000000 0.000000
0.000000 0.000000 0.000000
21497367305803144852531916570624.000000 2249535603851017024879059795968.000000 0.000000
2249535603851017024879059795968.000000 157836597257708958331900526592.000000 0.000000
0.000000 0.000000 0.000000
4691788567278633617925169217536.000000 9666893810000279600666618363904.000000 0.000000
9666893810000279600666618363904.000000 4870761743702068944914475909120.000000 0.000000
0.000000 0.000000 0.000000
5039639748950174671899876917248.000000 -3486288293532484038536590262272.000000 0.000000
-3486288293532484038536590262272.000000 1236517114747322427056739844096.000000 0.000000
0.000000 0.000000 0.000000
49788441101445523983237593956352.000000 -49297724753136370681655792238592.000000 0.000000
-49297724753136370681655792238592.000000 20714004412318812317546505568256.000000 0.000000
0.000000 0.000000 0.000000
3240138157867548366329794789376.000000 992318321620057765701484544.000000 0.000000
992318321620057765701484544.000000 449666705591716010006675456.000000 0.000000
0.000000 0.000000 0.000000
775173957382522489312116736.000000 -167617201161353296946921472.000000 0.000000
-167617201161353296946921472.000000 23444458466862764461654016.000000 0.000000
0.000000 0.000000 0.000000
-40112830230963249079772776497152.000000 15656469110396291813612397264896.000000 0.000000
15656469110396291813612397264896.000000 7396995724347678222387874103296.000000 0.000000
0.000000 0.000000 0.000000
528965677669980877481777823744.000000 3993673028862871687025039245312.000000 0.000000
3993673028862871687025039245312.000000 2175277948675617697914123452416.000000 0.000000
0.000000 0.000000 0.000000
4231906593090702233768558592.000000 -4493484033336314956731121664.000000 0.000000
-4493484033336314956731121664.000000 2017210700682497310798643200.000000 0.000000
0.000000 0.000000 0.000000
-1366978713019602631064027136.000000 -64488238965828964285409132544.000000 0.000000
-64488238965828964285409132544.000000 35963349014726769712673325056.000000 0.000000
0.000000 0.000000 0.000000
-1675828446762678512401608867840.000000 1947743174269717712627621167104.000000 0.000000
1947743174269717712627621167104.000000 1139331205585757116868549672960.000000 0.000000
0.000000 0.000000 0.000000
-1767446154861459316972118343680.000000 -1662354908225481082814865604608.000000 0.000000
-1662354908225481082814865604608.000000 946300000369588317343405047808.000000 0.000000
0.000000 0.000000 0.000000
374150189799901438988576096256.000000 -5724558809037248966764265472.000000 0.000000
-5724558809037248966764265472.000000 85917650899317223849984000.000000 0.000000
0.000000 0.000000 0.000000
1695754284451029751499770036224.000000 2017640577211052368638681022464.000000 0.000000
2017640577211052368638681022464.000000 1030625519937531063113267281920.000000 0.000000
0.000000 0.000000 0.000000
4687679315413303157691315650560.000000 17828215503320001832368333651968.000000 0.000000
17828215503320001832368333651968.000000 9461407459568359433552787406848.000000 0.000000
0.000000 0.000000 0.000000
23394856530097607152431899082752.000000 12144835605481889275666111660032.000000 0.000000
12144835605481889275666111660032.000000 3574770591185595345216217284608.000000 0.000000
0.000000 0.000000 0.000000
4337415025413979685518319812608.000000 -8992689462298330399825618534400.000000 0.000000
-8992689462298330399825618534400.000000 4517785360706779315111754465280.000000 0.000000
0.000000 0.000000 0.000000
-27500497980575836826219648647168.000000 -40377491147691531141515355095040.000000 0.000000
-40377491147691531141515355095040.000000 23284089087609598536910137982976.000000 0.000000
0.000000 0.000000 0.000000
-24223933101964365987173460535672832.000000 -279805810440230761738152223703040.000000 0.000000
-279805810440230761738152223703040.000000 6475781478389232274136981569536.000000 0.000000
0.000000 0.000000 0.000000
5299503436582835869581756596224.000000 9701532561899481663781193383936.000000 0.000000
9701532561899481663781193383936.000000 4788599204490828063429856591872.000000 0.000000
0.000000 0.000000 0.000000
-18896843750570353084130656256.000000 8829237723803469245289857024.000000 0.000000
8829237723803469245289857024.000000 5076985854657551511605739520.000000 0.000000
0.000000 0.000000 0.000000
-106909888832874368132510650600521728.000000 678676527106716938566426054098944.000000 0.000000
678676527106716938566426054098944.000000 8611970288815360532473595297792.000000 0.000000
0.000000 0.000000 0.000000
-64272350225999996885258993664.000000 -25619401593639601721869074432.000000 0.000000
-25619401593639601721869074432.000000 12719695392246495621588975616.000000 0.000000
0.000000 0.000000 0.000000
-1029623827905200996857589792768.000000 -5281994085514379812539130183680.000000 0.000000
-5281994085514379812539130183680.000000 2994080007102351176792323129344.000000 0.000000
0.000000 0.000000 0.000000
-11577750193409082320742202212352.000000 -9013242604861804717126558154752.000000 0.000000
-9013242604861804717126558154752.000000 5012228622508479651688698871808.000000 0.000000
0.000000 0.000000 0.000000
2329073705952484115115143069696.000000 -5364491933171920313127790444544.000000 0.000000
-5364491933171920313127790444544.000000 2731018793556760955975395966976.000000 0.000000
0.000000 0.000000 0.000000
-9899647478990805121891060154368.000000 -7644526394286484213797679529984.000000 0.000000
-7644526394286484213797679529984.000000 4246615292475252071736969003008.000000 0.000000
0.000000 0.000000 0.000000
20852922252047318618017718337536.000000 11679002360524123204181821489152.000000 0.000000
11679002360524123204181821489152.000000 3663278999256093656024302485504.000000 0.000000
0.000000 0.000000 0.000000
7527619197609908218581202501632.000000 -11340629474227895143764754169856.000000 0.000000
-11340629474227895143764754169856.000000 5391664780286072727701257453568.000000 0.000000
0.000000 0.000000 0.000000
11458663795044991234132567654400.000000 9025767348284985224624185802752.000000 0.000000
9025767348284985224624185802752.000000 3474358586378817866191431794688.000000 0.000000
0.000000 0.000000 0.000000
-16289277516623789745606127255552.000000 -6946526056511510251789420068864.000000 0.000000
-6946526056511510251789420068864.000000 3388690345955345582668799541248.000000 0.000000
0.000000 0.000000 0.000000
-2331348381913338205586363252736.000000 1443342436935318669340532801536.000000 0.000000
1443342436935318669340532801536.000000 783509379416075340034363883520.000000 0.000000
0.000000 0.000000 0.000000
-33194394496816481239640523669504.000000 6605439162981746994369269858304.000000 0.000000
6605439162981746994369269858304.000000 2171507041180059204149883961344.000000 0.000000
0.000000 0.000000 0.000000
16725024033761956623535833088.000000 15052766384070019780152655872.000000 0.000000
15052766384070019780152655872.000000 6081399418088086984598749184.000000 0.000000
0.000000 0.000000 0.000000
-50609129780279184259387215577088.000000 23426826555488369296749900070912.000000 0.000000
23426826555488369296749900070912.000000 11720162628310529144712685682688.000000 0.000000
0.000000 0.000000 0.000000
38925487009387032138244132175872.000000 20632646015360037603806791335936.000000 0.000000
20632646015360037603806791335936.000000 6165115391327643994748505554944.000000 0.000000
0.000000 0.000000 0.000000
-1207179275657882714391097376768.000000 86528135402473871888223305728.000000 0.000000
86528135402473871888223305728.000000 12461272233165108688896131072.000000 0.000000
0.000000 0.000000 0.000000
11973613246058118018928543268864.000000 2542078299846549007059633831936.000000 0.000000
2542078299846549007059633831936.000000 350263546318057510418096586752.000000 0.000000
0.000000 0.000000 0.000000
1116693800719908753287956922368.000000 4580707745991903486072875646976.000000 0.000000
4580707745991903486072875646976.000000 2440982722513266677632645201920.000000 0.000000
0.000000 0.000000 0.000000
-24863037246908693770972151414784.000000 -33003959522237091387141584322560.000000 0.000000
-33003959522237091387141584322560.000000 19013014900064263468249658687488.000000 0.000000
0.000000 0.000000 0.000000
41029064469423624563092271136768.000000 1426232051909395924297661284352.000000 0.000000
1426232051909395924297661284352.000000 37000857040177557633278935040.000000 0.000000
0.000000 0.000000 0.000000
12940918830538050032367013199872.000000 1758110656240164588284540878848.000000 0.000000
1758110656240164588284540878848.000000 145713398320575881832944369664.000000 0.000000
0.000000 0.000000 0.000000
-32977045712814133444358438912.000000 -1713833363198127966336843776.000000 0.000000
-1713833363198127966336843776.000000 2013409531954948595423117312.000000 0.000000
0.000000 0.000000 0.000000
3872564707117581669907539427328.000000 4503610704925254448059523268608.000000 0.000000
4503610704925254448059523268608.000000 2000826377471710126749666770944.000000 0.000000
0.000000 0.000000 0.000000
1493452725646062520992056475648.000000 -348103196903551192218267025408.000000 0.000000
-348103196903551192218267025408.000000 52540500520089776217214943232.000000 0.000000
0.000000 0.000000 0.000000
24425038130773837588937572352.000000 -105328517625146834659559079936.000000 0.000000
-105328517625146834659559079936.000000 56203496219568473002400022528.000000 0.000000
0.000000 0.000000 0.000000
5967362380468672507706953695232.000000 -6255011651813506306317389660160.000000 0.000000
-6255011651813506306317389660160.000000 2710001553473946807004391538688.000000 0.000000
0.000000 0.000000 0.000000
6046941816560218015994075938816.000000 5958058144709299852000450576384.000000 0.000000
5958058144709299852000450576384.000000 2494141891037100372342477946880.000000 0.000000
0.000000 0.000000 0.000000
2085791351911515646871927259136.000000 451683395373750274459581808640.000000 0.000000
451683395373750274459581808640.000000 63385911658026558412596183040.000000 0.000000
0.000000 0.000000 0.000000
2794466504412214827002129022976.000000 1265798339779071341371982872576.000000 0.000000
1265798339779071341371982872576.000000 337334116854275520920488509440.000000 0.000000
0.000000 0.000000 0.000000
3629179715374162574168582782976.000000 2556873260111806448545432600576.000000 0.000000
2556873260111806448545432600576.000000 914632733048347598130232950784.000000 0.000000
0.000000 0.000000 0.000000
-772906049671977337694422587932672.000000 112518317709560955535005933633536.000000 0.000000
112518317709560955535005933633536.000000 29293429580544963465181420060672.000000 0.000000
0.000000 0.000000 0.000000
27551090978725050543397413060608.000000 -11918218282492881259597326712832.000000 0.000000
-11918218282492881259597326712832.000000 3061278119325357020922310033408.000000 0.000000
0.000000 0.000000 0.000000
-11733268217376874660601635274752.000000 18715347138595378589453932036096.000000 0.000000
18715347138595378589453932036096.000000 10810632151900044818495574114304.000000 0.000000
0.000000 0.000000 0.000000
15143087869669549004116421771264.000000 -10456461711564441102174627299328.000000 0.000000
-10456461711564441102174627299328.000000 3703388044995787141002578362368.000000 0.000000
0.000000 0.000000 0.000000
-21091891497264511792602677248.000000 29372158829620595042983870464.000000 0.000000
29372158829620595042983870464.000000 16922541914572524262487228416.000000 0.000000
0.000000 0.000000 0.000000
-4085822258837315593159051313152.000000 37200367036229422712045562757120.000000 0.000000
37200367036229422712045562757120.000000 21296689365309762621087743475712.000000 0.000000
0.000000 0.000000 0.000000
-75598845576212136172047040512.000000 -58781427112087382156306808832.000000 0.000000
-58781427112087382156306808832.000000 32919453386065202485640822784.000000 0.000000
0.000000 0.000000 0.000000
-152403346960336840468950155264.000000 17974378461202721541051121664.000000 0.000000
17974378461202721541051121664.000000 4077445657983341688959008768.000000 0.000000
0.000000 0.000000 0.000000
-2913098038935674205639702216704.000000 8482672170614249270217780756480.000000 0.000000
8482672170614249270217780756480.000000 4895981267445264257882127335424.000000 0.000000
0.000000 0.000000 0.000000
941880198135922234612045053952.000000 11079877532838795724031908642816.000000 0.000000
11079877532838795724031908642816.000000 6088415439177832270736406872064.000000 0.000000
0.000000 0.000000 0.000000
4872721695095608477172830830592.000000 5413590249501699352571175501824.000000 0.000000
5413590249501699352571175501824.000000 2378166820215731229623341547520.000000 0.000000
0.000000 0.000000 0.000000
1994706133345910008984895488.000000 -5513605874554736220307456000.000000 0.000000
-5513605874554736220307456000.000000 2859665440337006240758497280.000000 0.000000
0.000000 0.000000 0.000000
2108371360360277748958755815424.000000 -9658603716395839188915204390912.000000 0.000000
-9658603716395839188915204390912.000000 5238853491551218924672180551680.000000 0.000000
0.000000 0.000000 0.000000
5059758151570512487934054105088.000000 1804347786140697803881288040448.000000 0.000000
1804347786140697803881288040448.000000 400942616033201497767067779072.000000 0.000000
0.000000 0.000000 0.000000
8953659405289021246291505577984.000000 -916145200197123207579102609408.000000 0.000000
-916145200197123207579102609408.000000 64472072069556472259805184000.000000 0.000000
0.000000 0.000000 0.000000
-2444080196950738491491028566016.000000 -14613964330792231090577324638208.000000 0.000000
-14613964330792231090577324638208.000000 8294234863420162530626079031296.000000 0.000000
0.000000 0.000000 0.000000
9282906267470337052523058167808.000000 -3890450099361110146813739925504.000000 0.000000
-3890450099361110146813739925504.000000 1029057151206501700557009321984.000000 0.000000
0.000000 0.000000 0.000000
-14942677090737753431421747200.000000 4421696878812388646193016602624.000000 0.000000
4421696878812388646193016602624.000000 2469525680367929835126414901248.000000 0.000000
0.000000 0.000000 0.000000
13630923175835956384033782366208.000000 8230665354732537704470055747584.000000 0.000000
8230665354732537704470055747584.000000 2683514987863654054441762422784.000000 0.000000
0.000000 0.000000 0.000000
11128398247320811778848963166208.000000 5229082101507066317002185375744.000000 0.000000
5229082101507066317002185375744.000000 1427004398700955954899027230720.000000 0.000000
0.000000 0.000000 0.000000
5319851556983866202966347218944.000000 -3591215177412727858156741328896.000000 0.000000
-3591215177412727858156741328896.000000 1253703214274703201071462875136.000000 0.000000
0.000000 0.000000 0.000000
39990263483527541862961250304.000000 6939321294259861355367497728.000000 0.000000
6939321294259861355367497728.000000 822279104103895582774394880.000000 0.000000
0.000000 0.000000 0.000000
1447272541384611964665829785600.000000 1456258577713165112305038393344.000000 0.000000
1456258577713165112305038393344.000000 623211021209991524213321629696.000000 0.000000
0.000000 0.000000 0.000000
3285253820677824762037661597696.000000 4146308531588973201534729846784.000000 0.000000
4146308531588973201534729846784.000000 1887044163949312042765601734656.000000 0.000000
0.000000 0.000000 0.000000
-397449988254546467009113918275584.000000 23306375726906341640374707027968.000000 0.000000
23306375726906341640374707027968.000000 2683099482097273128754381586432.000000 0.000000
0.000000 0.000000 0.000000
4150800625055465627104556613632.000000 -4765398851495147645452312117248.000000 0.000000
-4765398851495147645452312117248.000000 2110820345077206458758972047360.000000 0.000000
0.000000 0.000000 0.000000
-4923265994065158378993330683904.000000 1557679258450522762890767761408.000000 0.000000
1557679258450522762890767761408.000000 671211737033831095214427602944.000000 0.000000
0.000000 0.000000 0.000000
2342498790960625096797232037888.000000 -3142170971893931278073755336704.000000 0.000000
-3142170971893931278073755336704.000000 1449696197600564941033629024256.000000 0.000000
0.000000 0.000000 0.000000
-133422340175957917623201109639168.000000 -16922558149530291665183398952960.000000 0.000000
-16922558149530291665183398952960.000000 3934048051783618257124727980032.000000 0.000000
0.000000 0.000000 0.000000
1456023230388008783102116626432.000000 -4191692380531558939158510567424.000000 0.000000
-4191692380531558939158510567424.000000 2189684891870309118972534980608.000000 0.000000
0.000000 0.000000 0.000000
201427700866290353573088722944.000000 -320417298569574639027085115392.000000 0.000000
-320417298569574639027085115392.000000 154124891463081040229825511424.000000 0.000000
0.000000 0.000000 0.000000
1859562322264638921693722574848.000000 -27370023484056934678913137770496.000000 0.000000
-27370023484056934678913137770496.000000 15067533803993007619683095937024.000000 0.000000
0.000000 0.000000 0.000000
6141597899339270417234670911488.000000 -76488874910619084386761424502784.000000 0.000000
-76488874910619084386761424502784.000000 42025420733208072403099504869376.000000 0.000000
0.000000 0.000000 0.000000
5813652961604624250072886935552.000000 22894855015320189076822638460928.000000 0.000000
22894855015320189076822638460928.000000 12173927451324104075832914345984.000000 0.000000
0.000000 0.000000 0.000000
17818420251597791165693523132416.000000 -2940096323093916987747830071296.000000 0.000000
-2940096323093916987747830071296.000000 324409556061676552275424706560.000000 0.000000
0.000000 0.000000 0.000000
7327236763809442051232439992320.000000 -4914523327173352782992789995520.000000 0.000000
-4914523327173352782992789995520.000000 1716363124165771774866227200000.000000 0.000000
0.000000 0.000000 0.000000
1678170226641507352554105733120.000000 -1045474720548366834807796137984.000000 0.000000
-1045474720548366834807796137984.000000 348194928200972275587418685440.000000 0.000000
0.000000 0.000000 0.000000
1564636606444724854755709419520.000000 -3280341764660753888308419887104.000000 0.000000
-3280341764660753888308419887104.000000 1650515379725477248159486836736.000000 0.000000
0.000000 0.000000 0.000000
-334346502097883966979182690304.000000 -2233807567652469281284023123968.000000 0.000000
-2233807567652469281284023123968.000000 1260219125553745347108858232832.000000 0.000000
0.000000 0.000000 0.000000
13635620304766882841858366504960.000000 4222619526591545141862196051968.000000 0.000000
4222619526591545141862196051968.000000 820806982760202959276830883840.000000 0.000000
0.000000 0.000000 0.000000
5490873507677600878178598912000.000000 -9841786664085337143479178887168.000000 0.000000
-9841786664085337143479178887168.000000 4845245636773837524208803905536.000000 0.000000
0.000000 0.000000 0.000000
3542876993488070691105141686272.000000 71661634521795331606838247424.000000 0.000000
71661634521795331606838247424.000000 14717467677828002695757168640.000000 0.000000
0.000000 0.000000 0.000000
-363082256783637210049019904.000000 -3078838813897406688408895488.000000 0.000000
-3078838813897406688408895488.000000 1759148488780330407154417664.000000 0.000000
0.000000 0.000000 0.000000
-2709895473175683862488361730048.000000 -9346813940106352346030736932864.000000 0.000000
-9346813940106352346030736932864.000000 5348675898931024402153834807296.000000 0.000000
0.000000 0.000000 0.000000
32757603545012767538525597859840.000000 -24643763418283135982241765654528.000000 0.000000
-24643763418283135982241765654528.000000 9155445231026904494581246590976.000000 0.000000
0.000000 0.000000 0.000000
-872477666713790358242763735040.000000 45202273916115913766344851456.000000 0.000000
45202273916115913766344851456.000000 4608785475402416405688090624.000000 0.000000
0.000000 0.000000 0.000000
10730922225819137566139909931008.000000 17242387729545868739211291525120.000000 0.000000
17242387729545868739211291525120.000000 8299338362471690275009167622144.000000 0.000000
0.000000 0.000000 0.000000
4080194433429020779109471485952.000000 28625005378100946020570513801216.000000 0.000000
28625005378100946020570513801216.000000 15649889566923327182170134413312.000000 0.000000
0.000000 0.000000 0.000000
27036894481420814582382669594624.000000 15954305828552762803594471669760.000000 0.000000
15954305828552762803594471669760.000000 5125758650934425635488652066816.000000 0.000000
0.000000 0.000000 0.000000
-129808124997712076475818049536.000000 63501987689019668682405576704.000000 0.000000
63501987689019668682405576704.000000 32441142626852103884304809984.000000 0.000000
0.000000 0.000000 0.000000
-84559796522436315594827254202368.000000 30812976744474181485062323699712.000000 0.000000
30812976744474181485062323699712.000000 14162602329198393587343460139008.000000 0.000000
0.000000 0.000000 0.000000
-1470432392257682101744399548416.000000 -9279549480848938825342330601472.000000 0.000000
-9279549480848938825342330601472.000000 5257111193468388927654730924032.000000 0.000000
0.000000 0.000000 0.000000
41695245029490574557971019202560.000000 7114458440022097780461881262080.000000 0.000000
7114458440022097780461881262080.000000 2121969751766140564746824318976.000000 0.000000
0.000000 0.000000 0.000000
433400668353718402915862839296.000000 -2223967827498536933105032232960.000000 0.000000
-2223967827498536933105032232960.000000 1193522536830721234400620576768.000000 0.000000
0.000000 0.000000 0.000000
1561360540109520494043070464.000000 1318551203004211117510623232.000000 0.000000
1318551203004211117510623232.000000 1745093414593582136836489216.000000 0.000000
0.000000 0.000000 0.000000
-2473190115765860599326572544.000000 1047387291985344300528435200.000000 0.000000
1047387291985344300528435200.000000 318524839319278405793349632.000000 0.000000
0.000000 0.000000 0.000000
15869916470383157377722742734848.000000 11122264408752928781404131557376.000000 0.000000
11122264408752928781404131557376.000000 3925987404053805496232411398144.000000 0.000000
0.000000 0.000000 0.000000
15493102980366713544545342062592.000000 -21402827325220515796185444777984.000000 0.000000
-21402827325220515796185444777984.000000 9993195839417062486765901709312.000000 0.000000
0.000000 0.000000 0.000000
35124864652288976607574583410688.000000 -11864087935467750514766152466432.000000 0.000000
-11864087935467750514766152466432.000000 2483282488335964083913018572800.000000 0.000000
0.000000 0.000000 0.000000
-286742909105475797584083320569856.000000 -14191376593278582200522854367232.000000 0.000000
-14191376593278582200522854367232.000000 1383916345567885552307790675968.000000 0.000000
0.000000 0.000000 0.000000
-656479259079351917028954865664.000000 3522697256911780204541330325504.000000 0.000000
3522697256911780204541330325504.000000 2028204499901045336337954111488.000000 0.000000
0.000000 0.000000 0.000000
-3533736252092167852458885775360.000000 -5992124466268505974417425170432.000000 0.000000
-5992124466268505974417425170432.000000 3455505312060353653498783465472.000000 0.000000
0.000000 0.000000 0.000000
13600050290464659027667315589120.000000 11774257365513130449471157567488.000000 0.000000
11774257365513130449471157567488.000000 4675848945645694269619697614848.000000 0.000000
0.000000 0.000000 0.000000
1713700119745563819541450981376.000000 -13707767875986605808564568064.000000 0.000000
-13707767875986605808564568064.000000 1048101914385671125706211328.000000 0.000000
0.000000 0.000000 0.000000
19167041145897631705999672868864.000000 -11131667298785124890676576649216.000000 0.000000
-11131667298785124890676576649216.000000 3538388643210841547216951181312.000000 0.000000
0.000000 0.000000 0.000000
1835036863460135355551255101440.000000 -2729200505654429621847448354816.000000 0.000000
-2729200505654429621847448354816.000000 1293798154112640927331786948608.000000 0.000000
0.000000 0.000000 0.000000
6956225974970787567707889860608.000000 13021083627901272840667056308224.000000 0.000000
13021083627901272840667056308224.000000 6442947555598118901929190883328.000000 0.000000
0.000000 0.000000 0.000000
-7892885529367283224799168430080.000000 9851845484855803945117399646208.000000 0.000000
9851845484855803945117399646208.000000 5682506353808747427775933054976.000000 0.000000
0.000000 0.000000 0.000000
2026765190045717098675459588096.000000 -1065498369871342490069105639424.000000 0.000000
-1065498369871342490069105639424.000000 411811493276129840968606154752.000000 0.000000
0.000000 0.000000 0.000000
-16748461678964423673635533750272.000000 -17655926471737238165000198029312.000000 0.000000
-17655926471737238165000198029312.000000 10195556921666804585344798818304.000000 0.000000
0.000000 0.000000 0.000000
-308279068378517255581132648349696.000000 -38381504634273637029692789751808.000000 0.000000
-38381504634273637029692789751808.000000 8793308546529472487479310286848.000000 0.000000
0.000000 0.000000 0.000000
-89585016451270191854289808261120.000000 -48354874314163767568504190926848.000000 0.000000
-48354874314163767568504190926848.000000 25215241602340879569017607553024.000000 0.000000
0.000000 0.000000 0.000000
-1037677150694703964403684868096.000000 134197162220257412881724735488.000000 0.000000
134197162220257412881724735488.000000 31694577241393623316280901632.000000 0.000000
0.000000 0.000000 0.000000
76894665388910288901048834719744.000000 -25371094799758705191672241717248.000000 0.000000
-25371094799758705191672241717248.000000 5369851498120612939879241744384.000000 0.000000
0.000000 0.000000 0.000000
12038351176621640685789326082048.000000 11685953506924985401905491476480.000000 0.000000
11685953506924985401905491476480.000000 4871241287781144636901336023040.000000 0.000000
0.000000 0.000000 0.000000
10290410064391445501678339489792.000000 7228610642928861001892849778688.000000 0.000000
7228610642928861001892849778688.000000 2590218155806796755615963152384.000000 0.000000
0.000000 0.000000 0.000000
2503064199986891198518280585216.000000 3412080467831025817461077311488.000000 0.000000
3412080467831025817461077311488.000000 1585666825048674027397982453760.000000 0.000000
0.000000 0.000000 0.000000
5122953522002574096710330482688.000000 -11713325840688935974165293301760.000000 0.000000
-11713325840688935974165293301760.000000 5955266575668609670496731004928.000000 0.000000
0.000000 0.000000 0.000000
2643886715004470514363792359424.000000 1751221571268148084263444545536.000000 0.000000
1751221571268148084263444545536.000000 604567420074036984742512951296.000000 0.000000
0.000000 0.000000 0.000000
-243366062055626127817343762432.000000 103592363392898229872449552384.000000 0.000000
103592363392898229872449552384.000000 8252864579007303004832399360.000000 0.000000
0.000000 0.000000 0.000000
1543047255045752729611393826816.000000 853940902141326744491197988864.000000 0.000000
853940902141326744491197988864.000000 263938124011494372510032461824.000000 0.000000
0.000000 0.000000 0.000000
14817985664605118426969765052416.000000 3452220572563083487338282614784.000000 0.000000
3452220572563083487338282614784.000000 519575401270978150131765870592.000000 0.000000
0.000000 0.000000 0.000000
3340971044946357079769775865856.000000 -12134234640926014385367407394816.000000 0.000000
-12134234640926014385367407394816.000000 6422086103882439046764152487936.000000 0.000000
0.000000 0.000000 0.000000
330218344648760127018500096.000000 -416405754220542370848440320.000000 0.000000
-416405754220542370848440320.000000 189166685121796557500317696.000000 0.000000
0.000000 0.000000 0.000000
-1138490908423593760190428610560.000000 -41033659898168996104687845376.000000 0.000000
-41033659898168996104687845376.000000 2934148646734843545502351360.000000 0.000000
0.000000 0.000000 0.000000
-21161890934980096822659327721472.000000 14936422490553718051427938467840.000000 0.000000
14936422490553718051427938467840.000000 8230530084710376431888734617600.000000 0.000000
0.000000 0.000000 0.000000
65401730753458535534816133120.000000 -4455336167373108319883613962240.000000 0.000000
-4455336167373108319883613962240.000000 2561420415707799849542348701696.000000 0.000000
0.000000 0.000000 0.000000
-16459280982668605099126841933824.000000 2622263582283572801153439629312.000000 0.000000
2622263582283572801153439629312.000000 736263187393134368494263992320.000000 0.000000
0.000000 0.000000 0.000000
-47460345326345713317210792919040.000000 -14885510910955011861174609248256.000000 0.000000
-14885510910955011861174609248256.000000 6407811090555007925092763041792.000000 0.000000
0.000000 0.000000 0.000000
3858580607363037443686817333248.000000 -14865113489043728909539135717376.000000 0.000000
-14865113489043728909539135717376.000000 7894431922555318264310683140096.000000 0.000000
0.000000 0.000000 0.000000
-1443923056209622939275374886912.000000 9693223821017249260812411863040.000000 0.000000
9693223821017249260812411863040.000000 5483382168943889622885724061696.000000 0.000000
0.000000 0.000000 0.000000
6096654632946853056354233352192.000000 5841539641617389603783763296256.000000 0.000000
5841539641617389603783763296256.000000 2434407322556820937221368446976.000000 0.000000
0.000000 0.000000 0.000000
8853096977851716324423219806208.000000 -21965293212414164711050418585600.000000 0.000000
-21965293212414164711050418585600.000000 11274285738865873161483924275200.000000 0.000000
0.000000 0.000000 0.000000
5291235393118741822337502412800.000000 -17591695022220010093864992899072.000000 0.000000
-17591695022220010093864992899072.000000 9257120966889770862882165096448.000000 0.000000
0.000000 0.000000 0.000000
2984454300269613103061550497792.000000 1474772708160276651635474694144.000000 0.000000
1474772708160276651635474694144.000000 420258817062716072998270402560.000000 0.000000
0.000000 0.000000 0.000000
-5795523462441195375782690553856.000000 12417611577186167602016744898560.000000 0.000000
12417611577186167602016744898560.000000 7162487402261517731570972098560.000000 0.000000
0.000000 0.000000 0.000000
4214915052460163546945603764224.000000 -2406689684066803840879050096640.000000 0.000000
-2406689684066803840879050096640.000000 753963039669827253116600320000.000000 0.000000
0.000000 0.000000 0.000000
9854103492572567790313550118912.000000 -338314696049547162915973365760.000000 0.000000
-338314696049547162915973365760.000000 8885298994574909023878905856.000000 0.000000
0.000000 0.000000 0.000000
55047090017741950237306746044416.000000 -27721342434642200743677125459968.000000 0.000000
-27721342434642200743677125459968.000000 7990934414387066059215182233600.000000 0.000000
0.000000 0.000000 0.000000
2095577565635825553621135654912.000000 -600448063216496493406810275840.000000 0.000000
-600448063216496493406810275840.000000 108906885355115348831103877120.000000 0.000000
0.000000 0.000000 0.000000
240619561429193983150698528768.000000 1825333235850510902983598800896.000000 0.000000
1825333235850510902983598800896.000000 1010201837525507308901709643776.000000 0.000000
0.000000 0.000000 0.000000
6803358019092736350530425585664.000000 9621204003795868306796149997568.000000 0.000000
9621204003795868306796149997568.000000 4528293342815904504950932111360.000000 0.000000
0.000000 0.000000 0.000000
6596111724969526360471423156224.000000 -12531002564835837243929804144640.000000 0.000000
-12531002564835837243929804144640.000000 6216599788203680311360851279872.000000 0.000000
0.000000 0.000000 0.000000
3301344320284006518661465505792.000000 -88740114131577300912609165312.000000 0.000000
-88740114131577300912609165312.000000 5735760684002461935632121856.000000 0.000000
0.000000 0.000000 0.000000
2358368823093877695074426421248.000000 -288918799785926059156815478784.000000 0.000000
-288918799785926059156815478784.000000 23283344628710496976674750464.000000 0.000000
0.000000 0.000000 0.000000
24131661108703546600748023283712.000000 -16296726778441929670303871401984.000000 0.000000
-16296726778441929670303871401984.000000 5690167176965429491233636483072.000000 0.000000
0.000000 0.000000 0.000000
260784780402946263243913428992.000000 347905011052357303229069918208.000000 0.000000
347905011052357303229069918208.000000 163571917997540576819454935040.000000 0.000000
0.000000 0.000000 0.000000
15774961977372713066145251328.000000 32524198839388228938645897216.000000 0.000000
32524198839388228938645897216.000000 16329598567333709131188011008.000000 0.000000
0.000000 0.000000 0.000000
-508613353232796962833228103680.000000 13454639621711064462165568126976.000000 0.000000
13454639621711064462165568126976.000000 7519830463428528710561839448064.000000 0.000000
0.000000 0.000000 0.000000
3805560176079660856455173505024.000000 -3341100868241764246643462373376.000000 0.000000
-3341100868241764246643462373376.000000 1395028447591163419172037197824.000000 0.000000
0.000000 0.000000 0.000000
1135575520564953121008098738176.000000 3824672113057201571372220809216.000000 0.000000
3824672113057201571372220809216.000000 2013761385398309640951648223232.000000 0.000000
0.000000 0.000000 0.000000
2427809025050692142815837683712.000000 -855814775450885061978049478656.000000 0.000000
-855814775450885061978049478656.000000 185979160150107094968394842112.000000 0.000000
0.000000 0.000000 0.000000
2981239183745996561780888829952.000000 -7235996197535043328943283240960.000000 0.000000
-7235996197535043328943283240960.000000 3705434597950487627411375521792.000000 0.000000
0.000000 0.000000 0.000000
7890343347519825890504941240320.000000 6768182131973533025395433013248.000000 0.000000
6768182131973533025395433013248.000000 2676504977437846675280556457984.000000 0.000000
0.000000 0.000000 0.000000
153026816583228214629892096.000000 -128836238074758402056126464.000000 0.000000
-128836238074758402056126464.000000 81437092390883783365099520.000000 0.000000
0.000000 0.000000 0.000000
2282689636254129997117128704.000000 -2893608717321252554395353088.000000 0.000000
-2893608717321252554395353088.000000 1415222129709339123489177600.000000 0.000000
0.000000 0.000000 0.000000
26908069544799756678343304413184.000000 -17683723873015465279829097578496.000000 0.000000
-17683723873015465279829097578496.000000 6075647960046250077106661752832.000000 0.000000
0.000000 0.000000 0.000000
34799947516790536953674072064.000000 -46040651359902131493485412352.000000 0.000000
-46040651359902131493485412352.000000 21222553286202886062155497472.000000 0.000000
0.000000 0.000000 0.000000
-4619749135432496433138245828608.000000 10650998441295652829464394465280.000000 0.000000
10650998441295652829464394465280.000000 6130337497585444074145070448640.000000 0.000000
0.000000 0.000000 0.000000
8135833114739733335349464662016.000000 -7396766251010805420115129008128.000000 0.000000
-7396766251010805420115129008128.000000 3001569253285499643695097446400.000000 0.000000
0.000000 0.000000 0.000000
1107487750036832978592075874304.000000 2881339473838772175156138737664.000000 0.000000
2881339473838772175156138737664.000000 1495101495097217869211496349696.000000 0.000000
0.000000 0.000000 0.000000
621594483701548109420874956800.000000 -1823204836375117486761919381504.000000 0.000000
-1823204836375117486761919381504.000000 950464529557407457581708869632.000000 0.000000
0.000000 0.000000 0.000000
-3497425409116076735990379577344.000000 -12980502831695160157999298772992.000000 0.000000
-12980502831695160157999298772992.000000 7418675264312471723011253207040.000000 0.000000
0.000000 0.000000 0.000000
5759928014065266385286024134656.000000 1878832882191031025073836261376.000000 0.000000
1878832882191031025073836261376.000000 381953450352223235936903757824.000000 0.000000
0.000000 0.000000 0.000000
-15487708866426508198569297575936.000000 21402747485736318531128302501888.000000 0.000000
21402747485736318531128302501888.000000 12343622985983571943819543838720.000000 0.000000
0.000000 0.000000 0.000000
-50698258533187177074693635047424.000000 19295014076501232560016891838464.000000 0.000000
19295014076501232560016891838464.000000 9024446645232000616507763589120.000000 0.000000
0.000000 0.000000 0.000000
2991606227813718692353640759296.000000 4429647264997428044256814039040.000000 0.000000
4429647264997428044256814039040.000000 2095854557416236985871195176960.000000 0.000000
0.000000 0.000000 0.000000
9478132338645328416009449635840.000000 34890886050312364432167974993920.000000 0.000000
34890886050312364432167974993920.000000 18484398541059453705095965835264.000000 0.000000
0.000000 0.000000 0.000000
32085162442948247529981179068416.000000 -16497109782834931930914508242944.000000 0.000000
-16497109782834931930914508242944.000000 4822036155466506348773838422016.000000 0.000000
0.000000 0.000000 0.000000
6055589583434415710509314605056.000000 -262627657077329161687402545152.000000 0.000000
-262627657077329161687402545152.000000 10618633257739988203657494528.000000 0.000000
0.000000 0.000000 0.000000
983213318250195006282151231488.000000 451739813156820305894921207808.000000 0.000000
451739813156820305894921207808.000000 121719389969844926441758654464.000000 0.000000
0.000000 0.000000 0.000000
12641344061560858586706622808064.000000 14677836471779704804967542947840.000000 0.000000
14677836471779704804967542947840.000000 6517775992624315913299579371520.000000 0.000000
0.000000 0.000000 0.000000
1261165946396328401844568064.000000 -3988379519691902356348207104.000000 0.000000
-3988379519691902356348207104.000000 2109140092301936143926034432.000000 0.000000
0.000000 0.000000 0.000000
-1371207980742379021818791406338048.000000 47414550300460526000064138575872.000000 0.000000
47414550300460526000064138575872.000000 3264491847523933011463819493376.000000 0.000000
0.000000 0.000000 0.000000
4109123665247971240290820292608.000000 5274427605978109390327170203648.000000 0.000000
5274427605978109390327170203648.000000 2436871079622081336790092873728.000000 0.000000
0.000000 0.000000 0.000000
492867062299413214514762481664.000000 646202254612436711718327943168.000000 0.000000
646202254612436711718327943168.000000 281618781951916708420850286592.000000 0.000000
0.000000 0.000000 0.000000
2248735170479156081574543360.000000 -799158048273033234453889024.000000 0.000000
-799158048273033234453889024.000000 400259909628325793118552064.000000 0.000000
0.000000 0.000000 0.000000
92161382160857596115443253248.000000 8098282334937001358866251776.000000 0.000000
8098282334937001358866251776.000000 587387939025235549796433920.000000 0.000000
0.000000 0.000000 0.000000
4803045943233821517857645658112.000000 4975219726746875205120514064384.000000 0.000000
4975219726746875205120514064384.000000 2124585832793194224404723138560.000000 0.000000
0.000000 0.000000 0.000000
-23390255971892678472310607314944.000000 -16417613166896369688843349131264.000000 0.000000
-16417613166896369688843349131264.000000 9002983754213546036787740147712.000000 0.000000
0.000000 0.000000 0.000000
9371085535278866714217167192064.000000 1244230823355448451529015558144.000000 0.000000
1244230823355448451529015558144.000000 108982156158715200778352459776.000000 0.000000
0.000000 0.000000 0.000000
42195883006751990903927260315648.000000 115829887750227802964758181707776.000000 0.000000
115829887750227802964758181707776.000000 60037181916295390264239874637824.000000 0.000000
0.000000 0.000000 0.000000
-69608547782947405889615691776.000000 36293480359570002791993704448.000000 0.000000
36293480359570002791993704448.000000 20529040804517154261989064704.000000 0.000000
0.000000 0.000000 0.000000
-1413387388354420910944788938752.000000 8297754388858390828126333566976.000000 0.000000
8297754388858390828126333566976.000000 4705851673158888139993420660736.000000 0.000000
0.000000 0.000000 0.000000
2503014109787820024522847813632.000000 60652076297599998376909209600.000000 0.000000
60652076297599998376909209600.000000 2749139108420907394758868992.000000 0.000000
0.000000 0.000000 0.000000
-201192830472942408117900017664.000000 79468442715711176641471315968.000000 0.000000
79468442715711176641471315968.000000 37741903513252096475867906048.000000 0.000000
0.000000 0.000000 0.000000
23695727739368834079985623891968.000000 39251109377144715253171187875840.000000 0.000000
39251109377144715253171187875840.000000 23763579995541934051898012205056.000000 0.000000
0.000000 0.000000 0.000000
-3777207828093661784596449469661184.000000 235855067057658301848413729193984.000000 0.000000
235855067057658301848413729193984.000000 28783178857091061807511507042304.000000 0.000000
0.000000 0.000000 0.000000
8312105748939840015745691942912.000000 698681501811553334097944248320.000000 0.000000
698681501811553334097944248320.000000 39014650836027068481445822464.000000 0.000000
0.000000 0.000000 0.000000
1695068403185587131837841408.000000 -997285090238578880409501696.000000 0.000000
-997285090238578880409501696.000000 317547622804764464429137920.000000 0.000000
0.000000 0.000000 0.000000
27508950240660627624254504960.000000 -2467146740041544868266204200960.000000 0.000000
-2467146740041544868266204200960.000000 1377878630071515680439390961664.000000 0.000000
0.000000 0.000000 0.000000
-2123428198134778243723466637312.000000 -14967994765737089123070441947136.000000 0.000000
-14967994765737089123070441947136.000000 8465453513979430963488596426752.000000 0.000000
0.000000 0.000000 0.000000
2849400443961228866725104058368.000000 -1021876995055448714314034184192.000000 0.000000
-1021876995055448714314034184192.000000 225105132458875709956368105472.000000 0.000000
0.000000 0.000000 0.000000
3776963759407527183352086921216.000000 9410951807641487153883168899072.000000 0.000000
9410951807641487153883168899072.000000 4812658880220281600107060658176.000000 0.000000
0.000000 0.000000 0.000000
7545043156119889811592567586816.000000 -4698110962231028911111206338560.000000 0.000000
-4698110962231028911111206338560.000000 1562039040347816426683571896320.000000 0.000000
0.000000 0.000000 0.000000
-15292471632277629958283759452160.000000 -5183324024974424719417722011648.000000 0.000000
-5183324024974424719417722011648.000000 2309955616174426027720586559488.000000 0.000000
0.000000 0.000000 0.000000
3211086750716822069726515560448.000000 3538895717618457258956683214848.000000 0.000000
3538895717618457258956683214848.000000 1559430891882290639741883777024.000000 0.000000
0.000000 0.000000 0.000000
10044367728784692200663811096576.000000 1961332372312752587991802707968.000000 0.000000
1961332372312752587991802707968.000000 249109361231541236187107688448.000000 0.000000
0.000000 0.000000 0.000000
2877689439670754950477240074240.000000 2837749429144089034211152887808.000000 0.000000
2837749429144089034211152887808.000000 1192167910018835601781352824832.000000 0.000000
0.000000 0.000000 0.000000
1545908763856334779431669202944.000000 -1254319980632866015552313753600.000000 0.000000
-1254319980632866015552313753600.000000 485719450718042181133546815488.000000 0.000000
0.000000 0.000000 0.000000
-4583037218615628739453623730176.000000 6940603795508464336034884222976.000000 0.000000
6940603795508464336034884222976.000000 4002239688211805682721414447104.000000 0.000000
0.000000 0.000000 0.000000
-4639335829891273708373186445312.000000 693648870277382914586926120960.000000 0.000000
693648870277382914586926120960.000000 184334042970390140820777861120.000000 0.000000
0.000000 0.000000 0.000000
-18536261428959739149386913025097728.000000 -282236519675789748149086333173760.000000 0.000000
-282236519675789748149086333173760.000000 8582480129145902052747002249216.000000 0.000000
0.000000 0.000000 0.000000
-48857046916436528138877327638528.000000 23959672865378559111739316633600.000000 0.000000
23959672865378559111739316633600.000000 12190871837320025023578623705088.000000 0.000000
0.000000 0.000000 0.000000
10027146765051967043371370807296.000000 1231770441151757548727864131584.000000 0.000000
1231770441151757548727864131584.000000 105775977974824866769815994368.000000 0.000000
0.000000 0.000000 0.000000
13855679281492937652464397582336.000000 -26701641264798170248778673553408.000000 0.000000
-26701641264798170248778673553408.000000 13282889280624241396109623164928.000000 0.000000
0.000000 0.000000 0.000000
-37081534795644055820856983552.000000 9807538889630924026410958848.000000 0.000000
9807538889630924026410958848.000000 3854096280659837129754411008.000000 0.000000
0.000000 0.000000 0.000000
5402171750659101803660380733440.000000 -5471794717509292974718192713728.000000 0.000000
-5471794717509292974718192713728.000000 2318546584546454493177499877376.000000 0.000000
0.000000 0.000000 0.000000
-25006300610689260594390406004736.000000 14358075380373610652181821652992.000000 0.000000
14358075380373610652181821652992.000000 7591835575764223059375310241792.000000 0.000000
0.000000 0.000000 0.000000
11053787752373116692047012560896.000000 11716335647538128015027540590592.000000 0.000000
11716335647538128015027540590592.000000 5047860469444714706601808756736.000000 0.000000
0.000000 0.000000 0.000000
1492487747641177958997167177728.000000 4033853249222384626153734275072.000000 0.000000
4033853249222384626153734275072.000000 2102048855501304470058756472832.000000 0.000000
0.000000 0.000000 0.000000
403010941094638253905824186368.000000 -168505730582319848592961961984.000000 0.000000
-168505730582319848592961961984.000000 53246715222800655138810757120.000000 0.000000
0.000000 0.000000 0.000000
-30593804405172251300442543226880.000000 -27175003536068919431264827604992.000000 0.000000
-27175003536068919431264827604992.000000 15325991458010256686541367672832.000000 0.000000
0.000000 0.000000 0.000000
5365067893256425311455179440128.000000 -6559120718487503672423737196544.000000 0.000000
-6559120718487503672423737196544.000000 2958506030131271156542581243904.000000 0.000000
0.000000 0.000000 0.000000
-408680029769488858978193506304.000000 321966232939642196888203034624.000000 0.000000
321966232939642196888203034624.000000 57805557110909184506142392320.000000 0.000000
0.000000 0.000000 0.000000
3227196749639544130665545990144.000000 2258387454842841895786803888128.000000 0.000000
2258387454842841895786803888128.000000 804765450361567107708889333760.000000 0.000000
0.000000 0.000000 0.000000
7359457057475871205272449974272.000000 -8872305316273707140211617562624.000000 0.000000
-8872305316273707140211617562624.000000 3985137898474618198224743170048.000000 0.000000
0.000000 0.000000 0.000000
2541840789520048703940383997952.000000 858962829370906865635304669184.000000 0.000000
858962829370906865635304669184.000000 179862663613752670282261200896.000000 0.000000
0.000000 0.000000 0.000000
13050136235724316035097387073536.000000 12367057083621167433455985754112.000000 0.000000
12367057083621167433455985754112.000000 5108179333427084493656862752768.000000 0.000000
0.000000 0.000000 0.000000
9760356139821035653757914841088.000000 -2677048335440035514044127379456.000000 0.000000
-2677048335440035514044127379456.000000 466745114609319946999411245056.000000 0.000000
0.000000 0.000000 0.000000
-173369983758803745846067200.000000 -219170146658323773719052288.000000 0.000000
-219170146658323773719052288.000000 126051317878870452440399872.000000 0.000000
0.000000 0.000000 0.000000
-249947938017708531851550768758784.000000 -28017142382178042630650099400704.000000 0.000000
-28017142382178042630650099400704.000000 5857166594079303876299827707904.000000 0.000000
0.000000 0.000000 0.000000
1982229601417126087283965952.000000 1181700808366526647247044608.000000 0.000000
1181700808366526647247044608.000000 375654196284773779017564160.000000 0.000000
0.000000 0.000000 0.000000
-796581224812226899989032337408.000000 -7555096004527810593523587088384.000000 0.000000
-7555096004527810593523587088384.000000 4289433665082349584348432302080.000000 0.000000
0.000000 0.000000 0.000000
4209021025372118027889178312704.000000 3798095730619060272567741841408.000000 0.000000
3798095730619060272567741841408.000000 1536758627310461040379597684736.000000 0.000000
0.000000 0.000000 0.000000
4209021025369379276365783629824.000000 3798095730618451160718139981824.000000 0.000000
3798095730618451160718139981824.000000 1536758627310539290423123247104.000000 0.000000
0.000000 0.000000 0.000000
10731199365393709876921266864128.000000 -38496821647711708022919705657344.000000 0.000000
-38496821647711708022919705657344.000000 20359827836881520542015345917952.000000 0.000000
0.000000 0.000000 0.000000
769331608177202180003962290176.000000 653961496141371349367726800896.000000 0.000000
653961496141371349367726800896.000000 263173905964544293257632284672.000000 0.000000
0.000000 0.000000 0.000000
769331608177059612928258342912.000000 653961496141359245943728242688.000000 0.000000
653961496141359245943728242688.000000 263173905964559422537630482432.000000 0.000000
0.000000 0.000000 0.000000
1494914721049414831968354304.000000 -705580344622798580245069824.000000 0.000000
-705580344622798580245069824.000000 193679991099839139700277248.000000 0.000000
0.000000 0.000000 0.000000
2320533279595912303373304463360.000000 -3875039380532061940791856070656.000000 0.000000
-3875039380532061940791856070656.000000 1878792495502749563620668997632.000000 0.000000
0.000000 0.000000 0.000000
1758882268307660241834606592.000000 2463691953581252552622604288.000000 0.000000
2463691953581252552622604288.000000 1151356361607597652413775872.000000 0.000000
0.000000 0.000000 0.000000
86464369055373994513898930176.000000 34182436452048691623410794496.000000 0.000000
34182436452048691623410794496.000000 8164450792455338819443490816.000000 0.000000
0.000000 0.000000 0.000000
270353866086989597448863744.000000 -129863631375290251396251648.000000 0.000000
-129863631375290251396251648.000000 36397466901778675343032320.000000 0.000000
0.000000 0.000000 0.000000
12210209948755190282011298234368.000000 5144948718404757347695830499328.000000 0.000000
5144948718404757347695830499328.000000 1293606332738232255715915857920.000000 0.000000
0.000000 0.000000 0.000000
-5694021104940489610073389137920.000000 7711392978882217356604657893376.000000 0.000000
7711392978882217356604657893376.000000 4182462237027240418180669112320.000000 0.000000
0.000000 0.000000 0.000000
1106861575504009636698061275136.000000 -13451284238624796508567451467776.000000 0.000000
-13451284238624796508567451467776.000000 7378141750474775713638984450048.000000 0.000000
0.000000 0.000000 0.000000
-232821989006932162751542329344.000000 8029025705104606367111689797632.000000 0.000000
8029025705104606367111689797632.000000 4491472965973069253503436718080.000000 0.000000
0.000000 0.000000 0.000000
-56777690362090892397121718190080.000000 23793794875394863466773691236352.000000 0.000000
23793794875394863466773691236352.000000 11529011679330055889785238585344.000000 0.000000
0.000000 0.000000 0.000000
-472481596236539515219898527645696.000000 41668210449851295562329418104832.000000 0.000000
41668210449851295562329418104832.000000 7030348728786009225062208503808.000000 0.000000
0.000000 0.000000 0.000000
-12738711601441832128486144212992.000000 44930996316816407317447343865856.000000 0.000000
44930996316816407317447343865856.000000 25705746144554339265136967024640.000000 0.000000
0.000000 0.000000 0.000000
5145206769441555092674485157888.000000 -1711942889449123269874783617024.000000 0.000000
-1711942889449123269874783617024.000000 377474727238843473171396427776.000000 0.000000
0.000000 0.000000 0.000000
35630161338282006843900389490688.000000 2736105598632189274184401027072.000000 0.000000
2736105598632189274184401027072.000000 139673401274289289201107075072.000000 0.000000
0.000000 0.000000 0.000000
7865726428235638606433259356160.000000 -4218491201162089784650311401472.000000 0.000000
-4218491201162089784650311401472.000000 1293917632844278066924629262336.000000 0.000000
0.000000 0.000000 0.000000
8409744937589955528584960409600.000000 6762055960008307745102399275008.000000 0.000000
6762055960008307745102399275008.000000 2593305644316766813095611858944.000000 0.000000
0.000000 0.000000 0.000000
-9694976305863863217033289138176.000000 -5547382865879262353652638023680.000000 0.000000
-5547382865879262353652638023680.000000 2931518936356895003071706300416.000000 0.000000
0.000000 0.000000 0.000000
-429759996657606029369338232832.000000 787780350920969037617916018688.000000 0.000000
787780350920969037617916018688.000000 454947522130386364258704162816.000000 0.000000
0.000000 0.000000 0.000000
393248017655378826280864579584.000000 318314951196928987571249217536.000000 0.000000
318314951196928987571249217536.000000 124762360103195368531691569152.000000 0.000000
0.000000 0.000000 0.000000
10635779389704782371747312697344.000000 -22330171417984984329838439432192.000000 0.000000
-22330171417984984329838439432192.000000 11237860193024413624450659909632.000000 0.000000
0.000000 0.000000 0.000000
19302633542770209108306717310976.000000 -23514372765481844368325499420672.000000 0.000000
-23514372765481844368325499420672.000000 10601412012448185764423816708096.000000 0.000000
0.000000 0.000000 0.000000
11131300153524844757322712481792.000000 -8656503335978552514971101560832.000000 0.000000
-8656503335978552514971101560832.000000 3293312101934429685201154080768.000000 0.000000
0.000000 0.000000 0.000000
-43500339821462978460048460611584.000000 33446782001107095105500618948608.000000 0.000000
33446782001107095105500618948608.000000 18568860040073739452314657226752.000000 0.000000
0.000000 0.000000 0.000000
25004488932108932920257823113216.000000 12148033980368091883387534442496.000000 0.000000
12148033980368091883387534442496.000000 3402686239873055287253586149376.000000 0.000000
0.000000 0.000000 0.000000
-49941485280524171365419084414976.000000 -26494187071762381023076784537600.000000 0.000000
-26494187071762381023076784537600.000000 13759050493989619867281178755072.000000 0.000000
0.000000 0.000000 0.000000
4086277760728998678100405387264.000000 -1821022333335216756464948346880.000000 0.000000
-1821022333335216756464948346880.000000 480856515585931327727659384832.000000 0.000000
0.000000 0.000000 0.000000
7901391963986166292353277493248.000000 -11345088165607846763217110958080.000000 0.000000
-11345088165607846763217110958080.000000 5340156608621360359424393216000.000000 0.000000
0.000000 0.000000 0.000000
7874841495692353416882940805120.000000 -17888467170981323703756666175488.000000 0.000000
-17888467170981323703756666175488.000000 9092105070981272992098558148608.000000 0.000000
0.000000 0.000000 0.000000
-811981691134155847846334428086272.000000 77240412045773265484510956355584.000000 0.000000
77240412045773265484510956355584.000000 13957806413233010046817829650432.000000 0.000000
0.000000 0.000000 0.000000
-26184346719720757107489515765760.000000 -19470224644895007797754430750720.000000 0.000000
-19470224644895007797754430750720.000000 10767735950955424380305000103936.000000 0.000000
0.000000 0.000000 0.000000
6324049698483022064429140279296.000000 -3443112912258023770262612213760.000000 0.000000
-3443112912258023770262612213760.000000 1050970041706693793658672513024.000000 0.000000
0.000000 0.000000 0.000000
8820581531181632219007116378112.000000 2536727918867227370025182560256.000000 0.000000
2536727918867227370025182560256.000000 461237823281215864930566144000.000000 0.000000
0.000000 0.000000 0.000000
5290715567343007614976640679936.000000 6688499323923612308395178065920.000000 0.000000
6688499323923612308395178065920.000000 3041033243035133230556114845696.000000 0.000000
0.000000 0.000000 0.000000
9139242819282101356426277421056.000000 -40941507780410369724300956532736.000000 0.000000
-40941507780410369724300956532736.000000 21910416618517510358826018144256.000000 0.000000
0.000000 0.000000 0.000000
3154051385918347832120733335552.000000 8287112627600841702259694764032.000000 0.000000
8287112627600841702259694764032.000000 4282033033919473816042202988544.000000 0.000000
0.000000 0.000000 0.000000
-9185594330334642633670574211072.000000 -12453023110438377248482293448704.000000 0.000000
-12453023110438377248482293448704.000000 7162444235871805240570474921984.000000 0.000000
0.000000 0.000000 0.000000
18076259017537586618087220707328.000000 -28143018639103473349063142801408.000000 0.000000
-28143018639103473349063142801408.000000 13478433530600088350969177309184.000000 0.000000
0.000000 0.000000 0.000000
9131463512579677965200499146752.000000 11381893483481574190805451538432.000000 0.000000
11381893483481574190805451538432.000000 5163231125863589135895551279104.000000 0.000000
0.000000 0.000000 0.000000
8423767701864470409478808797184.000000 3318940332227552276048064282624.000000 0.000000
3318940332227552276048064282624.000000 791089104801252136368612573184.000000 0.000000
0.000000 0.000000 0.000000
1302947029555437957795293429760.000000 1524670372416816514961315463168.000000 0.000000
1524670372416816514961315463168.000000 679645814312364885716043300864.000000 0.000000
0.000000 0.000000 0.000000
-49246369255970393357211490320384.000000 -29006175995820700403285585035264.000000 0.000000
-29006175995820700403285585035264.000000 15422222674477370708158578688000.000000 0.000000
0.000000 0.000000 0.000000
-4665103053532061378267882455040.000000 -2313443727328081952531030212608.000000 0.000000
-2313443727328081952531030212608.000000 1180459244357291062796857901056.000000 0.000000
0.000000 0.000000 0.000000
142269839967059050145918826315776.000000 66246060040131614392294507020288.000000 0.000000
66246060040131614392294507020288.000000 18053224828656880225739989843968.000000 0.000000
0.000000 0.000000 0.000000
-14159871722454666532972054708224.000000 -24701514287223745942575852290048.000000 0.000000
-24701514287223745942575852290048.000000 14259704995979784920450092498944.000000 0.000000
0.000000 0.000000 0.000000
3006054848695360667881379463168.000000 4070698532426741213358716878848.000000 0.000000
4070698532426741213358716878848.000000 1888014645713594294741036433408.000000 0.000000
0.000000 0.000000 0.000000
-5038365308490991738208923942912.000000 2180855729720696327267623632896.000000 0.000000
2180855729720696327267623632896.000000 1074780142594619469078431006720.000000 0.000000
0.000000 0.000000 0.000000
21609878661017208680781709312.000000 -743303399057695349376286720.000000 0.000000
-743303399057695349376286720.000000 17470828099054999019978752.000000 0.000000
0.000000 0.000000 0.000000
382218119583702993263474507776.000000 228210957943401966455111024640.000000 0.000000
228210957943401966455111024640.000000 77970729701221220510536302592.000000 0.000000
0.000000 0.000000 0.000000
1585249391170381026141667328.000000 -1264718671093635075608150016.000000 0.000000
-1264718671093635075608150016.000000 508738030855181362679250944.000000 0.000000
0.000000 0.000000 0.000000
7863071224169345890562080768.000000 -7537690068328423936069992448.000000 0.000000
-7537690068328423936069992448.000000 3126669468186955799989321728.000000 0.000000
0.000000 0.000000 0.000000
-564936589807527189876763000832.000000 326814565942375144658695094272.000000 0.000000
326814565942375144658695094272.000000 44294158182705614648667799552.000000 0.000000
0.000000 0.000000 0.000000
-8500770954464724232897136951296.000000 -15782647906580294839929378177024.000000 0.000000
-15782647906580294839929378177024.000000 9108746331307820099687606648832.000000 0.000000
0.000000 0.000000 0.000000
60594282152895460218669061111808.000000 27598651100088807704198381568000.000000 0.000000
27598651100088807704198381568000.000000 7373577846267452595257208733696.000000 0.000000
0.000000 0.000000 0.000000
21618129486326411259777728380928.000000 10024342730125548926477612875776.000000 0.000000
10024342730125548926477612875776.000000 2714537965332267295642281312256.000000 0.000000
0.000000 0.000000 0.000000
-9548705039505612740721700241408.000000 10831508601243603875465781051392.000000 0.000000
10831508601243603875465781051392.000000 6203129306091034005797817286656.000000 0.000000
0.000000 0.000000 0.000000
-154668104179374158635121770496.000000 64053963100927009325066485760.000000 0.000000
64053963100927009325066485760.000000 30907052035645717006700773376.000000 0.000000
0.000000 0.000000 0.000000
-50112698298233516818674011340800.000000 -95726905990994002863709273194496.000000 0.000000
-95726905990994002863709273194496.000000 55238750381202996844319245074432.000000 0.000000
0.000000 0.000000 0.000000
25949125824613550144197941526528.000000 -31817725955414608225208102813696.000000 0.000000
-31817725955414608225208102813696.000000 14354706029156259094131726352384.000000 0.000000
0.000000 0.000000 0.000000
-547352326095825082846806016.000000 62016156606660080792764416.000000 0.000000
62016156606660080792764416.000000 13077910158175230989697024.000000 0.000000
0.000000 0.000000 0.000000
64980582586526032805004503416832.000000 6838810333193668069243052097536.000000 0.000000
6838810333193668069243052097536.000000 476695487760100975699401113600.000000 0.000000
0.000000 0.000000 0.000000
-114451091361283200767840676216832.000000 50413611607802984075932158918656.000000 0.000000
50413611607802984075932158918656.000000 24833878613187446706094720679936.000000 0.000000
0.000000 0.000000 0.000000
3628639873298087493423954132992.000000 -7952217520124979372092788047872.000000 0.000000
-7952217520124979372092788047872.000000 4024358422794509066118126108672.000000 0.000000
0.000000 0.000000 0.000000
3411578883051485224007762968576.000000 3691261254732013879755335008256.000000 0.000000
3691261254732013879755335008256.000000 1604307560854034380916439121920.000000 0.000000
0.000000 0.000000 0.000000
41683329607483724701828502257664.000000 14354869797511433846066656575488.000000 0.000000
14354869797511433846066656575488.000000 3055266843879543858936613437440.000000 0.000000
0.000000 0.000000 0.000000
121834977166612010620380250112.000000 59258838244897352705388838912.000000 0.000000
59258838244897352705388838912.000000 44504861260127482598226132992.000000 0.000000
0.000000 0.000000 0.000000
-1657612308931025486988145852416.000000 -1027704882800796109135438413824.000000 0.000000
-1027704882800796109135438413824.000000 551961594616727999249901420544.000000 0.000000
0.000000 0.000000 0.000000
8745862172237808240033313849344.000000 16822785312504594332521376776192.000000 0.000000
16822785312504594332521376776192.000000 8362654905013563825014861463552.000000 0.000000
0.000000 0.000000 0.000000
3351213178364175154407326875648.000000 4263860847858151947770473218048.000000 0.000000
4263860847858151947770473218048.000000 1944761870403671836615279378432.000000 0.000000
0.000000 0.000000 0.000000
-25631982293080987865963860852736.000000 -22915873101228061949514483761152.000000 0.000000
-22915873101228061949514483761152.000000 12925821499325786049765881937920.000000 0.000000
0.000000 0.000000 0.000000
54730721295921111726108442624.000000 1839832373787562183135068160.000000 0.000000
1839832373787562183135068160.000000 484897488285010814824349696.000000 0.000000
0.000000 0.000000 0.000000
7676059290308239527181903986688.000000 4554953505029544766498406400000.000000 0.000000
4554953505029544766498406400000.000000 1468428774291363088418077671424.000000 0.000000
0.000000 0.000000 0.000000
-2410942563480351831862695428096.000000 -3773356636410581721458705170432.000000 0.000000
-3773356636410581721458705170432.000000 2198075954227060612523414781952.000000 0.000000
0.000000 0.000000 0.000000
9329136197873479688704908853248.000000 195239777087847550993664311296.000000 0.000000
195239777087847550993664311296.000000 2883976382937594725081808896.000000 0.000000
0.000000 0.000000 0.000000
64517776146572487802579058688.000000 -212253390920714723948853460992.000000 0.000000
-212253390920714723948853460992.000000 44932154522390019927430922240.000000 0.000000
0.000000 0.000000 0.000000
64241206898677198106918912.000000 28257154902940583339229184.000000 0.000000
28257154902940583339229184.000000 7388860581952356989534208.000000 0.000000
0.000000 0.000000 0.000000
4242778999477075075417346408448.000000 10889593208999655985193387294720.000000 0.000000
10889593208999655985193387294720.000000 5608867471550309486097422352384.000000 0.000000
0.000000 0.000000 0.000000
2007559403151153075286154674176.000000 -6993469928792184761752496373760.000000 0.000000
-6993469928792184761752496373760.000000 3691466815625068050701128564736.000000 0.000000
0.000000 0.000000 0.000000
3790995134577358663122805587968.000000 -6538154666254449878972915253248.000000 0.000000
-6538154666254449878972915253248.000000 3192567663183161989276180152320.000000 0.000000
0.000000 0.000000 0.000000
172615676524599842948759158784.000000 141301024880521862241734098944.000000 0.000000
141301024880521862241734098944.000000 55168922890255746132999143424.000000 0.000000
0.000000 0.000000 0.000000
8024959672077495327069411737600.000000 17962428991815796673544120696832.000000 0.000000
17962428991815796673544120696832.000000 9139130545488191042687892193280.000000 0.000000
0.000000 0.000000 0.000000
8075171791821652528887094050816.000000 2394906937338253119687655161856.000000 0.000000
2394906937338253119687655161856.000000 469014641175722715771704442880.000000 0.000000
0.000000 0.000000 0.000000
27652340909112985773067577851904.000000 40432117620498318206710071689216.000000 0.000000
40432117620498318206710071689216.000000 19096320194215502985787747598336.000000 0.000000
0.000000 0.000000 0.000000
2038735571731015324483167715328.000000 -261205227754532818963056820224.000000 0.000000
-261205227754532818963056820224.000000 22101226377573581971007733760.000000 0.000000
0.000000 0.000000 0.000000
532379723233429053941777170432.000000 -7736393282776553091897315295232.000000 0.000000
-7736393282776553091897315295232.000000 4270474646579860713622980263936.000000 0.000000
0.000000 0.000000 0.000000
-3442062467658577746984767062016.000000 4014713865607244080164374577152.000000 0.000000
4014713865607244080164374577152.000000 2298267352339380626142493933568.000000 0.000000
0.000000 0.000000 0.000000
-394464960803639994958934441984.000000 -4020801722841424116618822156288.000000 0.000000
-4020801722841424116618822156288.000000 2263724095992030505913926287360.000000 0.000000
0.000000 0.000000 0.000000
-150593525160353949062088622080.000000 515429249557987080970661003264.000000 0.000000
515429249557987080970661003264.000000 324446538204725893095430815744.000000 0.000000
0.000000 0.000000 0.000000
14870552602426003557533614080.000000 -11136096678631776236081250304.000000 0.000000
-11136096678631776236081250304.000000 4118918656598365338513440768.000000 0.000000
0.000000 0.000000 0.000000
-712755631022111747830906179551232.000000 -192982708977139098940422618087424.000000 0.000000
-192982708977139098940422618087424.000000 76904260758078791564173691060224.000000 0.000000
0.000000 0.000000 0.000000
114358036426310814445952150011904.000000 -15550874951588115609737762963456.000000 0.000000
-15550874951588115609737762963456.000000 1410285054001461669046859595776.000000 0.000000
0.000000 0.000000 0.000000
16972954343509191250427122810880.000000 7675378297358863192861066657792.000000 0.000000
7675378297358863192861066657792.000000 2040008328192490900019189121024.000000 0.000000
0.000000 0.000000 0.000000
-802500852379405797379207593984.000000 25252983990738377685107474432.000000 0.000000
25252983990738377685107474432.000000 1636036461024428190720851968.000000 0.000000
0.000000 0.000000 0.000000
-517883928454516103555761903239168.000000 -35326958131227150690933203271680.000000 0.000000
-35326958131227150690933203271680.000000 4690342905093081397897115729920.000000 0.000000
0.000000 0.000000 0.000000
89471843110084620345590629269504.000000 -10645569023200365009377683308544.000000 0.000000
-10645569023200365009377683308544.000000 837271108649291269850435420160.000000 0.000000
0.000000 0.000000 0.000000
2088163182243972668367537438720.000000 -3653011372844304680015781429248.000000 0.000000
-3653011372844304680015781429248.000000 1787642661093368973833472573440.000000 0.000000
0.000000 0.000000 0.000000
-26473105474885679336308346978304.000000 -4832802764154008725017862340608.000000 0.000000
-4832802764154008725017862340608.000000 1480534225207847153951907512320.000000 0.000000
0.000000 0.000000 0.000000
2571300539706009916263431667712.000000 1776382473102949327905295958016.000000 0.000000
1776382473102949327905295958016.000000 628786537998403833647180283904.000000 0.000000
0.000000 0.000000 0.000000
2227157431367988400202186752.000000 -4550649090510713505632485376.000000 0.000000
-4550649090510713505632485376.000000 2282095480224152192962002944.000000 0.000000
0.000000 0.000000 0.000000
-263673280963728086151244808192.000000 76898750831008982450707628032.000000 0.000000
76898750831008982450707628032.000000 8225990297444285840088891392.000000 0.000000
0.000000 0.000000 0.000000
1536913760962401177213627006976.000000 -1399854436777848389953124302848.000000 0.000000
-1399854436777848389953124302848.000000 568381177902111139073087242240.000000 0.000000
0.000000 0.000000 0.000000
6199029729587339669752640438272.000000 3071484396850224834195069337600.000000 0.000000
3071484396850224834195069337600.000000 876301387654367266684939534336.000000 0.000000
0.000000 0.000000 0.000000
-43258888922509143224752669720576.000000 -10176691865713718994421699051520.000000 0.000000
-10176691865713718994421699051520.000000 3736116315064145571038177001472.000000 0.000000
0.000000 0.000000 0.000000
-15216743868959315102772437712896.000000 -4879164558314329274409478520832.000000 0.000000
-4879164558314329274409478520832.000000 2119876939313984181969759502336.000000 0.000000
0.000000 0.000000 0.000000
457439975357515110904441602048.000000 3887202955743801547447181770752.000000 0.000000
3887202955743801547447181770752.000000 2126479461608893891484164554752.000000 0.000000
0.000000 0.000000 0.000000
23134905175829111356323216228352.000000 -7158914717270362060302074249216.000000 0.000000
-7158914717270362060302074249216.000000 1395090912200105090553890209792.000000 0.000000
0.000000 0.000000 0.000000
1404514310576760555309105152.000000 -910698951300627274682859520.000000 0.000000
-910698951300627274682859520.000000 2366059634291215288856739840.000000 0.000000
0.000000 0.000000 0.000000
-3193136561222085585468986847395840.000000 142685603808198938553997586333696.000000 0.000000
142685603808198938553997586333696.000000 12597777029245774131386069811200.000000 0.000000
0.000000 0.000000 0.000000
-10188551660887369411780642078720.000000 18486252180145501145417985818624.000000 0.000000
18486252180145501145417985818624.000000 10676674463552333633765723078656.000000 0.000000
0.000000 0.000000 0.000000
6003113876288897425469115203584.000000 -2318062799569981438464666632192.000000 0.000000
-2318062799569981438464666632192.000000 543192355247807142539242242048.000000 0.000000
0.000000 0.000000 0.000000
-888738468366653449779749584896.000000 -4800954568184705090769779687424.000000 0.000000
-4800954568184705090769779687424.000000 2726387424879370853876219510784.000000 0.000000
0.000000 0.000000 0.000000
-5892175657137643364722268962816.000000 1103659839731261837026273525760.000000 0.000000
1103659839731261837026273525760.000000 348039487758572425153595047936.000000 0.000000
0.000000 0.000000 0.000000
20483895944665892171981304889344.000000 -20322022102958067430334752882688.000000 0.000000
-20322022102958067430334752882688.000000 8543457275003321140547537600512.000000 0.000000
0.000000 0.000000 0.000000
-28331192252191997583309759519391744.000000 276760361910068088825646250196992.000000 0.000000
276760361910068088825646250196992.000000 5402401186330957917850580287488.000000 0.000000
0.000000 0.000000 0.000000
-22942736241743869097835904368640.000000 -7007877150411324486218760060928.000000 0.000000
-7007877150411324486218760060928.000000 2983505458844976785505264861184.000000 0.000000
0.000000 0.000000 0.000000
8214964863637979220523614208.000000 7347793591964547186954338304.000000 0.000000
7347793591964547186954338304.000000 3820917668671215093902475264.000000 0.000000
0.000000 0.000000 0.000000
10580161567650582516873199353856.000000 -1211710259825704932841982263296.000000 0.000000
-1211710259825704932841982263296.000000 96997650799189622420773273600.000000 0.000000
0.000000 0.000000 0.000000
3817183377223494664917312602112.000000 4420736211014904802763708825600.000000 0.000000
4420736211014904802763708825600.000000 1963435081329141771797629239296.000000 0.000000
0.000000 0.000000 0.000000
1425170354767873248950921199616.000000 1876966569412453371598694514688.000000 0.000000
1876966569412453371598694514688.000000 868808152704018093497680658432.000000 0.000000
0.000000 0.000000 0.000000
-73640509207669092645928586706944.000000 12243348469700136688465305665536.000000 0.000000
12243348469700136688465305665536.000000 3535834542722793312167019937792.000000 0.000000
0.000000 0.000000 0.000000
5001742041641662192871138131968.000000 -3677681288669601229414414155776.000000 0.000000
-3677681288669601229414414155776.000000 1358969608964847902684713320448.000000 0.000000
0.000000 0.000000 0.000000
12652064335398242228189658087424.000000 -8807580301387412786425259622400.000000 0.000000
-8807580301387412786425259622400.000000 3129480962680611376015719006208.000000 0.000000
0.000000 0.000000 0.000000
697277509108903119982738538496.000000 -774522889568348070827377295360.000000 0.000000
-774522889568348070827377295360.000000 357687792067849082666922016768.000000 0.000000
0.000000 0.000000 0.000000
354033986579777430270983012352.000000 -151289050923067863431339048960.000000 0.000000
-151289050923067863431339048960.000000 38563554079578603391478136832.000000 0.000000
0.000000 0.000000 0.000000
-2264810730159990085666662776832.000000 -863616288645922047853890371584.000000 0.000000
-863616288645922047853890371584.000000 407315245744185613271665999872.000000 0.000000
0.000000 0.000000 0.000000
-698540001473135342157645742080.000000 -3359813877766293180124426665984.000000 0.000000
-3359813877766293180124426665984.000000 1911660832887655723620261429248.000000 0.000000
0.000000 0.000000 0.000000
13821604844774141823362592145408.000000 19627115304805890962635842650112.000000 0.000000
19627115304805890962635842650112.000000 9229681339224907701749846900736.000000 0.000000
0.000000 0.000000 0.000000
-1220652674555862815465988423680.000000 -8937933922166931119853176619008.000000 0.000000
-8937933922166931119853176619008.000000 5060523915399650143913520398336.000000 0.000000
0.000000 0.000000 0.000000
-734023193811708339752434761990144.000000 67085697485311966875743737085952.000000 0.000000
67085697485311966875743737085952.000000 11690783296406984223717404442624.000000 0.000000
0.000000 0.000000 0.000000
37320118190393342107353605996544.000000 -33646704524937813397872501063680.000000 0.000000
-33646704524937813397872501063680.000000 13603499208247379129579694194688.000000 0.000000
0.000000 0.000000 0.000000
7017746991610342745296601088.000000 -14397750293219102808078286848.000000 0.000000
-14397750293219102808078286848.000000 7222037492881147953462378496.000000 0.000000
0.000000 0.000000 0.000000
-4909621445916346737437442048.000000 5308796434087986321044799488.000000 0.000000
5308796434087986321044799488.000000 3635211668157015739317878784.000000 0.000000
0.000000 0.000000 0.000000
2260649737262477132381464559616.000000 4865744298049349635038244765696.000000 0.000000
4865744298049349635038244765696.000000 2456693752668845768957134635008.000000 0.000000
0.000000 0.000000 0.000000
-1277709411023656218498433024000.000000 -20053223694921324249659759132672.000000 0.000000
-20053223694921324249659759132672.000000 11243664067662037037501487513600.000000 0.000000
0.000000 0.000000 0.000000
17282559759819120118415782576128.000000 -8243765107236017000035915923456.000000 0.000000
-8243765107236017000035915923456.000000 2282190813584808151477074788352.000000 0.000000
0.000000 0.000000 0.000000
-6448978074823976066545090560.000000 -11190079589845627369401876480.000000 0.000000
-11190079589845627369401876480.000000 6616214939207953280170721280.000000 0.000000
0.000000 0.000000 0.000000
636044574666722756054220800000.000000 -284920962877795131010674851840.000000 0.000000
-284920962877795131010674851840.000000 75202913659025486130295341056.000000 0.000000
0.000000 0.000000 0.000000
-48864519532031751504994957787136.000000 -11026291105756607420727872716800.000000 0.000000
-11026291105756607420727872716800.000000 3944658577960534747701097529344.000000 0.000000
0.000000 0.000000 0.000000
-6632731586254448563821733740544.000000 -5392625532750438058061379665920.000000 0.000000
-5392625532750438058061379665920.000000 3013753076827979567102857052160.000000 0.000000
0.000000 0.000000 0.000000
55094491272840967887791501344768.000000 7680811045373616967275767660544.000000 0.000000
7680811045373616967275767660544.000000 712885014904255783667306070016.000000 0.000000
0.000000 0.000000 0.000000
-1302575154406421709490239832064.000000 -727943264886491857602547286016.000000 0.000000
-727943264886491857602547286016.000000 388737392940574975227651424256.000000 0.000000
0.000000 0.000000 0.000000
-26138152837250223338189857226752.000000 10729787602596294294542145814528.000000 0.000000
10729787602596294294542145814528.000000 5159636580910337610900490420224.000000 0.000000
0.000000 0.000000 0.000000
-88547721166547211664676270112768.000000 -21019047938678976367235728146432.000000 0.000000
-21019047938678976367235728146432.000000 7806311956045725569541801508864.000000 0.000000
0.000000 0.000000 0.000000
-4411337797534499202435320381440.000000 16591726467148179663532576473088.000000 0.000000
16591726467148179663532576473088.000000 9480567770105339935365240193024.000000 0.000000
0.000000 0.000000 0.000000
-3188061618264345734797603110912.000000 -6480431209758430973103372763136.000000 0.000000
-6480431209758430973103372763136.000000 3777637699454001288875675222016.000000 0.000000
0.000000 0.000000 0.000000
49779218466660700627629244416.000000 -43055483042756948794120601600.000000 0.000000
-43055483042756948794120601600.000000 17091198160204647879720042496.000000 0.000000
0.000000 0.000000 0.000000
206419757335865579651727360.000000 -209939643752085583713796096.000000 0.000000
-209939643752085583713796096.000000 89095375075950549008384000.000000 0.000000
0.000000 0.000000 0.000000
21755981091105701233919296274432.000000 -16333197469881177473827158884352.000000 0.000000
-16333197469881177473827158884352.000000 6047808531360949051431187382272.000000 0.000000
0.000000 0.000000 0.000000
-10827528981239056379677442572288.000000 -108568008795490409644241715200.000000 0.000000
-108568008795490409644241715200.000000 10645856638726937219541499904.000000 0.000000
0.000000 0.000000 0.000000
34017093723434586574193761976320.000000 73889293164335488606329362186240.000000 0.000000
73889293164335488606329362186240.000000 37349298172342476089135500099584.000000 0.000000
0.000000 0.000000 0.000000
5713049875513801049181027041280.000000 1882643196506168424066222915584.000000 0.000000
1882643196506168424066222915584.000000 385782340965901679264964542464.000000 0.000000
0.000000 0.000000 0.000000
1301587446835004146137939574784.000000 522202266855368959477027962880.000000 0.000000
522202266855368959477027962880.000000 126533433421009436171040718848.000000 0.000000
0.000000 0.000000 0.000000
1026769171698258883394836365312.000000 -1512341955293331651164991651840.000000 0.000000
-1512341955293331651164991651840.000000 713092260338925624752355672064.000000 0.000000
0.000000 0.000000 0.000000
9155290669393221310594418737152.000000 369831784954192081796837933056.000000 0.000000
369831784954192081796837933056.000000 32786957834362514284172279808.000000 0.000000
0.000000 0.000000 0.000000
-3205933097474337918210319319040.000000 -5480030038555376896668591980544.000000 0.000000
-5480030038555376896668591980544.000000 3163145504191742829270424092672.000000 0.000000
0.000000 0.000000 0.000000
2106252060876778674031649882112.000000 5544603532596450267402629808128.000000 0.000000
5544603532596450267402629808128.000000 2862838303097906241622901784576.000000 0.000000
0.000000 0.000000 0.000000
1094493388783289539581465067520.000000 7094436774596685854480124608512.000000 0.000000
7094436774596685854480124608512.000000 3865784034017572830725823004672.000000 0.000000
0.000000 0.000000 0.000000
-252983503056293810427296734615961600.000000 -1102453295905516468151607193763840.000000 0.000000
-1102453295905516468151607193763840.000000 9604316355774884888254372380672.000000 0.000000
0.000000 0.000000 0.000000
1290151680524103406435765846016.000000 -545636837388073552652948996096.000000 0.000000
-545636837388073552652948996096.000000 145174711062106243529330130944.000000 0.000000
0.000000 0.000000 0.000000
10563888762483884362161719345152.000000 248986258389800366783789531136.000000 0.000000
248986258389800366783789531136.000000 14876923196203448763536113664.000000 0.000000
0.000000 0.000000 0.000000
4803266159923304963569593876480.000000 7082939274150274636478395973632.000000 0.000000
7082939274150274636478395973632.000000 3351612035078970259499701501952.000000 0.000000
0.000000 0.000000 0.000000
28290003898971067487020694634496.000000 24975046234778604716583106379776.000000 0.000000
24975046234778604716583106379776.000000 10005599223763324200711897481216.000000 0.000000
0.000000 0.000000 0.000000
-8987366691794702935179395072.000000 6296723690180888094597709824.000000 0.000000
6296723690180888094597709824.000000 3471775202620323909068652544.000000 0.000000
0.000000 0.000000 0.000000
3752128437357747704438980608.000000 3178224373116353797853020160.000000 0.000000
3178224373116353797853020160.000000 902377477986474097121427456.000000 0.000000
0.000000 0.000000 0.000000
-17343609751824358606610848808960.000000 15397462221864954123015323385856.000000 0.000000
15397462221864954123015323385856.000000 8681058155832102177772572508160.000000 0.000000
0.000000 0.000000 0.000000
11078418853076419352339794624512.000000 -2858623841736489905227820957696.000000 0.000000
-2858623841736489905227820957696.000000 471082110132526090112940900352.000000 0.000000
0.000000 0.000000 0.000000
1607038972889642419613849354240.000000 5519885718380909825883035926528.000000 0.000000
5519885718380909825883035926528.000000 2920320481620890908295205748736.000000 0.000000
0.000000 0.000000 0.000000
-163192855367542151707865552781312.000000 97390205739802596553392404824064.000000 0.000000
97390205739802596553392404824064.000000 51912549387671886563426309242880.000000 0.000000
0.000000 0.000000 0.000000
12997009350233505064433278255104.000000 -8595736757422311119659884085248.000000 0.000000
-8595736757422311119659884085248.000000 2876329694322153986584771297280.000000 0.000000
0.000000 0.000000 0.000000
-55057485039209827383711081955328.000000 51057944405926815037884383363072.000000 0.000000
51057944405926815037884383363072.000000 28912938613542527580365618413568.000000 0.000000
0.000000 0.000000 0.000000
4614327950008364335085796720640.000000 -3738075961179942494390213148672.000000 0.000000
-3738075961179942494390213148672.000000 1440352843995133572872709079040.000000 0.000000
0.000000 0.000000 0.000000
18546051736713532125198011072512.000000 -330105879252408948806003982336.000000 0.000000
-330105879252408948806003982336.000000 10906128003772643970102853632.000000 0.000000
0.000000 0.000000 0.000000
-549243122700880133756661796962304.000000 83790238672381202815249645830144.000000 0.000000
83790238672381202815249645830144.000000 22651670958725577419324596944896.000000 0.000000
0.000000 0.000000 0.000000
18676075989467679194640384262144.000000 -15540494264460769162679889690624.000000 0.000000
-15540494264460769162679889690624.000000 6061083043374725169979469070336.000000 0.000000
0.000000 0.000000 0.000000
148023282431978898510867070976.000000 12561250289144623557297307648.000000 0.000000
12561250289144623557297307648.000000 742371364133885931943886848.000000 0.000000
0.000000 0.000000 0.000000
6241731592414839139053068091392.000000 -8302428206883633504135518617600.000000 0.000000
-8302428206883633504135518617600.000000 3847447382187094108660782071808.000000 0.000000
0.000000 0.000000 0.000000
8487346661702423605650294571008.000000 12070104466606407497008019406848.000000 0.000000
12070104466606407497008019406848.000000 5698133918611933382648000413696.000000 0.000000
0.000000 0.000000 0.000000
14328644605796924194647456088064.000000 -8041082066553772626508542640128.000000 0.000000
-8041082066553772626508542640128.000000 2503517056169834486132321026048.000000 0.000000
0.000000 0.000000 0.000000
-14259498886617877875920667148288.000000 17753935424619676371474892980224.000000 0.000000
17753935424619676371474892980224.000000 10325620048289944843444505542656.000000 0.000000
0.000000 0.000000 0.000000
1449318353864379810795269128192.000000 6038850469687796379400571715584.000000 0.000000
6038850469687796379400571715584.000000 3220554416896247048545352286208.000000 0.000000
0.000000 0.000000 0.000000
37780750923579190209631525797888.000000 -21653854310886702843381787131904.000000 0.000000
-21653854310886702843381787131904.000000 6830828968967956066757330862080.000000 0.000000
0.000000 0.000000 0.000000
-1701468276639453708118667558912.000000 3012349860631820703964973760512.000000 0.000000
3012349860631820703964973760512.000000 1738732966832168298407297810432.000000 0.000000
0.000000 0.000000 0.000000
-3038713396036130300964743675904.000000 2522046686731188159484834873344.000000 0.000000
2522046686731188159484834873344.000000 1412478747952722985961037758464.000000 0.000000
0.000000 0.000000 0.000000
16496875441823986998300393865216.000000 -55233518879825729881156565860352.000000 0.000000
-55233518879825729881156565860352.000000 29079899282374061780188214067200.000000 0.000000
0.000000 0.000000 0.000000
4761709749677156201176342986752.000000 -3795781398931222698584373723136.000000 0.000000
-3795781398931222698584373723136.000000 1449242877540990155094176563200.000000 0.000000
0.000000 0.000000 0.000000
-287369968100666419146913666209677312.000000 -2102213887874749063595090373509120.000000 0.000000
-2102213887874749063595090373509120.000000 30756700191166223475512856018944.000000 0.000000
0.000000 0.000000 0.000000
-11473143842424730242082930688.000000 -2994225050207224800556875776.000000 0.000000
-2994225050207224800556875776.000000 1168971736804936849542873088.000000 0.000000
0.000000 0.000000 0.000000
-278364098966567840617867627200512.000000 58666027438961677708695103864832.000000 0.000000
58666027438961677708695103864832.000000 20066042924464237669556603060224.000000 0.000000
0.000000 0.000000 0.000000
26502923499049123515765134196736.000000 -62973149882232313964374079307776.000000 0.000000
-62973149882232313964374079307776.000000 32173390065561894501760293142528.000000 0.000000
0.000000 0.000000 0.000000
-22580155724522159581002226204672.000000 -11135132330761433294633107980288.000000 0.000000
-11135132330761433294633107980288.000000 5676660809707638856393200500736.000000 0.000000
0.000000 0.000000 0.000000
9927408349834381556335715024896.000000 -1483711276588352962170684702720.000000 0.000000
-1483711276588352962170684702720.000000 146481137825174684830844059648.000000 0.000000
0.000000 0.000000 0.000000
3615687254077490843846069714944.000000 -1604635857794167983766918660096.000000 0.000000
-1604635857794167983766918660096.000000 420801933333643432802348171264.000000 0.000000
0.000000 0.000000 0.000000
5768063477160586377529839845376.000000 -2485959142938717955344740384768.000000 0.000000
-2485959142938717955344740384768.000000 636563835129029798045276962816.000000 0.000000
0.000000 0.000000 0.000000
9059817526159459802805140717568.000000 3614675041673422259338585571328.000000 0.000000
3614675041673422259338585571328.000000 869837256175435302851168960512.000000 0.000000
0.000000 0.000000 0.000000
-365986126070596590507130880.000000 271286140266604375337598976.000000 0.000000
271286140266604375337598976.000000 150238078763874560923140096.000000 0.000000
0.000000 0.000000 0.000000
24372338991634542857361752588288.000000 20495543761320438773454735409152.000000 0.000000
20495543761320438773454735409152.000000 8031341221423733288612680171520.000000 0.000000
0.000000 0.000000 0.000000
10744081606347698670088558215168.000000 7517279417678248047075714400256.000000 0.000000
7517279417678248047075714400256.000000 2685437444977050815849474031616.000000 0.000000
0.000000 0.000000 0.000000
21206791972665669827510879125504.000000 -235386826386732431388283240448.000000 0.000000
-235386826386732431388283240448.000000 4036888263013779855116337152.000000 0.000000
0.000000 0.000000 0.000000
18424688018585170795470782464.000000 12801044924391684721996726272.000000 0.000000
12801044924391684721996726272.000000 4543182029481523960440946688.000000 0.000000
0.000000 0.000000 0.000000
-117290774455756472600077166182400.000000 23259341586659024719660957302784.000000 0.000000
23259341586659024719660957302784.000000 7725398778363461210587673919488.000000 0.000000
0.000000 0.000000 0.000000
13822665640112047134950201229312.000000 -10584161555778266924596634583040.000000 0.000000
-10584161555778266924596634583040.000000 3960111360344931003947942936576.000000 0.000000
0.000000 0.000000 0.000000
4857205156278276573890659483648.000000 -3598996305305882888785723654144.000000 0.000000
-3598996305305882888785723654144.000000 1323541995179342004609959854080.000000 0.000000
0.000000 0.000000 0.000000
705982724636493960890330120192.000000 -3938365862037151328043725225984.000000 0.000000
-3938365862037151328043725225984.000000 2132188390014897286139198046208.000000 0.000000
0.000000 0.000000 0.000000
3299229820936807129376077381632.000000 -7698908804149879580375755259904.000000 0.000000
-7698908804149879580375755259904.000000 3925498974188064705330840338432.000000 0.000000
0.000000 0.000000 0.000000
-4024255763412459134125474840576.000000 11091885072359324446317122420736.000000 0.000000
11091885072359324446317122420736.000000 6372649567561097474601960603648.000000 0.000000
0.000000 0.000000 0.000000
-2441446339809083240175187787776.000000 4386024051788355703897879216128.000000 0.000000
4386024051788355703897879216128.000000 2556542934063216395606437134336.000000 0.000000
0.000000 0.000000 0.000000
-12470965758679689559889936384000.000000 9903106377508336358902321905664.000000 0.000000
9903106377508336358902321905664.000000 5516234995215419315810694332416.000000 0.000000
0.000000 0.000000 0.000000
-3561969239495888379242872832.000000 94997717334432503455285248.000000 0.000000
94997717334432503455285248.000000 401953396704419605366439936.000000 0.000000
0.000000 0.000000 0.000000
-9260890371112632243837076504576.000000 10335362596444800423435251482624.000000 0.000000
10335362596444800423435251482624.000000 5915928528641640148187853357056.000000 0.000000
0.000000 0.000000 0.000000
-4067361045223830081832300314624.000000 -12527614443877883759780668899328.000000 0.000000
-12527614443877883759780668899328.000000 7187896562478349577154977595392.000000 0.000000
0.000000 0.000000 0.000000
-23577500384033867260242065096704.000000 -23017331360475032588498241585152.000000 0.000000
-23017331360475032588498241585152.000000 13166913083774522467918903508992.000000 0.000000
0.000000 0.000000 0.000000
2168715638234346932386071052288.000000 -1006745622464651567002057441280.000000 0.000000
-1006745622464651567002057441280.000000 272910069957736222718571839488.000000 0.000000
0.000000 0.000000 0.000000
1192523631066574998294210019328.000000 -5273982575626630626214378733568.000000 0.000000
-5273982575626630626214378733568.000000 2821256642776932905288390934528.000000 0.000000
0.000000 0.000000 0.000000
8387367477224082829574708133888.000000 -10250321699742106814711441915904.000000 0.000000
-10250321699742106814711441915904.000000 4619379499062867181596127002624.000000 0.000000
0.000000 0.000000 0.000000
28679398570601632026838813376512.000000 -3845656849400251645630162665472.000000 0.000000
-3845656849400251645630162665472.000000 359293665507563268612384882688.000000 0.000000
0.000000 0.000000 0.000000
3116349594247797768522460823552.000000 2776230669843333985859367075840.000000 0.000000
2776230669843333985859367075840.000000 1116615026111424826694225100800.000000 0.000000
0.000000 0.000000 0.000000
1003202537519898735949698301952.000000 -10034454746831617216968522727424.000000 0.000000
-10034454746831617216968522727424.000000 5495812193792964936845320257536.000000 0.000000
0.000000 0.000000 0.000000
-763522093899311509406148984832.000000 7371397156144169782391680794624.000000 0.000000
7371397156144169782391680794624.000000 4212665843914427904224095371264.000000 0.000000
0.000000 0.000000 0.000000
4679248471319823384321321861120.000000 -2147496670376032177275807989760.000000 0.000000
-2147496670376032177275807989760.000000 577338896569686828768647184384.000000 0.000000
0.000000 0.000000 0.000000
-99651510400720086768707006627840.000000 14445177487274759774978313289728.000000 0.000000
14445177487274759774978313289728.000000 3747856655099743521887328665600.000000 0.000000
0.000000 0.000000 0.000000
10966212327363268265164889128960.000000 -4435573154234821950605325500416.000000 0.000000
-4435573154234821950605325500416.000000 1079171797924489532372349353984.000000 0.000000
0.000000 0.000000 0.000000
-59452038806372906835587673096192.000000 -23203241109746276583447642243072.000000 0.000000
-23203241109746276583447642243072.000000 10957004803147727085741874872320.000000 0.000000
0.000000 0.000000 0.000000
-898446213380856775931996531589120.000000 -1510523574236806390624609632256.000000 0.000000
-1510523574236806390624609632256.000000 19867358765104806693823315968.000000 0.000000
0.000000 0.000000 0.000000
34117179556002224522194556289024.000000 81869623662166809202810320584704.000000 0.000000
81869623662166809202810320584704.000000 41872231290222432593675345199104.000000 0.000000
0.000000 0.000000 0.000000
16890319135666663153704839938048.000000 21903860432183176729267949010944.000000 0.000000
21903860432183176729267949010944.000000 10044563962335723361149023944704.000000 0.000000
0.000000 0.000000 0.000000
13620727559529854949964990382080.000000 -7827516832584584515726704902144.000000 0.000000
-7827516832584584515726704902144.000000 2471855461926139606428299558912.000000 0.000000
0.000000 0.000000 0.000000
-288100017460869654769630187618304.000000 -63592955878267444134566671941632.000000 0.000000
-63592955878267444134566671941632.000000 22442451549475976847247068364800.000000 0.000000
0.000000 0.000000 0.000000
8681230361494519240476040626176.000000 4822849478725329609896612593664.000000 0.000000
4822849478725329609896612593664.000000 1497763040168031321546591043584.000000 0.000000
0.000000 0.000000 0.000000
5453013320773247454739704053760.000000 -2555354460449131746658430746624.000000 0.000000
-2555354460449131746658430746624.000000 698545872139103150139957575680.000000 0.000000
0.000000 0.000000 0.000000
-658932741860998410510643757056.000000 1646998512036195718575354281984.000000 0.000000
1646998512036195718575354281984.000000 947048112749703441088667189248.000000 0.000000
0.000000 0.000000 0.000000
2538178750650618445710133035008.000000 -3972251953737944490610901647360.000000 0.000000
-3972251953737944490610901647360.000000 2432455949854677749104193306624.000000 0.000000
0.000000 0.000000 0.000000
4314750345004498372324619190272.000000 6308755981024814511976498593792.000000 0.000000
6308755981024814511976498593792.000000 2979603049839953634871071473664.000000 0.000000
0.000000 0.000000 0.000000
-1580924864158748054618634190848000.000000 78176698271917612263989475016704.000000 0.000000
78176698271917612263989475016704.000000 7621124663648101231538267488256.000000 0.000000
0.000000 0.000000 0.000000
-1797481807984608756362746265600.000000 12148642305948538232773166497792.000000 0.000000
12148642305948538232773166497792.000000 6878223451930178240053000536064.000000 0.000000
0.000000 0.000000 0.000000
-727996031443179617882657467138048.000000 76119127477878588478871270588416.000000 0.000000
76119127477878588478871270588416.000000 14978439536354112359417541296128.000000 0.000000
0.000000 0.000000 0.000000
19076834098918151144814269169664.000000 -10112393983170600785595236089856.000000 0.000000
-10112393983170600785595236089856.000000 3021166495964303659891645480960.000000 0.000000
0.000000 0.000000 0.000000
-2440301414914857782539496456192.000000 3944522179887195043792785768448.000000 0.000000
3944522179887195043792785768448.000000 2277172366051926294487189422080.000000 0.000000
0.000000 0.000000 0.000000
-1057150835438644311083234361344.000000 -2145760059325059991039366922240.000000 0.000000
-2145760059325059991039366922240.000000 1236825079511005664104941617152.000000 0.000000
0.000000 0.000000 0.000000
13857595290699930728040117567488.000000 11120128033165394640310106062848.000000 0.000000
11120128033165394640310106062848.000000 4271591683437892539219768770560.000000 0.000000
0.000000 0.000000 0.000000
31247041867572788628308361216.000000 -1337300617840087987373735936.000000 0.000000
-1337300617840087987373735936.000000 38104675809355462583779328.000000 0.000000
0.000000 0.000000 0.000000
-395369925489018258905911787520.000000 -224946039659849872989799579648.000000 0.000000
-224946039659849872989799579648.000000 119016324669283870726198132736.000000 0.000000
0.000000 0.000000 0.000000
5770292656780819072128175308800.000000 3836202837970780617184236273664.000000 0.000000
3836202837970780617184236273664.000000 1327100459715378968586155458560.000000 0.000000
0.000000 0.000000 0.000000
6364645544389469183307801427968.000000 -3674773041435070232856587403264.000000 0.000000
-3674773041435070232856587403264.000000 1163140364708696645235155927040.000000 0.000000
0.000000 0.000000 0.000000
12574215218596585432910261125120.000000 -7659148842823630504019089162240.000000 0.000000
-7659148842823630504019089162240.000000 2511085247198354982640547790848.000000 0.000000
0.000000 0.000000 0.000000
8672099799861484939723359125504.000000 7349794143338659152617730473984.000000 0.000000
7349794143338659152617730473984.000000 2890379629646280327203332816896.000000 0.000000
0.000000 0.000000 0.000000
795623676104664550414940635136.000000 -6131392905266806665833839853568.000000 0.000000
-6131392905266806665833839853568.000000 3346411272783264991874436300800.000000 0.000000
0.000000 0.000000 0.000000
10919004143814793237958867550208.000000 3110770362348667556746454106112.000000 0.000000
3110770362348667556746454106112.000000 560657729643347497582969487360.000000 0.000000
0.000000 0.000000 0.000000
-6775504944441140521068824363008.000000 -2097641042014368430737638555648.000000 0.000000
-2097641042014368430737638555648.000000 1213453925419401755958657941504.000000 0.000000
0.000000 0.000000 0.000000
998228669494261175966463164416.000000 8133330227893640460663932321792.000000 0.000000
8133330227893640460663932321792.000000 4436691256599792482862703312896.000000 0.000000
0.000000 0.000000 0.000000
4667797390503501715304343404544.000000 1689703498438461772140751355904.000000 0.000000
1689703498438461772140751355904.000000 375189797609481525555368034304.000000 0.000000
0.000000 0.000000 0.000000
7019036819526390919811072786432.000000 10835229189245755189233016897536.000000 0.000000
10835229189245755189233016897536.000000 5178190716392583303232095256576.000000 0.000000
0.000000 0.000000 0.000000
-675084044165042645255560626176.000000 1562758162161335490214465896448.000000 0.000000
1562758162161335490214465896448.000000 900771023644555281394089066496.000000 0.000000
0.000000 0.000000 0.000000
-14461556199914241005447020544.000000 -1402373733380566162704695296.000000 0.000000
-1402373733380566162704695296.000000 258320879118731492022288384.000000 0.000000
0.000000 0.000000 0.000000
1236272927161706914471439499264.000000 2142898081210648885417018916864.000000 0.000000
2142898081210648885417018916864.000000 1052802451331822372453229789184.000000 0.000000
0.000000 0.000000 0.000000
-5472263816661926823893909110784.000000 6013264346880567362698988224512.000000 0.000000
6013264346880567362698988224512.000000 3464097084208623655011271835648.000000 0.000000
0.000000 0.000000 0.000000
39808514753273438629674352640.000000 -32543903805593222226663964672.000000 0.000000
-32543903805593222226663964672.000000 12577200803834860764942827520.000000 0.000000
0.000000 0.000000 0.000000
-407906013780564296859648.000000 -48372288869949516021760.000000 0.000000
-48372288869949516021760.000000 10417911910307622551552.000000 0.000000
0.000000 0.000000 0.000000
9268402802135554179395439558656.000000 -9377481065763118806514156961792.000000 0.000000
-9377481065763118806514156961792.000000 3977083089009999665704265056256.000000 0.000000
0.000000 0.000000 0.000000
-18541525729865435674878935040.000000 -38270678739500059734889725952.000000 0.000000
-38270678739500059734889725952.000000 17978584926857710226810863616.000000 0.000000
0.000000 0.000000 0.000000
4429286983978816897200630530048.000000 -3502550828228770876730237779968.000000 0.000000
-3502550828228770876730237779968.000000 1332364163890955484019493437440.000000 0.000000
0.000000 0.000000 0.000000
12617582925296776235756736741376.000000 -4788191472293974790865770512384.000000 0.000000
-4788191472293974790865770512384.000000 1106090067032702592417947189248.000000 0.000000
0.000000 0.000000 0.000000
-141167139181998210521240908595200.000000 16123603147017843270242560638976.000000 0.000000
16123603147017843270242560638976.000000 3426930010157640781890259517440.000000 0.000000
0.000000 0.000000 0.000000
35338260136841276269786650640384.000000 915789851714452704231723892736.000000 0.000000
915789851714452704231723892736.000000 15993809171285765698692841472.000000 0.000000
0.000000 0.000000 0.000000
486777536132637967662415085568.000000 5830118068345272677512012365824.000000 0.000000
5830118068345272677512012365824.000000 3224540285193399845085417308160.000000 0.000000
0.000000 0.000000 0.000000
22516308110371477192255209472.000000 -11239545248374703940366761984.000000 0.000000
-11239545248374703940366761984.000000 3215902486624144891754577920.000000 0.000000
0.000000 0.000000 0.000000
6444449001409336929173981102080.000000 2882417790008461774021703237632.000000 0.000000
2882417790008461774021703237632.000000 762676172380949894046502879232.000000 0.000000
0.000000 0.000000 0.000000
11083038184800641182709812559872.000000 -9107304585837580749481468493824.000000 0.000000
-9107304585837580749481468493824.000000 3529918464170437150798730231808.000000 0.000000
0.000000 0.000000 0.000000
3957083648179704185577269100544.000000 674122859337306839563617959936.000000 0.000000
674122859337306839563617959936.000000 78431870608056453596132147200.000000 0.000000
0.000000 0.000000 0.000000
4579218617820478704141759152128.000000 458266479099169473681573281792.000000 0.000000
458266479099169473681573281792.000000 35389727877635042967937875968.000000 0.000000
0.000000 0.000000 0.000000
14285080577223028250466580430848.000000 -8697574314313788525418070933504.000000 0.000000
-8697574314313788525418070933504.000000 2851499191146695117216329760768.000000 0.000000
0.000000 0.000000 0.000000
118514991872974002258763055104.000000 -500209432196888013516394463232.000000 0.000000
-500209432196888013516394463232.000000 269438591471233889319635648512.000000 0.000000
0.000000 0.000000 0.000000
-14577028123231571569841012736.000000 10372940955195514685581426688.000000 0.000000
10372940955195514685581426688.000000 5667300308894022416642080768.000000 0.000000
0.000000 0.000000 0.000000
4222654545860332376520623390720.000000 -3426703307999446055365585666048.000000 0.000000
-3426703307999446055365585666048.000000 1323110052501023465064376565760.000000 0.000000
0.000000 0.000000 0.000000
4538545771606657017845907456.000000 -4903744474354107780834525184.000000 0.000000
-4903744474354107780834525184.000000 2126583214943555820556648448.000000 0.000000
0.000000 0.000000 0.000000
5754579757015069413217822310400.000000 724277531918133697288098283520.000000 0.000000
724277531918133697288098283520.000000 60704147743845480689848811520.000000 0.000000
0.000000 0.000000 0.000000
27479536092471325188428360843264.000000 -11730321291584602305361038278656.000000 0.000000
-11730321291584602305361038278656.000000 2980500003696122504442594459648.000000 0.000000
0.000000 0.000000 0.000000
655535622283113276300633047040.000000 133284374345463291924724056064.000000 0.000000
133284374345463291924724056064.000000 17594484975890171492667752448.000000 0.000000
0.000000 0.000000 0.000000
15524248425924559605757187719168.000000 391734371953452639363165847552.000000 0.000000
391734371953452639363165847552.000000 6829390348372014706217451520.000000 0.000000
0.000000 0.000000 0.000000
249403983330694614608001368064.000000 989812910747679831759943368704.000000 0.000000
989812910747679831759943368704.000000 526801371483237147753580593152.000000 0.000000
0.000000 0.000000 0.000000
2051987023865549595345114103808.000000 -2026144648981021072163579363328.000000 0.000000
-2026144648981021072163579363328.000000 851202314470802185538934669312.000000 0.000000
0.000000 0.000000 0.000000
6376193908953492325347778101248.000000 -1297050991637859051745476345856.000000 0.000000
-1297050991637859051745476345856.000000 174056497706786346553799868416.000000 0.000000
0.000000 0.000000 0.000000
-1159543258734900376555103453184.000000 1660527499892764280655682994176.000000 0.000000
1660527499892764280655682994176.000000 959978142542062069527122804736.000000 0.000000
0.000000 0.000000 0.000000
-15264819949466721265007514877952.000000 -25591966961419897081654159605760.000000 0.000000
-25591966961419897081654159605760.000000 14771617512157121954659373678592.000000 0.000000
0.000000 0.000000 0.000000
2466802822154062438444723863552.000000 732894184033244382538743414784.000000 0.000000
732894184033244382538743414784.000000 137280454765435749359002058752.000000 0.000000
0.000000 0.000000 0.000000
19397306183483071661460881932288.000000 1890419749572506144863326044160.000000 0.000000
1890419749572506144863326044160.000000 122802993571282164697578602496.000000 0.000000
0.000000 0.000000 0.000000
19739314842343330580061721985024.000000 -12886589901973881726149377130496.000000 0.000000
-12886589901973881726149377130496.000000 4409887052979160826068928036864.000000 0.000000
0.000000 0.000000 0.000000
3098232061593915014992854253568.000000 -62561366375613394442129867014144.000000 0.000000
-62561366375613394442129867014144.000000 34539810180353773460170198745088.000000 0.000000
0.000000 0.000000 0.000000
-289140130565783867474412419678208.000000 -30910567044713902315715203956736.000000 0.000000
-30910567044713902315715203956736.000000 6199945327192463384218825654272.000000 0.000000
0.000000 0.000000 0.000000
-2532237188848656994693447417856.000000 -3961255244212094227648983597056.000000 0.000000
-3961255244212094227648983597056.000000 2287532429162410865276705832960.000000 0.000000
0.000000 0.000000 0.000000
12903734745599216944267751587840.000000 9129740916271174361647750840320.000000 0.000000
9129740916271174361647750840320.000000 3279879936027594808904004927488.000000 0.000000
0.000000 0.000000 0.000000
11102369568684666415219728187392.000000 -12061036678183127407691470733312.000000 0.000000
-12061036678183127407691470733312.000000 5240187185388058533012871053312.000000 0.000000
0.000000 0.000000 0.000000
-43048216582243732403781632.000000 109487058862248219843231744.000000 0.000000
109487058862248219843231744.000000 62989903255266160707371008.000000 0.000000
0.000000 0.000000 0.000000
2302469450245781125192415707136.000000 242537726161497843284381270016.000000 0.000000
242537726161497843284381270016.000000 16926515650450185618240569344.000000 0.000000
0.000000 0.000000 0.000000
2163408729768810066557804740608.000000 -27112765944685359517417865216.000000 0.000000
-27112765944685359517417865216.000000 320331193812787027240812544.000000 0.000000
0.000000 0.000000 0.000000
2023397701593928239836622225408.000000 -79664840995829250934043574272.000000 0.000000
-79664840995829250934043574272.000000 2137873325194484654696038400.000000 0.000000
0.000000 0.000000 0.000000
5396504967738401787990408953856.000000 4386770171860001041310076108800.000000 0.000000
4386770171860001041310076108800.000000 1691028684698680062427392901120.000000 0.000000
0.000000 0.000000 0.000000
556178775355935501155154526208.000000 546547447769514290175669174272.000000 0.000000
546547447769514290175669174272.000000 230683534878479128016782884864.000000 0.000000
0.000000 0.000000 0.000000
5602380237919225139691117346816.000000 537871263105619611941683068928.000000 0.000000
537871263105619611941683068928.000000 35135784527359747616061521920.000000 0.000000
0.000000 0.000000 0.000000
-610440108334418844197765251072.000000 -8085058916148649686857217474560.000000 0.000000
-8085058916148649686857217474560.000000 4540194676802178242342559940608.000000 0.000000
0.000000 0.000000 0.000000
4339178114907295911386737016832.000000 -681489610514475839906669133824.000000 0.000000
-681489610514475839906669133824.000000 81992362350732697502276911104.000000 0.000000
0.000000 0.000000 0.000000
5674589904052009425144094130176.000000 4502041152640235893874428477440.000000 0.000000
4502041152640235893874428477440.000000 1699077813644290146798097399808.000000 0.000000
0.000000 0.000000 0.000000
652918055491886022396674572288.000000 1682471541629267476057885245440.000000 0.000000
1682471541629267476057885245440.000000 878609732044763189879911743488.000000 0.000000
0.000000 0.000000 0.000000
-18332474787003427044991172608.000000 815019702342997529572178657280.000000 0.000000
815019702342997529572178657280.000000 494811891382456805203915046912.000000 0.000000
0.000000 0.000000 0.000000
1984862088784640317779404128256.000000 -11778857432848697377705552773120.000000 0.000000
-11778857432848697377705552773120.000000 6371651785869253160761259196416.000000 0.000000
0.000000 0.000000 0.000000
9205286893785746639203101310976.000000 13213357497518778388683916574720.000000 0.000000
13213357497518778388683916574720.000000 6214255606147113387510609215488.000000 0.000000
0.000000 0.000000 0.000000
34283763792848931976897640792064.000000 1432653894562368734167908220928.000000 0.000000
1432653894562368734167908220928.000000 40037578321512055887798206464.000000 0.000000
0.000000 0.000000 0.000000
2371880322119292270707776421888.000000 60766403942596976687844425728.000000 0.000000
60766403942596976687844425728.000000 1547169188675783989246558208.000000 0.000000
0.000000 0.000000 0.000000
3044876763706117417346210463744.000000 1059147464371169758658561048576.000000 0.000000
1059147464371169758658561048576.000000 227577358712380448647694778368.000000 0.000000
0.000000 0.000000 0.000000
-4444730395890616769076537589760.000000 -5880592928206093363600613703680.000000 0.000000
-5880592928206093363600613703680.000000 3390758402417609840283988525056.000000 0.000000
0.000000 0.000000 0.000000
26733210155200437299665474420736.000000 21930831122829062754725642895360.000000 0.000000
21930831122829062754725642895360.000000 8492866019060593956158720442368.000000 0.000000
0.000000 0.000000 0.000000
10240207448070710645380930863104.000000 14360999283931000399277833846784.000000 0.000000
14360999283931000399277833846784.000000 6716869711128932567439133114368.000000 0.000000
0.000000 0.000000 0.000000
20691202215630469221534243225600.000000 10502519991987417057997455622144.000000 0.000000
10502519991987417057997455622144.000000 3042452875933657957249664942080.000000 0.000000
0.000000 0.000000 0.000000
-45028107563358084396804850319360.000000 -16480603922747797984383049138176.000000 0.000000
-16480603922747797984383049138176.000000 7589432167009424984409764790272.000000 0.000000
0.000000 0.000000 0.000000
9333632777572300124797527916544.000000 -3094909971190100980546945417216.000000 0.000000
-3094909971190100980546945417216.000000 637793856741539649889312440320.000000 0.000000
0.000000 0.000000 0.000000
-6179795664696366738052319543296.000000 4368320204794639692419072786432.000000 0.000000
4368320204794639692419072786432.000000 2398902812254343472414380261376.000000 0.000000
0.000000 0.000000 0.000000
-39952452924904598713401344.000000 -78398114449653665208729600.000000 0.000000
-78398114449653665208729600.000000 45085639999485434159693824.000000 0.000000
0.000000 0.000000 0.000000
35053637206884334470872128552960.000000 15763248825171643529722744274944.000000 0.000000
15763248825171643529722744274944.000000 4170662763066006520477268312064.000000 0.000000
0.000000 0.000000 0.000000
6188260575803387794983076495360.000000 8314297000352117180741598576640.000000 0.000000
8314297000352117180741598576640.000000 3849958188465062365814843244544.000000 0.000000
0.000000 0.000000 0.000000
-30760568792100621426553341870080.000000 -59435549840526615923901113303040.000000 0.000000
-59435549840526615923901113303040.000000 34295169232484531548840402092032.000000 0.000000
0.000000 0.000000 0.000000
9611707163411240561839393734656.000000 -7266959939862408415156857995264.000000 0.000000
-7266959939862408415156857995264.000000 2703730305735417999967471534080.000000 0.000000
0.000000 0.000000 0.000000
22908393132798120751669302001664.000000 -3624538176691567268223147573248.000000 0.000000
-3624538176691567268223147573248.000000 376017893329980468224776470528.000000 0.000000
0.000000 0.000000 0.000000
3112586691481319948004339220480.000000 -288543614284210393271624531968.000000 0.000000
-288543614284210393271624531968.000000 19996097744499698195786366976.000000 0.000000
0.000000 0.000000 0.000000
6067247928906907649279766036480.000000 4467766337425315841832181039104.000000 0.000000
4467766337425315841832181039104.000000 1637581102478173814031466364928.000000 0.000000
0.000000 0.000000 0.000000
1777029851364475747794853822464.000000 48638281808716625547853037568.000000 0.000000
48638281808716625547853037568.000000 1800334489465459937187463168.000000 0.000000
0.000000 0.000000 0.000000
3734982440829420840535610884096.000000 5358400260560842080773400952832.000000 0.000000
5358400260560842080773400952832.000000 2458469305805921193041915281408.000000 0.000000
0.000000 0.000000 0.000000
18688181840069521377584400564224.000000 -3025331372189953165416114159616.000000 0.000000
-3025331372189953165416114159616.000000 321730324513773925978855178240.000000 0.000000
0.000000 0.000000 0.000000
-7155149227872569468968574648320.000000 -11738791421297616474495827050496.000000 0.000000
-11738791421297616474495827050496.000000 6781420042946787380615438139392.000000 0.000000
0.000000 0.000000 0.000000
-69419990082582980664009003066458112.000000 -703551046893272483162606004076544.000000 0.000000
-703551046893272483162606004076544.000000 14247364821460725442550595321856.000000 0.000000
0.000000 0.000000 0.000000
-3101150300523417650534217850814464.000000 205390752016767315784102938935296.000000 0.000000
205390752016767315784102938935296.000000 26511091949568100898937233211392.000000 0.000000
0.000000 0.000000 0.000000
594779903850426230212432756736.000000 -3264633563932491437343036669952.000000 0.000000
-3264633563932491437343036669952.000000 1660045397179890643803515650048.000000 0.000000
0.000000 0.000000 0.000000
2547294053526067107626435477504.000000 -3077234293889181544085219966976.000000 0.000000
-3077234293889181544085219966976.000000 1383027601167525079666980290560.000000 0.000000
0.000000 0.000000 0.000000
-1000406248338640918890212753408.000000 -7253860404238566957489300963328.000000 0.000000
-7253860404238566957489300963328.000000 4100451458428769220042436902912.000000 0.000000
0.000000 0.000000 0.000000
8728767444455429472575790514176.000000 -4458436362411587379380317323264.000000 0.000000
-4458436362411587379380317323264.000000 1297270989300705016577668415488.000000 0.000000
0.000000 0.000000 0.000000
8542341404941830993922010120192.000000 -1254523380017731298975073435648.000000 0.000000
-1254523380017731298975073435648.000000 141414183501545903267396976640.000000 0.000000
0.000000 0.000000 0.000000
828838818812328381295104098304.000000 -3104452261126427053384439693312.000000 0.000000
-3104452261126427053384439693312.000000 1645880858606779018648697700352.000000 0.000000
0.000000 0.000000 0.000000
2465780491667954904873941598208.000000 3342725196823374679326588928000.000000 0.000000
3342725196823374679326588928000.000000 1562976005732760954244956160000.000000 0.000000
0.000000 0.000000 0.000000
1988682138368971342711934156800.000000 -1077266369407311486170907541504.000000 0.000000
-1077266369407311486170907541504.000000 326711570188403903353606635520.000000 0.000000
0.000000 0.000000 0.000000
1784701702425245828826972291072.000000 1305051044397750486579762167808.000000 0.000000
1305051044397750486579762167808.000000 476668475567099427344848257024.000000 0.000000
0.000000 0.000000 0.000000
76529246382166761018727438745600.000000 3580715966008243443211662524416.000000 0.000000
3580715966008243443211662524416.000000 116750372567798976384851771392.000000 0.000000
0.000000 0.000000 0.000000
21477028770445518156800066584576.000000 -13299550174773734672203975229440.000000 0.000000
-13299550174773734672203975229440.000000 4407334572636610480779428888576.000000 0.000000
0.000000 0.000000 0.000000
-4265348374840356797791686623232.000000 5495735732392942485450287742976.000000 0.000000
5495735732392942485450287742976.000000 3161442242379999232482672115712.000000 0.000000
0.000000 0.000000 0.000000
-373323647860435200806320340992.000000 -66018649748841381517953335296.000000 0.000000
-66018649748841381517953335296.000000 25811063235340767944501100544.000000 0.000000
0.000000 0.000000 0.000000
-10836334722354735163644236005376.000000 -2620182911743350780678287392768.000000 0.000000
-2620182911743350780678287392768.000000 1002650630013292120653512572928.000000 0.000000
0.000000 0.000000 0.000000
-4608890457714814164458832658432.000000 15683487416710897057374893244416.000000 0.000000
15683487416710897057374893244416.000000 8981904938791900231796061634560.000000 0.000000
0.000000 0.000000 0.000000
-2445414487305312061796384768.000000 -3180645590933907714946891776.000000 0.000000
-3180645590933907714946891776.000000 1856443610184228617723052032.000000 0.000000
0.000000 0.000000 0.000000
820546614555797973895217152.000000 202848011191936957359849472.000000 0.000000
202848011191936957359849472.000000 124283175402710296256577536.000000 0.000000
0.000000 0.000000 0.000000
683691538435717078377413214208.000000 1578564696066257409711525593088.000000 0.000000
1578564696066257409711525593088.000000 803809497315016459475700678656.000000 0.000000
0.000000 0.000000 0.000000
40602782067295863638326641688576.000000 -30515377795172014904863073763328.000000 0.000000
-30515377795172014904863073763328.000000 11306896527285070683306681434112.000000 0.000000
0.000000 0.000000 0.000000
5601808440967635764801771143168.000000 3060777814361249664165239324672.000000 0.000000
3060777814361249664165239324672.000000 933956662134004885035335811072.000000 0.000000
0.000000 0.000000 0.000000
-9727477096413310789053579264.000000 5363667707815875190938664960.000000 0.000000
5363667707815875190938664960.000000 2810876613510844514664710144.000000 0.000000
0.000000 0.000000 0.000000
5220983378033071527959556259840.000000 -6843931715164338751861707243520.000000 0.000000
-6843931715164338751861707243520.000000 3147184774403710239898473594880.000000 0.000000
0.000000 0.000000 0.000000
-10594526125569999125428763440720117760.000000 -18446658797748458911102914399305728.000000 0.000000
-18446658797748458911102914399305728.000000 64226589436090146825242668957696.000000 0.000000
0.000000 0.000000 0.000000
1504448899344922458427945385984.000000 -3727742605042236274539753373696.000000 0.000000
-3727742605042236274539753373696.000000 1912362109268069576831919980544.000000 0.000000
0.000000 0.000000 0.000000
-574189717652652852900790272.000000 1280070589022377982189109248.000000 0.000000
1280070589022377982189109248.000000 848276669253474445223264256.000000 0.000000
0.000000 0.000000 0.000000
-1877642469505851199687638384640.000000 7278325066514465683913989685248.000000 0.000000
7278325066514465683913989685248.000000 4162202585113927934850575106048.000000 0.000000
0.000000 0.000000 0.000000
13533268165734215622909231104.000000 2061303654877386358986375168.000000 0.000000
2061303654877386358986375168.000000 220200166158770703857352704.000000 0.000000
0.000000 0.000000 0.000000
-1249088368939753072838657966080.000000 3208295353303565204455289782272.000000 0.000000
3208295353303565204455289782272.000000 1845432445591948322563535405056.000000 0.000000
0.000000 0.000000 0.000000
-522713253055526574619321434112.000000 524636998142414502622536925184.000000 0.000000
524636998142414502622536925184.000000 297797206768870330907091795968.000000 0.000000
0.000000 0.000000 0.000000
3961004084628477214727432306688.000000 32672623509384944731887574712320.000000 0.000000
32672623509384944731887574712320.000000 17829012584808715580475650867200.000000 0.000000
0.000000 0.000000 0.000000
-17301252697038947571784554119168.000000 -12858357814445763118304703021056.000000 0.000000
-12858357814445763118304703021056.000000 7109383149883405881765273796608.000000 0.000000
0.000000 0.000000 0.000000
-17284359407209109775666118656.000000 -11343776800329455230569676800.000000 0.000000
-11343776800329455230569676800.000000 6466723464865334962757304320.000000 0.000000
0.000000 0.000000 0.000000
9618699350492439607945937813504.000000 5230733650114940912463610118144.000000 0.000000
5230733650114940912463610118144.000000 1600730411935931927244230885376.000000 0.000000
0.000000 0.000000 0.000000
5213628978143162697526282289152.000000 2900539385956236782307186311168.000000 0.000000
2900539385956236782307186311168.000000 914158828625148639998824677376.000000 0.000000
0.000000 0.000000 0.000000
934895884691628947941806309376.000000 16435221963503103765754647937024.000000 0.000000
16435221963503103765754647937024.000000 9063729172939132747537604149248.000000 0.000000
0.000000 0.000000 0.000000
-136136125195685493758492672.000000 3902748395924720796490006528.000000 0.000000
3902748395924720796490006528.000000 1196429962952495115137974272.000000 0.000000
0.000000 0.000000 0.000000
-10123541329230082626878460395520.000000 -6610954666499271052582541328384.000000 0.000000
-6610954666499271052582541328384.000000 3585092090574545999107555590144.000000 0.000000
0.000000 0.000000 0.000000
-49584951539082072971632068001792.000000 -33761656295821950771516539928576.000000 0.000000
-33761656295821950771516539928576.000000 18426222222624077162200241799168.000000 0.000000
0.000000 0.000000 0.000000
-6663388816131295550896078848.000000 103286733963751212902776832.000000 0.000000
103286733963751212902776832.000000 24471877874154031760277504.000000 0.000000
0.000000 0.000000 0.000000
12826884703135481608997437440.000000 -25644489945825878510470692864.000000 0.000000
-25644489945825878510470692864.000000 12818207503836255403131273216.000000 0.000000
0.000000 0.000000 0.000000
-112759306227830564445257423912960.000000 7888651372956160652523627085824.000000 0.000000
7888651372956160652523627085824.000000 663087679337795399014936477696.000000 0.000000
0.000000 0.000000 0.000000
-346526990000179987051027932119040.000000 86472911048869217189219889315840.000000 0.000000
86472911048869217189219889315840.000000 32892206815180354051568696295424.000000 0.000000
0.000000 0.000000 0.000000
-1074819558629025253080883527680.000000 3655395772268072509483213914112.000000 0.000000
3655395772268072509483213914112.000000 2092970903133434511163387805696.000000 0.000000
0.000000 0.000000 0.000000
-932861246403982292798144512000.000000 -5612633160840755470138620248064.000000 0.000000
-5612633160840755470138620248064.000000 3201819218625604857949803511808.000000 0.000000
0.000000 0.000000 0.000000
4876508759620908073052048195584.000000 18127532326260876215171342663680.000000 0.000000
18127532326260876215171342663680.000000 9607324231837489501115183529984.000000 0.000000
0.000000 0.000000 0.000000
-2658328733550641448077865517056.000000 -3126604420282288860497537138688.000000 0.000000
-3126604420282288860497537138688.000000 1793038826521850588883438272512.000000 0.000000
0.000000 0.000000 0.000000
13425490369858745757859840000.000000 -3170150663985351282833489920.000000 0.000000
-3170150663985351282833489920.000000 602835597851632473227657216.000000 0.000000
0.000000 0.000000 0.000000
-1649297707420200286803420250112.000000 7169833817936039529447505788928.000000 0.000000
7169833817936039529447505788928.000000 4092834422168189215206350520320.000000 0.000000
0.000000 0.000000 0.000000
-378134652146292373278984054505472.000000 -78735969488427807733623304486912.000000 0.000000
-78735969488427807733623304486912.000000 26719127667068565121486865563648.000000 0.000000
0.000000 0.000000 0.000000
47598588582999383943963616477184.000000 -5633916797554043804271283011584.000000 0.000000
-5633916797554043804271283011584.000000 440400721879279336297460662272.000000 0.000000
0.000000 0.000000 0.000000
271576904796044666034368544768.000000 -279366004812468489760815448064.000000 0.000000
-279366004812468489760815448064.000000 124083590491645519820484509696.000000 0.000000
0.000000 0.000000 0.000000
-39904213414714794271218992152576.000000 3824821401078907016220592046080.000000 0.000000
3824821401078907016220592046080.000000 695356420743019848547956686848.000000 0.000000
0.000000 0.000000 0.000000
3044212203148533970382027227136.000000 -2682157607737347851179129831424.000000 0.000000
-2682157607737347851179129831424.000000 1075653035804785658039193567232.000000 0.000000
0.000000 0.000000 0.000000
1788312594593724518488866816.000000 -570889650218163853395492864.000000 0.000000
-570889650218163853395492864.000000 169895176831582910554308608.000000 0.000000
0.000000 0.000000 0.000000
10705902176663269895511878926336.000000 28459779615127003198042312540160.000000 0.000000
28459779615127003198042312540160.000000 14708083092032412811789881835520.000000 0.000000
0.000000 0.000000 0.000000
731044855874752936808890236928.000000 2015169814915881237066704486400.000000 0.000000
2015169814915881237066704486400.000000 1044456515111792830770720014336.000000 0.000000
0.000000 0.000000 0.000000
18691664797084764385769309601792.000000 -31704513982809804998868377534464.000000 0.000000
-31704513982809804998868377534464.000000 15431945795684086942845754146816.000000 0.000000
0.000000 0.000000 0.000000
-98519338839317541451373033291776.000000 -11075368644241452746569634807808.000000 0.000000
-11075368644241452746569634807808.000000 2394954032579826172852608958464.000000 0.000000
0.000000 0.000000 0.000000
10402806622383794484570608369664.000000 -6681985615769053344083187073024.000000 0.000000
-6681985615769053344083187073024.000000 2264261553607887317631647088640.000000 0.000000
0.000000 0.000000 0.000000
62915185252827498961353255682048.000000 40325858162736418823691799887872.000000 0.000000
40325858162736418823691799887872.000000 13647028008866564618202852098048.000000 0.000000
0.000000 0.000000 0.000000
5227723035447864439952820404224.000000 -3153644783809930888470163619840.000000 0.000000
-3153644783809930888470163619840.000000 1028074041208030408175939223552.000000 0.000000
0.000000 0.000000 0.000000
197457938749566889549103104.000000 -152659931713074138192019456.000000 0.000000
-152659931713074138192019456.000000 57402768485821306055426048.000000 0.000000
0.000000 0.000000 0.000000
-2392355503178916236985941098496.000000 -4360679314723098875051626201088.000000 0.000000
-4360679314723098875051626201088.000000 2516775513724100865266628427776.000000 0.000000
0.000000 0.000000 0.000000
-932492877370761648258896887808.000000 -2534872303076080133691475492864.000000 0.000000
-2534872303076080133691475492864.000000 1456763613468509401665046052864.000000 0.000000
0.000000 0.000000 0.000000
1690536972359009951861528592384.000000 3652848831391657989860499652608.000000 0.000000
3652848831391657989860499652608.000000 1845324120088197359907553411072.000000 0.000000
0.000000 0.000000 0.000000
5778621178253304874520809570304.000000 -47691669253717666588688742612992.000000 0.000000
-47691669253717666588688742612992.000000 26023241104302472672035144204288.000000 0.000000
0.000000 0.000000 0.000000
33432741307765274832887286333440.000000 -22605545435624617726425115394048.000000 0.000000
-22605545435624617726425115394048.000000 7915623212113263989937103962112.000000 0.000000
0.000000 0.000000 0.000000
1085653933064002327300320264192.000000 -646661669196956950165230452736.000000 0.000000
-646661669196956950165230452736.000000 209172451808173621677362511872.000000 0.000000
0.000000 0.000000 0.000000
5581524408103096374571502141440.000000 15599992616320907865937594548224.000000 0.000000
15599992616320907865937594548224.000000 8098964510742510610598219218944.000000 0.000000
0.000000 0.000000 0.000000
171726449654717944162022326272.000000 -841099202626609840360213446656.000000 0.000000
-841099202626609840360213446656.000000 453414038937384117687329751040.000000 0.000000
0.000000 0.000000 0.000000
1346884408577212334306031042560.000000 -13645419203899411239250302074880.000000 0.000000
-13645419203899411239250302074880.000000 7473137024639452767793300111360.000000 0.000000
0.000000 0.000000 0.000000
-3819278303827422078092493979648.000000 -4798035066926915034621639917568.000000 0.000000
-4798035066926915034621639917568.000000 2757602151722208365014578888704.000000 0.000000
0.000000 0.000000 0.000000
2427579103037631188452358750208.000000 -771374238775797345574604242944.000000 0.000000
-771374238775797345574604242944.000000 153232383607224147803964964864.000000 0.000000
0.000000 0.000000 0.000000
-1230495872678252291839433375744.000000 2676813892373187747623276118016.000000 0.000000
2676813892373187747623276118016.000000 1542917491462886786049893203968.000000 0.000000
0.000000 0.000000 0.000000
-80151052935317404330506483400704.000000 12126591375624026950898322243584.000000 0.000000
12126591375624026950898322243584.000000 3257461420971044293981688037376.000000 0.000000
0.000000 0.000000 0.000000
3133387710608128614193015291904.000000 842336191307563512588931170304.000000 0.000000
842336191307563512588931170304.000000 144018569497305705414333038592.000000 0.000000
0.000000 0.000000 0.000000
3700952094285405120965084446720.000000 -8627366519580386259087757672448.000000 0.000000
-8627366519580386259087757672448.000000 4406971591330356891624585297920.000000 0.000000
0.000000 0.000000 0.000000
-94893706777108576503452401664.000000 -1143644446469376178574464122880.000000 0.000000
-1143644446469376178574464122880.000000 643314862791920113317610258432.000000 0.000000
0.000000 0.000000 0.000000
2443620390983596062824988672000.000000 -1738247412750144885344037765120.000000 0.000000
-1738247412750144885344037765120.000000 627553282097214861585873371136.000000 0.000000
0.000000 0.000000 0.000000
4115608538024324160143478489088.000000 -5246488265738324794836762230784.000000 0.000000
-5246488265738324794836762230784.000000 2394627222781640013350669647872.000000 0.000000
0.000000 0.000000 0.000000
-7813647867479326776309168734208.000000 5475968878070484863875404529664.000000 0.000000
5475968878070484863875404529664.000000 3025599139192448335888349396992.000000 0.000000
0.000000 0.000000 0.000000
6495875876529146600315944960.000000 7965740477521822580712931328.000000 0.000000
7965740477521822580712931328.000000 3637190980560875070381096960.000000 0.000000
0.000000 0.000000 0.000000
2378592521377193705864192589824.000000 2681550437843174364132522590208.000000 0.000000
2681550437843174364132522590208.000000 1181683589777528136670405197824.000000 0.000000
0.000000 0.000000 0.000000
-2873017749816812741535104761856.000000 3634789730251342659120286138368.000000 0.000000
3634789730251342659120286138368.000000 2091566950906883274028236144640.000000 0.000000
0.000000 0.000000 0.000000
1890091359992334037384001748992.000000 -6663904714210849524907002298368.000000 0.000000
-6663904714210849524907002298368.000000 3548556996052787124374719168512.000000 0.000000
0.000000 0.000000 0.000000
-89651907513715914124607426134016.000000 17139021149919963136765737304064.000000 0.000000
17139021149919963136765737304064.000000 5483918665796723405842412470272.000000 0.000000
0.000000 0.000000 0.000000
57371263795960089191580340060160.000000 16309875925033884806164078657536.000000 0.000000
16309875925033884806164078657536.000000 2933493929754397557441590984704.000000 0.000000
0.000000 0.000000 0.000000
2452606926282763864250423181312.000000 3106554460944423528329191096320.000000 0.000000
3106554460944423528329191096320.000000 1415546461917813108295390461952.000000 0.000000
0.000000 0.000000 0.000000
12605580704488915172012163334144.000000 7617837594757213622469876776960.000000 0.000000
7617837594757213622469876776960.000000 2484883640206688881578361225216.000000 0.000000
0.000000 0.000000 0.000000
82102333230217111221690263666688.000000 39505375447597483041428330250240.000000 0.000000
39505375447597483041428330250240.000000 11030256430128398733474124529664.000000 0.000000
0.000000 0.000000 0.000000
1962099648362865173171770753024.000000 3038148025207575898071398088704.000000 0.000000
3038148025207575898071398088704.000000 1456289091423332603530221453312.000000 0.000000
0.000000 0.000000 0.000000
-1299788398726756662334548082688.000000 1784599382989767219678889902080.000000 0.000000
1784599382989767219678889902080.000000 1028005780871302012373869527040.000000 0.000000
0.000000 0.000000 0.000000
-25875630990802390758887260160.000000 2502740822782131795937722368000.000000 0.000000
2502740822782131795937722368000.000000 1396337895628548937304728666112.000000 0.000000
0.000000 0.000000 0.000000
-169545405324796904578901606400.000000 -1719401084978229960152973312.000000 0.000000
-1719401084978229960152973312.000000 139891651753634858023256064.000000 0.000000
0.000000 0.000000 0.000000
13721457316291191610683863072768.000000 -5445074911810893379903946752.000000 0.000000
-5445074911810893379903946752.000000 351299548304063287389061120.000000 0.000000
0.000000 0.000000 0.000000
-22081656846715523347753526624256.000000 -13969154316907007158769367908352.000000 0.000000
-13969154316907007158769367908352.000000 7532413540180968099054975188992.000000 0.000000
0.000000 0.000000 0.000000
-6660506774602206526858627907584.000000 -8210503506651000180163769008128.000000 0.000000
-8210503506651000180163769008128.000000 4720219209812286521048209293312.000000 0.000000
0.000000 0.000000 0.000000
32904838318984807968911757672448.000000 30667696454511669343416003592192.000000 0.000000
30667696454511669343416003592192.000000 12574942163424155092181277736960.000000 0.000000
0.000000 0.000000 0.000000
1947870667881236239317204992.000000 369998487299131576997117952.000000 0.000000
369998487299131576997117952.000000 45749794656254016983400448.000000 0.000000
0.000000 0.000000 0.000000
-554656306470850655248646164971520.000000 35147455182500361759218416484352.000000 0.000000
35147455182500361759218416484352.000000 4349709008532375148595725205504.000000 0.000000
0.000000 0.000000 0.000000
30486232258519345488472527863808.000000 6297983539098678338211161309184.000000 0.000000
6297983539098678338211161309184.000000 843692200022099729082704986112.000000 0.000000
0.000000 0.000000 0.000000
2248980493597286739968102760448.000000 -16457552057738951369235967770624.000000 0.000000
-16457552057738951369235967770624.000000 8955484497521045189306286604288.000000 0.000000
0.000000 0.000000 0.000000
6660081666094956959463326613504.000000 -13312564574455371488014901444608.000000 0.000000
-13312564574455371488014901444608.000000 6654837489423284846262252208128.000000 0.000000
0.000000 0.000000 0.000000
14009266267883754107855999860736.000000 -12331747066339206694949709938688.000000 0.000000
-12331747066339206694949709938688.000000 4933903139806575752777062940672.000000 0.000000
0.000000 0.000000 0.000000
-191897922904203648120098127872.000000 -1899289455800625885820756164608.000000 0.000000
-1899289455800625885820756164608.000000 1069622600024923571851171463168.000000 0.000000
0.000000 0.000000 0.000000
10712974200728953366602733060096.000000 -7149142309397001999898317422592.000000 0.000000
-7149142309397001999898317422592.000000 2478824860108283230972350038016.000000 0.000000
0.000000 0.000000 0.000000
1050683929253522590844017704960.000000 -3182801535557808723822374813696.000000 0.000000
-3182801535557808723822374813696.000000 1663497954154205089228241502208.000000 0.000000
0.000000 0.000000 0.000000
-2041121140679558762336773734400.000000 -18519542797433679590605369376768.000000 0.000000
-18519542797433679590605369376768.000000 10440065481041561683624279932928.000000 0.000000
0.000000 0.000000 0.000000
55959895463432962771642329595904.000000 -14432391211382397650809080774656.000000 0.000000
-14432391211382397650809080774656.000000 2374735635984396915540171423744.000000 0.000000
0.000000 0.000000 0.000000
-390102561784698453469725458432.000000 1381554088822626383330638036992.000000 0.000000
1381554088822626383330638036992.000000 790367482089326872024678662144.000000 0.000000
0.000000 0.000000 0.000000
615904171484182333911375806464.000000 978278807776060642398425841664.000000 0.000000
978278807776060642398425841664.000000 470335235675514295338340974592.000000 0.000000
0.000000 0.000000 0.000000
10460580129167617060358663962624.000000 3316113340802560500863130927104.000000 0.000000
3316113340802560500863130927104.000000 656859744188630380340125368320.000000 0.000000
0.000000 0.000000 0.000000
4796421704470464779174337839104.000000 -4268286357125203379354725253120.000000 0.000000
-4268286357125203379354725253120.000000 1715917129163768976095678824448.000000 0.000000
0.000000 0.000000 0.000000
-111748918679061976112031940476928.000000 -11527621178472886925781951840256.000000 0.000000
-11527621178472886925781951840256.000000 2249020961080714377375900499968.000000 0.000000
0.000000 0.000000 0.000000
3671611878749037923477225472.000000 -4220821866867640047843147776.000000 0.000000
-4220821866867640047843147776.000000 1867360181454549327160541184.000000 0.000000
0.000000 0.000000 0.000000
-2732405293148328691028994293760.000000 -1900882112790298746420929232896.000000 0.000000
-1900882112790298746420929232896.000000 1041094712896261496809346564096.000000 0.000000
0.000000 0.000000 0.000000
2576887475112339514945766948864.000000 -1809339700384865039023247196160.000000 0.000000
-1809339700384865039023247196160.000000 647055235809036447318917775360.000000 0.000000
0.000000 0.000000 0.000000
-79389522020875137166398717952.000000 338248047014175856141826785280.000000 0.000000
338248047014175856141826785280.000000 192385336656927601755284307968.000000 0.000000
0.000000 0.000000 0.000000
44135941250695326653011885817856.000000 -22375448703451638108095783108608.000000 0.000000
-22375448703451638108095783108608.000000 6488111357963002395429135450112.000000 0.000000
0.000000 0.000000 0.000000
-961944896625031491283257078579200.000000 78543392643909341571715338076160.000000 0.000000
78543392643909341571715338076160.000000 12352620899470819525466959904768.000000 0.000000
0.000000 0.000000 0.000000
4494016195147877565394086526976.000000 -2320430562014904421634025717760.000000 0.000000
-2320430562014904421634025717760.000000 680465693523125107843301113856.000000 0.000000
0.000000 0.000000 0.000000
32595605278098699845632.000000 -13552107901028306780160.000000 0.000000
-13552107901028306780160.000000 3437962717309676552192.000000 0.000000
0.000000 0.000000 0.000000
1196632269717830398150635945984.000000 917372427461105977494469607424.000000 0.000000
917372427461105977494469607424.000000 343449722416908818515358646272.000000 0.000000
0.000000 0.000000 0.000000
12899727537752260180195420405760.000000 12197679385808921446013036658688.000000 0.000000
12197679385808921446013036658688.000000 5031184753350595772154711638016.000000 0.000000
0.000000 0.000000 0.000000
-7542050412655403871649237303296.000000 -8624899274012084943354870104064.000000 0.000000
-8624899274012084943354870104064.000000 4941159089286816869381255987200.000000 0.000000
0.000000 0.000000 0.000000
22118437166362485148298774577152.000000 -7288938117697279364815650816000.000000 0.000000
-7288938117697279364815650816000.000000 1493491806511333903475536822272.000000 0.000000
0.000000 0.000000 0.000000
16040090333292018468495231549440.000000 20200256585934100099393864597504.000000 0.000000
20200256585934100099393864597504.000000 9188274206910605408543642222592.000000 0.000000
0.000000 0.000000 0.000000
14760175292537832811212428017664.000000 -7145462303255799491300343939072.000000 0.000000
-7145462303255799491300343939072.000000 2000276147886667405300777091072.000000 0.000000
0.000000 0.000000 0.000000
-603841442116969372166198919168.000000 -2728654723994919513339813953536.000000 0.000000
-2728654723994919513339813953536.000000 1560535977646102473108279525376.000000 0.000000
0.000000 0.000000 0.000000
12419678956622179968685191462912.000000 9008860422096017516353611104256.000000 0.000000
9008860422096017516353611104256.000000 3275078772041283648658861981696.000000 0.000000
0.000000 0.000000 0.000000
9757101269833121453611740561408.000000 2867070752179620819517078241280.000000 0.000000
2867070752179620819517078241280.000000 534672153339556553015053778944.000000 0.000000
0.000000 0.000000 0.000000
-1744979215066770179680324869423104.000000 322013873168830302587347475103744.000000 0.000000
322013873168830302587347475103744.000000 100482328799175142087665637130240.000000 0.000000
0.000000 0.000000 0.000000
1582974425826927418657959051264.000000 -1832646519654453492898750005248.000000 0.000000
-1832646519654453492898750005248.000000 813062112411060451179736596480.000000 0.000000
0.000000 0.000000 0.000000
-2302693163051998974783703220224.000000 -12327743143190989836085018755072.000000 0.000000
-12327743143190989836085018755072.000000 7035652755687103651376500047872.000000 0.000000
0.000000 0.000000 0.000000
32131950323975334975938662236160.000000 -8150452457070980216899390930944.000000 0.000000
-8150452457070980216899390930944.000000 1321547109964256261206754459648.000000 0.000000
0.000000 0.000000 0.000000
2863442315584016440184061034496.000000 9924900885259455354732185387008.000000 0.000000
9924900885259455354732185387008.000000 5248868379810534223381998338048.000000 0.000000
0.000000 0.000000 0.000000
10009549762884443206284090540032.000000 -7596321052851621874356012974080.000000 0.000000
-7596321052851621874356012974080.000000 2920719711765873173285352505344.000000 0.000000
0.000000 0.000000 0.000000
-133563458427409996140113209327616.000000 23566604932620509039985887805440.000000 0.000000
23566604932620509039985887805440.000000 7118236374847211981421548666880.000000 0.000000
0.000000 0.000000 0.000000
8708027289197206187619920117760.000000 -2478260744413295489587045466112.000000 0.000000
-2478260744413295489587045466112.000000 446121878854705378081676197888.000000 0.000000
0.000000 0.000000 0.000000
22273353994110522133624016338944.000000 3232654808229566205342347427840.000000 0.000000
3232654808229566205342347427840.000000 308809526281823424279205642240.000000 0.000000
0.000000 0.000000 0.000000
-80447090624691237837202025086976.000000 -27180132989085634466439422279680.000000 0.000000
-27180132989085634466439422279680.000000 12095795031849620625608228732928.000000 0.000000
0.000000 0.000000 0.000000
12607068560640655686623874252800.000000 9976502801443570830794505060352.000000 0.000000
9976502801443570830794505060352.000000 3795807034791992866303369019392.000000 0.000000
0.000000 0.000000 0.000000
3177670411230057443042973974528.000000 -1715355860473830460906364993536.000000 0.000000
-1715355860473830460906364993536.000000 520278812656237246300444164096.000000 0.000000
0.000000 0.000000 0.000000
-3209138434399629572634604208128.000000 -13512251801542601507437881065472.000000 0.000000
-13512251801542601507437881065472.000000 7710282922579150594550280486912.000000 0.000000
0.000000 0.000000 0.000000
-79110588176955811070704877568.000000 13495443654427431915627741184.000000 0.000000
13495443654427431915627741184.000000 3897098000868875220864204800.000000 0.000000
0.000000 0.000000 0.000000
1844060735350395908702833999872.000000 -605330828985313915530698031104.000000 0.000000
-605330828985313915530698031104.000000 123951179608645826687008768000.000000 0.000000
0.000000 0.000000 0.000000
12806253395779145660472561238016.000000 -7900747877506007108477146628096.000000 0.000000
-7900747877506007108477146628096.000000 2612392672195846241810598854656.000000 0.000000
0.000000 0.000000 0.000000
5449681701875112023299010330624.000000 11700020504428622495011280257024.000000 0.000000
11700020504428622495011280257024.000000 5905608536856636291486637359104.000000 0.000000
0.000000 0.000000 0.000000
-21526383936321748710679105241088.000000 -7147970682430641635767512727552.000000 0.000000
-7147970682430641635767512727552.000000 3156336233424145336314701545472.000000 0.000000
0.000000 0.000000 0.000000
-1958726441370538350298617872384.000000 -2909908962180841743429115314176.000000 0.000000
-2909908962180841743429115314176.000000 1678234935354011203424663633920.000000 0.000000
0.000000 0.000000 0.000000
1879416952099554751453178363904.000000 212668273350836112478355587072.000000 0.000000
212668273350836112478355587072.000000 15940913006360709076013285376.000000 0.000000
0.000000 0.000000 0.000000
-4615795495309586109654735257600.000000 -29052161059352360810259261947904.000000 0.000000
-29052161059352360810259261947904.000000 16461275788781924303639557439488.000000 0.000000
0.000000 0.000000 0.000000
-3145837008651147077035417927680.000000 -4592800542014539145693676699648.000000 0.000000
-4592800542014539145693676699648.000000 2658541541635735787315553894400.000000 0.000000
0.000000 0.000000 0.000000
3074948404311613356146165809152.000000 -11496623244621623687240734474240.000000 0.000000
-11496623244621623687240734474240.000000 6108989499629985163167563513856.000000 0.000000
0.000000 0.000000 0.000000
-1023032706121864647486025498624.000000 47064595226142756101305663488.000000 0.000000
47064595226142756101305663488.000000 80944272595222271683867967488.000000 0.000000
0.000000 0.000000 0.000000
-6052467953004399369648516666228736.000000 82497155998232913030775029366784.000000 0.000000
82497155998232913030775029366784.000000 2245753839084606346008167710720.000000 0.000000
0.000000 0.000000 0.000000
27485927402291129853967593373696.000000 -15191629098721698559589743591424.000000 0.000000
-15191629098721698559589743591424.000000 4671721846314236055454648107008.000000 0.000000
0.000000 0.000000 0.000000
13706696645660483928463993995264.000000 41588777368741349233367214718976.000000 0.000000
41588777368741349233367214718976.000000 21778350788903573994585769115648.000000 0.000000
0.000000 0.000000 0.000000
-51859881185679442449736166014976.000000 -25742157743213044483045715869696.000000 0.000000
-25742157743213044483045715869696.000000 13139282833894004525630530519040.000000 0.000000
0.000000 0.000000 0.000000
-263483763144706197945554305024.000000 58784549216189997304558649344.000000 0.000000
58784549216189997304558649344.000000 3645457958889456029323493376.000000 0.000000
0.000000 0.000000 0.000000
33499202177591859831313392467968.000000 4855461889698626100441254985728.000000 0.000000
4855461889698626100441254985728.000000 465668273269052999231506219008.000000 0.000000
0.000000 0.000000 0.000000
2180525839509752645760072024064.000000 461815410605313937325319782400.000000 0.000000
461815410605313937325319782400.000000 64625145546452321911634395136.000000 0.000000
0.000000 0.000000 0.000000
9074885570519524896822603546624.000000 -1069116252572202342906270318592.000000 0.000000
-1069116252572202342906270318592.000000 83248352897097472243455229952.000000 0.000000
0.000000 0.000000 0.000000
28522299241660784618312663302144.000000 19460501887663489372024354111488.000000 0.000000
19460501887663489372024354111488.000000 6835122960567088434478141407232.000000 0.000000
0.000000 0.000000 0.000000
-57384919592265789828558661615616.000000 8223418459483192239592445050880.000000 0.000000
8223418459483192239592445050880.000000 2114081858050363412341619425280.000000 0.000000
0.000000 0.000000 0.000000
8120946742654867720881748049920.000000 -16965573837938579404900400103424.000000 0.000000
-16965573837938579404900400103424.000000 8532399269535665197251360194560.000000 0.000000
0.000000 0.000000 0.000000
-256673594759337132502267042201600.000000 34364638542089513949873485905920.000000 0.000000
34364638542089513949873485905920.000000 8360122782528952771706718519296.000000 0.000000
0.000000 0.000000 0.000000
17242564420847842711133652779008.000000 15008886878156742949731773186048.000000 0.000000
15008886878156742949731773186048.000000 5974922401459796182540469927936.000000 0.000000
0.000000 0.000000 0.000000
-38450175826604057259723930468352.000000 37675518542221164717512316682240.000000 0.000000
37675518542221164717512316682240.000000 21440764731334197854396231974912.000000 0.000000
0.000000 0.000000 0.000000
-448258226324686982400776971587944448.000000 -1238781868537026820591202422751232.000000 0.000000
-1238781868537026820591202422751232.000000 6846523228728153024142539489280.000000 0.000000
0.000000 0.000000 0.000000
9300428721316963433938753159168.000000 -4412078085946335411893665005568.000000 0.000000
-4412078085946335411893665005568.000000 1215996172025506929748337491968.000000 0.000000
0.000000 0.000000 0.000000
-1558095099523555363981390512128.000000 14356546924930637442789004017664.000000 0.000000
14356546924930637442789004017664.000000 8091796271802667224190987272192.000000 0.000000
0.000000 0.000000 0.000000
11076956563370696848086925312.000000 3071157027475851132411052032.000000 0.000000
3071157027475851132411052032.000000 539985101964499534382891008.000000 0.000000
0.000000 0.000000 0.000000
62080919554051319246709741060096.000000 28446359351362319072437926363136.000000 0.000000
28446359351362319072437926363136.000000 7690454106907191168320780894208.000000 0.000000
0.000000 0.000000 0.000000
56157224984185330670524956672.000000 15073684184913710502274662400.000000 0.000000
15073684184913710502274662400.000000 2573686035354046980585160704.000000 0.000000
0.000000 0.000000 0.000000
1176114600206739815272495972352.000000 -3518180927245637411622182977536.000000 0.000000
-3518180927245637411622182977536.000000 2220899838944018222376873361408.000000 0.000000
0.000000 0.000000 0.000000
-24076507511373272383789352353792.000000 29969019521439118917145460736000.000000 0.000000
29969019521439118917145460736000.000000 17232244358629653795600299196416.000000 0.000000
0.000000 0.000000 0.000000
9105253189255504186448749264896.000000 8249937828733279952478318624768.000000 0.000000
8249937828733279952478318624768.000000 3342150740503373383916268290048.000000 0.000000
0.000000 0.000000 0.000000
-2521085085889468924931721920512.000000 -8998575835448447143577124864.000000 0.000000
-8998575835448447143577124864.000000 255809715730500044638388224.000000 0.000000
0.000000 0.000000 0.000000
-25400928906546364472834832465920.000000 -19199732953940924908666546552832.000000 0.000000
-19199732953940924908666546552832.000000 10640598771224253663240098152448.000000 0.000000
0.000000 0.000000 0.000000
1654430685114525206894920859648.000000 890941376187086332477835313152.000000 0.000000
890941376187086332477835313152.000000 280763367933611462296999034880.000000 0.000000
0.000000 0.000000 0.000000
-23799961882473262919796654080.000000 9493886734530777497420693504.000000 0.000000
9493886734530777497420693504.000000 4519788991187553339349925888.000000 0.000000
0.000000 0.000000 0.000000
19946392712758046835246538686464.000000 -821694137163481706153570729984.000000 0.000000
-821694137163481706153570729984.000000 23237324789849487530243653632.000000 0.000000
0.000000 0.000000 0.000000
19037737386623148393547494850560.000000 -40977133871157077312271110111232.000000 0.000000
-40977133871157077312271110111232.000000 20689375411910388055476277346304.000000 0.000000
0.000000 0.000000 0.000000
-7642713581038899773554881986560.000000 4965754174324872562528351158272.000000 0.000000
4965754174324872562528351158272.000000 2710631783263625202941722361856.000000 0.000000
0.000000 0.000000 0.000000
-25716427124189289034054369280.000000 11534197060107223347710851547136.000000 0.000000
11534197060107223347710851547136.000000 6416416559235059353184255344640.000000 0.000000
0.000000 0.000000 0.000000
9322350096388918759374958100480.000000 12820044346122705638016375848960.000000 0.000000
12820044346122705638016375848960.000000 5979024463636687515863144726528.000000 0.000000
0.000000 0.000000 0.000000
5275145414642648045416880275456.000000 -3507687361994093408288096911360.000000 0.000000
-3507687361994093408288096911360.000000 1213805212970144198307866476544.000000 0.000000
0.000000 0.000000 0.000000
3678149338910342111699299991552.000000 9833120270838186607372425756672.000000 0.000000
9833120270838186607372425756672.000000 5084408895919927818509698990080.000000 0.000000
0.000000 0.000000 0.000000
17814412971084792795036433514496.000000 -52737199647324378238482940690432.000000 0.000000
-52737199647324378238482940690432.000000 27511329191212123178204022177792.000000 0.000000
0.000000 0.000000 0.000000
31405385609086898005056258310144.000000 26426899641964420155735315316736.000000 0.000000
26426899641964420155735315316736.000000 10358165022381026021192664875008.000000 0.000000
0.000000 0.000000 0.000000
2968649794819016394801068113920.000000 4235401708042155092161037598720.000000 0.000000
4235401708042155092161037598720.000000 1988380505066908901005261275136.000000 0.000000
0.000000 0.000000 0.000000
-46997736366781741075837053042688.000000 79606561979058711286600234434560.000000 0.000000
79606561979058711286600234434560.000000 45948164239528070357510260785152.000000 0.000000
0.000000 0.000000 0.000000
-89548603508697172209550026080256.000000 111772721863816933313646889533440.000000 0.000000
111772721863816933313646889533440.000000 64236620883956029648761490767872.000000 0.000000
0.000000 0.000000 0.000000
-29822618558449590355123152879616.000000 43386903966545421973326074478592.000000 0.000000
43386903966545421973326074478592.000000 25022170328172726278957704413184.000000 0.000000
0.000000 0.000000 0.000000
45844720975399635414453864890368.000000 -8145973210677754165571251863552.000000 0.000000
-8145973210677754165571251863552.000000 946492509341958112798874533888.000000 0.000000
0.000000 0.000000 0.000000
-30165380653019919707948802113536.000000 13877528138668670340238137098240.000000 0.000000
13877528138668670340238137098240.000000 6976351982824816808734903762944.000000 0.000000
0.000000 0.000000 0.000000
-13396541437354641819589526159360.000000 -6629135098256178468492377325568.000000 0.000000
-6629135098256178468492377325568.000000 3401950551779768113831780286464.000000 0.000000
0.000000 0.000000 0.000000
4876477542535806116604894248960.000000 -3204279678947742418967600300032.000000 0.000000
-3204279678947742418967600300032.000000 1100831862729695486262768566272.000000 0.000000
0.000000 0.000000 0.000000
1792742285055730611206819414016.000000 2075975833969046468030055317504.000000 0.000000
2075975833969046468030055317504.000000 921065329393498861020024668160.000000 0.000000
0.000000 0.000000 0.000000
57232559334129110844048408576.000000 -15155478453883678805381349376.000000 0.000000
-15155478453883678805381349376.000000 2583063217465567178605461504.000000 0.000000
0.000000 0.000000 0.000000
9360130106608420908263924563968.000000 -4512900456803222010236990652416.000000 0.000000
-4512900456803222010236990652416.000000 1258663316294356847284482736128.000000 0.000000
0.000000 0.000000 0.000000
581947015668888958836418805760.000000 3810196129686416135997670555648.000000 0.000000
3810196129686416135997670555648.000000 2072763120601253585069975535616.000000 0.000000
0.000000 0.000000 0.000000
-4025924890733140973217541783552.000000 -564529663592156280049557831680.000000 0.000000
-564529663592156280049557831680.000000 142308625202804568161947484160.000000 0.000000
0.000000 0.000000 0.000000
6548384787448661910398154309632.000000 3537060940682151822367169445888.000000 0.000000
3537060940682151822367169445888.000000 1071521095231243503390265704448.000000 0.000000
0.000000 0.000000 0.000000
-71591598266633806481352294400.000000 -30105853921387444540608086016.000000 0.000000
-30105853921387444540608086016.000000 20999635024812412956997320704.000000 0.000000
0.000000 0.000000 0.000000
35020315431421115763447230889984.000000 15218070226358993583045651464192.000000 0.000000
15218070226358993583045651464192.000000 3922334899813645851438971092992.000000 0.000000
0.000000 0.000000 0.000000
6284784829271879168689864441856.000000 -4192091121699691657824598753280.000000 0.000000
-4192091121699691657824598753280.000000 1453217870376664151826783797248.000000 0.000000
0.000000 0.000000 0.000000
-34602702193822404828095850741760.000000 -5758773482838306136934750093312.000000 0.000000
-5758773482838306136934750093312.000000 1665882407535305349920970506240.000000 0.000000
0.000000 0.000000 0.000000
18095706608889364611002408108032.000000 -4050480299267249522521170509824.000000 0.000000
-4050480299267249522521170509824.000000 585331266589442076934590693376.000000 0.000000
0.000000 0.000000 0.000000
-3322206640200472270371377119232.000000 8433640623756920397352455372800.000000 0.000000
8433640623756920397352455372800.000000 4848403919752337034897642225664.000000 0.000000
0.000000 0.000000 0.000000
2954179136272858647161317883904.000000 2057112713901251335439811346432.000000 0.000000
2057112713901251335439811346432.000000 734475596736670402242100068352.000000 0.000000
0.000000 0.000000 0.000000
34426166262421587105669477040128.000000 14263569669705164240221770874880.000000 0.000000
14263569669705164240221770874880.000000 3607835911763779912373368782848.000000 0.000000
0.000000 0.000000 0.000000
-18126652676205985459262374019072.000000 34375547508638599125585511841792.000000 0.000000
34375547508638599125585511841792.000000 19893214558462675881892402692096.000000 0.000000
0.000000 0.000000 0.000000
2117805138426090192370353045504.000000 -954866025552201383771449065472.000000 0.000000
-954866025552201383771449065472.000000 254962278088557016960792002560.000000 0.000000
0.000000 0.000000 0.000000
23674811580579688732075394859008.000000 2718803286906301443326271815680.000000 0.000000
2718803286906301443326271815680.000000 207454221830449202224164765696.000000 0.000000
0.000000 0.000000 0.000000
6172735346235194025301476638720.000000 14063051877892845465091392405504.000000 0.000000
14063051877892845465091392405504.000000 7156427519550013430531811704832.000000 0.000000
0.000000 0.000000 0.000000
-408108674339559563266638217216.000000 -30747956261538847984206217216.000000 0.000000
-30747956261538847984206217216.000000 4486579878517153911634132992.000000 0.000000
0.000000 0.000000 0.000000
16422464534782349902782398464.000000 27980090246192911188062371840.000000 0.000000
27980090246192911188062371840.000000 11984960553210356261466406912.000000 0.000000
0.000000 0.000000 0.000000
698477810558516633580970442752.000000 -31646425296629576333470231166976.000000 0.000000
-31646425296629576333470231166976.000000 17543969853473557580540666707968.000000 0.000000
0.000000 0.000000 0.000000
3479523672948918138538916052992.000000 1625584657604608116365427998720.000000 0.000000
1625584657604608116365427998720.000000 442982050119346532150121857024.000000 0.000000
0.000000 0.000000 0.000000
3342297471787486322631590805504.000000 -1498866765773377857054023090176.000000 0.000000
-1498866765773377857054023090176.000000 395736921197314110377689088000.000000 0.000000
0.000000 0.000000 0.000000
7820433213768383831792943104.000000 -10762161006606489131161747456.000000 0.000000
-10762161006606489131161747456.000000 5175710471280666895798239232.000000 0.000000
0.000000 0.000000 0.000000
4228000567221167890756030955520.000000 -5231594712147781353213161111552.000000 0.000000
-5231594712147781353213161111552.000000 2380566694207576428537001803776.000000 0.000000
0.000000 0.000000 0.000000
4498437032534383981057896611840.000000 12137141269124668012254388551680.000000 0.000000
12137141269124668012254388551680.000000 6281873363684694473224610643968.000000 0.000000
0.000000 0.000000 0.000000
1742657882508700647815865434112.000000 1075288456917599536123408809984.000000 0.000000
1075288456917599536123408809984.000000 356497628741765034204127559680.000000 0.000000
0.000000 0.000000 0.000000
-5159133492961123686763622039552.000000 13164259001506347237649829330944.000000 0.000000
13164259001506347237649829330944.000000 7576227419262912779505587191808.000000 0.000000
0.000000 0.000000 0.000000
-1954989198848131416866143862784.000000 17544411918170930619674420838400.000000 0.000000
17544411918170930619674420838400.000000 9915598271935193750842671890432.000000 0.000000
0.000000 0.000000 0.000000
-4791358533966839711275927207936.000000 -15026611384901346283307413798912.000000 0.000000
-15026611384901346283307413798912.000000 8642562994590492943973124931584.000000 0.000000
0.000000 0.000000 0.000000
-13686468410188226071295569166336.000000 10855194413111945348264549679104.000000 0.000000
10855194413111945348264549679104.000000 6080836663716352714038027747328.000000 0.000000
0.000000 0.000000 0.000000
-58389414534828456038144933888.000000 -967671279679944768491828019200.000000 0.000000
-967671279679944768491828019200.000000 552396304576883846707106807808.000000 0.000000
0.000000 0.000000 0.000000
8224933628235557739395494707200.000000 -6461890037353200693170222923776.000000 0.000000
-6461890037353200693170222923776.000000 2448114904198384079298113830912.000000 0.000000
0.000000 0.000000 0.000000
21047852825046152298628951048192.000000 31763843220529774981224834531328.000000 0.000000
31763843220529774981224834531328.000000 15112982088611826430649774899200.000000 0.000000
0.000000 0.000000 0.000000
-11857279469470033876751919087616.000000 5897745151495930240040272134144.000000 0.000000
5897745151495930240040272134144.000000 3012051776800837861779324272640.000000 0.000000
0.000000 0.000000 0.000000
-82610775437095559122571224940544.000000 59984627131672012616955431223296.000000 0.000000
59984627131672012616955431223296.000000 33065669606711773058921215819776.000000 0.000000
0.000000 0.000000 0.000000
15107770171948761229968130703360.000000 15397570478590390509389570113536.000000 0.000000
15397570478590390509389570113536.000000 6539422129588515212684605521920.000000 0.000000
0.000000 0.000000 0.000000
-622895582356608434076016181248.000000 -106945544871948830023211810816.000000 0.000000
-106945544871948830023211810816.000000 31643064629119128659973636096.000000 0.000000
0.000000 0.000000 0.000000
1361932641641576345079774183424.000000 27129778667326918474963152273408.000000 0.000000
27129778667326918474963152273408.000000 14975177271470887352752882581504.000000 0.000000
0.000000 0.000000 0.000000
1890871040431835209333940944896.000000 23073154970476076457678340096.000000 0.000000
23073154970476076457678340096.000000 1332750587797553244450848768.000000 0.000000
0.000000 0.000000 0.000000
2215394122167026319888482304.000000 -1091409918797619750640812032.000000 0.000000
-1091409918797619750640812032.000000 289187624762069428775944192.000000 0.000000
0.000000 0.000000 0.000000
18463093662903307110825951494144.000000 6211970778059604616140227084288.000000 0.000000
6211970778059604616140227084288.000000 1295955228790129829018612006912.000000 0.000000
0.000000 0.000000 0.000000
-28590021146346058077144350720.000000 11568716772334982664424521728.000000 0.000000
11568716772334982664424521728.000000 5895173774316124050089312256.000000 0.000000
0.000000 0.000000 0.000000
25560376623504646736748604293120.000000 -43442755597706616471744484999168.000000 0.000000
-43442755597706616471744484999168.000000 21203158344794637300832745291776.000000 0.000000
0.000000 0.000000 0.000000
17573684140525213896313155878912.000000 57896339571030094806053147377664.000000 0.000000
57896339571030094806053147377664.000000 30539774916073349212177011048448.000000 0.000000
0.000000 0.000000 0.000000
238827470531466619327128535040.000000 -360812052493254106433634435072.000000 0.000000
-360812052493254106433634435072.000000 141996230800516419431870496768.000000 0.000000
0.000000 0.000000 0.000000
69861533087131289457529685278720.000000 -2623891778626680591365338824704.000000 0.000000
-2623891778626680591365338824704.000000 66993456113243850570331062272.000000 0.000000
0.000000 0.000000 0.000000
19757865621397923615050039296.000000 2601972047020371623465189376.000000 0.000000
2601972047020371623465189376.000000 225839714490524023050469376.000000 0.000000
0.000000 0.000000 0.000000
-598483808718125604862449751687168.000000 -123504317194551144829501896130560.000000 0.000000
-123504317194551144829501896130560.000000 41652363483902115998574487535616.000000 0.000000
0.000000 0.000000 0.000000
32865821607808321461618607128576.000000 -51856660203852707804261518409728.000000 0.000000
-51856660203852707804261518409728.000000 24834800865266001553360410378240.000000 0.000000
0.000000 0.000000 0.000000
-518143800633412601749523658702848.000000 36101583214774393954232919130112.000000 0.000000
36101583214774393954232919130112.000000 4895280775839535918121838706688.000000 0.000000
0.000000 0.000000 0.000000
12677105407050871646436294918144.000000 -3834782851208095234442622140416.000000 0.000000
-3834782851208095234442622140416.000000 731188703630255723413703229440.000000 0.000000
0.000000 0.000000 0.000000
-1733741211789512610619209610690560.000000 196231775967700793975649909866496.000000 0.000000
196231775967700793975649909866496.000000 41378447865371834231015314817024.000000 0.000000
0.000000 0.000000 0.000000
732938359043448972930527002624.000000 2535677776813564423447001432064.000000 0.000000
2535677776813564423447001432064.000000 1338377608369609930798192918528.000000 0.000000
0.000000 0.000000 0.000000
55302703521097685664800964608.000000 63788336913091693923165798400.000000 0.000000
63788336913091693923165798400.000000 28266393147083101644823461888.000000 0.000000
0.000000 0.000000 0.000000
-2045830098438321211906123548852224.000000 77163731189882122966271872991232.000000 0.000000
77163731189882122966271872991232.000000 5774126593080123327636861616128.000000 0.000000
0.000000 0.000000 0.000000
331763628511700254766137344.000000 427457911743675001898795008.000000 0.000000
427457911743675001898795008.000000 195656188125146366053711872.000000 0.000000
0.000000 0.000000 0.000000
-266811449902430448094889683976192.000000 -31860930980630528351817816866816.000000 0.000000
-31860930980630528351817816866816.000000 7037142219037686580959720243200.000000 0.000000
0.000000 0.000000 0.000000
2569646457336252464506077184.000000 2824789820476904220664004608.000000 0.000000
2824789820476904220664004608.000000 1237013436049362985345351680.000000 0.000000
0.000000 0.000000 0.000000
30184342142125987013817582747648.000000 -37974343489854958906908432400384.000000 0.000000
-37974343489854958906908432400384.000000 17267790025586796537956200873984.000000 0.000000
0.000000 0.000000 0.000000
34008349068550764581140201209856.000000 42888810218633602919077379047424.000000 0.000000
42888810218633602919077379047424.000000 19690101307364836171959060398080.000000 0.000000
0.000000 0.000000 0.000000
3861592107689954948573781032960.000000 -3203937422381537923582234984448.000000 0.000000
-3203937422381537923582234984448.000000 1230411022854439786553387515904.000000 0.000000
0.000000 0.000000 0.000000
5841381321278575836753916067840.000000 805454333234695604336318218240.000000 0.000000
805454333234695604336318218240.000000 74427654252996929056413843456.000000 0.000000
0.000000 0.000000 0.000000
239125379513488452718180696064.000000 -78646916046199796124990046208.000000 0.000000
-78646916046199796124990046208.000000 16087103943178394720568082432.000000 0.000000
0.000000 0.000000 0.000000
-210207741459021530415687805173760.000000 -32096055693152365989506500788224.000000 0.000000
-32096055693152365989506500788224.000000 8676799462282023495677515923456.000000 0.000000
0.000000 0.000000 0.000000
17649562345382936018240246120448.000000 3040955104691542950894028980224.000000 0.000000
3040955104691542950894028980224.000000 360957856322053896333151961088.000000 0.000000
0.000000 0.000000 0.000000
68307867855617890381335961272320.000000 -11795835441300647016765547610112.000000 0.000000
-11795835441300647016765547610112.000000 1335801224807995033172167360512.000000 0.000000
0.000000 0.000000 0.000000
32268953685494080107355188494336.000000 23195908413352996851851299127296.000000 0.000000
23195908413352996851851299127296.000000 8390756225694455708213456142336.000000 0.000000
0.000000 0.000000 0.000000
49543768296567770704210949046272.000000 -9382382780740716326435940204544.000000 0.000000
-9382382780740716326435940204544.000000 1209441458134800467520781287424.000000 0.000000
0.000000 0.000000 0.000000
6787203625851512031074523807744.000000 -2710078465422675604032307855360.000000 0.000000
-2710078465422675604032307855360.000000 631028761440252036549552635904.000000 0.000000
0.000000 0.000000 0.000000
-881623365249640215103208947712.000000 8620900824255506716435375194112.000000 0.000000
8620900824255506716435375194112.000000 4855576806171494761842195038208.000000 0.000000
0.000000 0.000000 0.000000
7393263122975647236801431601152.000000 3693782308443753465137367875584.000000 0.000000
3693782308443753465137367875584.000000 1059564411772445176952426332160.000000 0.000000
0.000000 0.000000 0.000000
-5698024856239726116084908032.000000 2817817492415975924218986496.000000 0.000000
2817817492415975924218986496.000000 1555220784446418329939214336.000000 0.000000
0.000000 0.000000 0.000000
20670356497451116130636400689152.000000 105723990242287819839295239225344.000000 0.000000
105723990242287819839295239225344.000000 56896894716009190004414901911552.000000 0.000000
0.000000 0.000000 0.000000
34255574656016693685341160210432.000000 -2895080688269723045911209181184.000000 0.000000
-2895080688269723045911209181184.000000 163668785798798893486725660672.000000 0.000000
0.000000 0.000000 0.000000
16434089439271045059080645246976.000000 14430440120146932728084522074112.000000 0.000000
14430440120146932728084522074112.000000 5767808723515085292071970406400.000000 0.000000
0.000000 0.000000 0.000000
-9886021442950404473120786219008.000000 -5378660384164895081586627706880.000000 0.000000
-5378660384164895081586627706880.000000 1276988948822537834609789370368.000000 0.000000
0.000000 0.000000 0.000000
14853389465170847896583503085568.000000 1633173845801068750983357530112.000000 0.000000
1633173845801068750983357530112.000000 119281152997274257453142245376.000000 0.000000
0.000000 0.000000 0.000000
8452225111886320140097729593344.000000 14755202046955172346591342231552.000000 0.000000
14755202046955172346591342231552.000000 7217123573257502985393411194880.000000 0.000000
0.000000 0.000000 0.000000
48414997127509173229996264652800.000000 46803976865664144022105699123200.000000 0.000000
46803976865664144022105699123200.000000 19530041572890330615195545632768.000000 0.000000
0.000000 0.000000 0.000000
-654957082805040454635398421807104.000000 -160224804247079418960817934041088.000000 0.000000
-160224804247079418960817934041088.000000 60214968925751037518260832567296.000000 0.000000
0.000000 0.000000 0.000000
74169995682608508122440782577664.000000 -88535506599545236047612979707904.000000 0.000000
-88535506599545236047612979707904.000000 39637402641986907211678351360000.000000 0.000000
0.000000 0.000000 0.000000
4652730346897220191147549261824.000000 3410070549630361559311862202368.000000 0.000000
3410070549630361559311862202368.000000 1270279782856704742667289886720.000000 0.000000
0.000000 0.000000 0.000000
-212242583314360593628456330199040.000000 117333837946076034354520889753600.000000 0.000000
117333837946076034354520889753600.000000 61641321593184969514435129376768.000000 0.000000
0.000000 0.000000 0.000000
-96563409792492929603138624684032.000000 -49391063198714336699656477605888.000000 0.000000
-49391063198714336699656477605888.000000 25414175514477807260507763113984.000000 0.000000
0.000000 0.000000 0.000000
-9893863866450733095071611092992.000000 10873876386516989632536045944832.000000 0.000000
10873876386516989632536045944832.000000 6218788340810967585582875672576.000000 0.000000
0.000000 0.000000 0.000000
140439375102576008297245392764928.000000 -87592921538152997451807177310208.000000 0.000000
-87592921538152997451807177310208.000000 29157093940354872358908054208512.000000 0.000000
0.000000 0.000000 0.000000
20998321527473359225868194414592.000000 -8848631600727045749869314572288.000000 0.000000
-8848631600727045749869314572288.000000 2226190487527800838953887596544.000000 0.000000
0.000000 0.000000 0.000000
38367720523144909642776384110592.000000 -14734523144872979130325871362048.000000 0.000000
-14734523144872979130325871362048.000000 3439775747047677597201912037376.000000 0.000000
0.000000 0.000000 0.000000
74905011629926909234268409430016.000000 -20715097529196387206350592016384.000000 0.000000
-20715097529196387206350592016384.000000 3623188786585005516762568982528.000000 0.000000
0.000000 0.000000 0.000000
-12498977436663412690009632800768.000000 -499550220400731681003596152832.000000 0.000000
-499550220400731681003596152832.000000 28170447746468426606088028160.000000 0.000000
0.000000 0.000000 0.000000
2693134534227047638391626661888.000000 2325629024880310324925346873344.000000 0.000000
2325629024880310324925346873344.000000 923085013936881233936938696704.000000 0.000000
0.000000 0.000000 0.000000
23966890918205310421362880282624.000000 -13065445577281347881516780224512.000000 0.000000
-13065445577281347881516780224512.000000 3968142895889132195928355110912.000000 0.000000
0.000000 0.000000 0.000000
26846447094412444838462526324736.000000 -34613729161680140787751732641792.000000 0.000000
-34613729161680140787751732641792.000000 15846195098526341220363092885504.000000 0.000000
0.000000 0.000000 0.000000
323144586151856933066244096.000000 -222872259334687859343884288.000000 0.000000
-222872259334687859343884288.000000 78771516440041965511245824.000000 0.000000
0.000000 0.000000 0.000000
5951996564882747980989954260992.000000 2357444647180379214625713946624.000000 0.000000
2357444647180379214625713946624.000000 548741716785032457022387257344.000000 0.000000
0.000000 0.000000 0.000000
95075086676694094332456398225408.000000 -38547656847214101014678935175168.000000 0.000000
-38547656847214101014678935175168.000000 9397942126837089457518778777600.000000 0.000000
0.000000 0.000000 0.000000
30885264779676033560865778171904.000000 -26883109988328298228364523601920.000000 0.000000
-26883109988328298228364523601920.000000 10925324471440300404388604674048.000000 0.000000
0.000000 0.000000 0.000000
36747614292508888358338659614720.000000 -3812944837840340060673780219904.000000 0.000000
-3812944837840340060673780219904.000000 264280555945826784512057540608.000000 0.000000
0.000000 0.000000 0.000000
32568974445557021415890223104.000000 -17663954652618015259597209600.000000 0.000000
-17663954652618015259597209600.000000 5889631570470440210148622336.000000 0.000000
0.000000 0.000000 0.000000
13551710686182112028154472169472.000000 12135837502202065944526825979904.000000 0.000000
12135837502202065944526825979904.000000 4892228448480721215150840872960.000000 0.000000
0.000000 0.000000 0.000000
-325335621251934033518627496394752.000000 91377291643386354850932507803648.000000 0.000000
91377291643386354850932507803648.000000 37776156080230776185362004836352.000000 0.000000
0.000000 0.000000 0.000000
4833229928681091127969413332992.000000 -47613317537866475673031588970496.000000 0.000000
-47613317537866475673031588970496.000000 26069643821847921484158709268480.000000 0.000000
0.000000 0.000000 0.000000
19627277038592359789340324265984.000000 -33913426062756427656912443539456.000000 0.000000
-33913426062756427656912443539456.000000 16568658712395201722910001594368.000000 0.000000
0.000000 0.000000 0.000000
18511258422518686412767462686720.000000 21557165295852175663675192901632.000000 0.000000
21557165295852175663675192901632.000000 9562541107616700249141636235264.000000 0.000000
0.000000 0.000000 0.000000
18141976830635697146300674867200.000000 8448002937513552646423363715072.000000 0.000000
8448002937513552646423363715072.000000 2313635850885928993002100883456.000000 0.000000
0.000000 0.000000 0.000000
-619059447693264824026487127539712.000000 124934507941105998208887295049728.000000 0.000000
124934507941105998208887295049728.000000 41563716478732439617471793594368.000000 0.000000
0.000000 0.000000 0.000000
20260579925923893419934100750336.000000 -8968137233725002088337270374400.000000 0.000000
-8968137233725002088337270374400.000000 2360002294540054677026322251776.000000 0.000000
0.000000 0.000000 0.000000
109828600962940426087254898769920.000000 39952002166151176434989418938368.000000 0.000000
39952002166151176434989418938368.000000 8900465896889509140410367213568.000000 0.000000
0.000000 0.000000 0.000000
3009741893393030930655912919040.000000 4370482427801049706435939663872.000000 0.000000
4370482427801049706435939663872.000000 2161738385027168072777643065344.000000 0.000000
0.000000 0.000000 0.000000
3382425148211341878190330085376.000000 3194128313321177614106985758720.000000 0.000000
3194128313321177614106985758720.000000 1364751300858765493604538384384.000000 0.000000
0.000000 0.000000 0.000000
-74059551110165570879605323071488.000000 82521455428416581291911822704640.000000 0.000000
82521455428416581291911822704640.000000 47275236387883563448816862494720.000000 0.000000
0.000000 0.000000 0.000000
827707462983018471844189569024.000000 19697501230757333200099008839680.000000 0.000000
19697501230757333200099008839680.000000 10887353022905513126729770598400.000000 0.000000
0.000000 0.000000 0.000000
-2449752902636330752671475564544.000000 187898287557232819645790027776.000000 0.000000
187898287557232819645790027776.000000 95818505842369545723835318272.000000 0.000000
0.000000 0.000000 0.000000
26982813804559197712194771877888.000000 -54239533710389553902299471937536.000000 0.000000
-54239533710389553902299471937536.000000 27133678555196485805780299153408.000000 0.000000
0.000000 0.000000 0.000000
-4432994526963802164677874548736.000000 -6131984451009620806310465372160.000000 0.000000
-6131984451009620806310465372160.000000 3532700770680224726495721947136.000000 0.000000
0.000000 0.000000 0.000000
8876341358472242615807901696.000000 3593920568872143772385804288.000000 0.000000
3593920568872143772385804288.000000 875200665239577153945731072.000000 0.000000
0.000000 0.000000 0.000000
32527945233143896942780751020032.000000 -87548225502918838966869865529344.000000 0.000000
-87548225502918838966869865529344.000000 46336556030211790074538239197184.000000 0.000000
0.000000 0.000000 0.000000
-18583588063451164635183221571584.000000 12035264388770265452207597944832.000000 0.000000
12035264388770265452207597944832.000000 6577473602768913669876499873792.000000 0.000000
0.000000 0.000000 0.000000
11439501817001038991165600301056.000000 -18118224844060816593071705686016.000000 0.000000
-18118224844060816593071705686016.000000 8701419675898348446285933051904.000000 0.000000
0.000000 0.000000 0.000000
32841435053952639050227067650048.000000 8406556263493108857953243365376.000000 0.000000
8406556263493108857953243365376.000000 1377245169917837088792898437120.000000 0.000000
0.000000 0.000000 0.000000
2624164287783996886688339066880.000000 -2101156009249167155055745302528.000000 0.000000
-2101156009249167155055745302528.000000 945376250749662560531330891776.000000 0.000000
0.000000 0.000000 0.000000
-99755244752362864454745980928.000000 6453386827754865824819476168704.000000 0.000000
6453386827754865824819476168704.000000 3595976713671522419478458531840.000000 0.000000
0.000000 0.000000 0.000000
129411261234816927769445189812224.000000 31633974668595581058974675369984.000000 0.000000
31633974668595581058974675369984.000000 4961290664524636148357987827712.000000 0.000000
0.000000 0.000000 0.000000
-68383860339214603109801660514304.000000 -7926502838446129097624371855360.000000 0.000000
-7926502838446129097624371855360.000000 1715171739949029303161960005632.000000 0.000000
0.000000 0.000000 0.000000
31073438103942611026117023236096.000000 11906268913087435319609103745024.000000 0.000000
11906268913087435319609103745024.000000 2774339453366731088773083299840.000000 0.000000
0.000000 0.000000 0.000000
33627219760873900440950402973696.000000 -16485148647767839394935974395904.000000 0.000000
-16485148647767839394935974395904.000000 4673984982538726465218830925824.000000 0.000000
0.000000 0.000000 0.000000
14650462701919510833043710410752.000000 -27008924151092874846683512438784.000000 0.000000
-27008924151092874846683512438784.000000 13149370531439174612016544350208.000000 0.000000
0.000000 0.000000 0.000000
28358306557921977647598047068160.000000 1188500675698728543742607753216.000000 0.000000
1188500675698728543742607753216.000000 148598459556161806047033425920.000000 0.000000
0.000000 0.000000 0.000000
4323010723484160239224494227456.000000 -31367466334408466802366069342208.000000 0.000000
-31367466334408466802366069342208.000000 17065265698809122818481937448960.000000 0.000000
0.000000 0.000000 0.000000
-8682592850785857321128440102912.000000 -7553105370125150888023203774464.000000 0.000000
-7553105370125150888023203774464.000000 1418782266618450944309015347200.000000 0.000000
0.000000 0.000000 0.000000
68409151989799358735639619043328.000000 12116415314813198487095573741568.000000 0.000000
12116415314813198487095573741568.000000 1425748252023516486494643552256.000000 0.000000
0.000000 0.000000 0.000000
-431455704668182116711893303296.000000 11429682543143137160510067179520.000000 0.000000
11429682543143137160510067179520.000000 6676127094178606660182926688256.000000 0.000000
0.000000 0.000000 0.000000
7374489245150018674185534963712.000000 32420204874705239296770261909504.000000 0.000000
32420204874705239296770261909504.000000 17423366449575142757848651399168.000000 0.000000
0.000000 0.000000 0.000000
-132171775586465160057982025728.000000 5414123417027590936367988736.000000 0.000000
5414123417027590936367988736.000000 1555381803893348338520555520.000000 0.000000
0.000000 0.000000 0.000000
4579172120155448806796924289024.000000 79096845658465590972766297784320.000000 0.000000
79096845658465590972766297784320.000000 43625724524837941914793085501440.000000 0.000000
0.000000 0.000000 0.000000
-525874097167465586708447232000.000000 -2648475741894386544267338186752.000000 0.000000
-2648475741894386544267338186752.000000 1518156337259169761081126027264.000000 0.000000
0.000000 0.000000 0.000000
73477640889368461001320789180416.000000 8450028419803374989811375931392.000000 0.000000
8450028419803374989811375931392.000000 688452460334284547904747077632.000000 0.000000
0.000000 0.000000 0.000000
24005947678299968133108433158144.000000 -9597657390318322843300443193344.000000 0.000000
-9597657390318322843300443193344.000000 2321108482672716949098669801472.000000 0.000000
0.000000 0.000000 0.000000
44800480304071172571710074388480.000000 19568142498544664241347221258240.000000 0.000000
19568142498544664241347221258240.000000 5073266058920336615138266185728.000000 0.000000
0.000000 0.000000 0.000000
-146550341660202495863395629137920.000000 17986846349965221368643058663424.000000 0.000000
17986846349965221368643058663424.000000 4068750786248913474724244226048.000000 0.000000
0.000000 0.000000 0.000000
4414235359358400424532932296704.000000 2570040277701196265447770554368.000000 0.000000
2570040277701196265447770554368.000000 825408690320204457607987986432.000000 0.000000
0.000000 0.000000 0.000000
29252349507446359158429692461056.000000 -5580354383939879415613973594112.000000 0.000000
-5580354383939879415613973594112.000000 693462298851202915681888632832.000000 0.000000
0.000000 0.000000 0.000000
-54928080587519657823089578737664.000000 40378185001102718579654722060288.000000 0.000000
40378185001102718579654722060288.000000 22302408451697465868102955696128.000000 0.000000
0.000000 0.000000 0.000000
-19387505315950950094181559697408.000000 39623958329794391196714720559104.000000 0.000000
39623958329794391196714720559104.000000 22889333197917167898137844514816.000000 0.000000
0.000000 0.000000 0.000000
-584870631531011501880624145235968.000000 -82395019320178947012774829490176.000000 0.000000
-82395019320178947012774829490176.000000 20876203513541581744655550119936.000000 0.000000
0.000000 0.000000 0.000000
21499009750304172616371463520256.000000 -22704098423563214066516775403520.000000 0.000000
-22704098423563214066516775403520.000000 9819585949729306703041969258496.000000 0.000000
0.000000 0.000000 0.000000
108875073806799268396881860886528.000000 14123873373503856630916781703168.000000 0.000000
14123873373503856630916781703168.000000 1222254346957627177337500991488.000000 0.000000
0.000000 0.000000 0.000000
19142278400371639616976323608576.000000 3044322305115878568556205441024.000000 0.000000
3044322305115878568556205441024.000000 333996811837160380286220894208.000000 0.000000
0.000000 0.000000 0.000000
-141423659013438812089621407596544.000000 -49606481740538605054633447522304.000000 0.000000
-49606481740538605054633447522304.000000 22440404628005074840755504152576.000000 0.000000
0.000000 0.000000 0.000000
265184919753359711439808205160448.000000 318446307474295442199989343748096.000000 0.000000
318446307474295442199989343748096.000000 142866668766109670963128903401472.000000 0.000000
0.000000 0.000000 0.000000
-50684830257629017486653776723968.000000 -169055846343087181338951005765632.000000 0.000000
-169055846343087181338951005765632.000000 96853764664630982788242655412224.000000 0.000000
0.000000 0.000000 0.000000
-187883962692105466443939163668480.000000 -65559074338966344380979179683840.000000 0.000000
-65559074338966344380979179683840.000000 29609561893956991764669485023232.000000 0.000000
0.000000 0.000000 0.000000
-257006111247292876016694258040832.000000 51316241048177087956677480677376.000000 0.000000
51316241048177087956677480677376.000000 16934781949930661232037991546880.000000 0.000000
0.000000 0.000000 0.000000
-1569311089924329109999134441472.000000 14545227538288600536615210713088.000000 0.000000
14545227538288600536615210713088.000000 8201015216371786574812965502976.000000 0.000000
0.000000 0.000000 0.000000
9179090140589452199536109813760.000000 -11553742690105580255835850801152.000000 0.000000
-11553742690105580255835850801152.000000 5257290001103020063927880908800.000000 0.000000
0.000000 0.000000 0.000000
46171110921582354095322580385792.000000 51679661889651552896278641770496.000000 0.000000
51679661889651552896278641770496.000000 23967933270039394135099211513856.000000 0.000000
0.000000 0.000000 0.000000
48281917964542170402934486990848.000000 -7440986055288587133764306468864.000000 0.000000
-7440986055288587133764306468864.000000 1212528228259057730463327059968.000000 0.000000
0.000000 0.000000 0.000000
-6704080934680758009515212800.000000 15084528838308259374045331456.000000 0.000000
15084528838308259374045331456.000000 8452623907710297145815859200.000000 0.000000
0.000000 0.000000 0.000000
32182413870868605299259481260032.000000 -89775652568303324635542390308864.000000 0.000000
-89775652568303324635542390308864.000000 46601044329077364141482347331584.000000 0.000000
0.000000 0.000000 0.000000
-463798254494726933140559183740928.000000 -132606586803704428450413878968320.000000 0.000000
-132606586803704428450413878968320.000000 54418706627368258965692196323328.000000 0.000000
0.000000 0.000000 0.000000
-11757010347189953957958890029056.000000 7520411867753377481923376447488.000000 0.000000
7520411867753377481923376447488.000000 4106570071527712580635969191936.000000 0.000000
0.000000 0.000000 0.000000
7859981186142984685459035127808.000000 -2004891819658639610502767968256.000000 0.000000
-2004891819658639610502767968256.000000 328028068174830546130860769280.000000 0.000000
0.000000 0.000000 0.000000
-387537998605804382515577464291328.000000 -57315573041301289609268738129920.000000 0.000000
-57315573041301289609268738129920.000000 15113936354203940411726597455872.000000 0.000000
0.000000 0.000000 0.000000
3330537539843561129246015356928.000000 19914298690809332761136090578944.000000 0.000000
19914298690809332761136090578944.000000 10788708330205779379197002645504.000000 0.000000
0.000000 0.000000 0.000000
60360177709469480542670182940672.000000 6059492017772425455882798628864.000000 0.000000
6059492017772425455882798628864.000000 494636334369127960061985947648.000000 0.000000
0.000000 0.000000 0.000000
5219555771078013890661906907136.000000 21410018288390501831660005228544.000000 0.000000
21410018288390501831660005228544.000000 11407652700593861763888660348928.000000 0.000000
0.000000 0.000000 0.000000
92263519504156830870653112418304.000000 -11449505738917191743177190539264.000000 0.000000
-11449505738917191743177190539264.000000 937215464250920462119119880192.000000 0.000000
0.000000 0.000000 0.000000
-99855018029941470916984356995072.000000 -259890448543611133756608348160.000000 0.000000
-259890448543611133756608348160.000000 3520459530061046962360156160.000000 0.000000
0.000000 0.000000 0.000000
36266499511223513080636832219136.000000 -6364362231830131208976127229952.000000 0.000000
-6364362231830131208976127229952.000000 729522678481144524669978673152.000000 0.000000
0.000000 0.000000 0.000000
-274462890732794754898558827102208.000000 198281473920982888689813185101824.000000 0.000000
198281473920982888689813185101824.000000 109197447618393402570792337670144.000000 0.000000
0.000000 0.000000 0.000000
-310176993937108030603476089176064.000000 -111789950152043722621283081388032.000000 0.000000
-111789950152043722621283081388032.000000 51245208174753168282504021409792.000000 0.000000
0.000000 0.000000 0.000000
183102393383807255105522106368.000000 -93812921151097539116964773888.000000 0.000000
-93812921151097539116964773888.000000 27426574903654166301375463424.000000 0.000000
0.000000 0.000000 0.000000
26642011751999562299830502948864.000000 15300046451356014566087229177856.000000 0.000000
15300046451356014566087229177856.000000 4831029360303119396871660896256.000000 0.000000
0.000000 0.000000 0.000000
-49166613048375265258712858624.000000 28776550841761387309726433280.000000 0.000000
28776550841761387309726433280.000000 15283282374664746380520587264.000000 0.000000
0.000000 0.000000 0.000000
8676224051078035279772534177792.000000 -1948100259934316590160253288448.000000 0.000000
-1948100259934316590160253288448.000000 282121177543303099863732846592.000000 0.000000
0.000000 0.000000 0.000000
-80543882042142719380538611728384.000000 -88207957366422531095853128482816.000000 0.000000
-88207957366422531095853128482816.000000 50992977026377789203809497513984.000000 0.000000
0.000000 0.000000 0.000000
12857060676715752768722677268480.000000 8116537514860072598342597607424.000000 0.000000
8116537514860072598342597607424.000000 2731005872149368649816865767424.000000 0.000000
0.000000 0.000000 0.000000
-42274314572385679287756376768512.000000 -7703912012601655897989998182400.000000 0.000000
-7703912012601655897989998182400.000000 2381641380201140954921946841088.000000 0.000000
0.000000 0.000000 0.000000
8388110772549784275364280795136.000000 6912768019422082675369710714880.000000 0.000000
6912768019422082675369710714880.000000 2682997208300238441364517289984.000000 0.000000
0.000000 0.000000 0.000000
-114722833217383024186159857139712.000000 35151019614148900217417445146624.000000 0.000000
35151019614148900217417445146624.000000 15038409978055532691462702497792.000000 0.000000
0.000000 0.000000 0.000000
-156184280751201549011494497157120.000000 49349757744867571920823600021504.000000 0.000000
49349757744867571920823600021504.000000 21294359432278758908876025757696.000000 0.000000
0.000000 0.000000 0.000000
-2776626496521147002790180640784384.000000 180289862799661352635317442576384.000000 0.000000
180289862799661352635317442576384.000000 22941247364494536157817817006080.000000 0.000000
0.000000 0.000000 0.000000
37562208088801784772272586752.000000 32425012754167090004352827392.000000 0.000000
32425012754167090004352827392.000000 12859588329200579973910364160.000000 0.000000
0.000000 0.000000 0.000000
-1581001882706090260837729042432.000000 -297368555364114560675240476672.000000 0.000000
-297368555364114560675240476672.000000 49562423686669562237574709248.000000 0.000000
0.000000 0.000000 0.000000
-2906194187246654570461883531264.000000 -13503957757628045269411012018176.000000 0.000000
-13503957757628045269411012018176.000000 7708504550327049165463640604672.000000 0.000000
0.000000 0.000000 0.000000
7393860747491381196131139584.000000 -10851354438410641971324387328.000000 0.000000
-10851354438410641971324387328.000000 6742079337629080367432466432.000000 0.000000
0.000000 0.000000 0.000000
82178763690113085238266275299328.000000 -66524064787736545627954015633408.000000 0.000000
-66524064787736545627954015633408.000000 25595991530599205521446674628608.000000 0.000000
0.000000 0.000000 0.000000
57566648025599243352709005312.000000 -51657030278282233346495873024.000000 0.000000
-51657030278282233346495873024.000000 20836666104581740035626237952.000000 0.000000
0.000000 0.000000 0.000000
-93913938084807460603827851362304.000000 107831623095105452936093040115712.000000 0.000000
107831623095105452936093040115712.000000 61783296008338950113015896211456.000000 0.000000
0.000000 0.000000 0.000000
-38067905628347669554553279217664.000000 2703302781308482245563309359104.000000 0.000000
2703302781308482245563309359104.000000 641765937572591874527176163328.000000 0.000000
0.000000 0.000000 0.000000
29614915244855615641229031636992.000000 85710455712160431676341172043776.000000 0.000000
85710455712160431676341172043776.000000 44631253623198792434835477495808.000000 0.000000
0.000000 0.000000 0.000000
122854171670462196307219544276992.000000 33197819657023615206170938048512.000000 0.000000
33197819657023615206170938048512.000000 5706009862284267593131129569280.000000 0.000000
0.000000 0.000000 0.000000
-31320154328898957038933914943488.000000 -64191701853351780016276599996416.000000 0.000000
-64191701853351780016276599996416.000000 37024121464133699422592637599744.000000 0.000000
0.000000 0.000000 0.000000
65267658453711870093162732060672.000000 -40958228636336076816785612996608.000000 0.000000
-40958228636336076816785612996608.000000 13682674540333597441789807034368.000000 0.000000
0.000000 0.000000 0.000000
188923382281172752843189826617344.000000 -77796181311620518539217151721472.000000 0.000000
-77796181311620518539217151721472.000000 19210443661898181820020200308736.000000 0.000000
0.000000 0.000000 0.000000
-27114332231065501544246591619072.000000 723607581472539498732568182784.000000 0.000000
723607581472539498732568182784.000000 51050884230093802391520411648.000000 0.000000
0.000000 0.000000 0.000000
12053698100500921782522808893440.000000 8407442219781382193772530499584.000000 0.000000
8407442219781382193772530499584.000000 3001444860183102714987147165696.000000 0.000000
0.000000 0.000000 0.000000
-638286588742044129489447813120.000000 470507074405466808820057505792.000000 0.000000
470507074405466808820057505792.000000 536902804583656714808623890432.000000 0.000000
0.000000 0.000000 0.000000
77591571016819537600483566813184.000000 67594417074723364834139743191040.000000 0.000000
67594417074723364834139743191040.000000 26919746674381019952585128280064.000000 0.000000
0.000000 0.000000 0.000000
-28808553691416639400972763791360.000000 -63761367715239820090833960435712.000000 0.000000
-63761367715239820090833960435712.000000 36801412947523898584744639594496.000000 0.000000
0.000000 0.000000 0.000000
16977803109504269156706603237376.000000 -4421586009321106987984141418496.000000 0.000000
-4421586009321106987984141418496.000000 735366176675631807600586129408.000000 0.000000
0.000000 0.000000 0.000000
-8240870659647989761321911946575872.000000 252509939892069108768991711592448.000000 0.000000
252509939892069108768991711592448.000000 15394287419110417435174622986240.000000 0.000000
0.000000 0.000000 0.000000
16120088312273743081169903157248.000000 9780565275343949180321153417216.000000 0.000000
9780565275343949180321153417216.000000 3144043964279103913946100269056.000000 0.000000
0.000000 0.000000 0.000000
105705939906642888874627432448.000000 -5473902585454589822954897408.000000 0.000000
-5473902585454589822954897408.000000 292470259861313683346948096.000000 0.000000
0.000000 0.000000 0.000000
96546402288464092557853126033408.000000 90438920257192574212336628269056.000000 0.000000
90438920257192574212336628269056.000000 37139011272330814315949017006080.000000 0.000000
0.000000 0.000000 0.000000
-25264089966449780561948488761344.000000 -134678245378201212704303246999552.000000 0.000000
-134678245378201212704303246999552.000000 76422111837382141114625552285696.000000 0.000000
0.000000 0.000000 0.000000
43119727901069344136894015864832.000000 230758740605601802084846479081472.000000 0.000000
230758740605601802084846479081472.000000 124397155701484141174791855931392.000000 0.000000
0.000000 0.000000 0.000000
47468020554515041735777890336768.000000 -21129464423923410833295632498688.000000 0.000000
-21129464423923410833295632498688.000000 5550418013517350840640183730176.000000 0.000000
0.000000 0.000000 0.000000
41592254441500575568077996949504.000000 19244205649399905142860960235520.000000 0.000000
19244205649399905142860960235520.000000 5203795035922844001719069704192.000000 0.000000
0.000000 0.000000 0.000000
-36262648833211355657160777269248.000000 23094688348146957119951145533440.000000 0.000000
23094688348146957119951145533440.000000 12621778972277246993662973313024.000000 0.000000
0.000000 0.000000 0.000000
-687381710495725359696750433009664.000000 -192785212647563633499655253262336.000000 0.000000
-192785212647563633499655253262336.000000 78310272187782660467914103062528.000000 0.000000
0.000000 0.000000 0.000000
8902835130475902146188704481280.000000 -965395528726642570169585500160.000000 0.000000
-965395528726642570169585500160.000000 71040523581445637567965822976.000000 0.000000
0.000000 0.000000 0.000000
59477431648216822242300886253568.000000 92868105345978770249508479565824.000000 0.000000
92868105345978770249508479565824.000000 44484652352746459195399515144192.000000 0.000000
0.000000 0.000000 0.000000
-2127500579983268710943603935936512.000000 -141840885985247557275338810589184.000000 0.000000
-141840885985247557275338810589184.000000 18403516864710926374401470365696.000000 0.000000
0.000000 0.000000 0.000000
32939182871387811708489527459840.000000 -20815020765575875527281924374528.000000 0.000000
-20815020765575875527281924374528.000000 7004142342780281193621515927552.000000 0.000000
0.000000 0.000000 0.000000
6943567038479886228718989869056.000000 -3420582892871986802230009266176.000000 0.000000
-3420582892871986802230009266176.000000 1039389745443082126926781874176.000000 0.000000
0.000000 0.000000 0.000000
9042978056737907394472224751616.000000 14203703180333449433650554732544.000000 0.000000
14203703180333449433650554732544.000000 7349612097364649120946211258368.000000 0.000000
0.000000 0.000000 0.000000
41105858386990093424369074176000.000000 46191437202474735311655236796416.000000 0.000000
46191437202474735311655236796416.000000 20308181496264067311848816377856.000000 0.000000
0.000000 0.000000 0.000000
47798776688628610289796336582656.000000 -25308182574914559812855020912640.000000 0.000000
-25308182574914559812855020912640.000000 8246635667391432404701638819840.000000 0.000000
0.000000 0.000000 0.000000
36061164034144474244631723245568.000000 -32756977488210793292587451023360.000000 0.000000
-32756977488210793292587451023360.000000 13244519571853152240956591833088.000000 0.000000
0.000000 0.000000 0.000000
347551871819772667762106720845824.000000 -206210467955586712146718417223680.000000 0.000000
-206210467955586712146718417223680.000000 66480382494917934681056786513920.000000 0.000000
0.000000 0.000000 0.000000
37910984587429628942075400552448.000000 2943128792851883367030170058752.000000 0.000000
2943128792851883367030170058752.000000 154258877334876872205989314560.000000 0.000000
0.000000 0.000000 0.000000
8693251011486580170782706499584.000000 -77745265971058963096425283452928.000000 0.000000
-77745265971058963096425283452928.000000 42491116385713579546130373410816.000000 0.000000
0.000000 0.000000 0.000000
31824157055593629152863594741760.000000 10838720404858234185818688192512.000000 0.000000
10838720404858234185818688192512.000000 2284858751167734954813294641152.000000 0.000000
0.000000 0.000000 0.000000
227317156219355538278739087458304.000000 -26913351608869847412743031750656.000000 0.000000
-26913351608869847412743031750656.000000 2618318972694660599386604568576.000000 0.000000
0.000000 0.000000 0.000000
8335166554633570284208513875968.000000 -1730550627602136761415518650368.000000 0.000000
-1730550627602136761415518650368.000000 235569351072759356921797935104.000000 0.000000
0.000000 0.000000 0.000000
-24465029773422620557620474281984.000000 13336779816515998833685817196544.000000 0.000000
13336779816515998833685817196544.000000 7142644948597705171047083409408.000000 0.000000
0.000000 0.000000 0.000000
7113539035620553430643857424384.000000 27710998664568411025111775182848.000000 0.000000
27710998664568411025111775182848.000000 14725895392245002371653045321728.000000 0.000000
0.000000 0.000000 0.000000
-2478160400486211739216460644352.000000 34759658981971755361042956288.000000 0.000000
34759658981971755361042956288.000000 7734069120627121259808817152.000000 0.000000
0.000000 0.000000 0.000000
4887668709898982930462732713984.000000 1753711362988282002529100759040.000000 0.000000
1753711362988282002529100759040.000000 387529440663112684026577551360.000000 0.000000
0.000000 0.000000 0.000000
70367324124100462801885648125952.000000 -351187316255568405802588571697152.000000 0.000000
-351187316255568405802588571697152.000000 188816133565132981032696640700416.000000 0.000000
0.000000 0.000000 0.000000
-105803839771155149062309842780160.000000 -116314420741236221316222727225344.000000 0.000000
-116314420741236221316222727225344.000000 66523257027238781871217398775808.000000 0.000000
0.000000 0.000000 0.000000
33761991285193028324672831225856.000000 19542246159424851289038802386944.000000 0.000000
19542246159424851289038802386944.000000 6214466834928414268680088584192.000000 0.000000
0.000000 0.000000 0.000000
-43958406429373117300868707778560.000000 41642577752468723939870806900736.000000 0.000000
41642577752468723939870806900736.000000 23599708065263955605835019714560.000000 0.000000
0.000000 0.000000 0.000000
80748730888079864532163715137536.000000 1178270866896163669966585856000.000000 0.000000
1178270866896163669966585856000.000000 67756894742666300306411749376.000000 0.000000
0.000000 0.000000 0.000000
16733418499265109351162785562624.000000 44450664821537556368167297613824.000000 0.000000
44450664821537556368167297613824.000000 22970687121740374488773994479616.000000 0.000000
0.000000 0.000000 0.000000
71772422950738932225832120221696.000000 17144471309200390559499036917760.000000 0.000000
17144471309200390559499036917760.000000 2629985028554873748666456211456.000000 0.000000
0.000000 0.000000 0.000000
-2043249877774917136999695792472064.000000 250939464714813221512806039289856.000000 0.000000
250939464714813221512806039289856.000000 56754952507788552436220589768704.000000 0.000000
0.000000 0.000000 0.000000
38275782643586009922749434167296.000000 3758602139462826560570913718272.000000 0.000000
3758602139462826560570913718272.000000 246827960793499346837555904512.000000 0.000000
0.000000 0.000000 0.000000
126956086387151661384104522285056.000000 75689329601606037814683254128640.000000 0.000000
75689329601606037814683254128640.000000 24474268568460395154210448998400.000000 0.000000
0.000000 0.000000 0.000000
7973337643530431389379116138496.000000 -8957922148745813733102550253568.000000 0.000000
-8957922148745813733102550253568.000000 3963914145129195813268176764928.000000 0.000000
0.000000 0.000000 0.000000
-4764226368976175727711996608512.000000 843841199278431785785202049024.000000 0.000000
843841199278431785785202049024.000000 255740320195831514742610984960.000000 0.000000
0.000000 0.000000 0.000000
-404063447810452733733949946200064.000000 -8703232365490636198413854572544.000000 0.000000
-8703232365490636198413854572544.000000 1034803198252745764360048082944.000000 0.000000
0.000000 0.000000 0.000000
40599284106875297520464416473088.000000 318796291843779500911395602432.000000 0.000000
318796291843779500911395602432.000000 6782682037140939345280106496.000000 0.000000
0.000000 0.000000 0.000000
-27248103359806250037269980250112.000000 96425237888425823055301744525312.000000 0.000000
96425237888425823055301744525312.000000 55166957375962242502678898802688.000000 0.000000
0.000000 0.000000 0.000000
-1760395915789429655630335161925632.000000 282895192028518461394268882731008.000000 0.000000
282895192028518461394268882731008.000000 79600145748257638608296778661888.000000 0.000000
0.000000 0.000000 0.000000
-13860008352406212238818687320064.000000 26262532336179920676865735393280.000000 0.000000
26262532336179920676865735393280.000000 15216928253557834499684424482816.000000 0.000000
0.000000 0.000000 0.000000
-1358649701665395017838562113486848.000000 4325365846646095137407449956352.000000 0.000000
4325365846646095137407449956352.000000 108259311729407207340171591680.000000 0.000000
0.000000 0.000000 0.000000
-822053423691076835028674845605888.000000 113130669301377902394988197576704.000000 0.000000
113130669301377902394988197576704.000000 28151146996109158635999686819840.000000 0.000000
0.000000 0.000000 0.000000
185712508587459363304980348928.000000 -77090187535928244168313274368.000000 0.000000
-77090187535928244168313274368.000000 19298105627612092290960457728.000000 0.000000
0.000000 0.000000 0.000000
-22759063572516126772132514365440.000000 53221532010601296242084530880512.000000 0.000000
53221532010601296242084530880512.000000 30660886743121890181003062804480.000000 0.000000
0.000000 0.000000 0.000000
34933951003504177055618937389056.000000 -50838229221968286705546407444480.000000 0.000000
-50838229221968286705546407444480.000000 23985251390877656865534275223552.000000 0.000000
0.000000 0.000000 0.000000
-30122464128886350258351753920512.000000 49059959440048313646876509339648.000000 0.000000
49059959440048313646876509339648.000000 28298226341161560814860703367168.000000 0.000000
0.000000 0.000000 0.000000
38685862023601647387578623590400.000000 -33957065877496054498224146219008.000000 0.000000
-33957065877496054498224146219008.000000 13573334643669915525145052577792.000000 0.000000
0.000000 0.000000 0.000000
-63319132648177381061987777118208.000000 33741383986880115465572170334208.000000 0.000000
33741383986880115465572170334208.000000 17531702421628536291603783876608.000000 0.000000
0.000000 0.000000 0.000000
68192975392360846429823136956416.000000 55436736158809188783839525208064.000000 0.000000
55436736158809188783839525208064.000000 21370640293108404719701150662656.000000 0.000000
0.000000 0.000000 0.000000
97277022099607216758185686728704.000000 57946948866280101500265091301376.000000 0.000000
57946948866280101500265091301376.000000 18721704877151220247228372221952.000000 0.000000
0.000000 0.000000 0.000000
-64643525086679861087102597857280.000000 22335286803563776004445819633664.000000 0.000000
22335286803563776004445819633664.000000 10056994915942594072244060684288.000000 0.000000
0.000000 0.000000 0.000000
84239978127504052472656309518336.000000 72687070994370201570988695486464.000000 0.000000
72687070994370201570988695486464.000000 28826456223061797496029427269632.000000 0.000000
0.000000 0.000000 0.000000
-1001320523759824895787000894849024.000000 -69902708409161720505524801241088.000000 0.000000
-69902708409161720505524801241088.000000 9493539673472306390718086119424.000000 0.000000
0.000000 0.000000 0.000000
-1245972536512878622854746084474880.000000 -214286605321783388954388787625984.000000 0.000000
-214286605321783388954388787625984.000000 63594953248659459469708724535296.000000 0.000000
0.000000 0.000000 0.000000
3929413266402894466076974776320.000000 -8940775129184825121707407704064.000000 0.000000
-8940775129184825121707407704064.000000 4629809221661559807612702162944.000000 0.000000
0.000000 0.000000 0.000000
28084872645572853097897371107328.000000 -8352497610046207022461156851712.000000 0.000000
-8352497610046207022461156851712.000000 1600830245583660823417949519872.000000 0.000000
0.000000 0.000000 0.000000
18231518198593724314887443709952.000000 -18886406767703014943121301569536.000000 0.000000
-18886406767703014943121301569536.000000 8195016562806731656180625571840.000000 0.000000
0.000000 0.000000 0.000000
78507898107928631844799822954496.000000 -76163595445655557009029298388992.000000 0.000000
-76163595445655557009029298388992.000000 31745378618687792524380950495232.000000 0.000000
0.000000 0.000000 0.000000
-49246334303080830377861421465600.000000 -28617155233773537052216736612352.000000 0.000000
-28617155233773537052216736612352.000000 15191453346534314065777838260224.000000 0.000000
0.000000 0.000000 0.000000
445189852887589918813545302065152.000000 -750033248701308548109512650784768.000000 0.000000
-750033248701308548109512650784768.000000 364637773822610825993176244813824.000000 0.000000
0.000000 0.000000 0.000000
2919346175382132405406812602368.000000 986374742509886157487280750592.000000 0.000000
986374742509886157487280750592.000000 206532884077760173600248168448.000000 0.000000
0.000000 0.000000 0.000000
-1089850804444405470657599638601728.000000 66304427856444223108182502801408.000000 0.000000
66304427856444223108182502801408.000000 7903788589710609909866848845824.000000 0.000000
0.000000 0.000000 0.000000
-291722897838136603466038354378752.000000 182083469933617164714798366064640.000000 0.000000
182083469933617164714798366064640.000000 97917941396113902346346514350080.000000 0.000000
0.000000 0.000000 0.000000
63451869680714393711757020364800.000000 -27536072574973971294775840604160.000000 0.000000
-27536072574973971294775840604160.000000 7342838171759120077167922249728.000000 0.000000
0.000000 0.000000 0.000000
5591217150136160641957287165952.000000 -17599772992101147691580190097408.000000 0.000000
-17599772992101147691580190097408.000000 9284988890063841999385371082752.000000 0.000000
0.000000 0.000000 0.000000
-346675758270461613405433216630784.000000 7021004877200023849147077492736.000000 0.000000
7021004877200023849147077492736.000000 232820942253451065851037876224.000000 0.000000
0.000000 0.000000 0.000000
-109674018293475137792938611373506560.000000 1674119124691798825233727635849216.000000 0.000000
1674119124691798825233727635849216.000000 51035180229049558323797518450688.000000 0.000000
0.000000 0.000000 0.000000
-872619112492902484182671047000064.000000 51759632447199399141365736538112.000000 0.000000
51759632447199399141365736538112.000000 6097215832021303986429817257984.000000 0.000000
0.000000 0.000000 0.000000
-493665511337527455930123296964608.000000 41766815138328253894696154169344.000000 0.000000
41766815138328253894696154169344.000000 6789296561087346311384526749696.000000 0.000000
0.000000 0.000000 0.000000
-74191234502375654667324263235584.000000 -45278935384790648514580903362560.000000 0.000000
-45278935384790648514580903362560.000000 24243459738602423887324919103488.000000 0.000000
0.000000 0.000000 0.000000
4039932822594446638933132443648.000000 27009599502658645292776849145856.000000 0.000000
27009599502658645292776849145856.000000 14735376506385297681800289583104.000000 0.000000
0.000000 0.000000 0.000000
33205817555014181524818601443328.000000 47018640698016022450824739291136.000000 0.000000
47018640698016022450824739291136.000000 22077920691028786015384534777856.000000 0.000000
0.000000 0.000000 0.000000
-593215388958621922425172918272.000000 -80183444611381500997405769728.000000 0.000000
-80183444611381500997405769728.000000 19792352476977252752324296704.000000 0.000000
0.000000 0.000000 0.000000
-326688565021218679838308128784384.000000 -108606946073235801788668344008704.000000 0.000000
-108606946073235801788668344008704.000000 48012086103165619769405410902016.000000 0.000000
0.000000 0.000000 0.000000
-12313334607453971190319593553920.000000 -13751518440527680685307009695744.000000 0.000000
-13751518440527680685307009695744.000000 7847376229046272170668645679104.000000 0.000000
0.000000 0.000000 0.000000
-1621196734550964989789321822208.000000 -201896095748579063432195604480.000000 0.000000
-201896095748579063432195604480.000000 46205453096732925941342273536.000000 0.000000
0.000000 0.000000 0.000000
17249533597950688646485814280192.000000 -21455327636782338609592391434240.000000 0.000000
-21455327636782338609592391434240.000000 9904185291580910357161409773568.000000 0.000000
0.000000 0.000000 0.000000
46548267407315555892244328218624.000000 249616832775040827081470509056.000000 0.000000
249616832775040827081470509056.000000 5374568115493139675739062272.000000 0.000000
0.000000 0.000000 0.000000
-368741910580655966356717327876096.000000 -104798922776534949609276050505728.000000 0.000000
-104798922776534949609276050505728.000000 42872008138362525718262803595264.000000 0.000000
0.000000 0.000000 0.000000
34358602491481765498527877693440.000000 43439957782227020610513244520448.000000 0.000000
43439957782227020610513244520448.000000 20102893981583302442816513245184.000000 0.000000
0.000000 0.000000 0.000000
20904801766759785238655462801408.000000 -7488160615007656259689782444032.000000 0.000000
-7488160615007656259689782444032.000000 1649395129573526996143638052864.000000 0.000000
0.000000 0.000000 0.000000
3300346526394303351576131010560.000000 -13443074818921769049483185750016.000000 0.000000
-13443074818921769049483185750016.000000 7164736026378101543227325677568.000000 0.000000
0.000000 0.000000 0.000000
25481232153889623406821869879296.000000 -16247011012246495082018164965376.000000 0.000000
-16247011012246495082018164965376.000000 5482588803889335707737228574720.000000 0.000000
0.000000 0.000000 0.000000
-63784381633789009065699966976.000000 -69961237208430319598015873024.000000 0.000000
-69961237208430319598015873024.000000 39910350821948394028763447296.000000 0.000000
0.000000 0.000000 0.000000
1532389051789102589175339679744.000000 -13052507069386355418123116478464.000000 0.000000
-13052507069386355418123116478464.000000 7294237714322293306616470044672.000000 0.000000
0.000000 0.000000 0.000000
4639998290754769111291527168.000000 -6751140983501780177723064320.000000 0.000000
-6751140983501780177723064320.000000 3184974189262093910856957952.000000 0.000000
0.000000 0.000000 0.000000
-98443126515829936165040183836672.000000 -65838505014623168163007088820224.000000 0.000000
-65838505014623168163007088820224.000000 35808957261699322461626744963072.000000 0.000000
0.000000 0.000000 0.000000
-954998853962681339914418030379008.000000 125666989323544041101637026054144.000000 0.000000
125666989323544041101637026054144.000000 30117359948974085991938603876352.000000 0.000000
0.000000 0.000000 0.000000
33838637775183897893850216136704.000000 6555475718182507471750920404992.000000 0.000000
6555475718182507471750920404992.000000 826861476230751748137053847552.000000 0.000000
0.000000 0.000000 0.000000
76240804513366093199765644771328.000000 139935322738563470607411310493696.000000 0.000000
139935322738563470607411310493696.000000 69045200344855162560161251328000.000000 0.000000
0.000000 0.000000 0.000000
-5427310986070095714521274384384.000000 59323242226886520705705094152192.000000 0.000000
59323242226886520705705094152192.000000 33373655160493357953072580526080.000000 0.000000
0.000000 0.000000 0.000000
64629905339356511102350443675648.000000 28667676289062840286714229948416.000000 0.000000
28667676289062840286714229948416.000000 7511694201553687324931970301952.000000 0.000000
0.000000 0.000000 0.000000
-48523760249156855168535363584.000000 46309666825581497062587891712.000000 0.000000
46309666825581497062587891712.000000 26259577299797782097549066240.000000 0.000000
0.000000 0.000000 0.000000
-24683891895187586686739084738560.000000 -11840595749944503154539099062272.000000 0.000000
-11840595749944503154539099062272.000000 5981215595562149142342498516992.000000 0.000000
0.000000 0.000000 0.000000
46131089346810643856701721149440.000000 49957819147542820742846228725760.000000 0.000000
49957819147542820742846228725760.000000 21687528172745091545846587064320.000000 0.000000
0.000000 0.000000 0.000000
-2310859320137637324856135516160.000000 66893444102310488480716274270208.000000 0.000000
66893444102310488480716274270208.000000 37378015162746741372709272289280.000000 0.000000
0.000000 0.000000 0.000000
-29835793467095935109445464358912.000000 31298556842484039931151970729984.000000 0.000000
31298556842484039931151970729984.000000 17901927803516334522927444656128.000000 0.000000
0.000000 0.000000 0.000000
-1982276535395936644679901361733632.000000 167763811309974775044093518020608.000000 0.000000
167763811309974775044093518020608.000000 27330329885387037803149405454336.000000 0.000000
0.000000 0.000000 0.000000
-6705843406221868386998714105856.000000 -3938454955416485760484031594496.000000 0.000000
-3938454955416485760484031594496.000000 2143624951532945412356975886336.000000 0.000000
0.000000 0.000000 0.000000
38407052643279022685499078737920.000000 21327657785307878143588015538176.000000 0.000000
21327657785307878143588015538176.000000 6595702042950520704715607506944.000000 0.000000
0.000000 0.000000 0.000000
-86052852930627978192879775383552.000000 -133812044062279098858799234023424.000000 0.000000
-133812044062279098858799234023424.000000 77204300202629860772457220145152.000000 0.000000
0.000000 0.000000 0.000000
745232569239028509107476758528.000000 229955776451104973407935004672.000000 0.000000
229955776451104973407935004672.000000 125292324006161334173224140800.000000 0.000000
0.000000 0.000000 0.000000
-1114428997546360868252126191550464.000000 121511411581736631606344274673664.000000 0.000000
121511411581736631606344274673664.000000 24797688707390631197345367195648.000000 0.000000
0.000000 0.000000 0.000000
4149756270665467239415676928.000000 -2839429169623930019178872832.000000 0.000000
-2839429169623930019178872832.000000 998945064016244776225472512.000000 0.000000
0.000000 0.000000 0.000000
76886591263222275419968355958784.000000 42620516569869384468928458129408.000000 0.000000
42620516569869384468928458129408.000000 13143744848429226002382971731968.000000 0.000000
0.000000 0.000000 0.000000
297093597069643652673815544070144.000000 -309872581162933051537976174051328.000000 0.000000
-309872581162933051537976174051328.000000 132724158674736134937393277960192.000000 0.000000
0.000000 0.000000 0.000000
137514494984728846748582712180736.000000 -79274641412444441821693180116992.000000 0.000000
-79274641412444441821693180116992.000000 25078215244866539281498503118848.000000 0.000000
0.000000 0.000000 0.000000
-362400006278665452920139683987456.000000 -214440279853632198244906777444352.000000 0.000000
-214440279853632198244906777444352.000000 114118594737172334228318871093248.000000 0.000000
0.000000 0.000000 0.000000
73344765917270636499588570152960.000000 -9874319872443900829700911529984.000000 0.000000
-9874319872443900829700911529984.000000 1329897388392351302970469515264.000000 0.000000
0.000000 0.000000 0.000000
-46187527693651563990908649078784.000000 433047673704748642213564514304.000000 0.000000
433047673704748642213564514304.000000 34327078845344286877046276096.000000 0.000000
0.000000 0.000000 0.000000
27579831077676095121237416607744.000000 21370964077288904280482980560896.000000 0.000000
21370964077288904280482980560896.000000 8053569968610215077258190651392.000000 0.000000
0.000000 0.000000 0.000000
-305359664985343636913121157709824.000000 77747382063541131896182250930176.000000 0.000000
77747382063541131896182250930176.000000 29921847327740598578601986621440.000000 0.000000
0.000000 0.000000 0.000000
-862615291335151587589840416008044544.000000 -3068215969230917264244251390115840.000000 0.000000
-3068215969230917264244251390115840.000000 21829784618794554353901950205952.000000 0.000000
0.000000 0.000000 0.000000
292255835912836241722649346048.000000 -264224554442399044522800578560.000000 0.000000
-264224554442399044522800578560.000000 299478341546445277392317448192.000000 0.000000
0.000000 0.000000 0.000000
73863514952542157447402709057536.000000 76777094994272850631859942457344.000000 0.000000
76777094994272850631859942457344.000000 32843239243451714056920938577920.000000 0.000000
0.000000 0.000000 0.000000
-11326730838239880651994382204928.000000 -9056489991910673569561893142528.000000 0.000000
-9056489991910673569561893142528.000000 5040587746560160828243371360256.000000 0.000000
0.000000 0.000000 0.000000
8166821726483070561158973882368.000000 4099359845582559955975164395520.000000 0.000000
4099359845582559955975164395520.000000 1177294898626320384134259671040.000000 0.000000
0.000000 0.000000 0.000000
80901661395488756543272851079168.000000 48868281913767844849110392766464.000000 0.000000
48868281913767844849110392766464.000000 15583069116536347765315123281920.000000 0.000000
0.000000 0.000000 0.000000
-31451386154128447655358073143296.000000 47277647028447898360578335309824.000000 0.000000
47277647028447898360578335309824.000000 27270576962320608882345839165440.000000 0.000000
0.000000 0.000000 0.000000
5337286554416809142296460132352.000000 974199485458265209097689235456.000000 0.000000
974199485458265209097689235456.000000 123337120738880391341370507264.000000 0.000000
0.000000 0.000000 0.000000
-925348200363454073326396361408512.000000 -165127572991578940394983009550336.000000 0.000000
-165127572991578940394983009550336.000000 50270515657014097688672197410816.000000 0.000000
0.000000 0.000000 0.000000
29491829513856906727556445634560.000000 24180436669180715771178476634112.000000 0.000000
24180436669180715771178476634112.000000 9361812465533497580349449830400.000000 0.000000
0.000000 0.000000 0.000000
-647461056316710980021987737337856.000000 218438105006429293775379933167616.000000 0.000000
218438105006429293775379933167616.000000 97141660032397847194292730200064.000000 0.000000
0.000000 0.000000 0.000000
-572794197211213515868057108480.000000 -40946704592989139109358338048.000000 0.000000
-40946704592989139109358338048.000000 23048405557224154190980317184.000000 0.000000
0.000000 0.000000 0.000000
-95043695651606223613468575006720.000000 208025839892342464710210224128000.000000 0.000000
208025839892342464710210224128000.000000 119906004200521729801543359660032.000000 0.000000
0.000000 0.000000 0.000000
-1995123804957315656764880846848.000000 -329047111394743314726170656768.000000 0.000000
-329047111394743314726170656768.000000 40402544402744447158139748352.000000 0.000000
0.000000 0.000000 0.000000
4571653157495896971276550406144.000000 3824344192532367906655174656000.000000 0.000000
3824344192532367906655174656000.000000 1306545678386995241051800731648.000000 0.000000
0.000000 0.000000 0.000000
285405483753356001522464325632.000000 65599887004417837647467118592.000000 0.000000
65599887004417837647467118592.000000 11507149786305685130370351104.000000 0.000000
0.000000 0.000000 0.000000
-37381870616633787967850151936.000000 93547882699447503283950714880.000000 0.000000
93547882699447503283950714880.000000 60704934505949832839727939584.000000 0.000000
0.000000 0.000000 0.000000
-47184641585502286165233020960768.000000 -80679813862022309027519836192768.000000 0.000000
-80679813862022309027519836192768.000000 46569716273424696411264225640448.000000 0.000000
0.000000 0.000000 0.000000
30978693336399972954417473257472.000000 -30208361312073064474906191724544.000000 0.000000
-30208361312073064474906191724544.000000 12600598941042406411806005264384.000000 0.000000
0.000000 0.000000 0.000000
-1688716655336778274701312000.000000 -18643104602118307460725866496.000000 0.000000
-18643104602118307460725866496.000000 11332340388020270733203603456.000000 0.000000
0.000000 0.000000 0.000000
-711435879212548176782295040.000000 942542567778632922378010624.000000 0.000000
942542567778632922378010624.000000 487018274452820600649940992.000000 0.000000
0.000000 0.000000 0.000000
-84651871894519518292783774302208.000000 210651431837653044058189486620672.000000 0.000000
210651431837653044058189486620672.000000 121196843096583376980546414444544.000000 0.000000
0.000000 0.000000 0.000000
-33615174540700210499687236501504.000000 13332171707533022355141532057600.000000 0.000000
13332171707533022355141532057600.000000 6341309828261209962089426190336.000000 0.000000
0.000000 0.000000 0.000000
-16934510149568270637059876585472.000000 -37781295977209283415263212994560.000000 0.000000
-37781295977209283415263212994560.000000 21772559383299717174455093428224.000000 0.000000
0.000000 0.000000 0.000000
-36352206059711661702075887124480.000000 42309604262584059121899466129408.000000 0.000000
42309604262584059121899466129408.000000 24393437715444557262913819115520.000000 0.000000
0.000000 0.000000 0.000000
-262561953677666284501410512896.000000 1174376492013090402139107229696.000000 0.000000
1174376492013090402139107229696.000000 677653820295279643155144638464.000000 0.000000
0.000000 0.000000 0.000000
16423854855624584595210007216128.000000 -64201517555855940702265644417024.000000 0.000000
-64201517555855940702265644417024.000000 34124160805290665352031826345984.000000 0.000000
0.000000 0.000000 0.000000
10374874023542736984448467730432.000000 16321087046714913638759807320064.000000 0.000000
16321087046714913638759807320064.000000 7840798860508154134810276659200.000000 0.000000
0.000000 0.000000 0.000000
-1006049501626121174567259996160.000000 7346094574913420440758502031360.000000 0.000000
7346094574913420440758502031360.000000 4172204426434033753050987888640.000000 0.000000
0.000000 0.000000 0.000000
5651996863141528755174891323392.000000 64793702963571806464407316201472.000000 0.000000
64793702963571806464407316201472.000000 35558979367013808639877700386816.000000 0.000000
0.000000 0.000000 0.000000
53233372538243198052168590426112.000000 10225607926252299398445591953408.000000 0.000000
10225607926252299398445591953408.000000 1350430451231051096473812860928.000000 0.000000
0.000000 0.000000 0.000000
-35083274965597377302973441376256.000000 -15251510895176936730991322464256.000000 0.000000
-15251510895176936730991322464256.000000 7534868627859981082558145232896.000000 0.000000
0.000000 0.000000 0.000000
-177065690184905321956538702626816.000000 -2104750385122466759238756597760.000000 0.000000
-2104750385122466759238756597760.000000 191146498401918268907622236160.000000 0.000000
0.000000 0.000000 0.000000
41860608523104099123482285047808.000000 -360154660414889859758105296896.000000 0.000000
-360154660414889859758105296896.000000 3375769159509387501019070464.000000 0.000000
0.000000 0.000000 0.000000
26908162569504630153553117184.000000 -6770690084518864550816120832.000000 0.000000
-6770690084518864550816120832.000000 1103447619457138184977121280.000000 0.000000
0.000000 0.000000 0.000000
66394305835844371265565642194944.000000 -42723156880862028536335074066432.000000 0.000000
-42723156880862028536335074066432.000000 15315355407097077008863068160000.000000 0.000000
0.000000 0.000000 0.000000
84547727845681891532556399017984.000000 -24154360025399224516870185943040.000000 0.000000
-24154360025399224516870185943040.000000 4364405212825081923488742113280.000000 0.000000
0.000000 0.000000 0.000000
76226723436842690886578533826560.000000 364301196262724672580925136044032.000000 0.000000
364301196262724672580925136044032.000000 195512363103358165874477233078272.000000 0.000000
0.000000 0.000000 0.000000
444958548711902422616617517056.000000 124236113900616328491818811392.000000 0.000000
124236113900616328491818811392.000000 23492865149242365004851707904.000000 0.000000
0.000000 0.000000 0.000000
12110128246668521730482691375104.000000 3198572892498042007128394170368.000000 0.000000
3198572892498042007128394170368.000000 510185321212964259661745225728.000000 0.000000
0.000000 0.000000 0.000000
6385615417891005435386697613312.000000 6215813993368731900833651752960.000000 0.000000
6215813993368731900833651752960.000000 2618138518823115157466496630784.000000 0.000000
0.000000 0.000000 0.000000
14109489014688330009297490542592.000000 -1386155390821417419446811623424.000000 0.000000
-1386155390821417419446811623424.000000 94894920942996311056509304832.000000 0.000000
0.000000 0.000000 0.000000
-392102890933368206939645452222464.000000 -68273925268801288233610456858624.000000 0.000000
-68273925268801288233610456858624.000000 20449497733147878532686937063424.000000 0.000000
0.000000 0.000000 0.000000
34852480959567880100220340535296.000000 -21720134246399893628024596201472.000000 0.000000
-21720134246399893628024596201472.000000 7231696526669448145036608798720.000000 0.000000
0.000000 0.000000 0.000000
-28752162786642810050933780643840.000000 -22297970835839252684962961293312.000000 0.000000
-22297970835839252684962961293312.000000 12406829013693330860135304658944.000000 0.000000
0.000000 0.000000 0.000000
-1488285399229041714734758363136.000000 -1975116495589665531637828419584.000000 0.000000
-1975116495589665531637828419584.000000 1137070750528896352974979203072.000000 0.000000
0.000000 0.000000 0.000000
-8559226451024991176164598874112.000000 -46652790264403328602917111332864.000000 0.000000
-46652790264403328602917111332864.000000 26489548573489411309860938579968.000000 0.000000
0.000000 0.000000 0.000000
-197231100662918234927205932072960.000000 -20245235854996485276304207249408.000000 0.000000
-20245235854996485276304207249408.000000 3917727978522577442625579646976.000000 0.000000
0.000000 0.000000 0.000000
-48451301325806436747195336215232512.000000 -1049191209832508079041805790740480.000000 0.000000
-1049191209832508079041805790740480.000000 45305139142703570836895360352256.000000 0.000000
0.000000 0.000000 0.000000
2015711327931211688452426825728.000000 7373645212387404261499638644736.000000 0.000000
7373645212387404261499638644736.000000 3905751364880908481300036321280.000000 0.000000
0.000000 0.000000 0.000000
2112554281447084949801409708032.000000 -4184821205157740475838063706112.000000 0.000000
-4184821205157740475838063706112.000000 2106765444306090884450572304384.000000 0.000000
0.000000 0.000000 0.000000
-2317910700976347185866604577554432.000000 -205609081766129413078544593977344.000000 0.000000
-205609081766129413078544593977344.000000 34868044916339524290720695320576.000000 0.000000
0.000000 0.000000 0.000000
-7870995434614152448352050474909696.000000 -285531719398822860405226780753920.000000 0.000000
-285531719398822860405226780753920.000000 20549284155813607599052473499648.000000 0.000000
0.000000 0.000000 0.000000
-39426598742535025943981951287296.000000 -13798290158849161247922755469312.000000 0.000000
-13798290158849161247922755469312.000000 6465297599940395552103100055552.000000 0.000000
0.000000 0.000000 0.000000
-1997260213480749463014748857565184.000000 -75743060751851440777970747179008.000000 0.000000
-75743060751851440777970747179008.000000 5693825366590706582253186580480.000000 0.000000
0.000000 0.000000 0.000000
-6961264093320223182873462227075072.000000 -387672329682600662367145969057792.000000 0.000000
-387672329682600662367145969057792.000000 42385298555913828166080403603456.000000 0.000000
0.000000 0.000000 0.000000
33531648449004436842699590467584.000000 24186359556269460985669975277568.000000 0.000000
24186359556269460985669975277568.000000 8801569008946897698337505411072.000000 0.000000
0.000000 0.000000 0.000000
7545338872467502353080609931264.000000 -5019808549881781548575539331072.000000 0.000000
-5019808549881781548575539331072.000000 1607373872039238035554028224512.000000 0.000000
0.000000 0.000000 0.000000
33550951338808614306947388145664.000000 41228325496703725957876813922304.000000 0.000000
41228325496703725957876813922304.000000 18937508863485867029417068331008.000000 0.000000
0.000000 0.000000 0.000000
31086691787620607216695029792768.000000 -26002733422055464535484056731648.000000 0.000000
-26002733422055464535484056731648.000000 10293631819071272245201419108352.000000 0.000000
0.000000 0.000000 0.000000
51748630032520342142976.000000 -10113659828577396326400.000000 0.000000
-10113659828577396326400.000000 4912630003966346788864.000000 0.000000
0.000000 0.000000 0.000000
22485950993164595610996711620608.000000 -34743776316504620603798127116288.000000 0.000000
-34743776316504620603798127116288.000000 16606941670978518905183526715392.000000 0.000000
0.000000 0.000000 0.000000
-153360446411303639009819038318592.000000 44570371050262925396528295051264.000000 0.000000
44570371050262925396528295051264.000000 18515723467314626123023853289472.000000 0.000000
0.000000 0.000000 0.000000
-221915791158251363857622924001280.000000 157377336624684779276048198008832.000000 0.000000
157377336624684779276048198008832.000000 86497764814239626680947863191552.000000 0.000000
0.000000 0.000000 0.000000
47299259398476002628683366924288.000000 -18762886545080019218838203662336.000000 0.000000
-18762886545080019218838203662336.000000 4539068623320336525194961092608.000000 0.000000
0.000000 0.000000 0.000000
-1905048061353491534709430442524672.000000 37609843618978329958761248063488.000000 0.000000
37609843618978329958761248063488.000000 1571440891740726736305858281472.000000 0.000000
0.000000 0.000000 0.000000
187834918743972411102928308273152.000000 -18577228604197053235621997314048.000000 0.000000
-18577228604197053235621997314048.000000 1217452349240938397678115487744.000000 0.000000
0.000000 0.000000 0.000000
30935712178099791595745111441408.000000 -20991560912165845519394007941120.000000 0.000000
-20991560912165845519394007941120.000000 7325661720283456229812222296064.000000 0.000000
0.000000 0.000000 0.000000
