# vtk DataFile Version 2.0
Test
ASCII
DATASET POLYDATA
POINTS 1437 float
0.000000 0.000000 0.000000
30.000000 0.000000 0.000000
30.000000 100.000000 0.000000
0.000000 100.000000 0.000000
16.400000 50.000000 0.000000
2.142857 0.000000 0.000000
4.285714 0.000000 0.000000
6.428571 0.000000 0.000000
8.571429 0.000000 0.000000
10.714286 0.000000 0.000000
12.857143 0.000000 0.000000
15.000000 0.000000 0.000000
17.142857 0.000000 0.000000
19.285714 0.000000 0.000000
21.428571 0.000000 0.000000
23.571429 0.000000 0.000000
25.714286 0.000000 0.000000
27.857143 0.000000 0.000000
30.000000 2.040816 0.000000
30.000000 4.081633 0.000000
30.000000 6.122449 0.000000
30.000000 8.163265 0.000000
30.000000 10.204082 0.000000
30.000000 12.244898 0.000000
30.000000 14.285714 0.000000
30.000000 16.326531 0.000000
30.000000 18.367347 0.000000
30.000000 20.408163 0.000000
30.000000 22.448980 0.000000
30.000000 24.489796 0.000000
30.000000 26.530612 0.000000
30.000000 28.571429 0.000000
30.000000 30.612245 0.000000
30.000000 32.653061 0.000000
30.000000 34.693878 0.000000
30.000000 36.734694 0.000000
30.000000 38.775510 0.000000
30.000000 40.816327 0.000000
30.000000 42.857143 0.000000
30.000000 44.897959 0.000000
30.000000 46.938776 0.000000
30.000000 48.979592 0.000000
30.000000 51.020408 0.000000
30.000000 53.061224 0.000000
30.000000 55.102041 0.000000
30.000000 57.142857 0.000000
30.000000 59.183673 0.000000
30.000000 61.224490 0.000000
30.000000 63.265306 0.000000
30.000000 65.306122 0.000000
30.000000 67.346939 0.000000
30.000000 69.387755 0.000000
30.000000 71.428571 0.000000
30.000000 73.469388 0.000000
30.000000 75.510204 0.000000
30.000000 77.551020 0.000000
30.000000 79.591837 0.000000
30.000000 81.632653 0.000000
30.000000 83.673469 0.000000
30.000000 85.714286 0.000000
30.000000 87.755102 0.000000
30.000000 89.795918 0.000000
30.000000 91.836735 0.000000
30.000000 93.877551 0.000000
30.000000 95.918367 0.000000
30.000000 97.959184 0.000000
27.857143 100.000000 0.000000
25.714286 100.000000 0.000000
23.571429 100.000000 0.000000
21.428571 100.000000 0.000000
19.285714 100.000000 0.000000
17.142857 100.000000 0.000000
15.000000 100.000000 0.000000
12.857143 100.000000 0.000000
10.714286 100.000000 0.000000
8.571429 100.000000 0.000000
6.428571 100.000000 0.000000
4.285714 100.000000 0.000000
2.142857 100.000000 0.000000
0.000000 97.959184 0.000000
0.000000 95.918367 0.000000
0.000000 93.877551 0.000000
0.000000 91.836735 0.000000
0.000000 89.795918 0.000000
0.000000 87.755102 0.000000
0.000000 85.714286 0.000000
0.000000 83.673469 0.000000
0.000000 81.632653 0.000000
0.000000 79.591837 0.000000
0.000000 77.551020 0.000000
0.000000 75.510204 0.000000
0.000000 73.469388 0.000000
0.000000 71.428571 0.000000
0.000000 69.387755 0.000000
0.000000 67.346939 0.000000
0.000000 65.306122 0.000000
0.000000 63.265306 0.000000
0.000000 61.224490 0.000000
0.000000 59.183673 0.000000
0.000000 57.142857 0.000000
0.000000 55.102041 0.000000
0.000000 53.061224 0.000000
0.000000 51.020408 0.000000
0.000000 48.979592 0.000000
0.000000 46.938776 0.000000
0.000000 44.897959 0.000000
0.000000 42.857143 0.000000
0.000000 40.816327 0.000000
0.000000 38.775510 0.000000
0.000000 36.734694 0.000000
0.000000 34.693878 0.000000
0.000000 32.653061 0.000000
0.000000 30.612245 0.000000
0.000000 28.571429 0.000000
0.000000 26.530612 0.000000
0.000000 24.489796 0.000000
0.000000 22.448980 0.000000
0.000000 20.408163 0.000000
0.000000 18.367347 0.000000
0.000000 16.326531 0.000000
0.000000 14.285714 0.000000
0.000000 12.244898 0.000000
0.000000 10.204082 0.000000
0.000000 8.163265 0.000000
0.000000 6.122449 0.000000
0.000000 4.081633 0.000000
0.000000 2.040816 0.000000
16.388506 50.179028 0.000000
16.354213 50.355116 0.000000
16.297683 50.525374 0.000000
16.219846 50.687005 0.000000
16.121979 50.837355 0.000000
16.005689 50.973956 0.000000
15.872886 51.094564 0.000000
15.725750 51.197200 0.000000
15.566697 51.280178 0.000000
15.398339 51.342135 0.000000
15.223440 51.382054 0.000000
15.044872 51.399281 0.000000
14.865568 51.393531 0.000000
14.688471 51.364899 0.000000
14.516489 51.313856 0.000000
14.352446 51.241239 0.000000
14.199037 51.148241 0.000000
14.058779 51.036389 0.000000
13.933976 50.907520 0.000000
13.826677 50.763749 0.000000
13.738644 50.607437 0.000000
13.671322 50.441152 0.000000
13.625817 50.267622 0.000000
13.602876 50.089698 0.000000
13.602876 49.910302 0.000000
13.625817 49.732378 0.000000
13.671322 49.558848 0.000000
13.738644 49.392563 0.000000
13.826677 49.236251 0.000000
13.933976 49.092480 0.000000
14.058779 48.963611 0.000000
14.199037 48.851759 0.000000
14.352446 48.758761 0.000000
14.516489 48.686144 0.000000
14.688471 48.635101 0.000000
14.865568 48.606469 0.000000
15.044872 48.600719 0.000000
15.223440 48.617946 0.000000
15.398339 48.657865 0.000000
15.566697 48.719822 0.000000
15.725750 48.802800 0.000000
15.872886 48.905436 0.000000
16.005689 49.026044 0.000000
16.121979 49.162645 0.000000
16.219846 49.312995 0.000000
16.297683 49.474626 0.000000
16.354213 49.644884 0.000000
16.388506 49.820972 0.000000
16.142290 51.090246 0.000000
16.381031 49.246029 0.000000
16.476220 50.570036 0.000000
16.567534 49.809478 0.000000
13.432060 49.919357 0.000000
27.959184 67.346939 0.000000
15.062546 51.587060 0.000000
27.959184 79.591837 0.000000
2.040816 20.408163 0.000000
2.040816 30.612245 0.000000
2.040816 81.632653 0.000000
2.040816 69.387755 0.000000
27.959184 16.326531 0.000000
27.959184 24.489796 0.000000
27.959184 32.653061 0.000000
2.000226 63.022103 0.000000
2.040816 38.775510 0.000000
27.959184 38.775510 0.000000
2.063520 56.953992 0.000000
27.959184 59.183673 0.000000
15.000000 97.857143 0.000000
15.000000 2.142857 0.000000
27.959184 44.897959 0.000000
27.959184 51.020408 0.000000
2.058026 48.891267 0.000000
2.040816 12.244898 0.000000
27.959184 8.163265 0.000000
2.119286 91.907213 0.000000
27.959184 87.755102 0.000000
8.571429 2.142857 0.000000
21.428571 97.857143 0.000000
2.040816 6.122449 0.000000
27.959184 93.877551 0.000000
23.571429 2.142857 0.000000
6.428571 97.857143 0.000000
2.040816 44.897959 0.000000
15.808727 51.356253 0.000000
2.040816 77.551020 0.000000
27.959184 71.428571 0.000000
2.040816 26.530612 0.000000
4.285714 2.142857 0.000000
25.714286 97.857143 0.000000
2.021897 52.958989 0.000000
27.959184 53.061224 0.000000
27.914278 55.273576 0.000000
27.959184 61.224490 0.000000
27.879705 47.169173 0.000000
2.040816 36.734694 0.000000
1.985319 42.671502 0.000000
2.040816 4.081633 0.000000
27.959184 95.918367 0.000000
27.842785 41.012410 0.000000
27.904213 63.341606 0.000000
1.981595 60.897410 0.000000
2.040816 34.693878 0.000000
2.142857 97.857143 0.000000
27.857143 2.142857 0.000000
21.428571 2.142857 0.000000
8.571429 97.857143 0.000000
19.285714 2.142857 0.000000
10.714286 97.857143 0.000000
12.857143 2.142857 0.000000
17.142857 97.857143 0.000000
2.040816 73.469388 0.000000
2.040816 85.714286 0.000000
27.959184 28.571429 0.000000
27.957036 12.244796 0.000000
27.959184 20.408163 0.000000
27.959184 75.510204 0.000000
27.959184 81.632653 0.000000
2.040816 24.489796 0.000000
2.040816 18.367347 0.000000
2.101567 67.270721 0.000000
27.990742 34.718564 0.000000
2.040816 16.326531 0.000000
2.040816 10.204082 0.000000
2.040816 89.795918 0.000000
27.959184 83.673469 0.000000
27.959184 89.795918 0.000000
2.098379 2.081372 0.000000
27.901617 97.918624 0.000000
28.130079 4.091715 0.000000
1.869924 95.908287 0.000000
16.576970 50.167357 0.000000
25.954712 32.689406 0.000000
4.048051 69.354174 0.000000
4.081633 24.489796 0.000000
25.916213 79.588913 0.000000
4.086221 18.371935 0.000000
3.897904 34.877606 0.000000
3.923124 61.572806 0.000000
26.128612 39.133691 0.000000
26.214823 61.491956 0.000000
3.871989 43.375621 0.000000
26.265426 45.355943 0.000000
26.372982 51.593494 0.000000
15.011971 95.726257 0.000000
14.987483 4.273197 0.000000
4.095212 12.258477 0.000000
25.904714 87.741449 0.000000
8.590547 95.733404 0.000000
4.124327 91.817489 0.000000
23.644909 4.177846 0.000000
1.898679 46.664421 0.000000
1.887660 50.867252 0.000000
28.104743 49.216969 0.000000
28.091622 57.507646 0.000000
1.793213 54.763850 0.000000
1.898425 40.673936 0.000000
28.092220 43.114891 0.000000
1.898792 59.041649 0.000000
26.349643 53.492500 0.000000
3.788008 38.504633 0.000000
26.348185 4.174096 0.000000
28.073402 36.848913 0.000000
3.770644 95.809804 0.000000
1.947709 64.759841 0.000000
27.961478 65.481833 0.000000
2.032166 32.492602 0.000000
21.409200 4.266343 0.000000
6.436167 2.135262 0.000000
23.563887 97.864684 0.000000
17.151762 2.133952 0.000000
12.848401 97.865884 0.000000
10.720797 2.136346 0.000000
19.279431 97.863426 0.000000
25.741048 2.116095 0.000000
4.208553 97.884202 0.000000
2.040816 71.428571 0.000000
27.959184 73.469388 0.000000
2.040044 28.570656 0.000000
2.040816 79.591837 0.000000
2.040816 75.510204 0.000000
27.959184 30.612245 0.000000
27.959184 69.387755 0.000000
27.959184 77.551020 0.000000
2.040816 22.448980 0.000000
27.959184 22.448980 0.000000
27.959252 26.530681 0.000000
27.959184 18.367347 0.000000
2.040816 83.673469 0.000000
27.959184 14.285714 0.000000
25.913747 81.628033 0.000000
2.043283 87.757569 0.000000
2.046930 14.291828 0.000000
27.956122 10.201020 0.000000
27.953028 85.708130 0.000000
2.051111 8.173560 0.000000
27.948877 91.826428 0.000000
27.877535 6.025956 0.000000
2.132881 93.976795 0.000000
4.000357 6.267740 0.000000
4.120886 4.222927 0.000000
25.999609 93.732219 0.000000
25.879089 95.777048 0.000000
15.649674 48.560769 0.000000
26.010158 67.277614 0.000000
25.918367 24.489796 0.000000
4.081633 79.591837 0.000000
25.916050 16.328010 0.000000
23.873553 79.584761 0.000000
3.481175 55.433151 0.000000
24.733850 51.947925 0.000000
3.652422 50.744354 0.000000
25.910700 12.249504 0.000000
23.509255 6.363423 0.000000
26.366938 49.758281 0.000000
26.399277 43.548901 0.000000
3.661711 59.758281 0.000000
25.957156 34.691433 0.000000
10.699495 4.264413 0.000000
19.300303 95.735157 0.000000
17.109994 4.256463 0.000000
12.860039 95.741544 0.000000
25.918367 71.428571 0.000000
4.081633 75.510204 0.000000
4.081051 71.394408 0.000000
4.082695 22.452337 0.000000
4.101940 14.313488 0.000000
25.897715 85.686136 0.000000
4.098775 10.200519 0.000000
25.900922 89.799710 0.000000
3.484993 40.079859 0.000000
26.104841 46.997441 0.000000
26.094660 40.880576 0.000000
26.217182 37.055706 0.000000
26.283778 59.646794 0.000000
3.394990 47.531927 0.000000
3.704894 44.917521 0.000000
26.589189 56.610962 0.000000
3.896163 33.117193 0.000000
4.081633 30.612245 0.000000
4.081633 26.530612 0.000000
25.925339 8.209651 0.000000
6.124956 95.705249 0.000000
26.056738 64.934647 0.000000
3.837443 65.195708 0.000000
3.643332 63.322448 0.000000
26.181899 63.192966 0.000000
19.294998 4.257059 0.000000
10.706283 95.741406 0.000000
26.301437 55.150246 0.000000
12.863256 4.267083 0.000000
17.136818 95.732295 0.000000
25.918367 28.571429 0.000000
25.922292 30.652514 0.000000
6.508559 4.176475 0.000000
23.491534 95.823372 0.000000
4.048622 67.346368 0.000000
25.918367 73.469388 0.000000
25.918367 77.551020 0.000000
25.918367 20.408163 0.000000
4.082867 81.631419 0.000000
4.087811 85.710574 0.000000
4.083002 20.414121 0.000000
4.090228 89.806980 0.000000
4.086073 16.326679 0.000000
25.912810 83.674407 0.000000
3.917278 36.754068 0.000000
14.878780 48.427563 0.000000
4.121149 8.218141 0.000000
25.878782 91.781783 0.000000
25.877030 6.294134 0.000000
4.191064 93.660458 0.000000
3.706610 41.587650 0.000000
24.360874 63.474693 0.000000
5.368991 63.172792 0.000000
5.674069 34.909097 0.000000
6.109733 24.502512 0.000000
6.088864 69.353595 0.000000
6.132398 16.325610 0.000000
23.981312 34.665250 0.000000
5.376427 43.319631 0.000000
23.882585 71.433605 0.000000
6.124736 79.588316 0.000000
24.776210 45.416620 0.000000
24.946431 56.614079 0.000000
10.752083 6.375586 0.000000
12.894743 93.625460 0.000000
23.836000 87.699130 0.000000
6.155926 89.782091 0.000000
19.248565 93.623411 0.000000
6.164366 12.302233 0.000000
23.886460 30.607260 0.000000
23.877559 77.543952 0.000000
15.993494 48.772633 0.000000
5.251211 40.260448 0.000000
6.178688 93.732220 0.000000
3.877467 52.261786 0.000000
23.990247 8.280891 0.000000
17.186835 6.364626 0.000000
21.413206 6.362392 0.000000
3.711363 57.087486 0.000000
24.548632 37.413315 0.000000
5.712568 65.433508 0.000000
5.793943 32.523932 0.000000
24.589986 59.837123 0.000000
24.813004 53.682843 0.000000
5.250488 60.030776 0.000000
3.697518 48.909379 0.000000
24.119046 65.396539 0.000000
24.581314 40.691301 0.000000
10.603714 93.717869 0.000000
4.068917 28.558713 0.000000
4.081027 73.434619 0.000000
8.607507 4.236797 0.000000
21.392703 95.762913 0.000000
5.512345 38.522043 0.000000
17.126865 93.618251 0.000000
12.870913 6.383653 0.000000
25.921385 69.390773 0.000000
6.123796 22.456285 0.000000
25.918367 75.510204 0.000000
25.919947 26.532192 0.000000
4.081633 77.551021 0.000000
25.918367 22.448980 0.000000
25.918055 18.367035 0.000000
6.126108 20.415041 0.000000
23.865516 81.626176 0.000000
4.094668 87.761959 0.000000
25.903092 10.196473 0.000000
4.085158 83.675760 0.000000
25.916212 14.283559 0.000000
23.851875 83.638664 0.000000
6.166237 10.285603 0.000000
23.833198 89.714059 0.000000
6.100145 6.368968 0.000000
23.899708 93.630706 0.000000
3.849996 53.640692 0.000000
26.304700 57.958096 0.000000
26.390976 48.299874 0.000000
26.662179 42.156926 0.000000
24.928849 50.372815 0.000000
13.812511 49.014983 0.000000
6.961847 40.150704 0.000000
7.220966 63.583340 0.000000
8.149957 24.495948 0.000000
23.871440 16.336385 0.000000
22.546365 63.639938 0.000000
7.533761 34.314286 0.000000
23.539398 53.218806 0.000000
4.879497 50.090533 0.000000
23.877395 24.489952 0.000000
21.837403 77.544605 0.000000
4.942273 54.893282 0.000000
14.042009 51.239805 0.000000
21.957799 8.394841 0.000000
10.796003 91.534377 0.000000
6.137275 83.658457 0.000000
19.389985 91.656620 0.000000
10.642977 8.412362 0.000000
24.862291 43.842084 0.000000
23.887457 69.399677 0.000000
23.901485 28.589395 0.000000
23.882196 73.469776 0.000000
21.816253 81.579636 0.000000
5.179307 44.681010 0.000000
14.210175 48.650784 0.000000
21.781554 87.648985 0.000000
8.115148 12.462592 0.000000
8.650546 6.363441 0.000000
21.350405 93.635979 0.000000
24.663411 55.112128 0.000000
24.480994 61.756706 0.000000
8.023152 93.717055 0.000000
23.611367 50.645005 0.000000
24.922753 46.689466 0.000000
24.939931 48.967472 0.000000
5.138432 47.437222 0.000000
25.210225 42.253593 0.000000
15.083357 6.376675 0.000000
23.974703 32.674592 0.000000
24.018641 67.390173 0.000000
6.071740 28.533435 0.000000
6.032696 30.572869 0.000000
5.838095 36.820875 0.000000
19.313303 6.356962 0.000000
24.567791 39.067474 0.000000
5.934916 67.348646 0.000000
15.007592 93.613408 0.000000
6.109735 26.530614 0.000000
6.121468 71.394012 0.000000
6.121217 73.470014 0.000000
23.877083 22.449448 0.000000
23.876771 20.408631 0.000000
6.132219 18.371608 0.000000
8.164746 22.457893 0.000000
23.879217 75.504801 0.000000
6.122447 77.547502 0.000000
23.842069 85.655271 0.000000
23.863821 14.301895 0.000000
6.125976 81.631425 0.000000
24.747281 58.245451 0.000000
6.161833 14.324055 0.000000
6.156358 87.744384 0.000000
5.495841 61.447891 0.000000
14.375028 51.419444 0.000000
5.313717 41.826386 0.000000
6.202877 8.383179 0.000000
23.796848 91.616228 0.000000
23.850972 12.298467 0.000000
23.897727 10.313937 0.000000
6.162642 91.852046 0.000000
5.223624 58.441069 0.000000
13.628586 49.241874 0.000000
2.786570 54.199171 0.000000
5.093535 51.130499 0.000000
5.387914 52.233716 0.000000
3.358323 58.372731 0.000000
24.678812 35.893973 0.000000
13.607142 50.739267 0.000000
22.941442 41.026261 0.000000
23.223788 58.324579 0.000000
23.506071 46.765140 0.000000
6.482216 44.584016 0.000000
8.099406 69.355946 0.000000
6.357803 51.489803 0.000000
22.132765 34.570382 0.000000
21.884366 69.430514 0.000000
10.192943 24.500200 0.000000
8.163184 77.547578 0.000000
21.829594 16.348760 0.000000
21.836354 24.490489 0.000000
17.181425 8.462694 0.000000
7.654894 36.253489 0.000000
22.760177 61.916415 0.000000
6.728181 59.905241 0.000000
6.727014 41.596743 0.000000
12.864459 8.477611 0.000000
23.654334 49.356826 0.000000
8.007345 30.508084 0.000000
21.902053 28.606170 0.000000
8.137542 26.525713 0.000000
8.177006 81.607427 0.000000
21.794374 83.590324 0.000000
7.186926 38.525330 0.000000
7.015107 61.839380 0.000000
5.338531 56.651487 0.000000
19.872151 8.442610 0.000000
8.073424 89.599073 0.000000
8.271438 10.346690 0.000000
21.677622 89.640501 0.000000
23.449478 42.463540 0.000000
23.325650 51.972959 0.000000
23.330042 44.183491 0.000000
23.482458 55.740324 0.000000
5.148041 48.818759 0.000000
22.916720 37.715653 0.000000
22.015822 32.583921 0.000000
5.370442 53.547470 0.000000
7.507431 65.450312 0.000000
23.896408 26.568497 0.000000
8.160817 73.433612 0.000000
17.111241 91.511375 0.000000
22.292825 65.495872 0.000000
12.895571 91.525891 0.000000
21.867085 71.444405 0.000000
21.840385 75.505773 0.000000
23.876297 18.366873 0.000000
21.835560 22.450155 0.000000
8.248460 20.346607 0.000000
7.751615 32.465326 0.000000
8.179687 18.373078 0.000000
6.122212 75.510593 0.000000
21.807868 14.311537 0.000000
21.825204 79.544809 0.000000
6.150539 85.692882 0.000000
5.134328 46.040850 0.000000
21.779006 85.615406 0.000000
8.199717 16.395014 0.000000
8.224250 14.413504 0.000000
21.795834 12.397585 0.000000
21.699169 10.521320 0.000000
8.336322 91.561994 0.000000
8.133293 8.293858 0.000000
21.867399 91.706531 0.000000
23.516586 54.541985 0.000000
14.453896 48.556442 0.000000
25.238225 47.787622 0.000000
14.195523 51.302253 0.000000
22.958862 36.215682 0.000000
8.144178 41.549260 0.000000
8.421890 60.301761 0.000000
22.353255 54.162532 0.000000
22.464967 50.846703 0.000000
6.554031 48.817472 0.000000
21.044218 61.921272 0.000000
9.470408 34.412306 0.000000
19.896736 69.445945 0.000000
19.808323 75.512543 0.000000
10.221840 20.423287 0.000000
19.779021 79.496142 0.000000
19.775124 16.420730 0.000000
20.236331 34.461634 0.000000
19.795086 24.491422 0.000000
10.240021 16.469720 0.000000
6.413503 45.848624 0.000000
9.056013 63.626981 0.000000
10.165013 26.527671 0.000000
21.835011 20.408395 0.000000
19.674844 83.449691 0.000000
14.297504 48.455887 0.000000
22.349999 43.088950 0.000000
22.951502 60.196152 0.000000
9.021800 38.116547 0.000000
13.488444 50.412650 0.000000
6.365724 50.317585 0.000000
6.104654 55.080214 0.000000
18.986056 89.489607 0.000000
6.699509 57.246979 0.000000
10.044108 89.521230 0.000000
6.601349 43.002505 0.000000
10.776634 10.563823 0.000000
19.201430 10.542748 0.000000
23.606551 57.055676 0.000000
23.283637 45.471428 0.000000
23.009116 39.542705 0.000000
23.832626 47.983859 0.000000
22.107680 67.447639 0.000000
15.057387 8.467088 0.000000
21.878659 26.546718 0.000000
7.788147 67.381749 0.000000
20.781556 63.691942 0.000000
6.822586 58.427025 0.000000
8.162715 75.507075 0.000000
21.851491 73.475068 0.000000
9.702112 32.457152 0.000000
15.011124 91.520063 0.000000
21.917862 30.606984 0.000000
8.157559 71.390001 0.000000
8.072002 28.525975 0.000000
8.189608 83.659761 0.000000
10.208953 22.458613 0.000000
21.830076 18.393231 0.000000
8.165398 79.588241 0.000000
8.204106 85.655068 0.000000
8.212602 87.685542 0.000000
22.247762 52.043814 0.000000
10.281506 14.600909 0.000000
19.858600 87.627281 0.000000
19.768295 14.405443 0.000000
21.235482 35.786207 0.000000
22.055492 42.090022 0.000000
3.552023 46.248317 0.000000
6.477218 52.631238 0.000000
14.074613 51.468753 0.000000
21.267521 43.206749 0.000000
7.623500 49.895400 0.000000
7.454519 45.456673 0.000000
21.425923 51.623124 0.000000
19.361609 61.974414 0.000000
9.742125 67.387394 0.000000
19.951424 30.585322 0.000000
10.178004 71.399416 0.000000
10.202151 75.508143 0.000000
10.215226 79.565717 0.000000
10.248198 83.596478 0.000000
11.433770 34.358749 0.000000
19.659779 36.124614 0.000000
12.179625 26.525518 0.000000
12.330199 22.397486 0.000000
12.379252 16.414770 0.000000
17.653408 16.572879 0.000000
22.785660 47.586351 0.000000
7.869402 42.860172 0.000000
22.191123 56.893194 0.000000
21.406815 60.365026 0.000000
20.149475 67.520403 0.000000
19.845856 26.522525 0.000000
19.833442 73.494494 0.000000
10.069707 28.525376 0.000000
22.416736 49.749231 0.000000
7.460504 51.703671 0.000000
8.504576 39.859453 0.000000
8.319729 58.828183 0.000000
6.142505 46.759018 0.000000
22.247990 55.335280 0.000000
12.138980 89.165857 0.000000
17.914119 87.426583 0.000000
20.501555 65.594878 0.000000
9.496715 36.254127 0.000000
21.453194 39.077570 0.000000
21.596484 40.733754 0.000000
14.940569 10.545587 0.000000
16.964368 10.537124 0.000000
9.347761 65.498670 0.000000
8.621300 61.895188 0.000000
19.866367 71.473464 0.000000
22.239990 45.093362 0.000000
20.085298 32.542839 0.000000
19.792146 20.435077 0.000000
9.960094 30.507728 0.000000
12.859253 10.560230 0.000000
19.755888 85.526995 0.000000
19.783344 18.420410 0.000000
19.794302 22.450164 0.000000
17.066556 89.326025 0.000000
19.795951 77.496775 0.000000
22.136729 44.061282 0.000000
19.763883 81.477675 0.000000
10.233900 18.523933 0.000000
21.140825 37.504092 0.000000
19.893126 12.404498 0.000000
10.186732 12.619033 0.000000
10.207936 87.508327 0.000000
22.312564 53.030694 0.000000
6.717193 53.961431 0.000000
6.742458 56.121620 0.000000
21.677005 58.660720 0.000000
13.589769 50.546941 0.000000
7.741061 44.214374 0.000000
13.464216 50.616384 0.000000
9.731885 41.136364 0.000000
20.771535 57.274625 0.000000
8.490613 45.067810 0.000000
9.770659 59.143020 0.000000
10.909450 63.350601 0.000000
18.269947 67.566536 0.000000
17.861750 71.474869 0.000000
17.779913 75.435925 0.000000
18.286676 34.422817 0.000000
17.740798 79.435896 0.000000
17.931061 26.036097 0.000000
17.751471 22.477908 0.000000
11.993406 86.711078 0.000000
19.799139 60.341528 0.000000
21.244001 54.730634 0.000000
21.388285 52.675732 0.000000
12.183673 18.409634 0.000000
17.904275 14.697684 0.000000
14.937172 12.623506 0.000000
20.195854 40.358456 0.000000
19.156221 37.692705 0.000000
15.971062 87.354230 0.000000
7.670109 47.668472 0.000000
22.283335 46.855371 0.000000
12.497769 12.516127 0.000000
10.099674 39.603104 0.000000
11.326083 36.218072 0.000000
7.587670 52.882251 0.000000
7.602988 55.066063 0.000000
8.205827 57.600085 0.000000
21.520459 50.660827 0.000000
11.200897 65.480608 0.000000
21.158313 44.526039 0.000000
19.917008 28.573413 0.000000
10.188569 73.446985 0.000000
10.107031 69.353833 0.000000
19.055881 63.775158 0.000000
9.979963 60.454699 0.000000
15.030091 89.429578 0.000000
12.063477 28.521896 0.000000
11.642173 32.450128 0.000000
17.710887 81.477091 0.000000
12.233194 24.486911 0.000000
12.348198 14.417529 0.000000
10.207948 77.534361 0.000000
20.813159 41.775923 0.000000
18.135238 32.534665 0.000000
10.231889 81.583041 0.000000
17.790086 18.857560 0.000000
12.268043 20.263178 0.000000
17.754728 12.524423 0.000000
17.695072 83.522785 0.000000
17.763346 85.427074 0.000000
10.264455 85.656827 0.000000
8.820647 43.882350 0.000000
21.139207 55.958668 0.000000
7.329007 46.709657 0.000000
7.262855 50.785023 0.000000
21.362822 53.706851 0.000000
9.152980 42.529334 0.000000
22.666549 48.546495 0.000000
19.997708 42.720216 0.000000
9.935453 43.443779 0.000000
20.298905 55.292628 0.000000
20.557708 52.296448 0.000000
8.413521 51.971256 0.000000
11.253178 59.742807 0.000000
18.344843 60.443324 0.000000
12.510949 63.822848 0.000000
13.376062 50.795308 0.000000
12.194346 69.609129 0.000000
12.137227 73.802319 0.000000
13.266774 35.914998 0.000000
12.354395 77.371553 0.000000
15.570282 81.157153 0.000000
9.276905 56.768396 0.000000
17.926610 28.516085 0.000000
14.066417 28.531066 0.000000
15.487165 85.063526 0.000000
10.915829 40.435770 0.000000
14.205293 26.529933 0.000000
16.356414 34.470521 0.000000
14.348169 24.430784 0.000000
14.300444 22.468969 0.000000
14.214024 20.463572 0.000000
14.338414 18.528045 0.000000
12.275711 79.523779 0.000000
12.276331 81.544532 0.000000
14.357292 16.475358 0.000000
13.104567 34.145465 0.000000
12.309176 83.595850 0.000000
21.259966 45.407997 0.000000
10.839131 38.035403 0.000000
18.688418 65.626666 0.000000
9.591784 44.777881 0.000000
21.296096 49.784683 0.000000
21.398977 46.874424 0.000000
10.083488 61.990333 0.000000
17.983654 30.585260 0.000000
11.650226 67.428015 0.000000
20.594933 51.387278 0.000000
17.935745 69.502373 0.000000
17.678127 61.994429 0.000000
17.793213 36.330390 0.000000
11.928024 30.489825 0.000000
17.714892 24.320786 0.000000
17.638297 73.445268 0.000000
17.756835 77.396780 0.000000
18.028161 20.703249 0.000000
20.255031 43.935113 0.000000
20.379419 54.313924 0.000000
7.933531 56.400666 0.000000
20.422535 58.893288 0.000000
15.815976 14.836234 0.000000
8.280065 50.838455 0.000000
13.284558 50.557202 0.000000
11.663219 84.968960 0.000000
9.078122 45.887169 0.000000
7.826578 53.942857 0.000000
16.006397 18.582932 0.000000
19.701456 41.632086 0.000000
20.094516 38.804836 0.000000
21.717299 47.786848 0.000000
14.020261 87.168140 0.000000
14.146818 14.622322 0.000000
20.499408 53.327593 0.000000
10.397307 42.274427 0.000000
22.646028 46.030523 0.000000
19.272818 43.494399 0.000000
10.673454 44.193049 0.000000
13.122384 50.744545 0.000000
19.519165 54.741257 0.000000
19.804380 51.985680 0.000000
9.137345 51.239811 0.000000
17.776570 37.947859 0.000000
16.704981 60.634159 0.000000
19.687352 57.729439 0.000000
13.368895 67.503124 0.000000
12.801308 38.087834 0.000000
13.971901 30.512311 0.000000
13.267924 50.331371 0.000000
15.989487 69.502298 0.000000
15.857555 71.451203 0.000000
8.792296 54.371752 0.000000
15.789840 73.443897 0.000000
15.750812 75.369138 0.000000
11.265259 61.323052 0.000000
16.003038 77.408426 0.000000
16.823206 65.659908 0.000000
16.322296 36.223027 0.000000
20.826485 48.485949 0.000000
13.529375 50.962152 0.000000
10.982401 58.231536 0.000000
9.990519 45.794936 0.000000
18.636350 40.995957 0.000000
16.003580 32.382339 0.000000
17.344079 63.825391 0.000000
8.645174 53.039147 0.000000
12.947977 65.530577 0.000000
12.049109 72.173263 0.000000
13.543201 32.471576 0.000000
20.374875 45.164146 0.000000
15.936278 79.415766 0.000000
19.614641 53.830879 0.000000
12.200779 75.516685 0.000000
16.007785 30.322203 0.000000
9.073497 55.600853 0.000000
20.676059 50.545301 0.000000
15.970465 28.419413 0.000000
20.208040 56.401263 0.000000
8.677880 49.988306 0.000000
15.853522 82.673711 0.000000
8.162433 46.155518 0.000000
16.115013 26.406294 0.000000
16.308481 24.505451 0.000000
18.912542 42.317302 0.000000
21.631832 48.931676 0.000000
14.286139 77.517569 0.000000
16.188761 22.980853 0.000000
19.181537 59.006020 0.000000
16.333669 20.834067 0.000000
14.306527 79.498459 0.000000
15.649829 16.853705 0.000000
14.968672 36.207508 0.000000
14.166993 81.354495 0.000000
11.558615 39.494344 0.000000
14.125777 83.266107 0.000000
13.333460 85.173408 0.000000
12.664947 62.258933 0.000000
19.791833 52.867707 0.000000
21.742244 46.088515 0.000000
18.526488 39.391355 0.000000
11.200639 43.178038 0.000000
18.266160 43.118423 0.000000
11.764165 44.063257 0.000000
18.695660 54.139700 0.000000
9.324854 50.532839 0.000000
9.480077 53.661749 0.000000
13.161463 39.922661 0.000000
9.621993 46.659925 0.000000
16.889712 39.283543 0.000000
12.324608 59.001106 0.000000
20.527255 47.512687 0.000000
19.162557 52.492828 0.000000
14.217585 63.483201 0.000000
14.557630 37.801643 0.000000
18.414413 58.011042 0.000000
8.578613 49.035985 0.000000
20.504533 49.751157 0.000000
9.340541 52.113240 0.000000
10.399435 55.952810 0.000000
15.896601 62.369781 0.000000
20.646526 46.265566 0.000000
8.565534 47.040842 0.000000
19.174252 56.754469 0.000000
14.857041 65.893928 0.000000
10.014697 54.758370 0.000000
13.392193 50.140757 0.000000
16.412445 67.592022 0.000000
19.870929 51.195965 0.000000
14.038380 69.407389 0.000000
19.528164 44.619035 0.000000
11.738238 42.135677 0.000000
12.812193 60.382387 0.000000
17.871425 41.886648 0.000000
13.827574 71.433500 0.000000
13.046316 50.463260 0.000000
13.243285 51.041841 0.000000
19.413704 55.740076 0.000000
13.809389 73.446906 0.000000
16.237600 37.670984 0.000000
13.725099 75.491856 0.000000
14.547260 34.291607 0.000000
17.703442 59.219529 0.000000
13.713818 50.903029 0.000000
15.827702 64.246442 0.000000
10.243336 57.146715 0.000000
10.495991 45.079863 0.000000
19.053152 53.276450 0.000000
20.873765 49.185248 0.000000
12.844168 50.664110 0.000000
10.962866 55.153057 0.000000
18.212182 53.494494 0.000000
17.258246 42.774937 0.000000
10.022217 52.847173 0.000000
17.062435 57.933784 0.000000
13.438753 51.197620 0.000000
12.212752 57.735694 0.000000
19.910058 46.859393 0.000000
9.916938 51.244622 0.000000
14.344550 39.419241 0.000000
14.246505 60.238021 0.000000
18.442936 56.041372 0.000000
20.028294 48.476540 0.000000
13.887098 51.109272 0.000000
13.275027 49.914017 0.000000
11.322732 44.937686 0.000000
12.118402 40.937426 0.000000
11.311346 56.895935 0.000000
13.079606 50.158378 0.000000
14.434107 61.763730 0.000000
19.715898 45.838173 0.000000
19.148732 51.732031 0.000000
9.238974 47.714924 0.000000
19.911209 50.446426 0.000000
18.510577 52.903174 0.000000
7.618889 49.023274 0.000000
10.323769 53.967598 0.000000
18.647693 44.261756 0.000000
16.480658 59.238527 0.000000
18.716561 55.144341 0.000000
13.678611 51.138782 0.000000
17.489815 40.503110 0.000000
15.572420 38.968663 0.000000
12.938615 50.968535 0.000000
10.305235 46.433776 0.000000
17.909105 56.974746 0.000000
10.980332 41.383933 0.000000
14.837819 67.821848 0.000000
9.511106 49.736871 0.000000
9.525661 58.002296 0.000000
20.243897 49.101525 0.000000
15.268937 60.893569 0.000000
19.103649 46.410052 0.000000
12.154971 45.109861 0.000000
17.748362 53.044060 0.000000
19.369476 48.351635 0.000000
12.622029 50.896359 0.000000
10.801278 53.241784 0.000000
13.009685 42.171929 0.000000
15.677880 58.131868 0.000000
17.790902 55.408661 0.000000
13.578172 58.771972 0.000000
12.368106 56.526923 0.000000
15.826242 40.323323 0.000000
13.587155 51.371096 0.000000
9.465277 49.091021 0.000000
13.509920 49.563275 0.000000
14.453948 40.783165 0.000000
18.590754 52.181825 0.000000
19.230336 51.021474 0.000000
16.861091 56.679505 0.000000
10.996953 45.809594 0.000000
18.941145 45.337040 0.000000
17.808798 54.014866 0.000000
17.899828 54.648482 0.000000
19.829731 49.695700 0.000000
8.326209 48.277906 0.000000
16.741858 41.573916 0.000000
19.707306 47.765502 0.000000
10.143244 47.322548 0.000000
12.789977 50.341969 0.000000
10.316569 52.014259 0.000000
17.735915 43.956858 0.000000
12.988057 51.205543 0.000000
10.202002 50.529327 0.000000
15.101175 59.457749 0.000000
13.855186 51.332704 0.000000
13.448983 49.765429 0.000000
17.527738 56.155788 0.000000
11.674613 55.813718 0.000000
10.893710 54.465072 0.000000
13.412345 41.170763 0.000000
13.783480 51.598883 0.000000
17.364463 53.590269 0.000000
11.417666 53.842825 0.000000
16.789897 43.677434 0.000000
10.934300 52.490514 0.000000
15.863126 56.988568 0.000000
18.405798 45.962865 0.000000
14.266807 42.004752 0.000000
12.545424 55.323075 0.000000
19.000435 47.808167 0.000000
13.279411 49.642049 0.000000
16.789912 55.565239 0.000000
10.684743 51.358554 0.000000
10.939788 46.827363 0.000000
18.010538 52.515859 0.000000
18.581720 51.494915 0.000000
13.252448 57.321256 0.000000
10.400573 49.775356 0.000000
19.255637 50.376173 0.000000
16.196094 42.645957 0.000000
17.103222 54.284424 0.000000
18.160125 45.044728 0.000000
12.516129 43.299718 0.000000
19.370757 49.027802 0.000000
13.230231 51.381316 0.000000
19.242868 47.171163 0.000000
12.531130 50.557141 0.000000
12.760049 50.035242 0.000000
14.416377 57.929494 0.000000
13.594321 49.422503 0.000000
11.704126 45.563787 0.000000
7.358242 48.350751 0.000000
12.744480 51.136130 0.000000
15.431684 41.700210 0.000000
17.218213 54.948704 0.000000
9.411523 48.545541 0.000000
17.627515 45.666183 0.000000
16.720551 53.797118 0.000000
12.236497 45.951709 0.000000
17.061597 53.149969 0.000000
15.945287 55.996968 0.000000
10.869592 50.329786 0.000000
12.278247 50.816121 0.000000
11.214068 51.824935 0.000000
11.124919 47.697222 0.000000
15.775635 43.530892 0.000000
18.463252 47.067482 0.000000
14.247820 51.629657 0.000000
10.331421 48.223372 0.000000
14.924007 57.145400 0.000000
11.749549 54.603508 0.000000
16.507201 54.836714 0.000000
11.566734 46.359522 0.000000
18.094408 51.903036 0.000000
13.212055 56.071862 0.000000
13.432456 49.395577 0.000000
18.603428 50.851526 0.000000
17.378473 52.665556 0.000000
19.155431 49.698865 0.000000
13.586278 51.855089 0.000000
18.790824 48.518385 0.000000
12.987785 49.637177 0.000000
17.331645 44.813550 0.000000
11.480348 52.973378 0.000000
10.138169 49.073321 0.000000
13.011411 49.853488 0.000000
12.761810 51.417312 0.000000
6.698721 47.623765 0.000000
12.464125 50.202942 0.000000
15.098166 42.826410 0.000000
12.439877 51.161335 0.000000
13.884212 43.176417 0.000000
16.909466 45.458920 0.000000
16.152438 54.258540 0.000000
12.026602 53.308837 0.000000
16.728017 52.668177 0.000000
13.345067 55.034917 0.000000
12.748632 45.430150 0.000000
11.749160 52.237773 0.000000
12.125708 46.728242 0.000000
12.278560 51.513442 0.000000
13.310444 44.113248 0.000000
11.918673 51.102765 0.000000
15.010870 56.101293 0.000000
13.041562 51.679354 0.000000
13.346791 49.144657 0.000000
14.464575 51.653830 0.000000
14.050930 51.763086 0.000000
18.377781 48.004476 0.000000
18.094125 51.300169 0.000000
17.932659 46.530935 0.000000
18.693762 50.266879 0.000000
16.512697 53.326079 0.000000
15.776577 55.169175 0.000000
11.262599 48.385158 0.000000
11.009583 49.870436 0.000000
17.625437 52.173070 0.000000
18.699994 49.145398 0.000000
15.574398 44.403797 0.000000
16.473062 44.560621 0.000000
11.305146 51.238932 0.000000
10.956304 48.899646 0.000000
14.825931 43.785207 0.000000
13.194079 49.382044 0.000000
12.253532 50.446858 0.000000
12.396571 49.848143 0.000000
12.686589 49.734069 0.000000
12.728755 54.431669 0.000000
17.900212 47.627262 0.000000
14.147460 56.774954 0.000000
17.646504 47.070508 0.000000
16.013232 53.678466 0.000000
13.822163 51.957059 0.000000
18.166385 48.680963 0.000000
13.378236 54.315805 0.000000
12.294005 49.495908 0.000000
13.032789 49.112684 0.000000
14.705914 44.638234 0.000000
14.874754 51.569335 0.000000
14.806793 55.132499 0.000000
11.458053 50.306864 0.000000
13.552161 48.977396 0.000000
12.814457 46.283695 0.000000
18.087277 50.799141 0.000000
17.071286 52.297088 0.000000
11.680167 47.125964 0.000000
17.197945 46.304635 0.000000
12.551339 44.462572 0.000000
18.590162 49.706531 0.000000
16.268439 52.878384 0.000000
17.681472 51.610382 0.000000
14.304831 51.851575 0.000000
15.371731 54.414388 0.000000
16.224565 45.375958 0.000000
17.904872 48.247927 0.000000
14.108973 55.649661 0.000000
11.669673 48.919442 0.000000
11.776850 51.646053 0.000000
11.896565 50.588524 0.000000
12.592082 51.787847 0.000000
12.631174 49.412195 0.000000
10.864279 50.791753 0.000000
12.944466 49.378276 0.000000
14.100465 44.121762 0.000000
13.444759 51.623175 0.000000
12.203348 52.729729 0.000000
10.892635 49.447408 0.000000
12.050339 50.060778 0.000000
14.541902 51.490016 0.000000
17.028005 46.911888 0.000000
12.708745 46.982619 0.000000
15.433608 53.769110 0.000000
17.710332 48.980041 0.000000
16.513923 52.258656 0.000000
14.874035 51.771525 0.000000
17.525276 47.940597 0.000000
12.844724 52.034340 0.000000
12.574891 53.124499 0.000000
13.438207 45.703477 0.000000
11.907433 48.324342 0.000000
12.604665 49.027900 0.000000
13.941357 44.959417 0.000000
11.917195 49.573962 0.000000
13.551008 52.162845 0.000000
14.603445 51.889151 0.000000
18.169011 50.291339 0.000000
12.380941 52.208700 0.000000
15.396497 45.260873 0.000000
13.275085 51.940076 0.000000
17.290909 51.864795 0.000000
15.860724 53.186992 0.000000
17.681259 51.082684 0.000000
18.167847 49.231634 0.000000
13.047289 53.626200 0.000000
11.448875 49.758112 0.000000
14.561679 54.288151 0.000000
14.044970 54.738967 0.000000
16.507255 46.065095 0.000000
12.155519 51.878763 0.000000
13.246532 48.846138 0.000000
14.674530 51.623126 0.000000
14.089140 52.065167 0.000000
11.916613 47.768262 0.000000
13.205180 44.893102 0.000000
11.383234 50.777262 0.000000
16.464244 46.696696 0.000000
15.106482 51.802148 0.000000
14.876494 53.769563 0.000000
14.105969 48.363905 0.000000
16.154864 52.484590 0.000000
17.757726 49.425269 0.000000
14.692530 45.454761 0.000000
13.868247 53.902712 0.000000
13.097596 52.884579 0.000000
13.410067 46.555587 0.000000
17.536568 48.543069 0.000000
12.878342 48.864047 0.000000
12.196635 49.176258 0.000000
16.810417 51.977126 0.000000
15.305813 53.230941 0.000000
14.877127 52.008157 0.000000
17.286803 47.444950 0.000000
17.323167 51.361254 0.000000
12.700940 52.515882 0.000000
13.181035 52.351204 0.000000
17.664933 50.566507 0.000000
18.011940 49.786671 0.000000
15.745309 45.934567 0.000000
14.351155 52.137451 0.000000
12.368087 47.429353 0.000000
12.118052 48.798846 0.000000
12.257459 53.822923 0.000000
13.496616 48.730532 0.000000
14.143649 45.676366 0.000000
11.552393 48.074286 0.000000
13.837969 52.227717 0.000000
11.376936 49.319714 0.000000
15.886542 46.576126 0.000000
17.192280 48.221247 0.000000
13.298056 47.154955 0.000000
17.314509 49.148025 0.000000
15.156291 52.061888 0.000000
16.329272 51.938985 0.000000
14.769223 53.188065 0.000000
14.422382 48.274796 0.000000
12.715137 47.841940 0.000000
13.346390 48.494870 0.000000
13.975922 48.602089 0.000000
17.602806 49.857908 0.000000
14.662310 46.179140 0.000000
13.607820 52.606658 0.000000
13.614280 53.184309 0.000000
12.552001 48.572004 0.000000
15.691634 52.716604 0.000000
16.700212 47.320474 0.000000
15.438258 51.517034 0.000000
16.987112 51.588757 0.000000
17.329139 50.894668 0.000000
15.248434 51.590077 0.000000
13.032816 48.554527 0.000000
12.385823 48.034651 0.000000
14.617674 52.157741 0.000000
15.164729 45.858584 0.000000
17.738220 50.162003 0.000000
13.710849 48.844009 0.000000
14.025666 52.403050 0.000000
13.968603 46.241007 0.000000
14.201818 48.109284 0.000000
17.439152 50.192118 0.000000
16.035921 52.147935 0.000000
14.893862 52.371179 0.000000
13.871172 46.880107 0.000000
13.274157 48.159952 0.000000
14.668344 48.456935 0.000000
17.328525 49.526278 0.000000
15.108970 52.774353 0.000000
17.195115 48.757354 0.000000
16.206577 47.154176 0.000000
13.787074 48.447824 0.000000
16.966761 47.792036 0.000000
17.006906 51.146006 0.000000
16.564802 51.680225 0.000000
15.381789 51.761942 0.000000
15.661912 51.466398 0.000000
14.220847 53.185255 0.000000
12.823239 48.168034 0.000000
15.325879 46.496563 0.000000
13.969955 52.771266 0.000000
14.065250 48.747264 0.000000
17.238427 50.520784 0.000000
12.908160 47.499900 0.000000
14.417241 52.554495 0.000000
14.410159 46.801051 0.000000
14.497148 48.030964 0.000000
16.903309 48.485442 0.000000
15.920353 51.534959 0.000000
16.864555 48.953486 0.000000
16.990874 50.779758 0.000000
13.749497 47.406380 0.000000
15.449726 52.063606 0.000000
16.984572 50.526896 0.000000
13.365190 47.696155 0.000000
16.992973 49.274964 0.000000
16.388557 47.701615 0.000000
16.722997 51.353379 0.000000
17.256195 49.877252 0.000000
15.720577 52.301053 0.000000
15.695226 47.048012 0.000000
15.923498 51.840754 0.000000
14.766513 52.740023 0.000000
15.336844 52.381447 0.000000
13.892488 48.189924 0.000000
16.375343 51.446869 0.000000
13.587189 48.303006 0.000000
14.701290 48.232690 0.000000
13.897011 48.808103 0.000000
14.418554 53.722592 0.000000
14.270013 47.287641 0.000000
14.574928 52.917371 0.000000
13.017177 47.873196 0.000000
14.955430 48.214385 0.000000
16.654235 48.701001 0.000000
14.721915 47.314417 0.000000
16.724137 51.019428 0.000000
14.260915 47.887609 0.000000
16.475276 51.151926 0.000000
16.673675 48.128505 0.000000
16.609672 49.151505 0.000000
17.045143 50.224592 0.000000
16.679978 50.715073 0.000000
15.973902 47.503850 0.000000
13.616110 47.998614 0.000000
16.007779 51.236724 0.000000
17.014948 49.585468 0.000000
16.191866 51.661293 0.000000
15.260325 47.015649 0.000000
15.708220 51.682475 0.000000
14.066882 47.655500 0.000000
13.730393 48.667975 0.000000
13.939524 47.926605 0.000000
14.787803 47.979958 0.000000
15.066909 47.960110 0.000000
16.259041 48.051144 0.000000
16.288085 49.068679 0.000000
16.550269 49.610521 0.000000
15.526778 47.488809 0.000000
16.510149 50.919751 0.000000
16.477445 48.413044 0.000000
16.487894 49.417810 0.000000
14.499076 47.691606 0.000000
16.734498 49.379297 0.000000
16.952568 49.882061 0.000000
16.470272 48.905752 0.000000
16.722273 50.429575 0.000000
15.080084 48.422415 0.000000
16.275162 51.232461 0.000000
16.274404 50.952374 0.000000
15.703288 51.966294 0.000000
16.154101 51.422461 0.000000
14.916264 46.867381 0.000000
16.400274 50.751706 0.000000
13.747441 47.736651 0.000000
13.589532 48.528841 0.000000
15.880965 47.849220 0.000000
15.476312 48.485495 0.000000
16.151726 48.347633 0.000000
16.274977 48.659445 0.000000
16.159239 48.902712 0.000000
15.282036 48.434241 0.000000
16.762170 49.673109 0.000000
15.096318 47.354117 0.000000
16.800250 50.127075 0.000000
16.521160 50.371535 0.000000
15.197776 48.217866 0.000000
14.895168 47.665933 0.000000
15.668606 48.354214 0.000000
15.347989 48.000647 0.000000
16.543975 49.959043 0.000000
15.871188 48.245665 0.000000
15.996603 48.543670 0.000000
16.704298 49.931790 0.000000
15.240735 47.726583 0.000000
15.526145 47.844476 0.000000
15.439461 48.259796 0.000000
15.827628 48.654662 0.000000
15.785793 48.500682 0.000000
15.642796 48.079589 0.000000
POLYGONS 2699 10796
3 638 743 547
3 887 1006 964
3 1300 1301 1263
3 1072 1281 1120
3 1387 1399 1374
3 1206 1267 1232
3 1315 1341 1337
3 902 907 886
3 286 337 270
3 996 1059 956
3 1048 1110 1081
3 1316 1342 1321
3 809 939 876
3 559 570 510
3 1264 1289 1220
3 1300 1337 1301
3 887 964 640
3 1001 1018 981
3 1212 1230 1186
3 941 1003 876
3 549 745 683
3 1188 1250 140
3 797 860 765
3 1299 1316 1283
3 743 748 700
3 885 997 945
3 699 806 801
3 699 801 745
3 719 797 765
3 858 913 822
3 822 1027 776
3 561 617 571
3 969 1092 939
3 1082 1113 1059
3 1022 1083 1057
3 531 680 614
3 469 708 616
3 1079 1116 1095
3 431 638 547
3 1207 1248 1148
3 1151 1197 1092
3 747 806 616
3 1120 1281 1177
3 646 745 549
3 1141 1151 1092
3 1228 1253 1231
3 140 1250 1218
3 1041 1103 1045
3 893 935 751
3 1375 1396 1373
3 432 475 337
3 561 571 530
3 949 959 843
3 642 742 572
3 1048 1081 1066
3 1114 1118 1057
3 1004 1036 969
3 1108 1122 1100
3 1261 1283 1231
3 766 938 868
3 776 858 822
3 1087 1111 1062
3 401 470 429
3 1405 1406 1375
3 1192 1220 1149
3 1419 1430 178
3 1294 1364 1323
3 372 401 371
3 1299 1409 1342
3 547 743 700
3 843 959 937
3 1320 1359 1341
3 1190 1217 1208
3 636 1294 612
3 1337 1341 1334
3 1415 1428 1392
3 880 996 956
3 1180 1219 1196
3 1429 1435 1428
3 1136 1140 1102
3 531 1117 680
3 1351 1381 1322
3 1316 1321 1264
3 1152 1254 1208
3 479 642 572
3 279 423 217
3 712 870 785
3 401 429 371
3 577 677 546
3 1415 1429 1428
3 620 1013 682
3 573 648 558
3 1232 1286 1206
3 1356 1360 1349
3 890 913 775
3 1164 1171 1118
3 712 785 590
3 1285 1315 1300
3 578 619 500
3 511 573 558
3 1184 1262 1246
3 1380 1413 1395
3 278 362 199
3 139 1188 140
3 1386 1407 1332
3 1090 1143 1107
3 620 641 581
3 904 991 944
3 969 1024 1004
3 765 871 771
3 280 465 221
3 1092 1197 941
3 772 826 747
3 1375 1406 1396
3 765 771 727
3 707 774 679
3 941 1197 1031
3 282 336 193
3 951 982 962
3 1348 1411 1351
3 970 1007 935
3 942 989 985
3 1192 1264 1220
3 1413 1432 1395
3 1367 1399 1387
3 1255 1287 1247
3 700 711 580
3 1246 1262 1245
3 281 364 219
3 1010 1105 1054
3 1336 1409 1299
3 1120 1177 1078
3 1274 1300 1263
3 1190 1244 1217
3 701 859 743
3 575 609 485
3 1219 1255 1196
3 576 610 484
3 885 932 839
3 954 1105 1043
3 485 609 495
3 283 399 223
3 484 610 496
3 1113 1207 1148
3 963 988 957
3 572 644 538
3 218 286 270
3 1416 1417 420
3 841 900 864
3 951 962 905
3 1217 1244 1232
3 1054 1105 954
3 717 792 766
3 619 777 706
3 578 740 672
3 1019 1055 1041
3 285 343 228
3 407 646 549
3 1303 1356 1259
3 1433 1436 1425
3 284 466 226
3 952 997 885
3 681 792 677
3 463 479 336
3 1263 1301 1243
3 1114 1284 1164
3 649 700 580
3 366 430 365
3 1036 1141 1092
3 1041 1045 997
3 809 876 841
3 1100 1122 1049
3 434 476 338
3 497 611 432
3 743 859 748
3 338 541 423
3 498 638 431
3 937 959 838
3 293 366 365
3 1401 1430 1419
3 672 684 619
3 652 807 698
3 270 467 341
3 717 766 716
3 1187 1261 1231
3 1427 1430 258
3 643 674 576
3 1108 1192 1149
3 1005 1040 994
3 484 643 576
3 291 372 371
3 430 474 402
3 951 1007 958
3 861 943 880
3 149 964 150
3 155 468 156
3 942 985 910
3 1118 1171 1134
3 365 430 402
3 775 913 858
3 338 423 279
3 647 738 575
3 1081 1163 1121
3 701 743 638
3 343 433 265
3 812 956 904
3 1086 1179 1098
3 1098 1179 1119
3 485 647 575
3 608 645 482
3 538 543 427
3 1170 1254 1152
3 998 1007 970
3 639 708 570
3 1147 1253 1228
3 1035 1133 1072
3 437 608 482
3 1082 1170 1113
3 935 1007 951
3 1158 1178 1116
3 1283 1316 1228
3 1051 1071 989
3 343 543 538
3 1302 1309 1266
3 1031 1100 1003
3 420 1429 1416
3 865 904 890
3 286 432 337
3 436 577 546
3 1178 1180 1116
3 1180 1196 1160
3 910 985 936
3 792 867 766
3 1045 1103 1077
3 1136 1150 1140
3 1026 1087 1062
3 1397 1415 1392
3 773 885 839
3 579 637 577
3 639 839 772
3 1149 1279 1195
3 1210 1230 1212
3 218 270 198
3 1059 1113 1074
3 883 961 916
3 1413 1436 1432
3 219 286 218
3 267 498 431
3 1196 1255 1247
3 411 649 580
3 685 814 760
3 221 269 197
3 1087 1216 1165
3 223 268 210
3 1352 1377 1346
3 1019 1041 947
3 1354 1375 1373
3 886 912 902
3 998 1029 1007
3 839 932 772
3 1113 1148 1074
3 495 609 461
3 989 1071 1032
3 1144 1281 1072
3 650 723 579
3 496 610 462
3 1121 1143 1090
3 708 772 747
3 564 807 652
3 733 779 681
3 1097 1176 1135
3 1177 1184 1146
3 953 1023 961
3 958 982 951
3 1348 1351 1289
3 381 495 461
3 607 737 648
3 841 864 749
3 382 496 462
3 427 572 538
3 881 977 850
3 1315 1337 1300
3 607 648 573
3 1191 1314 468
3 1376 1392 1353
3 503 1137 620
3 917 943 861
3 840 903 783
3 581 641 476
3 770 874 548
3 269 486 342
3 1083 1195 1114
3 479 572 336
3 1402 1417 1416
3 504 577 436
3 618 740 475
3 1362 1375 1354
3 873 939 809
3 651 717 716
3 774 904 865
3 160 612 161
3 1252 1284 1114
3 1206 1286 1171
3 1381 1411 1389
3 337 578 500
3 1377 1398 176
3 913 957 822
3 1392 1413 1353
3 499 608 437
3 102 279 217
3 104 278 199
3 41 280 221
3 777 842 706
3 710 1137 503
3 996 1082 1059
3 819 952 885
3 619 706 500
3 1331 1362 1354
3 992 1048 1023
3 885 945 932
3 45 281 219
3 275 499 437
3 685 849 814
3 1230 1302 1266
3 1242 1276 1260
3 1379 1410 177
3 1129 1238 1214
3 1001 1064 1018
3 177 1403 1379
3 1049 1083 1022
3 883 916 748
3 100 282 193
3 913 963 957
3 1230 1266 1186
3 107 283 223
3 1067 1120 1078
3 220 361 194
3 1372 1399 1367
3 1124 1179 1086
3 706 807 564
3 806 873 809
3 895 903 840
3 1077 1141 1036
3 946 1010 960
3 699 745 646
3 1370 1423 1404
3 944 1014 963
3 1326 1344 1288
3 176 1393 1377
3 872 936 811
3 1389 1411 1387
3 336 540 463
3 1135 1176 1131
3 1377 1400 1398
3 38 284 226
3 1303 1360 1356
3 1293 1359 1325
3 228 265 190
3 682 804 641
3 1350 1403 1378
3 423 463 217
3 1219 1304 1255
3 1279 1310 1252
3 997 1045 945
3 767 881 850
3 948 1039 970
3 226 266 192
3 1177 1281 1243
3 258 1430 1421
3 1308 1332 1256
3 953 961 883
3 637 733 681
3 1376 1397 1392
3 714 840 783
3 98 285 228
3 486 577 504
3 1288 1376 1329
3 899 1005 994
3 1293 1325 1269
3 1161 1235 1198
3 1094 1214 1154
3 1179 1205 1153
3 1148 1236 1215
3 1199 1303 1259
3 1301 1337 1334
3 723 779 733
3 1344 1397 1376
3 1040 1124 1086
3 1035 1072 1014
3 1325 1360 1303
3 486 579 577
3 1353 1413 1380
3 1150 1248 1207
3 1367 1387 1348
3 1392 1428 1413
3 258 1421 1403
3 1416 1429 1415
3 1000 1093 1033
3 715 839 639
3 376 497 432
3 1217 1232 1175
3 1318 1378 1355
3 776 1027 709
3 1236 1273 1215
3 1124 1205 1179
3 1330 1373 1347
3 1255 1327 1287
3 1203 1237 1168
3 1346 1371 1344
3 1307 1347 1339
3 1378 1421 1401
3 228 343 265
3 1110 1163 1081
3 1030 1116 1076
3 285 543 343
3 369 499 275
3 762 811 684
3 1280 1302 1230
3 1233 1300 1274
3 1269 1303 1240
3 133 1382 211
3 1356 1407 1319
3 1214 1238 1154
3 502 613 465
3 956 1059 991
3 1264 1321 1289
3 578 672 619
3 173 1398 1394
3 337 467 270
3 1115 1169 1168
3 946 960 864
3 1134 1216 1087
3 209 369 275
3 819 885 773
3 1042 1214 1094
3 4 1427 258
3 1290 1346 1326
3 1172 1213 1141
3 222 287 191
3 397 424 340
3 1107 1109 1071
3 1014 1072 1068
3 723 838 779
3 1357 1395 1385
3 1118 1134 1105
3 1227 1273 1263
3 1148 1248 1236
3 1159 1193 1126
3 199 434 338
3 130 1410 1406
3 1398 1400 1394
3 1036 1092 969
3 227 267 220
3 895 965 962
3 277 397 340
3 1342 1367 1321
3 1108 1149 1122
3 741 865 775
3 336 572 427
3 910 936 872
3 994 1086 1039
3 1295 1310 1279
3 1324 1352 1290
3 270 341 198
3 702 840 714
3 970 1039 998
3 410 650 579
3 1010 1054 960
3 1265 1288 1225
3 1189 1202 1163
3 561 709 617
3 989 1032 1012
3 1078 1177 1146
3 988 1120 1067
3 1199 1259 1145
3 1346 1402 1371
3 1265 1326 1288
3 1325 1359 1320
3 977 1020 952
3 1275 1318 1313
3 812 904 774
3 1109 1162 1145
3 1147 1228 1192
3 1222 1326 1265
3 1171 1286 1216
3 709 1027 750
3 1145 1223 1194
3 291 371 247
3 1245 1257 1202
3 1298 1324 1260
3 1204 1265 1225
3 992 1023 953
3 1377 1402 1346
3 1133 1215 1144
3 1295 1335 1310
3 1223 1292 1268
3 1403 1421 1378
3 1277 1336 1312
3 1234 1250 1224
3 897 1028 1000
3 751 935 815
3 1373 1379 1347
3 1329 1376 1353
3 1198 1276 1242
3 1292 1384 1331
3 1304 1353 1327
3 748 916 802
3 651 716 582
3 1130 1183 1158
3 435 473 400
3 1272 1330 1307
3 341 465 280
3 1139 1172 1141
3 1306 1354 1330
3 1169 1203 1168
3 1123 1159 1085
3 1111 1211 1062
3 962 982 895
3 1202 1221 1143
3 859 883 748
3 943 996 880
3 760 859 701
3 612 1323 161
3 949 995 959
3 965 1025 962
3 1026 1134 1087
3 288 397 277
3 1164 1229 1206
3 1326 1346 1344
3 289 344 248
3 1371 1416 1397
3 1078 1146 1124
3 358 501 269
3 1074 1133 1035
3 1131 1173 1080
3 1121 1163 1143
3 983 1005 899
3 1074 1148 1133
3 1239 1306 1272
3 1426 1436 1433
3 1394 1419 178
3 1247 1287 1277
3 331 435 370
3 991 1014 944
3 1225 1329 1271
3 1167 1242 1183
3 1421 1430 1401
3 1241 1307 1275
3 278 678 362
3 410 579 486
3 503 620 581
3 963 1068 988
3 1149 1195 1122
3 1271 1329 1304
3 1221 1240 1181
3 1290 1352 1346
3 1045 1069 945
3 501 548 410
3 1153 1163 1110
3 1047 1126 1088
3 639 772 708
3 878 942 910
3 463 540 217
3 198 341 280
3 1327 1357 1287
3 945 1069 1004
3 702 714 653
3 1202 1257 1221
3 771 871 790
3 210 678 278
3 199 338 279
3 277 301 288
3 1347 1350 1339
3 1357 1385 1336
3 170 1417 1393
3 362 503 434
3 991 1035 1014
3 901 1019 938
3 542 679 584
3 1204 1225 1178
3 1395 1431 1420
3 1085 1159 1126
3 1126 1235 1161
3 1165 1190 1111
3 1395 1420 1385
3 467 564 502
3 653 714 589
3 1320 1360 1325
3 1327 1380 1357
3 1142 1169 1132
3 1006 1135 1002
3 381 461 327
3 1088 1161 1128
3 382 462 329
3 376 432 286
3 469 562 421
3 500 706 564
3 575 738 494
3 1084 1123 1046
3 1397 1416 1415
3 1203 1277 1237
3 1290 1326 1222
3 584 642 479
3 1260 1290 1222
3 641 804 551
3 966 1047 1011
3 1195 1279 1252
3 1393 1402 1377
3 764 860 797
3 752 965 895
3 1229 1310 1302
3 1116 1180 1160
3 165 1418 1414
3 1162 1240 1199
3 684 847 777
3 281 464 364
3 1142 1203 1169
3 642 775 742
3 1289 1351 1340
3 811 879 847
3 1237 1312 1261
3 900 1049 1022
3 1235 1276 1198
3 745 749 683
3 679 774 741
3 783 903 849
3 547 649 527
3 1363 1412 1296
3 1409 1420 1372
3 1200 1272 1241
3 1002 1065 179
3 1011 1088 1053
3 1086 1098 1039
3 491 631 602
3 215 381 327
3 1243 1262 1184
3 216 382 329
3 1229 1302 1280
3 269 342 197
3 616 699 562
3 1321 1367 1348
3 869 923 897
3 268 491 363
3 992 1075 1048
3 370 400 373
3 1122 1195 1083
3 1322 1369 1351
3 510 570 442
3 719 765 718
3 341 502 465
3 1220 1340 1279
3 611 711 618
3 1183 1204 1158
3 486 504 342
3 658 776 709
3 1004 1069 1036
3 989 1012 985
3 269 501 410
3 879 1009 966
3 897 1000 949
3 197 342 284
3 1222 1265 1183
3 762 872 811
3 1062 1211 1082
3 707 812 774
3 819 979 930
3 954 1026 917
3 370 435 400
3 809 841 801
3 475 578 337
3 1081 1104 1038
3 1262 1366 1245
3 43 218 198
3 1259 1319 1223
3 950 1009 879
3 644 858 776
3 44 219 218
3 847 966 914
3 268 532 407
3 1206 1280 1267
3 194 464 281
3 190 372 291
3 1146 1205 1124
3 559 715 639
3 1059 1074 991
3 654 719 718
3 564 652 502
3 991 1074 1035
3 1073 1169 1115
3 1289 1340 1220
3 40 221 197
3 106 223 210
3 1009 1085 1047
3 364 411 376
3 1046 1123 1085
3 1159 1241 1193
3 549 683 631
3 1235 1313 1276
3 411 580 497
3 1012 1046 950
3 549 631 491
3 1187 1213 1172
3 199 279 103
3 475 740 578
3 1032 1084 1012
3 1030 1050 1008
3 570 708 469
3 1033 1130 1079
3 198 280 42
3 512 651 582
3 1331 1384 1362
3 680 1070 1064
3 1051 1090 1071
3 210 278 105
3 1043 1134 1026
3 1098 1119 1037
3 879 966 847
3 1165 1244 1190
3 35 289 248
3 1396 1410 1379
3 194 281 46
3 1175 1232 1185
3 1288 1329 1225
3 895 982 903
3 1091 1132 1060
3 914 1011 955
3 331 370 292
3 868 938 767
3 1166 1239 1200
3 217 282 101
3 1107 1162 1109
3 1044 1099 153
3 1069 1077 1036
3 193 543 285
3 773 839 715
3 1047 1088 1011
3 1282 1388 1314
3 407 491 268
3 944 963 890
3 1106 1196 1142
3 1434 1435 1429
3 1240 1303 1199
3 1123 1200 1159
3 1193 1235 1126
3 904 944 890
3 698 770 548
3 1009 1047 966
3 191 283 108
3 1076 1160 1106
3 1362 1405 1375
3 942 1051 989
3 1186 1266 1249
3 1279 1340 1295
3 197 284 39
3 492 612 159
3 1395 1432 1431
3 1352 1400 1377
3 990 1089 1055
3 1298 1355 1324
3 1233 1274 1238
3 917 1026 943
3 1012 1084 1046
3 1157 1182 1070
3 1345 1384 1358
3 942 1052 1051
3 1342 1372 1367
3 1372 1424 1399
3 1075 1110 1048
3 952 1020 997
3 867 922 901
3 337 500 467
3 434 581 476
3 1087 1165 1111
3 193 285 99
3 411 497 376
3 95 291 247
3 980 1016 992
3 986 1028 897
3 947 1041 1020
3 888 1025 965
3 1359 1368 1341
3 897 949 869
3 1301 1334 1262
3 267 431 361
3 966 1011 914
3 1428 1436 1413
3 1319 1358 1292
3 47 220 194
3 1016 1063 1037
3 551 707 679
3 546 717 651
3 683 803 631
3 503 581 434
3 611 618 475
3 876 984 841
3 1418 1433 1414
3 1071 1109 1032
3 1044 1125 1099
3 401 571 470
3 1046 1085 1009
3 267 361 220
3 811 847 684
3 1229 1280 1206
3 1276 1298 1260
3 1223 1319 1292
3 545 744 147
3 1000 1056 949
3 1145 1259 1223
3 1093 1167 1130
3 229 264 222
3 421 562 532
3 109 222 191
3 1332 1407 1349
3 191 357 283
3 500 564 467
3 1065 1080 1044
3 1017 1052 942
3 502 652 613
3 707 861 812
3 682 1013 954
3 1350 1378 1339
3 168 1434 420
3 761 805 618
3 1132 1169 1073
3 697 929 860
3 1237 1261 1187
3 1073 1089 990
3 551 804 707
3 995 1030 1008
3 501 652 548
3 37 226 192
3 370 373 227
3 1333 1386 1305
3 950 1046 1009
3 342 466 284
3 1146 1246 1205
3 954 1043 1026
3 697 860 764
3 1060 1132 1073
3 814 980 926
3 1106 1132 1091
3 1275 1339 1318
3 824 912 886
3 767 938 881
3 838 959 908
3 1119 1153 1075
3 560 701 638
3 940 1060 990
3 878 910 857
3 1215 1273 1227
3 857 872 805
3 217 540 282
3 1324 1383 1352
3 811 936 879
3 1317 1343 1294
3 1401 1419 1383
3 882 1016 980
3 698 869 770
3 936 950 879
3 877 973 862
3 580 611 497
3 1193 1275 1235
3 930 952 819
3 1099 1125 539
3 361 527 464
3 1126 1161 1088
3 1268 1331 1306
3 1190 1254 1111
3 548 650 410
3 1344 1376 1288
3 658 709 561
3 507 653 589
3 1194 1268 1239
3 1334 1368 1293
3 97 228 190
3 967 1025 888
3 861 880 812
3 1148 1215 1133
3 1330 1347 1307
3 1205 1246 1189
3 1003 1100 1049
3 1181 1240 1162
3 1075 1153 1110
3 584 741 642
3 1037 1075 992
3 1220 1279 1149
3 880 956 812
3 637 677 577
3 1018 1064 1042
3 736 868 767
3 432 611 475
3 960 1054 769
3 1085 1126 1047
3 750 784 617
3 1304 1327 1255
3 740 805 762
3 527 649 411
3 433 561 530
3 258 1422 127
3 1393 1417 1402
3 399 532 268
3 1260 1324 1290
3 546 651 436
3 287 442 421
3 1178 1271 1180
3 1103 1139 1077
3 882 980 814
3 1243 1301 1262
3 807 923 869
3 873 969 939
3 1038 1052 1017
3 716 736 582
3 836 979 819
3 990 1055 971
3 721 844 632
3 959 1008 908
3 654 718 563
3 801 841 749
3 342 504 466
3 847 914 777
3 359 436 266
3 1008 1050 968
3 902 912 845
3 621 701 560
3 751 815 778
3 548 874 650
3 940 971 922
3 362 434 199
3 850 977 896
3 560 638 498
3 410 486 269
3 1211 1254 1170
3 1378 1401 1355
3 1109 1145 1127
3 1080 1173 1125
3 1029 1063 882
3 492 1338 1297
3 1321 1348 1289
3 1160 1196 1106
3 1168 1237 1187
3 958 1029 882
3 552 628 583
3 1354 1373 1330
3 444 654 563
3 1400 1419 1394
3 1379 1403 1350
3 1089 1103 1055
3 900 1022 946
3 1277 1312 1237
3 760 926 859
3 1387 1411 1348
3 1282 1314 1191
3 487 653 507
3 905 962 884
3 720 778 686
3 750 1027 899
3 192 289 36
3 864 960 919
3 442 469 421
3 1249 1282 1191
3 815 951 905
3 652 698 548
3 1116 1160 1076
3 292 370 227
3 930 977 952
3 882 1063 1016
3 1259 1356 1319
3 1147 1192 1108
3 995 1008 959
3 357 399 283
3 896 930 828
3 161 1323 162
3 899 994 948
3 1127 1194 1166
3 506 583 418
3 943 1062 996
3 938 1019 947
3 860 871 765
3 470 721 632
3 48 227 220
3 505 654 444
3 1229 1284 1252
3 971 1055 1019
3 531 614 142
3 473 657 621
3 672 762 684
3 976 978 818
3 133 211 134
3 1402 1416 1371
3 685 760 621
3 892 978 976
3 644 776 658
3 924 978 892
3 552 583 506
3 110 229 222
3 190 291 96
3 856 968 875
3 1385 1420 1409
3 894 924 892
3 393 510 442
3 709 750 617
3 770 869 843
3 357 421 399
3 810 857 761
3 1319 1407 1358
3 1050 1091 1015
3 1426 1433 1423
3 1180 1271 1219
3 1072 1120 1068
3 1380 1395 1357
3 984 1049 900
3 1143 1221 1181
3 875 922 808
3 632 844 751
3 1028 1093 1000
3 1143 1181 1107
3 1032 1127 1084
3 681 856 808
3 336 427 193
3 899 1027 983
3 755 850 828
3 361 464 194
3 293 365 229
3 211 1382 1345
3 680 1157 1070
3 1158 1204 1178
3 1186 1249 1155
3 908 1008 968
3 1168 1172 1115
3 1183 1242 1222
3 957 1067 1005
3 1167 1183 1130
3 1095 1116 1030
3 846 884 817
3 919 960 803
3 272 505 444
3 571 721 470
3 1227 1263 1243
3 876 1003 984
3 1287 1336 1277
3 538 561 433
3 192 360 289
3 723 733 579
3 1177 1243 1184
3 621 760 701
3 1252 1310 1229
3 371 383 247
3 580 711 611
3 845 912 823
3 440 495 381
3 1245 1366 1257
3 751 778 720
3 1003 1049 984
3 441 496 382
3 1107 1181 1162
3 779 908 856
3 104 199 103
3 1228 1264 1192
3 1358 1384 1292
3 43 198 42
3 846 905 884
3 44 218 43
3 135 1305 136
3 1049 1122 1083
3 45 219 44
3 364 376 219
3 1358 1407 1386
3 106 210 105
3 41 221 40
3 421 532 399
3 1198 1242 1167
3 1162 1199 1145
3 47 194 46
3 102 217 101
3 1109 1127 1032
3 656 720 686
3 40 197 39
3 1030 1076 1050
3 107 223 106
3 644 658 538
3 1164 1206 1171
3 437 482 413
3 1141 1213 1151
3 1045 1077 1069
3 1042 1094 993
3 1156 1250 1234
3 656 686 550
3 1355 1401 1383
3 1139 1141 1077
3 109 191 108
3 100 193 99
3 407 549 491
3 869 949 843
3 994 1039 948
3 1005 1067 1040
3 1195 1252 1114
3 849 958 882
3 780 823 703
3 542 584 423
3 105 278 104
3 803 960 769
3 864 919 749
3 780 845 823
3 103 279 102
3 42 280 41
3 1080 1125 1044
3 805 872 762
3 46 281 45
3 1306 1330 1272
3 1355 1383 1324
3 380 506 418
3 1384 1408 1362
3 692 836 819
3 566 780 655
3 431 547 527
3 1170 1207 1113
3 1015 1091 1060
3 348 437 413
3 101 282 100
3 215 327 254
3 216 329 255
3 108 283 107
3 1292 1331 1268
3 513 656 404
3 1342 1409 1372
3 1196 1247 1142
3 1131 1212 1173
3 373 498 267
3 487 507 445
3 438 509 366
3 949 1056 995
3 677 792 717
3 1115 1172 1139
3 431 527 361
3 151 1065 152
3 469 616 562
3 39 284 38
3 227 373 267
3 657 783 685
3 1318 1355 1298
3 38 226 37
3 1034 1096 987
3 999 1017 975
3 265 372 190
3 655 780 703
3 359 504 436
3 1239 1272 1200
3 692 773 622
3 1266 1309 1249
3 657 685 621
3 226 359 266
3 344 544 406
3 1329 1353 1304
3 442 570 469
3 1293 1366 1334
3 1182 1233 1129
3 375 437 348
3 1039 1063 998
3 1048 1066 1023
3 208 301 277
3 1171 1216 1134
3 1155 1249 1191
3 1073 1115 1089
3 617 721 571
3 99 285 98
3 1338 1365 1297
3 507 589 435
3 741 775 642
3 1215 1227 1144
3 463 584 479
3 1406 1410 1396
3 693 850 755
3 1067 1078 1040
3 1272 1307 1241
3 782 846 817
3 1079 1095 1056
3 1432 1436 1426
3 848 965 752
3 1052 1104 1090
3 374 425 347
3 813 970 893
3 98 228 97
3 1057 1118 1010
3 1228 1316 1264
3 1271 1304 1219
3 752 840 702
3 566 655 586
3 400 498 373
3 37 192 36
3 777 914 842
3 222 393 287
3 1010 1118 1105
3 749 919 683
3 18 256 231
3 79 257 230
3 1078 1124 1040
3 402 559 510
3 1145 1194 1127
3 1128 1167 1093
3 814 926 760
3 215 254 5
3 216 255 66
3 49 292 227
3 48 220 47
3 926 980 953
3 1183 1265 1204
3 1331 1354 1306
3 508 565 509
3 1257 1269 1221
3 1152 1208 1112
3 97 190 96
3 1225 1271 1178
3 110 222 109
3 111 293 229
3 884 1025 967
3 1056 1095 995
3 79 78 3
3 1 18 17
3 153 1099 154
3 857 910 872
3 362 678 503
3 1405 1408 1382
3 406 615 552
3 1221 1269 1240
3 875 1015 940
3 947 977 881
3 1031 1197 1147
3 429 585 513
3 899 948 813
3 297 374 347
3 1309 1335 1322
3 825 918 798
3 1224 1270 1234
3 622 773 715
3 572 742 644
3 1200 1241 1159
3 799 825 798
3 1064 1070 1042
3 298 375 348
3 1268 1306 1239
3 1391 1423 1370
3 906 976 818
3 363 678 210
3 1307 1339 1275
3 1093 1130 1033
3 1014 1068 963
3 1428 1435 1425
3 508 509 438
3 380 418 379
3 1309 1322 1296
3 967 972 817
3 985 1012 950
3 1269 1325 1303
3 1232 1267 1185
3 995 1095 1030
3 635 799 798
3 781 906 818
3 531 1218 1156
3 589 657 473
3 975 1017 878
3 562 699 646
3 1166 1200 1123
3 1257 1293 1269
3 782 817 688
3 1117 1157 680
3 1223 1268 1194
3 287 421 357
3 1233 1238 1129
3 750 899 813
3 541 542 423
3 1133 1144 1072
3 582 736 615
3 302 369 209
3 728 799 635
3 1088 1128 1053
3 305 438 366
3 783 849 685
3 889 967 888
3 445 507 331
3 132 1382 133
3 1353 1380 1327
3 808 867 792
3 1153 1189 1163
3 435 589 473
3 1194 1239 1166
3 265 401 372
3 377 412 345
3 616 806 699
3 378 416 346
3 1011 1053 955
3 226 466 359
3 364 464 411
3 999 1038 1017
3 686 846 782
3 586 655 477
3 404 656 550
3 800 863 759
3 579 733 637
3 1275 1313 1235
3 704 753 722
3 558 719 654
3 18 231 17
3 79 230 78
3 843 937 770
3 903 982 958
3 1256 1332 1291
3 914 955 842
3 704 722 660
3 1351 1369 1340
3 747 1024 873
3 553 653 487
3 999 1066 1038
3 541 641 551
3 1187 1231 1213
3 623 848 752
3 739 800 759
3 1431 1432 1426
3 184 366 293
3 711 761 618
3 503 678 602
3 406 552 506
3 476 541 338
3 36 289 35
3 221 358 269
3 817 972 906
3 159 612 160
3 344 406 259
3 604 673 630
3 1161 1198 1128
3 538 658 561
3 1097 1135 1006
3 888 965 848
3 268 363 210
3 1053 1093 1028
3 49 227 48
3 266 512 428
3 1062 1082 996
3 569 728 635
3 738 790 673
3 295 381 215
3 1328 1412 1363
3 850 896 828
3 781 818 689
3 296 382 216
3 890 963 913
3 590 785 662
3 5 254 0
3 66 255 2
3 371 429 383
3 682 954 917
3 810 878 857
3 111 229 110
3 209 275 233
3 605 673 604
3 299 377 345
3 1127 1166 1084
3 96 291 95
3 448 586 477
3 1082 1211 1170
3 300 378 346
3 603 728 569
3 1241 1275 1193
3 793 902 845
3 618 805 740
3 1128 1198 1167
3 771 790 738
3 308 380 379
3 1322 1363 1296
3 343 538 433
3 761 857 805
3 1002 1080 1065
3 282 540 336
3 889 972 967
3 16 301 208
3 648 719 558
3 277 340 294
3 659 781 689
3 77 302 209
3 167 1434 168
3 473 560 400
3 587 781 659
3 221 465 358
3 684 777 619
3 660 722 591
3 1334 1366 1262
3 714 783 657
3 853 892 891
3 736 767 693
3 682 917 861
3 851 907 787
3 393 442 287
3 255 329 225
3 254 327 224
3 1084 1166 1123
3 957 1005 983
3 936 985 950
3 408 553 487
3 935 951 815
3 585 720 656
3 383 513 260
3 900 946 864
3 1040 1086 994
3 1339 1378 1318
3 681 808 792
3 677 717 546
3 511 558 425
3 1090 1107 1071
3 1163 1202 1143
3 491 602 363
3 692 819 773
3 754 892 853
3 516 587 517
3 467 502 341
3 617 784 721
3 968 1050 1015
3 961 975 916
3 492 1258 636
3 552 676 628
3 1066 1081 1038
3 144 1001 145
3 260 513 404
3 838 908 779
3 528 605 405
3 516 517 439
3 670 800 739
3 622 715 559
3 164 1418 165
3 754 853 704
3 696 871 835
3 405 605 604
3 587 659 517
3 1033 1056 1000
3 778 905 846
3 886 907 851
3 841 984 900
3 439 517 350
3 238 439 350
3 219 376 286
3 473 621 560
3 574 645 608
3 664 782 688
3 1189 1245 1202
3 162 1323 394
3 670 739 671
3 408 591 553
3 547 700 649
3 623 702 553
3 588 643 484
3 806 809 801
3 624 754 704
3 1130 1158 1079
3 602 710 503
3 585 656 513
3 790 871 696
3 1076 1106 1091
3 470 585 429
3 169 1417 170
3 804 861 707
3 898 1018 993
3 248 344 259
3 834 837 794
3 829 925 921
3 916 975 810
3 724 793 687
3 277 294 232
3 172 1398 173
3 1383 1400 1352
3 458 603 569
3 1063 1098 1037
3 367 508 438
3 754 894 892
3 745 801 749
3 545 981 898
3 566 586 488
3 355 533 459
3 596 622 474
3 794 837 691
3 1115 1139 1089
3 356 534 460
3 524 603 458
3 1247 1277 1203
3 395 533 355
3 662 785 588
3 396 534 356
3 661 692 622
3 1210 1267 1230
3 208 277 232
3 679 741 584
3 259 506 380
3 489 660 591
3 402 510 393
3 589 714 657
3 854 894 754
3 632 751 720
3 0 254 126
3 2 255 65
3 130 1406 131
3 180 331 292
3 470 632 585
3 830 925 829
3 297 347 196
3 512 582 428
3 663 687 566
3 248 259 189
3 299 345 204
3 231 301 17
3 135 1333 1305
3 626 788 756
3 631 803 710
3 305 366 184
3 474 559 402
3 374 511 425
3 300 346 205
3 298 348 195
3 367 438 214
3 230 302 78
3 824 886 786
3 562 646 532
3 349 487 445
3 1053 1128 1093
3 232 294 234
3 443 588 484
3 867 901 766
3 247 383 260
3 670 671 601
3 828 902 793
3 35 248 34
3 34 248 189
3 550 782 664
3 233 275 235
3 485 495 412
3 837 863 691
3 945 1004 932
3 755 828 793
3 601 671 529
3 734 788 626
3 1197 1253 1147
3 697 764 627
3 928 931 833
3 796 832 831
3 1276 1313 1298
3 873 1024 969
3 50 292 49
3 180 292 50
3 418 488 379
3 824 915 912
3 627 675 556
3 706 923 807
3 1168 1187 1172
3 484 496 416
3 663 724 687
3 7 295 215
3 68 296 216
3 95 247 94
3 94 247 186
3 247 260 186
3 753 889 888
3 408 487 349
3 112 293 111
3 184 293 112
3 753 888 848
3 788 918 821
3 924 928 820
3 444 485 412
3 234 374 297
3 436 651 512
3 763 832 796
3 514 588 443
3 367 515 508
3 567 665 515
3 514 662 588
3 1371 1397 1344
3 691 863 800
3 624 854 754
3 694 786 633
3 856 875 808
3 596 661 622
3 392 524 458
3 833 931 834
3 358 613 501
3 633 705 567
3 661 787 692
3 627 764 675
3 703 823 757
3 1343 1364 1294
3 204 440 381
3 961 1023 999
3 443 484 416
3 205 441 382
3 755 793 724
3 265 530 401
3 354 524 392
3 556 675 599
3 235 375 298
3 820 928 833
3 767 850 693
3 798 918 788
3 508 665 565
3 565 596 509
3 600 734 626
3 545 746 744
3 732 854 624
3 568 794 691
3 753 848 722
3 907 979 836
3 288 301 231
3 202 398 325
3 530 571 401
3 583 724 663
3 418 566 488
3 418 663 566
3 400 560 498
3 490 734 600
3 930 979 828
3 236 377 299
3 276 398 202
3 820 833 791
3 322 395 250
3 323 396 253
3 756 854 732
3 126 254 224
3 65 255 225
3 237 378 300
3 204 381 295
3 12 297 196
3 205 382 296
3 833 834 690
3 214 438 305
3 201 397 324
3 1039 1098 1063
3 264 393 222
3 568 691 666
3 73 298 195
3 195 378 237
3 705 726 665
3 425 505 347
3 940 990 971
3 290 302 230
3 813 893 784
3 631 710 602
3 1037 1119 1075
3 1106 1142 1132
3 862 973 887
3 368 397 201
3 592 732 624
3 196 272 236
3 590 662 514
3 127 1422 128
3 591 623 553
3 9 299 204
3 694 827 824
3 626 732 478
3 791 833 690
3 827 920 915
3 70 300 205
3 775 858 742
3 691 800 666
3 574 608 415
3 223 399 268
3 828 979 902
3 690 834 794
3 287 357 191
3 722 848 623
3 1033 1079 1056
3 592 704 660
3 592 660 522
3 667 789 554
3 626 756 732
3 1349 1360 1291
3 415 608 537
3 250 395 355
3 271 378 195
3 427 543 193
3 253 396 356
3 208 232 15
3 209 233 76
3 711 802 761
3 345 495 440
3 346 496 441
3 726 851 787
3 863 934 759
3 489 591 408
3 688 906 781
3 554 789 694
3 414 576 493
3 492 636 612
3 623 752 702
3 595 735 625
3 695 789 667
3 266 360 192
3 759 870 712
3 377 444 412
3 606 607 535
3 1154 1238 1226
3 675 737 599
3 272 444 377
3 490 600 335
3 460 576 414
3 666 800 670
3 345 440 204
3 1022 1057 946
3 346 441 205
3 600 626 478
3 378 443 416
3 752 895 840
3 232 234 14
3 271 514 443
3 388 529 454
3 789 829 827
3 233 235 75
3 779 856 681
3 1007 1029 958
3 690 794 669
3 271 443 378
3 787 836 692
3 786 851 705
3 388 601 529
3 347 505 272
3 599 606 525
3 453 490 335
3 829 921 920
3 294 511 374
3 842 986 923
3 597 735 595
3 413 590 514
3 204 295 8
3 478 732 592
3 205 296 69
3 784 893 844
3 759 934 870
3 331 507 435
3 525 535 457
3 664 688 587
3 294 374 234
3 173 1394 174
3 535 607 536
3 142 614 143
3 1210 1212 1131
3 482 712 590
3 599 737 606
3 624 704 592
3 129 1410 130
3 1055 1103 1041
3 853 891 889
3 234 297 13
3 908 968 856
3 669 794 568
3 235 298 74
3 615 736 676
3 830 927 925
3 275 437 375
3 426 573 511
3 525 606 535
3 471 567 403
3 309 445 331
3 554 633 471
3 275 375 235
3 457 535 339
3 635 734 490
3 348 413 271
3 563 727 485
3 787 907 836
3 915 920 823
3 665 726 565
3 472 525 334
3 272 377 236
3 17 301 16
3 196 347 272
3 425 558 505
3 788 909 756
3 705 851 726
3 557 703 629
3 340 481 426
3 236 299 10
3 195 348 271
3 261 403 367
3 245 367 214
3 261 367 245
3 831 927 830
3 6 215 5
3 7 215 6
3 477 655 557
3 67 216 66
3 68 216 67
3 416 496 346
3 237 300 71
3 444 563 485
3 740 762 672
3 78 302 77
3 666 670 483
3 676 736 693
3 412 495 345
3 704 853 753
3 196 236 11
3 695 829 789
3 417 575 494
3 695 831 830
3 829 920 827
3 419 600 478
3 645 712 482
3 195 237 72
3 16 208 15
3 77 209 76
3 556 668 627
3 485 727 647
3 555 791 690
3 643 731 713
3 569 635 490
3 655 703 557
3 648 797 719
3 727 771 647
3 668 729 627
3 335 600 419
3 988 1067 957
3 731 785 768
3 768 870 825
3 483 670 601
3 630 735 597
3 334 525 457
3 409 669 568
3 558 654 505
3 406 506 259
3 413 514 271
3 516 664 587
3 695 830 829
3 522 660 489
3 181 1308 1256
3 353 528 405
3 8 295 7
3 15 232 14
3 481 607 573
3 69 296 68
3 76 233 75
3 535 536 339
3 821 909 788
3 768 799 713
3 796 831 695
3 718 765 727
3 825 934 933
3 891 976 972
3 696 835 832
3 725 855 795
3 459 575 417
3 947 1020 977
3 630 763 735
3 849 882 814
3 471 633 567
3 696 763 630
3 725 795 729
3 409 568 526
3 629 852 758
3 645 739 712
3 339 536 455
3 1052 1090 1051
3 556 599 525
3 555 690 669
3 802 810 761
3 820 978 924
3 14 234 13
3 588 731 643
3 478 592 419
3 398 537 422
3 75 235 74
3 453 569 490
3 635 798 788
3 379 586 448
3 340 426 294
3 689 911 820
3 384 408 349
3 274 460 414
3 419 592 522
3 387 526 483
3 877 987 973
3 147 744 148
3 273 459 417
3 446 471 403
3 756 909 894
3 604 630 597
3 261 446 403
3 349 445 213
3 9 204 8
3 70 205 69
3 13 297 12
3 550 664 516
3 317 458 453
3 515 665 508
3 74 298 73
3 403 567 515
3 687 845 780
3 10 299 9
3 335 419 385
3 628 755 724
3 356 460 274
3 71 300 70
3 403 515 367
3 387 483 456
3 355 459 273
3 554 694 633
3 703 757 629
3 785 870 768
3 11 236 10
3 827 915 824
3 694 824 786
3 565 661 596
3 726 787 661
3 891 972 889
3 335 385 262
3 729 795 697
3 72 237 71
3 458 569 453
3 627 729 697
3 12 196 11
3 353 391 319
3 625 667 595
3 509 596 430
3 870 934 825
3 317 453 335
3 273 417 353
3 472 593 556
3 309 331 180
3 689 820 791
3 73 195 72
3 757 921 852
3 922 971 901
3 392 458 317
3 634 729 668
3 464 527 411
3 304 384 349
3 725 729 634
3 426 511 294
3 593 668 556
3 354 392 321
3 263 389 183
3 224 327 206
3 225 329 207
3 404 550 516
3 182 317 262
3 853 889 753
3 447 522 384
3 688 781 587
3 436 512 266
3 213 445 309
3 763 796 735
3 246 263 183
3 920 921 757
3 482 590 413
3 686 782 550
3 789 827 694
3 449 523 409
3 456 601 388
3 835 929 832
3 333 449 409
3 448 477 332
3 758 855 730
3 483 601 456
3 313 448 332
3 494 528 417
3 304 349 213
3 243 447 384
3 419 522 447
3 567 705 665
3 855 927 795
3 244 317 182
3 673 696 630
3 384 522 489
3 1060 1073 990
3 730 855 725
3 517 659 598
3 629 758 730
3 446 521 471
3 474 622 559
3 189 380 308
3 379 448 240
3 262 385 182
3 352 452 446
3 389 452 352
3 390 537 276
3 696 832 763
3 718 727 563
3 931 933 834
3 519 668 593
3 243 384 304
3 634 668 519
3 409 526 333
3 598 659 555
3 318 454 251
3 588 785 731
3 263 520 452
3 419 447 385
3 674 728 603
3 308 379 240
3 689 791 659
3 417 528 353
3 865 890 775
3 59 321 252
3 120 319 249
3 768 825 799
3 795 927 866
3 320 455 201
3 731 768 713
3 818 978 911
3 817 906 688
3 756 894 854
3 390 454 415
3 635 788 734
3 317 335 262
3 183 389 311
3 713 799 728
3 557 594 477
3 594 730 725
3 659 791 555
3 385 447 243
3 405 604 520
3 170 1393 171
3 452 595 521
3 739 759 712
3 493 603 524
3 594 725 634
3 477 594 518
3 472 556 525
3 240 448 313
3 625 695 667
3 866 927 831
3 404 516 351
3 311 389 352
3 352 446 261
3 523 598 555
3 414 524 354
3 583 663 418
3 415 537 390
3 818 911 689
3 452 521 446
3 537 608 499
3 529 671 574
3 477 518 332
3 521 554 471
3 260 404 351
3 332 518 450
3 518 519 450
3 526 568 483
3 605 738 673
3 557 629 594
3 350 598 523
3 523 555 409
3 450 519 386
3 273 353 319
3 821 928 909
3 481 573 426
3 493 524 414
3 350 523 449
3 451 593 334
3 517 598 350
3 273 319 200
3 351 516 439
3 186 351 303
3 303 439 238
3 92 303 238
3 53 304 213
3 114 245 214
3 51 180 50
3 113 305 184
3 88 306 185
3 212 306 88
3 90 307 212
3 94 186 93
3 115 245 114
3 53 213 52
3 55 243 54
3 114 305 113
3 214 305 114
3 116 245 115
3 89 212 88
3 32 308 240
3 33 308 32
3 27 312 242
3 52 213 51
3 51 309 180
3 213 309 51
3 55 310 243
3 88 185 87
3 91 307 90
3 116 311 245
3 238 307 91
3 28 312 27
3 186 303 93
3 90 212 89
3 92 238 91
3 54 304 53
3 313 332 188
3 31 313 30
3 30 313 188
3 26 187 25
3 29 188 28
3 188 312 28
3 243 304 54
3 27 242 26
3 242 314 26
3 93 303 92
3 240 313 31
3 188 332 312
3 32 240 31
3 189 308 33
3 26 314 187
3 30 188 29
3 34 189 33
3 56 310 55
3 57 182 56
3 182 310 56
3 113 184 112
3 117 311 116
3 118 183 117
3 183 311 117
3 182 385 310
3 310 385 243
3 350 449 212
3 307 350 212
3 238 350 307
3 212 449 333
3 306 333 185
3 212 333 306
3 386 519 451
3 494 605 528
3 518 594 519
3 206 327 326
3 207 329 328
3 332 450 312
3 246 391 263
3 290 369 302
3 274 354 321
3 274 321 203
3 795 866 697
3 519 593 451
3 671 739 645
3 398 422 369
3 673 790 696
3 454 529 415
3 312 386 242
3 242 386 314
3 386 451 314
3 384 489 408
3 786 886 851
3 757 852 629
3 391 520 263
3 259 380 189
3 334 593 472
3 333 387 185
3 311 352 245
3 245 352 261
3 312 450 386
3 594 634 519
3 325 398 290
3 333 526 387
3 488 586 379
3 629 730 594
3 324 397 288
3 808 922 867
3 244 392 317
3 314 334 187
3 314 451 334
3 825 933 918
3 263 452 389
3 625 796 695
3 351 439 303
3 260 351 186
3 253 356 203
3 123 322 250
3 520 595 452
3 62 323 253
3 866 929 697
3 206 326 322
3 250 355 200
3 520 604 597
3 758 927 855
3 207 328 323
3 185 315 87
3 87 315 86
3 252 392 244
3 521 667 554
3 832 929 866
3 633 786 705
3 461 533 395
3 462 534 396
3 119 246 118
3 24 316 23
3 118 246 183
3 187 316 25
3 25 316 24
3 58 244 57
3 57 244 182
3 200 319 120
3 203 321 59
3 185 387 315
3 256 324 288
3 632 720 585
3 249 391 246
3 187 334 316
3 555 669 409
3 326 395 322
3 520 597 595
3 328 396 323
3 568 666 483
3 993 1094 974
3 85 239 84
3 86 239 85
3 239 318 84
3 405 520 391
3 266 428 360
3 576 674 493
3 387 456 315
3 713 728 674
3 315 456 239
3 493 674 603
3 334 457 316
3 23 241 22
3 120 249 119
3 241 320 22
3 59 252 58
3 200 355 273
3 203 356 274
3 241 457 339
3 423 584 463
3 86 315 239
3 274 414 354
3 239 388 318
3 241 339 320
3 206 322 123
3 207 323 62
3 388 454 318
3 257 325 290
3 321 392 252
3 735 796 625
3 339 455 320
3 23 316 241
3 119 249 246
3 58 252 244
3 239 456 388
3 591 722 623
3 595 667 521
3 83 251 82
3 84 251 83
3 84 318 251
3 529 574 415
3 675 797 737
3 1370 1404 394
3 319 391 249
3 878 1017 942
3 316 457 241
3 834 933 837
3 551 679 542
3 892 976 891
3 251 454 390
3 793 845 687
3 628 724 583
3 687 780 566
3 121 200 120
3 22 201 21
3 21 201 20
3 122 200 121
3 22 320 201
3 82 202 81
3 60 203 59
3 61 203 60
3 1373 1396 1379
3 353 405 391
3 565 726 661
3 494 738 605
3 553 702 653
3 574 671 645
3 461 609 533
3 492 1297 1258
3 179 1065 151
3 462 610 534
3 366 509 430
3 123 250 122
3 62 253 61
3 201 455 368
3 422 499 369
3 821 931 928
3 1016 1037 992
3 536 607 481
3 1385 1409 1336
3 534 576 460
3 276 537 398
3 201 324 20
3 202 325 81
3 1382 1408 1345
3 955 1053 1028
3 175 1382 132
3 1403 1422 258
3 251 390 202
3 533 575 459
3 430 596 474
3 778 846 686
3 264 402 393
3 124 206 123
3 125 206 124
3 63 207 62
3 64 207 63
3 912 915 823
3 606 737 607
3 82 251 202
3 1249 1309 1296
3 832 866 831
3 764 797 675
3 1152 1207 1170
3 898 993 974
3 955 986 842
3 1155 1191 539
3 1242 1260 1222
3 784 844 721
3 122 250 200
3 455 536 424
3 911 978 820
3 61 253 203
3 256 288 231
3 680 1064 480
3 202 390 276
3 290 398 369
3 1150 1152 1140
3 750 813 784
3 126 224 125
3 65 225 64
3 884 967 817
3 257 290 230
3 1185 1267 1210
3 138 1188 139
3 329 462 328
3 946 1057 1010
3 327 461 326
3 165 1414 166
3 1295 1369 1335
3 823 920 757
3 19 256 18
3 20 256 19
3 80 257 79
3 81 257 80
3 326 461 395
3 328 462 396
3 938 947 881
3 1391 1431 1426
3 815 905 778
3 909 924 894
3 81 325 257
3 20 324 256
3 1347 1379 1350
3 422 537 499
3 1390 1424 1391
3 424 536 481
3 1189 1246 1245
3 1112 1208 1174
3 1184 1246 1146
3 125 224 206
3 64 225 207
3 429 513 383
3 1104 1121 1090
3 1364 1390 1370
3 998 1063 1029
3 1213 1231 1151
3 875 940 922
3 957 983 822
3 1031 1147 1108
3 650 874 723
3 1351 1411 1381
3 1111 1254 1211
3 368 455 424
3 962 1025 884
3 433 530 265
3 925 927 758
3 852 925 758
3 647 771 738
3 1273 1274 1263
3 1345 1408 1384
3 1015 1060 940
3 602 678 363
3 1153 1205 1189
3 766 868 716
3 1054 1101 769
3 1317 1374 1343
3 643 713 674
3 1261 1312 1299
3 1175 1176 1097
3 968 1015 875
3 693 755 628
3 365 402 264
3 1302 1335 1309
3 1423 1433 1418
3 476 641 541
3 1142 1247 1203
3 428 544 360
3 1096 1174 1138
3 531 1156 1117
3 1364 1370 394
3 1256 1270 1224
3 1231 1253 1151
3 682 861 804
3 1314 1388 1365
3 933 934 837
3 1125 1155 539
3 428 615 544
3 582 615 428
3 1332 1349 1291
3 973 1058 1006
3 534 610 576
3 802 916 810
3 533 609 575
3 1119 1179 1153
3 810 975 878
3 420 1434 1429
3 1154 1226 1209
3 1013 1054 954
3 923 986 897
3 424 481 340
3 1258 1294 636
3 1365 1388 1297
3 620 1101 1013
3 1058 1097 1006
3 1287 1357 1336
3 987 1096 1058
3 1013 1101 1054
3 1227 1281 1144
3 1076 1091 1050
3 972 976 906
3 1425 1436 1428
3 1112 1174 1096
3 1094 1154 1136
3 1257 1366 1293
3 723 937 838
3 842 923 706
3 1305 1332 1308
3 909 928 924
3 893 970 935
3 859 926 883
3 1156 1234 1201
3 862 887 640
3 1038 1104 1052
3 971 1019 901
3 229 365 264
3 1312 1336 1299
3 1313 1318 1298
3 1070 1182 1129
3 1020 1041 997
3 961 999 975
3 1226 1274 1273
3 744 746 640
3 973 1006 887
3 532 646 407
3 1391 1426 1423
3 176 1398 172
3 1238 1274 1226
3 174 1394 178
3 1208 1254 1190
3 150 964 179
3 1101 1137 769
3 166 330 167
3 177 1410 129
3 983 1027 822
3 131 1406 175
3 1026 1062 943
3 1151 1253 1197
3 156 468 157
3 466 504 359
3 137 181 138
3 468 1365 157
3 1293 1368 1359
3 1291 1360 1320
3 330 1434 167
3 948 970 813
3 480 1001 144
3 128 1422 177
3 926 953 883
3 1089 1139 1103
3 1138 1175 1097
3 742 858 644
3 171 1393 176
3 1404 1418 164
3 420 1417 169
3 545 898 816
3 1150 1207 1152
3 166 1414 330
3 676 693 628
3 1345 1386 1333
3 181 1188 138
3 987 1058 973
3 1261 1299 1283
3 1258 1317 1294
3 1034 1112 1096
3 737 797 648
3 131 175 132
3 171 176 172
3 368 424 397
3 826 1024 747
3 1018 1042 993
3 162 394 163
3 174 1427 4
3 1399 1424 1390
3 150 179 151
3 1176 1210 1131
3 1004 1024 826
3 128 177 129
3 896 977 930
3 1023 1066 999
3 143 480 144
3 1328 1361 1258
3 137 1308 181
3 620 1137 1101
3 683 919 803
3 1249 1296 1282
3 1070 1214 1042
3 1297 1328 1258
3 181 1256 1224
3 1258 1361 1317
3 211 1333 135
3 541 551 542
3 1068 1120 988
3 1243 1281 1227
3 1388 1412 1328
3 1164 1284 1229
3 1256 1291 1270
3 1244 1286 1232
3 211 1345 1333
3 465 613 358
3 175 1406 1405
3 772 932 826
3 903 958 849
3 1270 1311 1234
3 175 1405 1382
3 1154 1209 1136
3 1361 1389 1317
3 1362 1408 1405
3 769 1137 803
3 816 877 862
3 4 258 127
3 1216 1244 1165
3 157 1338 158
3 932 1004 826
3 1297 1388 1328
3 146 545 147
3 974 1094 1061
3 168 420 169
3 637 681 677
3 163 1404 164
3 1185 1210 1176
3 145 981 146
3 1117 1201 1157
3 746 862 640
3 1136 1209 1150
3 1414 1425 330
3 1156 1201 1117
3 545 816 746
3 898 974 816
3 1226 1273 1236
3 1383 1419 1400
3 980 992 953
3 1349 1407 1356
3 177 1422 1403
3 770 937 874
3 480 1064 1001
3 134 211 135
3 1343 1390 1364
3 1291 1320 1270
3 1201 1251 1157
3 1363 1381 1361
3 1424 1431 1391
3 921 925 852
3 1234 1278 1201
3 148 640 149
3 1323 1364 394
3 1335 1369 1322
3 154 539 155
3 394 1404 163
3 1420 1424 1372
3 1031 1108 1100
3 1105 1134 1043
3 157 1365 1338
3 1358 1386 1345
3 158 492 159
3 1296 1412 1282
3 1343 1399 1390
3 136 1305 137
3 1129 1214 1070
3 1002 1135 1080
3 181 1224 1188
3 1305 1308 137
3 1175 1185 1176
3 1251 1285 1182
3 1081 1121 1104
3 613 652 501
3 716 868 736
3 140 1218 141
3 974 1021 877
3 1390 1391 1370
3 1021 1034 987
3 152 1044 153
3 1058 1138 1097
3 1080 1135 1131
3 1226 1236 1209
3 964 1002 179
3 1173 1212 1186
3 1425 1435 330
3 615 676 552
3 807 869 698
3 178 1427 174
3 877 1021 987
3 1270 1320 1311
3 955 1028 986
3 1278 1315 1251
3 141 531 142
3 1140 1152 1112
3 1234 1311 1278
3 1267 1280 1230
3 981 1018 898
3 1317 1389 1374
3 1034 1140 1112
3 803 1137 710
3 143 614 480
3 1061 1102 1021
3 148 744 640
3 1310 1335 1302
3 1173 1186 1155
3 154 1099 539
3 1094 1136 1061
3 816 974 877
3 1174 1217 1138
3 1157 1251 1182
3 146 981 545
3 1374 1399 1343
3 1314 1365 468
3 816 862 746
3 1096 1138 1058
3 1209 1248 1150
3 544 615 406
3 974 1061 1021
3 330 1435 1434
3 1285 1300 1233
3 1102 1140 1034
3 158 1338 492
3 1311 1341 1278
3 1201 1278 1251
3 835 871 860
3 1138 1217 1175
3 1236 1248 1209
3 1224 1250 1188
3 1218 1250 1156
3 1216 1286 1244
3 1021 1102 1034
3 152 1065 1044
3 1328 1363 1361
3 1381 1389 1361
3 1282 1412 1388
3 1278 1341 1315
3 1125 1173 1155
3 1404 1423 1418
3 1182 1285 1233
3 141 1218 531
3 918 931 821
3 1061 1136 1102
3 918 933 931
3 1251 1315 1285
3 1420 1431 1424
3 837 934 863
3 860 929 835
3 614 680 480
3 1374 1389 1387
3 178 1430 1427
3 874 937 723
3 1340 1369 1295
3 145 1001 981
3 640 964 149
3 155 539 468
3 289 360 344
3 360 544 344
3 539 1191 468
3 559 639 570
3 1294 1323 612
3 708 747 616
3 620 682 641
3 700 802 711
3 748 802 700
3 774 865 741
3 747 873 806
3 844 893 751
3 901 938 766
3 939 941 876
3 902 979 907
3 956 991 904
3 939 1092 941
3 941 1031 1003
3 964 1006 1002
3 1083 1114 1057
3 1079 1158 1116
3 1114 1164 1118
3 1208 1217 1174
3 1231 1283 1228
3 1299 1342 1316
3 1305 1386 1332
3 1320 1341 1311
3 1322 1381 1363
3 1341 1368 1334
3 1414 1433 1425
POINT_DATA 1437
SCALARS UX float 1
LOOKUP_TABLE default
-21897329064491705940754971372834733976687966219450797653176086396141568.000000
31243307287534730657626201496526743819423552444740532655539532882509824.000000
24860097256197394712813423613897892263402583180507935191022345620815872.000000
13862439188553528451042521213629458360030400099560469313899935739936768.000000
-2011189702461754730931939231897286863382034131358484875831600681517517956539792490496.000000
27603205620357426637184632425181262486360912274011692109386323622625280.000000
-43718517974750615959386566880949440434602071016594518777539231901286400.000000
-1088293836833393143133194748648701034009102572239644388934352556261376.000000
21216843739681332044509553366085895196752130456377145252615479741120512.000000
-1064535348572310012166740507311545482583268461671881777858919371112448.000000
30017821156954206124153570194730366982590918690045400804214153246932992.000000
-30764037454887193397938500246183066621016779117833119780981104481140736.000000
43166455689533745592632656282052422834059077051416476465604491254693888.000000
-146434458205987549350896508729392195699283043295268987219839319776690176.000000
525128246843810558067263524997861737616882303053978134302651641350848512.000000
-533083021909121998958351533837664084809726754372546128165506507721408512.000000
155348507837338904777356307688006418209230609754012344005701831214759936.000000
-63544508157552153967092707050510078218116184434019591224111695633842176.000000
-69783742602051617691551316979321275102745768298769270860094105925028767750508511232.000000
10940583577166849469035335007353856914201633055668772061513316741421398387385696256.000000
92476284643722370152678081379606044216051856325190889214098358739192691167875563520.000000
-65688508929626832459809346815361006028094599570133385227756991795924692306694766592.000000
-137091177624006822243112524842981359696265147127277753829456715240884160335355838464.000000
-185600351598694628798598334109524211646780432026194225801757458315853268970033381376.000000
-200445003320806264179791970211734894351873426836017452713653317126009463797691973632.000000
-208542102475029380325276815785190638615083655233995066396800924344093716079160852480.000000
-476810105736991171650942699860702362441859793963166833174985810994924917158087491584.000000
-608124822519230426652335043420757294746454600159264792592192216396313411520204636160.000000
-663185727588498241906453607774528587400580920966691310530332264722256365394082136064.000000
-951619415762393703172143993011393777283047065164644403243073130124844973869856980992.000000
-812572138967579824115169797336534307888833780000676072849482240837155613247004475392.000000
-1013918527807838429415753760103447350655697982533704803735677179991962747021700366336.000000
-1195427725452163346711677780867527332458698004544314240249637399719029948083752402944.000000
-2204162050758814111394178672943936289708541625893349184699170876015694667018378674176.000000
-1582749686167678552314528355821043092701175109282293122948446067801497464526363164672.000000
-1373504905555708558963097442410274522414744755248268098684307338433983810059947212800.000000
-1696174998672538767350258810176316312125500404578967861052506041790343996618871668736.000000
-1033701717485348430400113260936007138639313488363924642560628500447113302959347204096.000000
-838861254992982914593749705646356805850540041060488169794341414035587540594622201856.000000
-1730159211423707457550340979189234761252821202675231453947988005988162610793864495104.000000
-1560908210143931071391870812075985322604960166362588789898042827879397153206028992512.000000
-2237270408330724372288848994428435031476591016682972273204022077542182317464806752256.000000
-3047910812201693595781828700381546740134043934547629394536891621404346505184736706560.000000
-3979573549738730815977224933176770859811041555759123102322462766276137326492025618432.000000
-6540286784099640456972517075791594617437374219898702673974150165771004360186822393856.000000
1680048337900126808391169152934270461847429631627916974265014586373441601850295975936.000000
66249843108976051666882313984215605444003932080976924190319563928115236144943202304.000000
-1005337649515995059978380842570377917955242730413343201625537114896640286086387466240.000000
1382360327248702515027945233524994745899378687498539824659319048979546820445460234240.000000
-1397158010017447777785985929238710181151987235385581527562781050593344161495574904832.000000
-2298932687146641258129498695328328470812326149765542057907512671672356488151891443712.000000
-3246217507798721799920013219529377577308768518222773363210328429055125275235101704192.000000
-84109556755903980139139597440358696776610600070856592700787754089833988558094860288.000000
731611260973897709396492031147528034887083078807347186456295317236404053870490157056.000000
1105195907464441332759504640736493352402474997413529809023073597407145652815155691520.000000
1979918634166670080837934298307289207339784666968305369444502978718020670301868654592.000000
498489221180578126886723054817423302619974456924449593832615053030651392758642638848.000000
-170322449421754384235902933026160164300908641685532102189588975236199001246113202176.000000
-1141868562365180573890567717026388132445563736448432066856223086558791936464903995392.000000
-1793905050238434901897792043285927394801317324106615475364316873752709874706141937664.000000
-2375706720642237799051399832302958465972570080082806171837390231145638259317664645120.000000
-1254403065391292879885519689011676788858630111051209938154006642724246561447238172672.000000
-495642698555404856462676482587273751200772505966639762392781154416031862438831849472.000000
660914036397482506398326784736559556583549079333187034773598564554751773002992451584.000000
-1597475573007885670611842755128469398824178245104578372410326424473236740484611702784.000000
-810630449586898936050948360332541923422660769692964980874221456222181369421896876032.000000
4390997702858642120272283952225881169774351434825420040928024946802688.000000
39272772458593916130930084359750572347452743368276711920964624478896128.000000
-3674631915173608083238996452169699678343430625902974585052676417912832.000000
-5837758164958949384650254974899312681016779636027171363779129009766400.000000
-32332697751791248069609140832887878696055611569452366924941467821539328.000000
-409695359439075419255941577309681495676139267985771909710328809652224.000000
36654095651360684084954778470683620242264312540438062842908919218569216.000000
-79327350220194569070703022680361730122986069922024959238691966456692736.000000
42959195719555874851758940534219895884671260039061241293572578742370304.000000
1927342936735246641524720983612943736223865047630409008544156624093184.000000
6750918028440002717009151698773133240458442842322761240107014720323584.000000
-6672491514322922944260870416096021419258406521518796531801939861569536.000000
-10513867243633923095324522342332272086217947875431598631786826277322752.000000
127181243231809963848599873133018806018093610203682930299814192510421973493769830400.000000
564028035993805808260505811311239664514130783430655307443685351440942222976302972928.000000
1098212130478518886160871725610653049522582483388953681107304548141392591320485199872.000000
1134320500207111494701827861890272482908447362053487091170098311975326182629508644864.000000
894850798524248112781574980167602375288971212341456572802719545191483679538052857856.000000
828620530865793190391014081290956375733379129155268739149709336088600458802992513024.000000
762559087481157922533201581736013633965745791489976950739968001353629265538312044544.000000
808591956726064901142211562740094166495320168848330656358914958597994058387870973952.000000
556797010558609212763899149994139057573027677102175988046205113014549557716958838784.000000
117965221060890733794931298319589496714088171212151648753782034736135787035922268160.000000
-129579524245019480483992436578124789266824426738702378584861765467879355749421285376.000000
-731782014521405717372741460008911113042740467364212496075825714528334083928149196800.000000
-989019259842072840810960895156138119513267265415198630321499636093797682431148425216.000000
-934940831617514512627535465915468193850721705352069459276927589680224655734594338816.000000
-323289993089687653234664187253871087361283537902826740191621505200440409568988626944.000000
306909661723812340557927418453300707093335605612204278341784701299400338099086032896.000000
-2612576196431226140051423225195748742712760994182694921000321511017138902297684738048.000000
-1353808649743225024572414998512944877019588486755812377492332412955728605954453798912.000000
-1685573830396973460683861854430784521316304328474088532336134139260812676438859710464.000000
-2709469067884702018721020685500224505009754106897977169683433111402748213045957230592.000000
-1561323733129466281025198956538134605443560182154507116104360053412470006499753590784.000000
-214999612419668523546119286110984771562548238638808814786472023699695799847241121792.000000
-1583627988240679977800649234917571862061362789150708091837336494836358067691890671616.000000
-1433485624792382091078625647948766574481899012624940400452193694538508327988251066368.000000
-1342665342546059115547679397894734868947390925233725983381399433703972267452698460160.000000
-1501288438580264896079750429403067666178353827142863940129680626799325688884495384576.000000
-1514877894132312203461970696820969488922658842997906034127020250447261379731577110528.000000
-1604639030135043859534563872282371721546930184216590464174351517826072191072481574912.000000
-1221648689069648546032520843309660221299132282005941105663048450197484517930299293696.000000
-1516758905708033804272979818624227634373976528058318074748217008257116550775812653056.000000
-1027258410724855236152064494390823037185865347227709627574232710906588862570502815744.000000
-740807019539564122654200859208008463077338042308260846046806025211808616001967226880.000000
-578913332712927102907963889952263927878419971971603836819117487955858281217233256448.000000
-613821549692218195992847195020633416404694848811144095298918778687414311684054974464.000000
-499899964967241217734682428169374721929779254054253676047493810406048192013340246016.000000
-549939035746512322044747555080809605036864518568363500036247845071556551907173466112.000000
-523104823427972305447673374870150644781307503542002643520747609566514157091326787584.000000
-495569117860644437428850420124915989272934768481377866260213673760748420727538974720.000000
-489516162995923135977562350086996919610471573094908633336414547931459537107161186304.000000
-222530891082700136923856988252670648520014375302968939954938216429713462011772272640.000000
425363505423513931589394017824037029479617823730978530591398089873843577444506796032.000000
-254883748676596759197176062108074903581018062700990949562639374203251116161825243136.000000
-319419893350153302825445419744414677499173611328262561662154172112858126426212139008.000000
-253229476018980730603746853761077657740459133935335058851761019347837602294128443392.000000
176338453212513026846691584282027752918006634384429260400697055150635342246711394304.000000
-184837332271348753402415298606345965294125208404307374755751574364431522793651175424.000000
-21265641984358912059562132516015391625225319713415063794632596451240650509509459968.000000
233742725411715968332675637213676005515993956436691147374812258249963282555694219264.000000
-1945661246527754530372315811748652825828468414268719584988647246595076105397740765184.000000
-2005294704442901006047170091090660549372573544349434245222820293605700365857809498112.000000
-1942813949290341423261117007038447107743637210504438592562403657277672573125739413504.000000
-1912928125144346667657731271373054707239913199233980241342829807267912742127670394880.000000
-1942072773093920607008565224309708918545263813111153863249410999524802484283954429952.000000
-1843609196310048933657886719279152294827261381315148795695116067755778963222667722752.000000
-1642027534729133336702473146239355413124138446296194503582321260286358717381495226368.000000
-1607967133250786021976605120646888187585940052098060425167635855097029509299054837760.000000
-1428373602957103216954548799900374494642126353280196685269419691779177274080126566400.000000
-1262462075155463594511421024357468423729728102277291908434431672017525901690606190592.000000
-1262964061448504903063877513393869407597316132959515997834067117314727426171577827328.000000
-1421966734193112253174858107389158891403887447641609506439841773810401967857064738816.000000
-1461025422956155693627916808780253026099584395014043652455932130716541381956065034240.000000
-1445657291662045006927557707457954312793283538345900166355962286117296196112653221888.000000
-1511625665383731176654675598565659148338351742961793238872561190862613072503380115456.000000
-1497080531419553379781700185462289987386681583462552759524988507632088361577090121728.000000
-1429084504473432718105226548694589134663752802220483193314540402831032244207651651584.000000
-1388671991037182437431894207281365969885376463834459345082276947806073025672373075968.000000
-929618881416799683763620925676105571117114301999606056308345165466351938354953584640.000000
-1362537418426589053216643932818657233080046692245143881566013176106365161887359827968.000000
-1315815858976503864271490590903915091725203174152719897534127134988231170964196425728.000000
-1731408882887709357016216287292823768831587284280332132778106175974854181408848478208.000000
-1574456299593376299335495584494900927426706740181626785706227127034788541403399979008.000000
-1602755380500347675565958063650253048199590827102424676001132215599274920446189895680.000000
-1497380975960561559657947997093990592573536581787308385608362986775137673518312849408.000000
-1483172255118105763171952294882506091451550480829941781543224310838817890391337992192.000000
-1462241242715402943742688194721995538914623397000933297266444115423708561717950676992.000000
-1531665942508723618751292336871204095223210785392076488465085148625354305483455856640.000000
-1548698826128113938035474299179211792999555206295754058185927873214911227518869569536.000000
-1605258378753423521855166467219964995722908061734959062114593267557197079328260620288.000000
-1560825041307289185644143919468559591978020998732972865849741280989485261194050666496.000000
-1585214365601251940153429807384387259034247101794248918309837427769312009543833616384.000000
-1639043685904825084515848250177682696470882720633601599117894151926209162975350095872.000000
-1573105338602966823031811789435804773189201181528393835556420511849428223691495309312.000000
-1579742241049628422394022902774015868787786936692109845666157826038830263213016219648.000000
-1709228025170841502677208398506297935011044358592686733230892910775244572652994560000.000000
-1603886804563683016175843494136665844147465861966126941783004884803576163179064983552.000000
-1396801796437502556578138639926930568666712516588065852044448256684818361992704163840.000000
-1465003337796284570333320678942800096817552013015336607924499181578834221967792406528.000000
-1562821169143852116781441914920596973770059225810583254605291358118240457814506995712.000000
-1595327815612725850326522767124074957002731583716968711198843822865736481863045742592.000000
-1555660803907450842129493089796936151266948418279097903981136197478744782946521055232.000000
-1575478336910916018633897831731420721431592419616135446760403668033225533198667087872.000000
-1631240528876511858252456394041783990670983051882275343726915329183009538255198617600.000000
-1749531489505653342859554174863630813640742399063088779008026998711006542016263749632.000000
-1953321455714803734522277567540276988234940759625441455405748800793279910747796668416.000000
-2008910227591613409661341536580152322026913193407029423729122108396300704120884428800.000000
-2088712801823055683053685147449466549109047477339448891271699008564089392731921580032.000000
-1770325182866462520450136939256507039809851929313051903631332248292642083742351884288.000000
-1737316736838057523793290933550042200678943160947370741014902665371197439697708122112.000000
-1908266346529608796136440301025410455884563275155476214885961184519530521364290076672.000000
-2091922079977149618642601973058606918238091129238563808135042365660083194423937073152.000000
-1506300957731151100433555608016240176265153042978601078195076245620807755798698524672.000000
-1299229277897884540443834442894216447771318936674953995916909572542338515452207038464.000000
-1568103034229157966655494070959786483359839733119616822370918726148204110786202697728.000000
367392076952543128225542946973590299431367337843041093557087216965032683723716296704.000000
-499849352508672419148603477977414332389911078034909866644144511037529682170712424448.000000
-615130767863988566704147898208114899690924946792980834918548954429620147165853646848.000000
574593778546563217716731030724375436277854256237233965163546007800536890039487954944.000000
-318298752514086829730421906740144785366695931784238326446059855475426416808922447872.000000
-239815355790593304123223571387456430377022594871823202017926661860813252184516853760.000000
-656970930136122019753569093823392081538019010393505340967400305217667149802661478400.000000
-1071979457138074031312115624719393632890595731687863922338625985126634735818403479552.000000
-1168670441266125406861282581511104490148343802495456287465686680170692876317210181632.000000
-1810867802452613194837133119624510754980284436959047956285967964817157601342575869952.000000
-1769102280520433748020036684182188217919988996546680730592020182951126054461125951488.000000
-2063064413426506316471119151485258608548894850135554849689898983479828958798155874304.000000
672914604424833413518188667517715930740671118157408666251039120518997077437062316032.000000
-3180962649130531221693838355617597061255329635020719760616865294488058482525208576.000000
-382342967509782455054335956055226756637466402829410715883455294325995455138821570560.000000
-1917978997929548946595730320088306222924156886566823448167370901709168898613234892800.000000
-3046673139175449422997521082321314980664128918132631767531372541496989269529452347392.000000
-1354228158365362195568328518984883667944643130842884186823846015437830480136899657728.000000
-302535811785201912551865324984640093892984650797411315326899692262814508448512737280.000000
5935811494921169651549005038606060866438422775002826188549672854701403326887493632.000000
1134696011067717682849080011158504903831909291097560959011587762865490911647475171328.000000
-2364891161020813912159166412046149374995197501912249518120351306556898515096908595200.000000
-19454621064995003022038914653262528439500674740216396052453188532973334356144685056.000000
834222835254108640626664427043579795806575270627577660730118891970910443719121436672.000000
8014664513639134269703295487099114221107679932015846446934415384146270462503026688.000000
-61466341532322548944331584708611225743586736605708834809168271475943664832867205120.000000
63409417746139200212559365487959046033141434085473395824131727894865222000730701824.000000
333851245042114069207203496928500965730751453079910643207576742292179216328902574080.000000
-1459164238149153531787743077358424825733392479597585484078770111626261081291747229696.000000
-1792886264332115280169430085348595846992732733917266615350229836710074772051103580160.000000
-37658173196175815517117896232488535680553948145199086686068370321768724531200917504.000000
421160611501456447446590103698739766621871819964984202363912808655839063569804034048.000000
-492788732310150754700536400954760664897870132015459888571488198258047542499416735744.000000
417098009852753346718426886843382752277845321854772039471054198169046794621119627264.000000
-658184697278900759756670671119340940301423335724459860436208194684387272867920740352.000000
-1115360211982310645497306215815826525594752745182852579984597592368522362519340187648.000000
-2545716990587207049316932486737948296194165544108681230607070193224975867615670960128.000000
-792654377377357154844826114296669216333476955660255913505390812892795738664474771456.000000
-911219758422596395985971753529681651538788853697119793634092495477060990000041033728.000000
-2031492480719833548156920731851184634315137206955540207503291082859352431755215765504.000000
-969537239244582662918308826477842695549999962483162991180149084904759068984638177280.000000
-1636730826531623707988239700540959911130341255304269428560518769601392790796654084096.000000
54748126334515599012718982761295729502302161712600507262213250596287985295619522560.000000
-987775760221274144635092192644596503407770635757713841455673945345399817946242482176.000000
197516782882569910385161392299826972860636066458905495340367328160718151209973710848.000000
498098219966894056670278895701593585590179335990316594091941887876909434968511348736.000000
-1516194898118178306723721652511366239642761227059038511805506841935956380879559852032.000000
-684342720189234394257674605458060281363252711429607016302541070010311918459365097472.000000
149514022469322947576750948994268703775659681884567643374353669099507901275098316800.000000
6986729221264917202562511396304929812744122630971452884592252555893954632654782464.000000
-21595379723471459424030188110355334759952794182049230256412905331581701161926787072.000000
-147803704980919049836508020851464587030573782336921000377832949474479932302415626240.000000
-149803855918525646188883270736362448127089788989224075153205637440970266217824649216.000000
15033436785987924680936306660658454306609972618404743541116312109508153246337728512.000000
-404806196168801069112012042644719879715144234804111652572498932094379971562520444928.000000
344402674892644194493094491423473982930706168975781482322230167806929630148314529792.000000
-822987435866945178120266230903066566120506916441554241747709009928693465532436840448.000000
755390042257981571173407078195795027913780137120115373082282340557235921377636122624.000000
-847609644591868964617961126703101189944140605624448328973053096898700632763228225536.000000
-190765377498969718857502877372149283596746144899247849750082130666471499044285841408.000000
-578923646619908657438107875496451778256726249370396190680752535613906552315994701824.000000
870275128241990611758267250776982595612789052612610596226420901922782531756920668160.000000
-220542756174410336545325374682120830318149206553179777417430651719374766730804985856.000000
-523192056676581804814366427769678571107522559892606759790697047566654622942281859072.000000
-214606820798218341641487509102106331180733229402895323233751520305823177255107428352.000000
-1349799482858093656787911241429679955456505528662819947778893879976900821896560377856.000000
-1773122000646204368350990523192243638632878581072297968784081765253113246497323876352.000000
246086482749188283595050176881514622844553161656346829257566991478204872519279706112.000000
126749873002082757427647102205995930662990365957341745192784350574103284716387958784.000000
900176426004546410512371726135348593019083348352077199056080578077225514813557309440.000000
-1084343318218706397211475796231041712928872341333180712807503999006447328478757912576.000000
-1364148091278746809138624497060113273625639459936565538777102959349657178035586072576.000000
381558332704148633581615210219716988723751600523457454956650104799216197115047837696.000000
-650441460150671493447688838035974669300616579794995058695000024327149839855365652480.000000
157412106632072917146443521575908297817492802637733376824080082316214289383141933056.000000
566066141095875522818287485722140362966929450402193784263520146474233733304478072832.000000
-1932406647505925424116494540379747118228088966527234786326155169250249125360979410944.000000
-404863138753547957998057415687782104531774449042131234798480844813097335735189504000.000000
377997507195645793318990263723970786195518768751729927933510578961338355805430218752.000000
-464430853746325288213255065232505121992062730948748003176495962325358581310606540800.000000
186518348042020850937217370962759161585796488688192004572395975521756797008707846144.000000
-215036738689601775600086530130211863029271391721046822736496890386614961445590269952.000000
-834200169430240851820170602703512736145941762023605324269588157116927873353141714944.000000
-2243694192431392099649291740942821778415592493273602340530142261981867971774643175424.000000
-1747100635573766009225743993698085340663290543361841958684336361569785718178903490560.000000
-361253281978630270604429110580602904651691708668105955354213002225660558993468162048.000000
-1748293373840254240463049418835823936546431034946034475021456645362011359109714018304.000000
-1690971263433263042243732709413743041810173339015613745129291824643762416725023260672.000000
-2868808479373685417757109271100101744407138604822384348400958651322359151763793117184.000000
351234668934645591797026072671979213399458542368951061088649061147484451818298146816.000000
-611255582560119782072577268336699688955788421588768613140269054980827079421011689472.000000
-304105209353283525526918038696899754799630223548636657762991366393682859791097004032.000000
-1635204001334441063473541433750168168285592914551948102943190738788315451051571412992.000000
-494476901178799351278800029136555465466708063468203138232568146063120951282140971008.000000
974860055440971257365744223969865679894252573060289955195733399822733996085731131392.000000
-53353837572409969999070560245030538764451366987815818118570208602092502538478682112.000000
-1509619341072397655933085119766324942514237485522904966864829412545282369599030951936.000000
-1231376009447468698181902544407006722651136859504918049283720812073946372522704371712.000000
-2175001813863740638719891502314103773067881905859820655199959581573072603741492871168.000000
1902671751708046841194908056783397753536214119751313899911816995546603240788974370816.000000
-708430651461276052256533019674600780979819561235259643732065621217000375552227409920.000000
-1278364376964547033471554200518621699358916254648377654317236558402897549426522324992.000000
-1978370221648153905046292940154902246304509207968754345718371933199368594631306510336.000000
-2787548575579806233034635951745916930338862131431462624430169693562069123349260271616.000000
-2055097858675242027778678003898610640017554029949579545442335177678008026594895986688.000000
-1511047823898041312961018725590674776639354115325903841651136017149070646413984006144.000000
70384551051553336926834099219791947425477584557889743187211493781738551966288576512.000000
-1795127785147731508632434915312334955789842098060103074774526080363964620832585547776.000000
413044004509488888357392063542441804256116576024518976484400670020252248686693711872.000000
-1111302857752236243207005436344235454334496886157182788431938376471541665214509350912.000000
-599892123033846615803362813344399569598784606322302146429105130065380413272670339072.000000
-594254254364063997086836502913445513750456316938667768103120231086116462226126667776.000000
-357771849924408860140910862524274529844311838521992015803222326245400491545071714304.000000
16169350058175434783161763186041149025765318848496596701949682681084621208812519424.000000
-50252771628976046556471080733246272380922722961597401359286758636576487791266889728.000000
-393587643409496944989308704432621863786582331253393646343936606563554224550734462976.000000
-34252941813071030352925440899274726648053889165992640413791336050192665800605696.000000
-77677133101216058731028906122347938885538166873065061915961605740935613387244568576.000000
842264384027993874101332982787910147420059504928318579867960522249035478139353956352.000000
-17593008009628755752718538727566838026469451939321573417577721588711769103440805888.000000
368138150279199489247680365441498229087171341219148608405149683954728663533507051520.000000
-1213658113021279407223658663095145852985169590733028664875311940051774696439490281472.000000
672748878797002003646492841068741176610306944908517632919375401093202311027647053824.000000
-529635879064768230819430532210682122987488704225348481454960020059728868704430063616.000000
84846047076169657689432928651752013578429320623214753876514292046054953782744186880.000000
-744354919645882963302212976759875214338176216889636011507736305308562460487255588864.000000
-947826357405315175582617662839191085771011766825289547742457714624515169694118838272.000000
-3663586833139811348154507754944508238855826580712634180284988893115910979943032422400.000000
773352113421534691064071087787952326093301603131254899388817683663003849284279861248.000000
-506413544023996320564093028098549115328248871778107401146816244597172448540579856384.000000
-520596719598661368984868252957592070002051611831155513762338117456718473251977691136.000000
-625053874103678437960818051197752219085655079047718914939947049276798029017835896832.000000
-296600539732747786468577356708408630091727556918583762921727196977731345125704990720.000000
911752370847505448514316957346375107676819682337963059177216258055430936770599976960.000000
-196054546439335007575048231222571496763877281475210484004958479491124138957084819456.000000
474507831050237520294978915464138139551869967781055392177401503628705519242531831808.000000
827746548650097574245715274643129504227902908783355576068162633137995215444155301888.000000
-255462660182166716221706784124122850073391192619117928343274152908820008019316178944.000000
-108307533714858928800316218222071090314108152065083948981950985143355139319817830400.000000
-1780607633049862659546263893806888901466028738957047837721072992378561344753322950656.000000
-53652485706936822297511118341939452095052213342438461285098221835925067084326764544.000000
-639792214935964330003158004638356543092711536637809543477180482060051507164968124416.000000
116909871920610345110803386005190008218928867708646486259440062669106537018999963648.000000
773725107319427585482420142113188304961264716654614132007955578098094200325102632960.000000
-912319518484384292343350904724425021190221875047241740564662534238122820480532480.000000
120084160665578355592566832733246565193450036507355570009004615474043903529671720960.000000
-270809058173108675009054303400740183419972133119410659127364217494317067862523510784.000000
-1002967953091996458552452724841703712094237192271324388821602871041742655508734541824.000000
-1536352733101048663806118814288300418866479208852861030826449080046020852516808294400.000000
-661459408373706124932002812738455868856155005857141596371090160872998648636690661376.000000
-620403597790321494828218989536539487958111062094371201038833276417948709737197469696.000000
310511588871662928007406275889900081184725283764445576925077753676757682638668431360.000000
-244457708346962582108122137161197475289770107289176661693500400760361039166296817664.000000
-1344456772413591426416413323596788760693756477002556261064456541252666727718002360320.000000
-1067884245738795168338958059608211388360790248906756987228981722400539161019692351488.000000
-2233686454205532728980249985565796043823254680771956333951721154419415464949340700672.000000
-1334464439824449607786332665239392135382859327303734129417586780115521014695039336448.000000
-230610604149332557030089351080665460176277150294619522564143205707636405322582589440.000000
-91632640646045802331271629515271303836426672464755715985752586579688307045619990528.000000
-1792922525091532352088852474786893873512197008464124926523359572073729336649715810304.000000
-1957494326845222268726705040151768585531261631203861848727506820456808892853250949120.000000
-2156311230375408265174593711453964831878954245146629305055261941385863271498746167296.000000
-1830591680372633731983124831667293410867260528644916303862647440228221676900562501632.000000
-880606058932284516643812545037811813968578733456905989929136851952199546584784961536.000000
106531648298592346155334556512753780925490020210503585497398770001038204059531608064.000000
-528867061280153402060687944759612645176928460082813812510023961158880281934140801024.000000
113449907306073095319472150748236676288901689415533636098313653514574640499564478464.000000
421571898089858839910936564877639119931339936393657510237187015307491298187969298432.000000
-556580987016071437990437716903662338136193377344552796692025858901709830142117806080.000000
-1479720930896994276574930978067196175973220086723163525748476168774671772163957063680.000000
-501408389405152676708894279676732062314023684395922948337173202829789748609480130560.000000
-268114707109604414007470952130621202739135956863795586985373641447589747334779502592.000000
-1849882546266401929858926583949787979281552913893199291866406760639415865952356532224.000000
105317009640751818361897157693838456694104828571797767247647469161488333269154922496.000000
-1362608887957111769058763001376288989965579982304063328597827870424127240674081767424.000000
-1525656096128659382344970895366039532354472478598089546234413380619004416070319603712.000000
-1964202232119051722088661463656606304928303962352213757251290692805238406332083601408.000000
-118441975494669069034259624133050101722783644476636814965614839749332534013728915456.000000
-1529898752148993735430015432409768858727557104063583355093543986058010432695009542144.000000
-1335834817904992252416881705958878740580757567358292517561463179515956241559357227008.000000
-1278879523281858158765762878040930233990972079456849859118454061652938448148361117696.000000
-1476615923128105305209237933553966701852458329283254253672624390087938768294587138048.000000
-767561648827586384684605631146754745302446280649902587242399811732559382687168593920.000000
-742152078062599564619648019735841344496397733492503458515652556323466598491143274496.000000
-496670288034067295598504647513032363272182564488724625405875009085992401766340100096.000000
-495806261362772778956902091978333869049535508280713365002608316995426484403432325120.000000
47838102436989250471287002425638403967718864387387560382052093905080982478019100672.000000
249769281498728199401622472481003146937154828907125178238933829012042681616638672896.000000
108217227831138386116466442011635111261437098594519245551505185065048692926531502080.000000
-1476934626851853664745572423494193338914999945780392252299682774322961109980914122752.000000
-848896090502451116965971951833918649111467363241904498750992998607875827893394210816.000000
-367164233038211978089635850518817446375401381726889251415610458339741749083631517696.000000
-359336271784605814402133143386158376562592628610642020579400388950927680904613593088.000000
76344961056282067546193197735954742992192499570747691865219768211886611695660957696.000000
429233996275293938967848133397216444965467127302383109612301796506206300897458257920.000000
-727282850894746902870040288185663634533898047030643434555155327188021204939681300480.000000
271246871896458302660136093066567916861457996689663155359139367985711905038235860992.000000
-735809996122210266698281913838408394761786630067034724873235787857440685850781286400.000000
-921453546383535120111242265348350195886021983302799161935045623135653404133866602496.000000
232603547157527992151866532692574213200944037837855345112070483310905438593425080320.000000
49873163173807155760333390249858992204608612934083633919072861357859867199184830464.000000
-1067275281439503745855600014063329853851795375814609284163993514190110911940746280960.000000
486078162515489163617844973057769223704156358855518446007498603144472007325551427584.000000
723655668585437457421549142601740575311999479356949355886500697127791677589315125248.000000
-518208666826940929166643691885988513408165124481276958221047129248361392534066298880.000000
701148362323437865853879689055525235607877268964022979230043140193710429405806854144.000000
712144903760383542827686700413041742191206350632627781673352124302449178787314663424.000000
-491685209858540828660936735438095231922183378139079568554679203799108263175920812032.000000
891337291009723599282753488681048374311397699503922421367904372307695265622448406528.000000
-155832029993996675002854040010417440501077502597250859498131774813540593621555740672.000000
-1462788432944098280542647772716553653188644486743711990329046712323205957142435594240.000000
-1377018269436023067374233980117823725460513321028870253321294731986839131913501802496.000000
-1669829796821872757633750361256179625866013037373308508468699447865298229996097110016.000000
-42203132272260120762277726373864635222656101945140334944507166846931494300788195328.000000
-802582551458261976167717135227188092244086430148374978063434095924171092279974428672.000000
30455295298197649031516830259885538918268472003793165426405495601264399782487523328.000000
338935926328251773185797136874751132707335058041230459586866661527578079715060088832.000000
-1465609525105849797350871504276744995250769269322026863351866360368884831775577079808.000000
-480458421644907012247452375926730906252897562041895103799615331477339058250224500736.000000
-2291595142261919438414119510748308762292209910405916466437923554842243944984063508480.000000
-796572470402384577239051844460074911525987219273489109633774155512558646936268177408.000000
-534251667361401840254399197489148526103106914085560695656118631199662904230564331520.000000
1398135036126901082601072446647683627030315825971285227500107046033986967787595104256.000000
-158134376570116505313770835548366777566949910716468715284676228915488241776873963520.000000
-1098728100443644634486177749102950636404570802049998979196700120458196415183350398976.000000
-1389665725924642624940375543082228741147984294563889241574709383232467764170528391168.000000
104897915727199883298596782023181800401764524008408221264238149458577209553108074496.000000
1001396276042696517220033800233775969239288057271565321716488676003388129619537297408.000000
-1836218417289505300502296038878815518832512203910912426889909877837398039346368479232.000000
-3013756988004820329289873997622015499690977795098651357739226289178183098794548133888.000000
-239711516751642552134431731808858803732097995061749646319580499024272846567814201344.000000
396635176421254638919044671625758655877745910203075495593546308183399200841858547712.000000
-1532216280313582722099744186566527975264788530805513876912605051689812867375077261312.000000
446107483256633060331367242904811684170115373976937107640502080574525460011309596672.000000
-336745881228386100806645241271640525138895747673003266685591739865969569289675472896.000000
-391429658545737578297175287630465431847965856128097208745622439773015715854229176320.000000
-899381353888354472670326825271616163332931398601950849852125735034441499838636883968.000000
-344701686926534047914510007078967888014495994584474657941047387696591125753941196800.000000
-1630915493116977445890995037365016951266526179111389599089503970179284118007978131456.000000
-1612673360564367726972572821866946854216314485504212069152682681509097724366053965824.000000
-379289662507583347613427973471719407219294381172709821885960683020101567605379170304.000000
-996012145000366709485319354285886845801858020700139578645763063446083029116775301120.000000
871233724899736230259998327917514192871512385240082422898837048982021053807067136.000000
-371626899930133169189002597438037262163829901323402233298360407195890099647475089408.000000
-134180283978629174668421429517037779684455644286332061913830761133955594517575892992.000000
-2387650175905867892361864772022668048029487204034853047663262669516458758481178001408.000000
-1657735497404242890947888655166361800201912962193344241933170327275638150463316033536.000000
-1108638393666700422986797798202419040368909443505986701162595815207963330441044295680.000000
-853561768512331024330266133562563914573438241223847848458018802213088169270068641792.000000
-162451037485586392306100358498700914206402683518392496874136768402030490615686365184.000000
-3810556937080261249405781902624918781482524191931263631950651237693177228997924225024.000000
-1089574788075606255889202860923155248379125831276769812613237024895556923230974377984.000000
-909099643748993100080414863216956068153005712079384924421919631488678586878428971008.000000
960097784433568743701858504226828092222312109166017963912666908627058709811924303872.000000
-1586421881825972619947274362736872818890808180037178754311268697451732669254380552192.000000
1025550688190383628255882122251324401421839961391381022885958226292287960602858487808.000000
-513723481013545794104417076067127200686887557758374573718859680172983734947532505088.000000
-479198660419976385732377962906392946094113878747752556154368016276679505760646856704.000000
-390006384800836715564052553897716993519658120588729037523660599875700219378776670208.000000
115666348271683693986258944705246128164942745206170546799946034534168947811636215808.000000
-1364327222325653129373078999103823748646544477265704435192187231933877570625985314816.000000
226421164325395030810148960674727052135245826323022443366079590859762792054931849216.000000
-502053335506437624232593500678373745048467828787489365307907567312198668080371466240.000000
369238651684601314055637980691670066520253359884785043147809854057200231226357579776.000000
-616819436752839183133861366580513706591036321173140797735376966887888391020604293120.000000
1392875630585836353115806140596343829035683735583685756524463203237144393220377018368.000000
-676655536822150074676940342281463605890131293720327338640552775288512628231378042880.000000
-847960727107411612030712636842979580882222846171370447911570265013153722777491996672.000000
-572732155804460226025391942268803770404677781203312102860722466085658659868916056064.000000
-403005037648979180777662786708299181528464801673913756687205511444902319400423522304.000000
-177444065425338371838793916243464887546375339939631014528275537118226310936037163008.000000
-1248199632252334122525721069356250247288530818664817881483120275984758789505686700032.000000
825331894274734556220086055700920377699178642061470102962256168137924700269822607360.000000
-60722304690412351215607709968303103075389860328672811811824153349047795945731784704.000000
909353594499899794447592083990519275714366755663839148669391869209969023140208050176.000000
-115925615221946198094793356722890952754113638165637490249949761161329388519258324992.000000
-1566638158500660370721983770538795052607613166016389354446219306281515755365589843968.000000
-117824403083062931285074661953521938536891940429148742969138877350088693570192015360.000000
-1479099755889862739543532570006110904194990529427551194513834802426274357537704771584.000000
126887494510064457509826877699120192587070782398097563088132138537060761419225497600.000000
478843033097965843348935768161113529750135639289476071176117403886889905281055064064.000000
-1074070479451775141330904848315183396108475406047761177599431472601887365482330193920.000000
2609535772906212964968872454611532400842670477010511614425774245691740942433435779072.000000
-1587946505927705854911113333376125044396368235162127066711690725785009095286638772224.000000
-1429799835432297936799258979448199842079765992005964481602125689523571842878311235584.000000
-2137860666199402710021883218642396800346488424561574361551233289037952667973056462848.000000
-1569814779978357727193221178213179110311166580998185834582829527313978004918811754496.000000
-1286115165672655463111076451705576177641512273670872464256244618306123867874861776896.000000
-2255347487529964842966618087532834866907425811978877307781005139748585554135880826880.000000
-514517199372054711444078308376056936101949244240062239677665030105529223163313913856.000000
-245695881365199611987959863571840535192866794351060206708264132873325082759883915264.000000
468867784648216615771586085927162162507625899641354643683419334936864609538213412864.000000
-812107989992081728904668452148817488449244061693360894571952340582818454818042937344.000000
-2737172831277907608164535032515587017332266784134194404451218221292636173008575135744.000000
-1922412368473990971279873962464329702746051561219707290953385888890294488566729801728.000000
-620035630387687092494399675725838779130733437011114479451822238876586891856949805056.000000
2013901047492265521884318467562315427653116372249625272459531971231211708119064248320.000000
-898345215563895440821371594243870638419919647788603038695621563479977951633545887744.000000
-1466151592668460349790764884124734851388963090019138605073135802389577761766160465920.000000
58957469983667778692912473595558545530497957731034598556565081043222712427036540928.000000
544256343466967278208748277317586868232703152046764328001721970833167993649053564928.000000
-13907057299894927692130453369571870753137968677019627324684045769153393715421642752.000000
-730448780554221578400370334092413190455863079490260157856697962685210789737117253632.000000
-38491419180735613815370609786856251846739308649276646795724483862787677047826153472.000000
-846139146054697621941884417943303827708020403456184793925018035313954725407110463488.000000
-536431203596110428824296854284829385463857175190979577037721084465333043273266102272.000000
-577156409138184013160410939492750103908723321277281405957225103725873937674802298880.000000
1202284019825539072032544446479521039465735745033598354719867238240400775208450916352.000000
-1783182328006437478021940913899145529175732179903648027639045584516911924763267432448.000000
-1501956782687110013320787811640733957245251850726284373873045856155818635169965801472.000000
-1577252305922476871287996790878807684411634622161594148619663748018464176244665614336.000000
-1587990475884191604324524071422556061637853948677608867151484313104190689945801719808.000000
-423884772637449644637029092449857421453617096326422805814848178709971301521197891584.000000
-87649235540698834182156617864389293436689223193947588927163802709266589905798037504.000000
-707764594653374410470962218437938981241919669128128999916202434966297743986534645760.000000
-2637202415203724457667465227595584907646500721808195216768240021678336708069205999616.000000
218304903935993377026048036029270156797982812292491084527027826122582778775211081728.000000
320179699442176711403945122197748152799448867035596643561123025591127835760119513088.000000
-2149020418148905044328767367229946406615289509837065669350351617719070953611877941248.000000
-1947050225771541987686728764600319161458030037755012425162095634065899376955107573760.000000
-1128788645387172817339823872017875751186944352724979313725976643750148050702397603840.000000
-1875289019289509110652288449963359483461012132365944803451841439484466196904658599936.000000
-1430624488159639154024250274582465600655997779751289044848331673808612186963486703616.000000
-395123309051571961660006335262894659384206809993623490630230690356273906158105788416.000000
-579698319929543678128451900849612668645996842342673595802444723933627325656575508480.000000
-793117057327604283575444343332366839532725595492026402632921401568930215499168481280.000000
-522450059585484041124033751415718899522902368244032336178668284340850753192016740352.000000
-498818405272968384520434852024754177495524630736423295471151301527177028884372652032.000000
-1378237598703733951274587408084889866868483279103185819960225660959208487233330872320.000000
-113137394175580382804483643853503524090854297939446809393945636777212042553170329600.000000
-1407689327528530775187721186445359155082531444867217147652259694701560700282207207424.000000
-692224961238861786613581696385517439297805256513719367897260505775153418241499463680.000000
316619733594336357924611024681605389878687817730560711338549394513069941964440338432.000000
-549182627844670029177866285445261959460596050939466671011479269028951810171199291392.000000
-1544632710879115101607634266590519804741917860657743280951499270916526662485930934272.000000
-855271324489249054260029146989118923272269663178556606450916548031904408232001536000.000000
-554414314416493390024791192482117720882813476079441637703900679774480203234045591552.000000
-522971208065013158531010472632816811499449786940645268845151823617964614204501524480.000000
-223007359012549268052739209871188657660775592435808743874664107964357793041782669312.000000
-631401456453657162153575933059838667928586216637119170540564211017750317690458734592.000000
3541432412449145007364696223313110334376321672459849414804300631347603851054002733056.000000
-556681004386193518134415003205708544724572880484221909393245798457286764640090456064.000000
-1723986392065583220653190747600572719780011692312330471895174187101667182294509551616.000000
-119770828626054532184909541301569039026261865712423234778370919118815092907953881088.000000
392553048355927059898235028003425975542011723823080293591993472030981304900359553024.000000
-1120076028547433683169921540655615384423499362858334799619335600972421713399568662528.000000
75619052358064891119707215402790002815081648413987044551390937585742329223999127552.000000
1241846293476068430457245373871071191812206093311170546854724479622362561596920692736.000000
-2208079367621630148894227761782615866977921357078407022072434049455158010189744963584.000000
-1530873719782899385672199190989646124654821587484821259625743068656880207309815414784.000000
-1377726840153993680394802737297432727839567576457831666222038271728987260414351900672.000000
27198256423322534763939327980814034218257793446491712511298311451859620035410526208.000000
-1279548518430972348179998620923353351245731679168216933222658526395845614022059622400.000000
-96112085453446432744652086321003001399014291892437559434233082010341981365959917568.000000
-59686557977341259019981543488601297849211496799016667018153888653315966860517179392.000000
934921230014639211280645135438198395301933258459033826223814899647697174650549174272.000000
-1443469015850319704895169845957206657032401267501105786806125337132059325211049197568.000000
-1547629783090091282715171974615421514962349429488712326349487065065107355155325517824.000000
-1034461714594825443893647773186002250006855610185070100447090565386598954254397865984.000000
-1311435298742811188760890122674932686645024464373682360068904019328871772489506619392.000000
-1182737881383287981074355613052057353787547129954760571246785273943625364528175251456.000000
-1710327157773991649169562186082227533080127787361829773988865876169521818937428279296.000000
-1170269216998248294496080074503880632596218305954255632272759513277025543261081567232.000000
-1367329885088260245562305509406145530958363176528113483408971236846012305869111296000.000000
-1651122617470759181795608983853972788462953624159364310653461966378332048098804629504.000000
-2631459465361074549017610932271334117712553783106939961019118036582390473449004859392.000000
-1677849708077809325486954892148524895516433449960878190524379365757599810547632570368.000000
-1448469655528027791662793912628730551787343391389481987991565119912253367095857774592.000000
761336568149844397652093363376580880219479730486290633138476638672541737827654696960.000000
-1122459343352095931029707958198644758440370331015828929454678935678908817057612038144.000000
-986292533873169119928274044300154965949092765011035115264155287675351962470609584128.000000
-51329181587043914468048210840729599151416972366973446640199067668079843735368630272.000000
-450542836475323869237795334507980729399779754761080521318038419990113125491323961344.000000
-1323276945424253415645178390170153586957478981386783108083648083179080681008020848640.000000
-247800849866737387027977859976583396907474807775113286888472926987376090337106722816.000000
-645865968139972031800996460904841626219466823029668408163063205117256007473707352064.000000
26108673548394291039807883112597001623967817254928131732781721217766624401349935104.000000
-1090196719227920039048827656722498484085630466287369502771940483692800747239173521408.000000
1326744219836831999722688625443260027358992274585179366520589792402954593599599149056.000000
-1338161202581510270543731546672653423627721762769155413180291674166537803662679343104.000000
-1417526068981048105226016775561924829704128034118229574250932411111831984264441757696.000000
-382818168568420065862182305062938120044034074202836012047769380203660144108055298048.000000
-1528798208540282781797135870937120470711201870984208437082330035086088601143324180480.000000
-589119535487504956432131213648582558655737775099855466314484829995226066750485299200.000000
-526827388580915079767210025337988614241034362203440170117284783457719612987758608384.000000
-589900377636183598197059157172062266540559300790683801664606066833654175246967635968.000000
264199340966327342826042722313625617391180966573691933873703440339342945618845761536.000000
-1237684680487851849873618073855178006724694830367590430609208529350922405687339253760.000000
-1265342734254533343797342148179335792698553137169336585971868058440245206682649493504.000000
-2339954264038084967929338975455141738873159945309702220198894493975932257462608986112.000000
-2105269128703287030355145809035407141824746557950148468867151387126717126907189526528.000000
129802374996005000021089660546737477563299759241665436004106873326647344743793557504.000000
462348494400934484940376844406827959328771087832358629174861103663553555131164262400.000000
-245840912284611438867521134207424770751463161176762973134134439598937620812415369216.000000
-1482644467708737106849714708913513101527024912713532219182747599372570022589335863296.000000
-1343269268495784193078557705351901618070466396631956448627764526029518086605855784960.000000
-3474898082960379202578111160214741645446008318545241875711358965665091416522364026880.000000
-925085993236177532113864355464220596852501217112926781789788645752225661835982929920.000000
-2754184957925318860927014350905481941383747990298486405165637841240011458888215822336.000000
-1016640504398593315088542243979635387605711855625356038664037021015130969076628717568.000000
-1559288508487602861528707807467527159847267194220490230460055338634840544734473093120.000000
-576947278287701346139878271417486615189304733180032796657048714981525836436835663872.000000
-1241342679241588579612325461861326059161480061031195797902853866117485812406300966912.000000
330790997860583994195926229784743923727027988124143531335388724645424794862614478848.000000
-760774285159505164377715334980480732756763919995878063148891311486715249526097051648.000000
-1030822272040675314126356442708673506357208316011808797712313784656463703845982175232.000000
167238527720707154420763663110532683459764929295929497800123797904916160441145622528.000000
1148693828819572968844386407420083774164761395198494166479141671402724827027514327040.000000
430984986330007973125854150855834296452049033414043533271489154325707109934529773568.000000
307043433266309012677616820440018482800922271073253756473523292790137003752755822592.000000
3693275453696744967850002169367293422174854098326788692915561568643181764598994829312.000000
-379386506149354088128773730081910800199470868451221437420419070671068849721588056064.000000
-402297852175209688191856516089367308170705812623701730739393445057186659834305445888.000000
-101088866297671686823770746403091159974666119871468937529360482598047661800818737152.000000
-847717335972507695264379892080652059971308311949018047029305829339251823134824726528.000000
-185036895131661037803761807951081814555480785672162557399972756249952439022313799680.000000
399812208105507249272636758113172321648047695900185135018879038200009756586476044288.000000
-130665297390291742129489448708640334578250885428811661602468570319907374339868065792.000000
-1947734334412448487070721482320436540652061633131940595922204631120899176757427437568.000000
637175931882212596339682997396097116565877157764574091938024023713757392511208259584.000000
-1517288370474632671956958094298600823114603626758543738593830791132052252722078941184.000000
-1720017113968160397888294011543567058299375975584734091503937173306371654908620308480.000000
-162665623723527410718073935448039879374695809282374784503794744085101562409701605376.000000
69085311754107406313958189853483640699717431873138346611953935067221356165633933312.000000
-49249258436346799306214384950714467943394008003745868666204305061195355831620599808.000000
188194174277273265043970965265297747921736097378438625046695857800381555800434278400.000000
325562877632092817358057976267738623662377662678375061150008916026095308743953612800.000000
36586688022496168949854944744441770714815743018791456177628344031198316198820315136.000000
-958380815363974345789269879087327998827688222259010288567711104126425174777775783936.000000
-4586126211090626269136173266344375220413634188114425016817344073854286313052767780864.000000
-1515053535259556225887879386222023232421501424238094304834483738212610210618283130880.000000
-1738804055986728293955201560814591868218259491406951046190186527080763662011759329280.000000
-1560093061054758001546846780049492142074046008926786752427038068084579247950168850432.000000
-1350605444985414394783988887596496983878879838498410297862509715233490358414688124928.000000
-1438740266598875549752486726807476140116047511344460666304290866266036758952579956736.000000
-2030121741144731278820446708153532554151095259607290732115644488075741411090213371904.000000
-3914996163422477424773409665281364221631130088574319926023793816667635342877827006464.000000
-2677118802650315265683908235223187273576556412881622865033308688325873999079909883904.000000
-998224840032271729408508612730865015600110343480591230712884382742197824157527310336.000000
1314587641678671416440801986198398513042008690809625181519936554362014547472023552000.000000
-812291990968557925514494180089092380611511265716111069798752889191585893697217101824.000000
46713657798832165913271957267210240123590533793836596027070454736291788509373530112.000000
-191987380717108367973680604473699392731761898056426477927640613332948743264728514560.000000
-105351673298649538999574149054948707442787063208919035990887392644345453098328653824.000000
-1965814882664367632752574791353508443780213454114823709961282000492569060260750295040.000000
-262888564048909327676077726242657008729641523224148704577219785989283348729326206976.000000
-890503583418205319401721954063100599661685301963370152853907555978826647598450868224.000000
-532878324291971004062097839455199546710287182485089603809265274163800244150213804032.000000
-158603589902061981765962697651414520345309034093515016762762539022075046917457313792.000000
-1488261281356060020454600315119090543100378748393704506893222069094937688917177008128.000000
-1432613362567099091293786373581825415898605628103829295307283102451975402244693557248.000000
-692600422005091536405134923020847216410390154396168115878904209733099708662176284672.000000
-432943598196901919777039645676130009241410973431532425787026063870838451590662193152.000000
-1454255836727411184063840415378754649665063149069543897908395995107016748148572815360.000000
-1573584192193398734129905563185078263009136611048765236871273983643282205059653304320.000000
-1303050831957362895943914871323728651153826711322649398727240507212391807060981841920.000000
-1803800623359612211337018164845314202188958309104084217370163991209813191302886457344.000000
-1205389554585396943235508032228120445440486425691148988583159686205794910717708599296.000000
-1642745801714779914451569532570593121873275020775048117624941158712061674809068617728.000000
-1563592142275737066498059232612373563082494217773073770624132908388765639053615824896.000000
-1128580805035279211723622053162265974333806666962579921200062874452930206224164585472.000000
-1295906355817303025097568753709608969492470946463101258528388222622967205380210294784.000000
-2035892364495979510224179560991174626831914837007863646060443432282461615605067808768.000000
231781012808814515469478461189986034435158912020252038510293420819704326744564563968.000000
-1442845680639653480251465844568851587856589743443724035461409164483130535625942368256.000000
-152317323443159128388632329502574856194960642099135134693234593296839226186050568192.000000
-104918253329593813195747390288430375793004263716766180758487415999103628853551038464.000000
-3506640680057703291700694254517084131682314240612702947654789527440208304343437279232.000000
-1522292614522906337097353682293258735756239841974431087264492804689727216685154304000.000000
-1094319512968739298559006108258979775447177569838260246111717153445512834616962056192.000000
-1413627790022040491244779814764311133284023677078717680604927289041632980118873833472.000000
-789715662213995672671576944212084967163886844345572276365391967001019597298962792448.000000
-389440303778150698557705052741931748460356012262203323590147391985357082734995963904.000000
-767998911007939400821509655664868029588612840660193942084868984927112873053219979264.000000
699474528287081873430206170680525089027009655851585096307627173960824584411585445888.000000
577771926456460884946609242668050217679751521442984182597407792364283662419657490432.000000
-1075184660766092138227115592468382556669817198324791474425049668077949610999641276416.000000
166975567067602625511403917062155403770874401318175855312361600941351649087556943872.000000
-1734910899751889051831606822562768833918060976521616913315212870865557985365413855232.000000
-722961102430790663154940278612715574577822135947330342209425824957809757068581666816.000000
164936975850283785252161346312938838774860089770423082608719520756979682782318952448.000000
-757079456358503716759180016049235308770884115171348838850254449703944393653949038592.000000
318080512734439430701858073369520020722488961315820448360786537553747040587611111424.000000
-500415386372761018326833872762187162557700171659398334631809635647909100641914454016.000000
-530258403539465023652838297941386709145754565199424166331232288514214310415930753024.000000
-262118472243258023441122080467367200831924655378841982927805921062653193799071694848.000000
-319022746734581021159950868198047516078962808498480858058306156217889791131825209344.000000
448094911138347965708494813048001835776751028568411529168333090815351142021603524608.000000
1608755787169489640655319431298479546375419858096476829254376415933268919512289247232.000000
1204702671061018708939785316460161277288913706188480842082627097799830975519507087360.000000
-2062620001133754321145682681536937437815597138802557453857054872396230484785172054016.000000
-177265489373174098628268064864763449425427785526822601758337397094163003260950020096.000000
-1676447936678031507162706287666560413013362209728595027658550414818314162281216212992.000000
-110330886996400628412611358780540702792742320284014634382658230353812686872707596288.000000
-1457573719598079458017648463322641770420417802745143899180402578501627973877389852672.000000
-1751090629016666019832709351338434173061848648088631920619365571153849926035399770112.000000
-1474131326100619832376087102629697903325900931719298462305946398176156452103483555840.000000
-1146775650036699603101963065005332623815720493590323257304863024783137156828464414720.000000
-1252433077449094900903170742000030412183223287426885206206261527783041241256919302144.000000
-1371036301553875814019482694187782232608597208964421527659481586301169394764757336064.000000
-1572461137848368925413049110609456154635604299299998435353491121203116337184680968192.000000
-1453105636755300459524762682401694539517303927747271572948175344390847204781807632384.000000
-2238787922385266535815068544631733126424333659270433595490566389056277106983478231040.000000
-57543882552844846468061413087148119629113473429166598542471975039137885229387087872.000000
2513538622933920185787604978694371443474083294456229825940856137913774708004833198080.000000
-1066912139828468088349606443576255619394895640053358344797691121135217180633328517120.000000
678516219454395501900373279721618493925572732098512654051700193784228530384745267200.000000
-289246687234319839959035449066962265510156581463635752643555456953936067302522880000.000000
428993426790549655506700438730133700343645682066165296700541974178854008397945110528.000000
-478576240774797878890690359252226124422114589018111508424107618279700385099820302336.000000
-812915873898618722898776321266090388127828433509015989131231190563396835278835417088.000000
-985187812116973446997151579101105951921128766802412808803180626425403698002637357056.000000
-830163597656942790660104360799637298679804788918351882508246279619610196625378508800.000000
-238420229175495957719606032662408718281619100547448885257712632555668173742588035072.000000
-251037128078815168994030102316689697449382899356071194192333073660739526663394557952.000000
-325899366253419051955626773754707737712425033671254863577074348551560788686757953536.000000
-1504022460256258012566648363223206120643280554356186506751082902667486901595170406400.000000
-1353373894816240030717156164721893658811222974686642364007600517802268344541467639808.000000
-1338964714676190165486325378335029581430761532203656509606364944439750194754956034048.000000
-326538944897226201893192164955951601125594654835105073286766803025998812452313104384.000000
-576395895067768162490087249491312327742876367932707403853837601904288393172931837952.000000
-747605533620462256620034030876337038543014793128228230756036455719159408952097112064.000000
-2432256823173147883451785634641019017127234900247504020318474426783650239276468142080.000000
-543456333179483619253966715969349658698664813268355168147570886869432696783463514112.000000
-1273398234651793301094175869934025425686935698924356377568690348793487103738259701760.000000
-1210916576061222062105786848158373064890816313293336888387220462276168288435192201216.000000
-1254214315433117853878352490566874847655058827677121389829055241059557416711491682304.000000
-1116265883686273452175561040105808709144570946644540979913074367523831399274336223232.000000
-1701944981988690011754175890506676589895280439842814425732159070613696463816523513856.000000
-1895262969714383252339019999039631746452055652912490757405763224500296174953817964544.000000
64868546490318831128116601764509721324596774071915774200777029971563931729100013568.000000
-1678500839960895521172960312237773114996322559103780514582056102138514725519059058688.000000
2209448307357237931586479920032012459630065114110272390928633135461841354447569027072.000000
-1096276858298068076621491869981183589090733803069549358138912464888557287424433061888.000000
-1530117898942174953952408074504175881928114070727572809376947098129755712130893479936.000000
-1230066711525869608681741257058781259486114525461017102809440046170358043795936772096.000000
-153053423414522917143713524892608264544823286430230960734471991694812485075165249536.000000
-188385585013171867004038526308285572375011976633406273361211422155341662327230431232.000000
775858077723488991055446955222363685399270640902364491186634030584139852759504519168.000000
-2291945175022147278539671085688941059497143806887253323444042701043509141506780823552.000000
362549668628969356258209713525950595370762580957524314607543984634569757539472244736.000000
-762023693379507800270589924137577336509823704957435402521767551157348765501289922560.000000
-988785199835926053270928859774088843659316479383456493709036595718918240392739553280.000000
-476141539287059071456259821724605967771973550103564966386499693080342011664148725760.000000
-698187284991521306803303573307122863432331514507966772242322550933465651789309149184.000000
-216484234655650942297703858574283886300939350132266265472085641213846520328009809920.000000
-1738742288415684894372053543319341203125255602350282749530998082869337002565622038528.000000
-270989406656175712034175013128863130577528736834248517238127886636330836957843161088.000000
-322429861454990313179902159050866287027808777356259689901854330867120077764728717312.000000
-1340259604808190907702039029137541901443702394155577218715790621668148011972694114304.000000
5079525901021734816831196595365568759171357848928794164329454541911814767533168263168.000000
-1538301416958283299589979655699754611164970422901442704373369438764205738719340134400.000000
-1508190588537966469100044420545396350703915086223226358816639018091155251694562967552.000000
-286610819553492326992078879191946296038958350926713940016909977263173867801908609024.000000
-1038674087738288803193993285631875727062300194386709304993369591331202326798167703552.000000
910833825804625503200744549998073705796833885804558126276352217955249834149543936.000000
-323737479066656010350543791999439514402458817162119596291461672253608098381355286528.000000
598783437288835148670746526711418863444977037466972257704845472514998814894469414912.000000
-3321967948412028646492509895030852417830700093418369477378557925787375869449618849792.000000
-1236985105565419270266955277580339863233180314679008154322081804702749064791519657984.000000
-729898337602746041311785915568281975869149182304066599702662342781261917278946983936.000000
-1751160411902301111792226447977162287557760352690043777517668940861599449743754264576.000000
-1539313076668084159129803218210184419160107122303388423187502201779260701177293045760.000000
-1467090544818463482998097955655205689922817804377694116799006852474920684137236922368.000000
-1484533065171792250796043276620232121744708660596324325121028996836191713496120950784.000000
-1213625855167095641982900539191917915939808794905221931304510397903820952140668469248.000000
-1081897071413334741707451145002707640629826254964950845880159641650912310843079131136.000000
-1629456587161551830939270382596356557880190251354498259797970801039207147367284342784.000000
-1838997675825949999928228574408727459577715515195299909394072651703325292459011866624.000000
-484700732581126759628578368637714381498987148997445702348238308638599069393280303104.000000
-281138332471842229073705410023197403502078963391575097457713198361991382248177270784.000000
-83011347758063170550036222742657340551143084660723894762950082294301790261911486464.000000
1071855844393724886426764507716762402510536219117144430495809455609796658100164362240.000000
-779925974001090181030783975075753752174664357340862695108669830969440213000473542656.000000
-1386829121036315547962760592618723500192469009304333067573206044710411563007339397120.000000
-584929567870815944241540366311669758153238813211333960382985527152913087965230530560.000000
-456872007750465207044406284858052613230027191346921378435456112766812399584818495488.000000
961178272297480122565317931348376122540142660403674578726320853399645748142364688384.000000
-416247683100535202357357756913047491752955591135756272988739087506253490504605892608.000000
-3001920441765826277966489626016110826142845428501832546653537092459500027685518704640.000000
-2344621841912844020388400153357136676158513352644945163036989404619374925143835934720.000000
-556871075089168207565999746462818000603813055130354964966097295018394138567021428736.000000
-120411596398690240914607005981679603779363232951293620690239012014428137384430272512.000000
-179364212731345440137787101833579751539636227262415327317587185318130744297705701376.000000
-1295797688552747211773896957865641476282055010728943073064465617902348468344561074176.000000
-1207585998425357609086299934244032423769789921524268958002331453771577742505596157952.000000
-540519934402977369612384216737406824909396212151257818679160545950923511733820588032.000000
-1177606680842638412968285465205675768588897447630467591761868680114616942282854629376.000000
-1249152078382308448207645817757539137561431742880021603837091244442029261334253666304.000000
-263856864946052013923236270441428571675768546107564233061854420603795001937676468224.000000
-1163909603987264727025376915352935502348293230611355450208168410217067803102110810112.000000
-959822579326183591187830442602607266114830602103703430004865605209201881841450090496.000000
-1051863728237887230488324885973047321083329434351721256177550709576057918731348606976.000000
-725566545885173634683805660911208550593922130274620915374416743985930703317617344512.000000
-1644943349996374065888812823791954494305248026548878332296388376900520737353848848384.000000
-2433186774521103006290058075860778966495209911907186296596449919977351510751300288512.000000
1070572993943123605835886298722245436137535208485789170854716684588775122918237536256.000000
-1638809413558831331599397825918449560511686573058758963892435733596473304864115392512.000000
-688495709914893386289664479258025757653252689438918715631182047325397135403287314432.000000
-1428913471753067572466081869931818599363577332137347396353013106781917027289511493632.000000
764329594930242820474477156226069009850779120690884914846978757315522852677610373120.000000
1839201404896872831294652462250327979115518539320886948864584541920852477751960010752.000000
-2431907929014412553334334909675588026041908251036242776633964102558629385609286778880.000000
-701779248983196885993029622416526747164293993046849336527173419764937061016757338112.000000
-873165700264956053831206688378161972924519969058406183492427597579931294470823215104.000000
-742039777921810786276443474734759532724956312379559221092615578388481695448205099008.000000
-1524897134945418846131662774665284720840084077959893588591119083009351338055071432704.000000
-393938457582410964026811139406949686103811110188788915487843065534744432980667662336.000000
-167438919110053833540619699731355846711909070294916833131972819299463528091953922048.000000
-331994479304417279417395436492191695643411766221249547180556043518138460680470134784.000000
-1751871610190212045803644019933903216110427124172036198102664459417477260213267464192.000000
-1372424640644428229397772445362172627888040661016200829902522030425588606550621028352.000000
217443736824396434561472581276614898341160808682900975407169196645234439204699635712.000000
-317580545489181274364701089030649885665501278427080373559328108423192260707893641216.000000
-145282169979316525556473782402349650338699004882639553974221969035811521492846379008.000000
-103697811858170273570561135162126222049640832655507536988391396780491300644692426752.000000
-1234232396724551709138249928484632017167865760188778285150104769349402403167344263168.000000
-1580089995147670599531044515031444082252189713134046707073712252485269334152305442816.000000
1618481675537562743397410760588168436799633181872383695855486256028867420145626120192.000000
-1401351500542672455560257696172440342475772062674120067119324353428127746336730644480.000000
-2370874886453188130338287863197288155214677461949916710333984804906179422569262743552.000000
-1440118380856565933121251985370058005905859947249586851127224616307018348254271111168.000000
-750703961852110711686736076809390810640557088130565100350997952056486372762246447104.000000
-4103499713304771302811049137276353222061953748537507545158718895185906475068796436480.000000
-1332840948848992884362122724095349332096981354844778358369909910157330349558765453312.000000
-1111387418775069086009367703077550755018362193598024668003106179988968344430063910912.000000
-1631772579720103136367806964368222604780238990169358324737376289650573182108646244352.000000
-1379937596218351300151991063895090149430648956795748713998901855169408515228659875840.000000
-2697361893431686386424548802923644533900732449482357483771964299185975490320846028800.000000
-2380244615427786494984143635132356407003758472261930772284968049774087085500510765056.000000
-1269515142418908191875766432064264284531496700483016954101309644935295566825515909120.000000
-2467814936204397708341149783882086059268053443134808216009510104817716307238735314944.000000
224227264063420358401672512506420644442534732002694287799598925151818656822564225024.000000
719433054265671141760475526993120770863846838730713024763080945593057318866903891968.000000
-1319141883756175498170021691950480499780554618965293995864293661618916113797208866816.000000
2802994132084736322763939118155587710761487717747017902131777846588019250068931477504.000000
1760171030901865832076381729541864686831024469771007857694528807122144568471139123200.000000
-1008665925792627479481357047313697093792030445910010317048742833517501844956129525760.000000
386385201443379885854431715354644195403984454442991011428453597525133172199946977280.000000
-209024346950516943839210616755399685426553522042935990710875198835501804808715632640.000000
-1615576621863498765050521124589864600364667325491516745160299417032670556489892495360.000000
-948581187759482768416988903387535783546803212607211267624129982574780682359812390912.000000
-526876535623290337144594074013741089660351426594678884897754152993475253839811575808.000000
-1661444272335734285352383283794205757556800953519090332152869063648072046058770792448.000000
-1181419923437524409124442003050766069783436627349457516101711629223774809353596436480.000000
-550881697040762681914023288534776549665013886489217601128406906888562954634480582656.000000
-1278028530345538183868582519242543750513479461890154501036807394610813126404378460160.000000
-534027699076359921133474488658068207418717754620598772822687153367467125762630352896.000000
-353411140105958636010384452382552943410317810587073109526829837940359901449686089728.000000
-218652323701284388479674860918923417769479429157819190980824398524545153762513125376.000000
-310309646426197237068578322270579534507086670339324019934131508263221906454733651968.000000
860231769799035808444964352770924208595334535351687252002849685364106369707840372736.000000
-144854854230229607317751009828079576558094083286758609317955005236858822361455001600.000000
-270651091900380207057521838875968819845977181947360260332712896698649614631397490688.000000
-815238948659605590325555495540037558291373236607942502177124611053162128762428456960.000000
-691585364576500508156181797714092673439702900535297652492762768515474011515617542144.000000
-1129833845602040763415004505767309701921628696928252120268763182858951453096982609920.000000
-1223683174637407418402491431161823048578067731511316685515416166959185915802608992256.000000
1492832388613944870859708266209674224170090142100512492987560622099440956585826844672.000000
-1621113924907452992147957709353679689523416960815317103416989513099549563886441070592.000000
-1322981706542246211360075843537685532245078516867456926788045926431118694732559024128.000000
-1169360433060434732290556000856890511559272252744047328223646958374594298026280353792.000000
-1259727085997381693357722660205189490861429355008583119493389847808474849668354801664.000000
-743358038739443313743806591671022663113833894023153804469325856794026654141834592256.000000
3181296332444066088569386457660918806056716821382343148960677470598790489540390813696.000000
-1661303726591265219956927068264337881020221132449508837749236052400537808566833119232.000000
-658285410493065458470641423535414227918128654883840152632184468679694257504213008384.000000
-73964135331213316789137681692519797264011650525839925541546533703070019270863749120.000000
-876130006647801416146420959574733215183716242093182524910408059094191429157465882624.000000
-647169937063090102193476279663706305208870488599672624458603422705594887148752863232.000000
-490857023017676379362477502550384039420587245211863275296097463644860898578985385984.000000
-1002847018668957807252003408366575798442050535748054353516169758287131814629375737856.000000
2502450613736985940072295454647914683817535331869552369422922314729553661771936432128.000000
-383511546476284787049959873560633065346631684265444096716235776922366574911673073664.000000
-1637284824526180028329423619893384186816077122789316380628595601594505153612018089984.000000
-3112872852988882009103668316859122897665979394679077518486163143288826721688600182784.000000
-1789965734883280098657825134917769796414100741272758160096727204486257316591407464448.000000
-1246202249454021077469180624582283933225039151708876962695366831208547888189493215232.000000
-163581355903368859033362167403703701043892459984783894368136718272219886636995969024.000000
-1069228556131818077644436974019980728265958661315614811490918805939149783015111000064.000000
-1537500630135812210456036207765457036755098333742295833445008168625631862521885360128.000000
360538833865087249252608362594400738787505717410031879348723738009412628788879032320.000000
-1930844699277006876846201789844041303503089971626244707343331671539081220010325049344.000000
-1233790700882022501417655421839888473751960693229544014279548021980345825110035267584.000000
-361952161362762094974800317794255539742674883875903757636269318551017527728786112512.000000
-1821287598102169423906671503324952877706381435558151511363022455571305208993495908352.000000
-1375960290197246295032905724545860936670871294214429456436484181691477944275338002432.000000
-1308920660143642203869191734106358812225467976523031574600929378205480794177159561216.000000
752269666141613979491806318495910922140612311633041525836561763709882923231075106816.000000
-83050981600817503535516671901320539921865400422300970740808358599663849029054234624.000000
-3121323621336964566098151678585741437529232959842310620482156561979192607293327802368.000000
-1311421652110568163116938538066126112220677028495965104471210947393285233608147075072.000000
-1133205121032670822402638000421983470320312711168276928194169355184332745774595047424.000000
-1969848817711592922934918681325484973945725909162875020843983350122215692002075344896.000000
-1384465052170047845774251872543773560868866934931696150098189579248128590140367962112.000000
-1532453164620109055412803523215954304533846582658950008977486766317386743708301393920.000000
-2704718449285354790964657299373383371104180630671408930181903016865640015247634857984.000000
-2039356253533750799532980662067501343981593914025739064538564802541262505031938080768.000000
-1819641491275291971715451171130707080134010959736689090703545534101441451132104736768.000000
-1224240540508513410928823445054951562523135620180848649229343633170525949552641441792.000000
208934232088253396390787517447294626179481227723433737391803349988420299876919672832.000000
-1410463904251733904952864244691467584352798537948235218841758096326518124977424695296.000000
3201617549803661041414730856536256057738645408216059897068974035215479257535864635392.000000
-1309954392186241505201311301278887210723141742932457218929163817486519983842825076736.000000
-617220020219688506231774707331831416735342761743567842464662529346455625383869939712.000000
-1635039018736152805099532466032212767094283765316982612374229294036527896791865098240.000000
147084294046739653649883064110560724995767479140445764818259347402075538571332157440.000000
-1053095467310474629336421276581548816026303261563198694065136504363278911505786994688.000000
-1476721036167585988440808040309767086898899811116811240913331323303958903007393873920.000000
733813313455064727312695519238766966938834515480438508507122194492838060365812072448.000000
-101383573384353189291917047452525449107405080462918238209601907012146269597449846784.000000
-1667274733393940181074817903288177210219438011719064728991291270106454004782728216576.000000
2139813254066319772408065474891720091360365625893305959909049088730768392811154767872.000000
2108594775299449683490079234187538785121366735937409809992114275367251862662991052800.000000
-819880732829054014833848228793799264084925636186479155006380900314011990925263241216.000000
-1083589735609373677540872110601306886688266427221164492282021700525877081543064682496.000000
-1283657539248588584262092278395391429316024703201622461490977056039009198170877984768.000000
-865807968435575975349991765628595811052756064154293570162062751466228786125678313472.000000
-1485313446968118871483914543526368305214643461101215686685492259433058896826131808256.000000
-1587400548144238064385656142280768813872776476055352403371504599737534317310215454720.000000
-963186326303305282952451309269599341205099454695692617292381635728861062874431225856.000000
2143248690619351910415310284317285542992755963137465954586000010541605921088323190784.000000
-1312248830453601855088247412015403148746492962661130788873437713297084489436005138432.000000
2152711241248965430368531102237897418436795095276018782368593688257779471124854210560.000000
-157477124304103441915684434534494633475079691080846872543358493655748056394179280896.000000
-746854738496811475609736355565031902217916375624496409097833438516397910967460036608.000000
-1420161992188246931318825055586875308073576816265247466208413018973374546211034365952.000000
-35909788032455561616438200595732876072698501102621884627531259928008455763280265216.000000
-1935531188014264688040658605156056404196640356244505852672459591434590884255796035584.000000
-446872302487773569171593098532521115692587782562599495594325302184619020629506523136.000000
-552644976612823534857756671303564936593280090769305843538916261455547812251531476992.000000
-574629471308543207432886096000138591888614789497426927499562844260311997808677748736.000000
-2389489259836189471920375256462509471345503464619379984770678819872514540210466324480.000000
-697499760988130289753236103531563907366595595064870118426907770732257246605656195072.000000
-2132549520803952687630316489318319996693721523955312162357937076831961116954857570304.000000
-1454388348823699202013757670198502934955361407351374160834528911216111834951141294080.000000
-846938190034862682349727840986808018466256497872949179396898282519376651099903623168.000000
-1506749999796541431699224823517400870349140743582451015414503282291889756914984157184.000000
-525214949026670197862435786307649597747675571368218854162337257936810590407120388096.000000
-489442151497242017131413412588312535569806752852419980073233048606760862730701242368.000000
-1768506332160513787153855313922352731714553285337883948304952404818894279169263271936.000000
-1139339741046339820284911548567590848473966397638666523530689007485437033466944290816.000000
156533691561394044607944606041689199044434976519376538440300688532964545819186298880.000000
-514176812316768714288387688415987592575204980674570870770364936232355151249842110464.000000
-1205563941133067506910634939857302355777241485985898270191916650455518106790693699584.000000
-391792511627676247850927830852007953919501349725424891362251929995329384984050925568.000000
327576811942148455135378297841924468230710897351073531285781101701704384594845892608.000000
-325776882023187199859532374868104071955443571252038279441386483918474381210391937024.000000
-822518298599336284230827949279655378620623879944059738064776257844850392439761928192.000000
-121778517394575991097249837525362944888577068476931989424040483259637834194117197824.000000
-1075408575705421481267841486223063599147469771729523970099326308066708123291544977408.000000
-705456054159882168230679688206873064992524221946610944837450964904930156493328613376.000000
-1416444816483139267263596809654994494491515268971756941654392751867200484243836764160.000000
-1122082765128474595754050166456790976394165501054253623618872895926859905070218084352.000000
-3028896171610899328545998385703365211289705405845599745885330833154527874201411387392.000000
-1205879416822718009421598310472788165235535953379734488252669818577632128451555098624.000000
-1184343943989758521466802686537125846057402168624618981040829991607095657766890504192.000000
-1365225312734185918376152880544900572154975790428865290324220280950607121402170441728.000000
-2003211160736711117545486702213937578947435155909099138590483241215110860106226466816.000000
-1383260633115602555214008540674895737104206716223578667934254119196841261241871630336.000000
-1637327769391871054637281060343506553435450721019953532989594281698447485381419991040.000000
-3290991227201575045961279148999719840590103695169123519848727799391237687677919690752.000000
-1464733237924185111107622095087932776995774011403091892527676207781414414280122433536.000000
-1123943413659817117767345330832730959673024078538705972932476357132974994432368574464.000000
-1247723946882434850762718215083610923403755480033494147387131671295602914781873307648.000000
-1191520195440674640346647600470643568411168383429581710691833938618172079056992862208.000000
-2468522418943105035577565728553871498445367710319800484394786974128093319885056114688.000000
-1347262626507217577632300434395386838485788288430463160669696739985478605288092205056.000000
-1933395739306307151927434812813044865920009218875190440527496032273011983762491179008.000000
472466113758418924590885840120832653653686096509635364020627426216415976798986174464.000000
-1215738960023487030887349263888026026516116220906664414984824561077242841420846333952.000000
-1396619016132422141215029972715114156952656415979448023146317669766753466876933701632.000000
-1212754534078300122960663692106150429645242319558428577975624871813829234054616055808.000000
-1715111572772162373870868362553259075071400763369960970521623821952916202634405216256.000000
-1120640548310729108807572472332022126759169767613248652535599225849478730530871574528.000000
-1133602386071483645334174582088538705785487081445923194493299059770580219226163773440.000000
-91958404154895954323315909964287940187350646548733532285936209302637291455767379968.000000
-1166411476126960214046718909722550340815711026854277330827620852029992248432585080832.000000
-981584163649738490272796071852087033769454298444636616700920876047563378932626489344.000000
-1319495488949068895111116293427158071962745251459156109644604931042109610353594728448.000000
2318136990158571547151457408383357756459226371679276568136758771141773685321367552000.000000
-1334365230733485978938361355668858442231324571608121437012959708231041110215831322624.000000
-1642914896221468295958726434218635499710816065404386103120254491614750861113256050688.000000
-448535545959656158082902114958121214398829888249296697456276227897326656619599101952.000000
-1567889203612979944772964022477823578976876748450789499482168812905669667572290682880.000000
2864670423663092300141042297136089044734011540304305002199530275958930122065903091712.000000
-1822980254877791030037604394350470497043022377156556786198475042522525386240264503296.000000
-1299173866910608918326594550931305844699391300180637804057871057243266006532195614720.000000
-2226961837959700678102793095691671172654930880714285975903897420713778891418578714624.000000
-1737005312224695788678964137189371948218553972354777755540944349029419987971472359424.000000
-1069958323123466989518299640112406820621161593005820003519396310067740387737455296512.000000
-1675597829928740902637966471901513082071970324548215231845597142067837731110708576256.000000
-1315342840111885936061540035389100405256060382652165161777348004339428861875855556608.000000
-2408492141056168311074102686375940548588243982439710599150968495178812410431495208960.000000
1071115984088276561802483161756325297592111764824032822347500625899361633154940010496.000000
-1188238597468994969920431600254757527712558107911786173246037561302863665435343060992.000000
-249217506511913864999111040137756220267295558964450444247929120329812776765351788544.000000
-786107900424268146367568336176463485159601272273554850394873546760133598422251864064.000000
-1168128741676438588263344266663809806284952419088666052689666133583751136139689328640.000000
-1294682330237858491220688616348098396807838286932733335651123294717108849574234030080.000000
1388737319515628719477128795010360705734834635314875268469069731919534331748677582848.000000
-1748966658579012793872622129117829570290436413953444628676706417001860938242201747456.000000
-1734000450408859320887432702078785830795577237976871776960654933248099943142391808000.000000
-2065686535366683272476200176888550885956602759458335796665289437408457152581433556992.000000
-1125880227886223323979577268086599522183779310341886880855372198826709404261948588032.000000
-1626190083715298854227668820646248198178402561189454898319710150663631791574401155072.000000
-1294681291824227238567809605679413150787027188760269434408863704792206325315115417600.000000
-1921782375910184689000635425994617705051744054019585138735889196558024503200749453312.000000
-1930476291372439062914445133917488287042986023920569961144818421475609960801869234176.000000
-1421908383934928439696423785691336971773366616954492643042202285272974226810921287680.000000
-1441020137140599731955980323601641591611491463905127703539349996837527417357640663040.000000
-1367633557828751320415053359965057517124364811773939090678682242851270564008528183296.000000
-1713796756554008910706429689652946569629570993977341965526337575780193461630991859712.000000
-1314673855120864899010137921694607415430198910768990872256634886309312739966671912960.000000
-1363610601737422038555386298929561069549074663190697721857908234517763922251434950656.000000
-1106226438466567162554777450867438973553875122523169448846746843848541855108030267392.000000
-1816807850118868650658037038502978869906041374668570395099690656013400680005625708544.000000
-2163718278486122585197909517318152112049108446572407517393673347478721021702274285568.000000
-1071690513054669075872314367126508004965576216219466342131357113527523274563401023488.000000
-1555250871457487713585885466114674764981061767790083573695462355467421720159920848896.000000
-1463298553766661818036314108951892050678681381276997834408773614512624175905677246464.000000
-1334700733227507393307752322549823447353637054780239124507762340495411490396890464256.000000
-1229476822704898658385743152490756207552736356651917166837441729947111279443463634944.000000
-2113219716269518957388330347515533196230616731829411176721065241114022984670355914752.000000
-1627730660270479259805722783078110693598783406448710780678691278342240491709893967872.000000
-1288787279432352731987996669900262655682761785410510039727240538655335076200020180992.000000
-1215804407731557667469741729975929321815903227881666943814344629562538991589672353792.000000
-2256465163836190876104402724553644908160031013010449862039736610208730930762085302272.000000
-1034173767259042756581048956371927221387187799359796562582659419945167831114146906112.000000
-1591607349875298322259038535666821481786477200405677946590112623574443049233795776512.000000
-1912653690847478226415835244184943838404876674112798341381696386926760658536224522240.000000
-1314059883480924330388878607676120835281889303744358546932325947759804364643398320128.000000
-1414600978081766049964509069415085010440825055858121479927415158289373595517434462208.000000
-1870623711336818433823151819171737105214865581242531199401927117817670747039301894144.000000
-1323082718205037982160625339594730355242087246192595591299587122363297083552140623872.000000
-3136202596409166868560525938243729715083582616148357308230343666007745802237938499584.000000
-1380844181400490932363538463711727279519027765536075526996001635404536055395929554944.000000
-1171138056599720739233932459285983715622873064827658839324832909478337220737358626816.000000
-1261527677149353938182986669309436542693988028005839114549255906371251399653454774272.000000
-1473052627929518590184834050914223241867535062199780241668401644767969547586528870400.000000
-1050970133002012156916403983141973220690784070646030105670502691878652762181366448128.000000
-1336443620385546506904780815198182333739067372616176491393931404975096519703662690304.000000
-1225116888084446978259657591346541435246016923130322311141709105560647868977764106240.000000
-862948933560817062776599782509553092668141608892576849438711736339604127677285400576.000000
-1710861974332299888699569293557555394560351300924652780172461453385325298093622558720.000000
-1892783050104872400475063409186822787266986550408609457073438273034532886812257419264.000000
-1850415318194728901165913795929088729109566060823052574571465352752505055184854974464.000000
-1731726109474705157090573545177801931615250004060077656218900602276164389857952530432.000000
-1496242433804480927209586221885484445642027123206191329939790589715912430146149154816.000000
-1734005482304923588161182003752376125513846020767295991469955504375321028769865531392.000000
-1927568923125985839253314657308924170046578554514355129652884688151965951248312565760.000000
-1788960078777178826695366460938843066937039827272783355851514677605422143910703005696.000000
-1908306260375812400206419758794165615997854543088424200686032558024311964851798802432.000000
-1186886342648713915679868567900760534682226167696632278243523563097429164038585057280.000000
-1466167511616938815182713385348282035513140180071716965947800605932645336372035452928.000000
-1231168798987571677063645345468240476374213248904229921098569494290916712300071092224.000000
-2576650319393394585765063081927582961569070018114469946841476525638146970049660846080.000000
-2300310620155050181257676415848544450102597191462633146108995243225596173116409643008.000000
-1772881116766856974496955589492950073416469000330630078095198761132030642473312190464.000000
-1341133832284321841362038842324307217196761300183287572545723634468750096401822646272.000000
-1307061469696955288738632253897419758323040636843268995104474331018287874333162340352.000000
-1852186712769792221786832181337077226826721182795691472003288953363742460654372519936.000000
-1496791183697181169170616039178075345800033720950613221922585006644471426055629963264.000000
-1533017601106434840861102851881191366196119755363934189256937666823975681759893258240.000000
-2028097953196489037044752431134331725092082183296410585646537542530670645647194980352.000000
-1565946729311222653223197310868180466930856186873930510807124394553437349140775305216.000000
-1883905811705788004349431396708450659391365244927584471815331715694939240705116078080.000000
-1421935536416741006194871533007525278890787881597010184336601955497735011089489330176.000000
-1258327751623072714164072161485837640443595896937390160890329608042631909395694354432.000000
-1439025184714578377753589735626533425105688248370784764739715124075951344931504652288.000000
-1123068286926913361752442677368796398866243472975713864400223991397106288555823464448.000000
-1740625830589637672065117924873961248341964414293349585002058949317479560212325072896.000000
-1427411509093704808617708673791577171338807616721852629823756543658961153568475709440.000000
-1512883338454694743517833295489262351659554264859420768058603281376828335303977598976.000000
-1415227043894799393762681450134240561332556093146139968773526376742600685950601265152.000000
-1146313092785648882113186948794706639529368490921315110333838688321543477982591451136.000000
-1419366587650492128472280847444290284050042841704411597370181166582315390940567568384.000000
-1674693194925902968016088495472167836745562169174335253678989156933317302969413140480.000000
-1663822040610516821027193386182869825603501732002130702646536707816933304066738487296.000000
-1369408677249525640264580192493081520830917904960720452535319604394270483750190055424.000000
-1817867093647308032045845000515962320115749735657590471036728747714267262295585325056.000000
-1774843926993972639738087503228679719468108759333666506780816361766048749114202521600.000000
-1451491703552825383341284412835054428531190809304409317053075118133280632407077158912.000000
-1480478902948333767048417408978103877605805710373142181532576768291739425371687223296.000000
-1729144183765054878135111387516289284593500451920059073187013780176736920119367696384.000000
-1172496121524639953316276836087302479724785311065554084959980443644774508910899888128.000000
-1371362920250003521918193581012542664199045702375983995198376378412358392718072741888.000000
-1506369158361215384519888591258075283857154944120406160717526144516040919402365845504.000000
-1299905782210446126288289440279820910073320655488864533621358159088208249512383217664.000000
-1780333871768292528794576402681308686100304102802653876518976611887814331144083603456.000000
-1382273454429801284163101419493298436795266691281462127415222023491872907261252730880.000000
-1625044818057079474888454723216037053599873909077022204502823903603518794296226480128.000000
-1887898450399626300389233749848455579291115913649579340266757877880154671409314922496.000000
-1991001560867500812278771494609854098801900009196264014381143393303714314601327755264.000000
-1472433611920108362296308337057592205335278420115252350838265495710725401137230381056.000000
-1750431940503276381613393846796038865823006473039576806819777696050839062503114145792.000000
-1545501194759076690048263572364826528210514872402660302936543730763597732278012215296.000000
-1650445651549139689401510810782697957878568475629161592834200597584364148193929199616.000000
-1494738747155010896098019397498126520791310185661562561350600007395594421355715493888.000000
-1438396395912024991194038131158311020777189636720181170183254682532455373276062941184.000000
-905650331941627939398375067460205542986816269901869844182058736027620766659475668992.000000
-1030516114748199148861248662622768614367890470690978550402638566903745556145732845568.000000
-2052640268115178441209988674522393832770894544087569704415541222383256440051194658816.000000
-2192834247721914200630502703001286605577445609889508681397612926336112650344000913408.000000
-1516146005593261084144229951986836344133106148784311894665887492778954345291276353536.000000
-1227347216528170178850861963453456154916768741046807723542833473490581396341687058432.000000
-1553079461906658373286862784386023375729004363156498909571598397874306913704953774080.000000
-1597892873101422811703726989098206635794585653260787279099180950006677947965870440448.000000
-1619923402979413805173547218612585445854066185445485852335117980528514158924555878400.000000
-1452130021916180303990848349082154494739142757375317811054929014917288447041297448960.000000
-1458526610609908110987016971470765460799720006632535525626566236770554814790430097408.000000
-1898228157138202030044908409055695496861874910066070368144156053398866957299487866880.000000
-1431556034871140113567495442928088407536225056042261038795658311807030805868037799936.000000
-1537305806808389960204916967829409774300817420837153943604925934644977410478448836608.000000
-1293968675272275567684711881038400341050860799757460247595494551075356432619192451072.000000
-1416649238986685551850485425291409906770596057171872207220575360913806003910222020608.000000
-1598894945896162449922766393306711039393854626054393928991459779386888726767904751616.000000
-1543848303625663960403510415982522004852254766789251966255567631432855669736948629504.000000
-1407676023567741522594457117983703059451283219443955116642464106826878743243961401344.000000
-1142916131624878657397694538593706729367349510120261099771356600395759056509105864704.000000
-1502781579788958293399073548367896513077933155022760286364418045372853384070289162240.000000
-1491365246089535906733299483657919126339190901482500339174181599970543020792216551424.000000
-1310336532954492012998928493849271816756004040735831315858594835922579941179520974848.000000
-1616891302532934261482128714173776172442057951415921451586665358009969911293500456960.000000
-1310037330122412183309614292808755429286772784104177241612141528126169299553009795072.000000
-1654249641778710363375800038561437374196278125329039725765492421158756605869644840960.000000
-1353859874171760167390603482289220368796341776234198804603328216490114739759315156992.000000
-1785849226106719857099819493040468977768296218909769911191380909918706431335006732288.000000
-1419985929047134170457161978737212819167107435636500341337260840854839875258112016384.000000
-1414564829230935326925060497763478752991420756423111866206661533004493712001022820352.000000
-1877863058239437884651035459876024865882508313042864383478242461112204416132635951104.000000
-1041655081910319818740380269941174098963650486065892924549429279696426194552362106880.000000
-1578077316536776017227964320301780475980858862331023915832760046692930172065849278464.000000
-1455932901798062366286529945270881575954587329433505417291488665315994448751329542144.000000
-1520984619905611729050925826079253632774746199474465263490479436612505720779563859968.000000
-1325567744752959062148818484581515364596098770913821852461392464454767100084078247936.000000
-1441179456122015979398852021257158071297755408691322372933328350009470509131501666304.000000
-1816573185366234320417168190101784005376498834591491676088128547264373613507553263616.000000
-1350034669964558237451180086923250060513090711833095994367874129383967558243591389184.000000
-1541579670535691408433711110035213201858438161798337903335709000556955664910418706432.000000
-1503203308606314129658530371805499441010457423863396125827132477107272329958348816384.000000
-1913050833487231639866917640668516913816417849628082503237137270558849495820419465216.000000
-1509398025945861951453830594726534393806534375597788812285747430439485604541405069312.000000
-1563983186962134124132559785458456070666954981580799513162664736813660015186528960512.000000
-2153310002386674748247504626084374505708081700667148232913809959191718865984815104000.000000
-2042599378894045644905952014495999840900734074933385358401119375078024233911192649728.000000
-1982964941943974802196265871778511870390416362211873887262587541469582498804204044288.000000
-1270801611460238465111970293790609572909786414860161932756180671895059442321338662912.000000
-1836481831916019203794627149972870526513742109035785981894642077537420475239766163456.000000
-1580501018139201834322508989253962316683783690018131195977794300921108559895694671872.000000
-1496390180469647444250623153778672932233568043487781424703833579165217816314157989888.000000
-1330499443094974224905873935799932005562669969764567440268481922038425023293425713152.000000
-1889984657958153802644451622871136112137600905058905129781092224286042055694010548224.000000
-1501257112214573610469678161686941642312164740627755739455378579296511227531098062848.000000
-1529185863115838987524468094138394304302435336935842754086944907300944531546661978112.000000
-1179481456899374768494154960530527195039876571651459826439095054058179335835569094656.000000
-1444053328616286172115849556084661599232097030688832974488957261668578849229266485248.000000
-1525924862196190259391915362273440968556795796667433138094584171720657052998427475968.000000
-1563665068814102767400916851170252066350790272974807074663518503143194369672504934400.000000
-1154949823168120324643360177664077038117780484713182121138068486953229645343522553856.000000
-1496795988808644897565334409948636371107864452217356051032626865114871278950231834624.000000
-1617597052941306158545950915715648560777517852772634816823574697272141174089734684672.000000
-1309296390823769140112734092657706317784398772889351032382480195015653326246771687424.000000
-2101365728568235297177657872697942150668475053284405395082992797652635139036359426048.000000
-1760826014509028930913886992514410263916650260769571377494962929722027608118822699008.000000
-1728152889130888868551385994379639281967143271046548985542960725034842578425336561664.000000
-1242446272261696929900926500406280911908015021352660980916841581020127543673663520768.000000
-1430537537718556274765220462627629256594819768992872992197489750330435074727901921280.000000
-1515012264211929059250282408047723731078089428380693287181074618034218824013960970240.000000
-823996704347258197999921035558607624305970745930548692280481050486065530843554643968.000000
-1677422617459275543325730317576959130851015762250033684815618080618770177238126034944.000000
-1363030491701573526885232800049832748863434644647125408592347682050594448953613221888.000000
-1443999800741803163455263889851379231562854135177171960922139714194135481737965207552.000000
-1533350010326165562701284935672417630821307257690133321678602562921033483018571874304.000000
-1531897044769572705115392478380545389026208691460054488228023173578269909396553203712.000000
-1397596057962289796468269134442535162302995814931585925151083943453622732386805481472.000000
-1578956656346355574570596716314142520045067897454173781485899594925283928633300221952.000000
-2108036055095791247362617081539061704839300993339452357893917815298432759277643890688.000000
-1517780525280136184416519351851610273262411472937414881365887193727298306923166695424.000000
-1694264186200821047739873088424877360780123542658679572881811059689334566457851248640.000000
-1750342855791450277997139196849431624810929806153909405553155724084140122142278680576.000000
-1497682189149918139262446880090158705304724836161582681694635665222568582450820153344.000000
-1596696900016779818074252699724782236338203182765561876607439847775970521590051897344.000000
-1443409958415629696453226646616895391816797044355972202970366887468283826256067166208.000000
-1908162404797563800947773779296871624438768088505280487679133462011021255828798701568.000000
-1924851121775410453943591743417663687506995387067586626616442964461631981856890028032.000000
-1411075069821874855926123625661282092340407236888166862153768989631328283077302550528.000000
-1497101365160028677559703841436121907354858384404828840381341564598106471216107749376.000000
-1390792600807771286340414850242293523111862670936977648149402064466382475340837552128.000000
-1798695209632657178271227861416535706458061982350269060014757928791792994535025410048.000000
-1334360602549401463040725630968277656761109307337492516229607384236490598473978085376.000000
-1559028026086434153548745605317127379814562639872540667935849464895391076852319649792.000000
-1349585028921018042972971390973033600277231059006680327761116853570035149514741907456.000000
-1524252213057848303064824192260337385837913767730410918795627088109743477882427015168.000000
-1563542168369822981116650568640706956586131075180078432066798671876767626332190277632.000000
-1531833925422250634485590093437753252597147647165846393531607255275796425390170308608.000000
-1596075056441867021321765629376521517151719273148328425562199445437136424643512500224.000000
-1680499114058609055819903008873876470651066899364680094859484875232922665533394911232.000000
-1497091332446556900506222308313658977619786474897886813919960000134425724977529487360.000000
-1665766812071969488603255901686065047012679046183928199996374542093655263743943114752.000000
-1458945835149755866843316602215691288231437936600043462064221362574632291849880993792.000000
-1776784747209610058186212949306800414564903138733691435146193957442291186294249750528.000000
-1488237670739670265585525870635186327250458745790298267224736079924390603917386317824.000000
-1630457481705970496826930572862246896604081785519072896971585373864437363412341620736.000000
-1539899971502818043074061327387323001915013631497456802319436178117517318536839561216.000000
-1584409966761852237595744018767847077310708266057209737450571805404459329867147640832.000000
-1564573947202218029627304613558615361394516372308016569144449919383837644603774730240.000000
-1518694181962243414519516670658718745220529227885624915900355080238749661373747167232.000000
-1386283550240621012902311364882234753474142416975976316007513063720744888300495437824.000000
-1571978438145698319762970083410590109859192779884908515294976393712902874095014641664.000000
-1332681515041762514653148416236520406170731974432199531235285641340895174904919359488.000000
-2141679019203365669181433530665848890653131173249957346046468434020545948321033748480.000000
-1959249681635793111379226510657364333956346699603615380877376410105032111037570088960.000000
-1080281167182581217028191773461326616437798528316159541314589061486132586099704332288.000000
-1687434944007148142051488058757017954953266784573061077061498404851340162618877804544.000000
-1517299255850589389045808931727872921272387266659421493126227054244297934220375883776.000000
-2074259832188751178412969045328088876106449791011711612038678880946079905462777544704.000000
-2036340074704314475491122228571373112901709280536927479794719931935552648545277313024.000000
-1972723581785337981752092906945056437715366770425128009660049538780075245601931919360.000000
-1450779742242545720786130886942886252509136302728867836651099272522578031206710902784.000000
-1365003505728621149450901945157831561282888424787926387937059203483798135454673403904.000000
-1525227089699356149413072368264431851759364258619795908052288407605575458595643850752.000000
-1719896896158203472278621500945458231701661359952528287188896184281855682733592805376.000000
-1407413983196760074759571403923123961979200729826848038826492331589198134836614660096.000000
-1747191110977900073133816485980329245342431190875692778447544420299071077501957570560.000000
-1069133304588250103658432605789395491381774182731823122490349207911413564459341316096.000000
-1627213070902827155055586806526043546334864100101496023661849051625346224010691608576.000000
-1352772574272228897931137542866845182952735535806757038065651804010012587851021025280.000000
-1683780243569724872719080606239494156745231114868010771394374722767594889282668462080.000000
-1367929347927451514676422679035081398631752146431391477840010052040417079858181439488.000000
-1528346514665266453580784310530016516411579373387670221941131485411399280105971777536.000000
-1350632546455744635088834229961946250849027012522713551749241940317107770192019062784.000000
-1454773178124875967319324440245640802184711629100058070769705280213315750789031919616.000000
-1713260838379260387121221154488465879129259992736954025331999629118918741820207792128.000000
-1794041065256483790975529743491041032580639074538707681006833053398826958853360320512.000000
-1655731262591047014485918186083378480110879659415750805958048143760819441062752813056.000000
-1459624011601798524813018880520140634427936658900649579274173821332621803791866396672.000000
-1568953494120382555421762867411904697697732378768532110750792246256722188010824663040.000000
-1411144719236851729482380722049441356212111160922592166743256561512329768862501306368.000000
-1685530642278947960385351952291578462399970427461247436681914674332883471567920562176.000000
-1897904109272142376669517057099147210377145855899431564795309923759407439831613046784.000000
-1677943849769710511671415994833364623700461089302233492648285682267204875406832304128.000000
-1351341836594972841315550933491358728106087844067639352225247695291903309881316212736.000000
-1606880509341932147277080416510050939907548327572705043613754020927311223505018683392.000000
-1357158355253262243937129193658249673280928523556507705982556080438690721889746157568.000000
-1409533956965638540760735193496955051620720561602338970685196084791354770784880951296.000000
-1530569609870189209576327567974552766849057350966625230406204273682375599966333698048.000000
-1554581136610816328134950547070001873471443139495399225279273308240628224460255657984.000000
-1366020196809274163252379765373984609683047077901036383336095137007198531553073299456.000000
-1843327866739430539197196474492833678408015895687920687114036305675820792043087593472.000000
-1686181002154022827473408440236943616631056280352989624370373057672484865356916064256.000000
-1493572869389315681047566627190298969606466838226069191263510244171032913700888510464.000000
-1437014911418720153441829215973550034382963333118704547458137741661968893333301362688.000000
-2246605171156372950597961192373474562335152166649994179278958141789425344691512016896.000000
-1232008120137999035405995573455671121979407057940537247316296924570158907602948325376.000000
-1512804108599990459771434390908786808204860337725569999215646915564682016083226394624.000000
-1338817426941096457831106324320061267578343399659255299862146787117959839288481808384.000000
-1904331340973580427902495444202178943171775471423472567169314634564092107504207527936.000000
-1784146695952493717805261329327935368100148353241965952938355563268492938223407857664.000000
-2092840939781506719722032581255491839306776766578802504323801894794366073376635617280.000000
-1957269494263606753699267641129220914443396586971596343343334036590381314662316638208.000000
-1237302669196388689415777998175016257343313559392467343254874924713398746291275563008.000000
-1564114106180658013221167975191591927765971793678389401793448883180418314330263519232.000000
-1369264768099294701018313502443029392838575463764077403014034083331266355208216641536.000000
-1548434563762124724845429591612244968046436333613049910238967055575516617993095217152.000000
-1637095486164447762582747385862663461574242973842876571546216244619569645732956733440.000000
-1326669692907891808950268601418653464457675091280570488100467132142223316571303968768.000000
-1545117376935460023333791287716397571207288963956823537706501021252371599891063898112.000000
-1534293555106239484216750351225831442603394092181419871865676058583310272365462552576.000000
-1391592932308894521297429333244234373272348813120907935320039113883044163718857359360.000000
-1435314202544260938941499276913920710356844871922110048618001173506106391914809917440.000000
-2054892026127378893694119443937227420551644599685041441179272875392716215364135944192.000000
-1475096521792052540649875828910769131203343598418368928436419196329154499310006566912.000000
-1438288753153871469835828876516715665717820455507293326408922322943480090212889001984.000000
-1227688583716590843173952369350550423605720148466546839497929559272920698385103585280.000000
-1820735797309045461159509862024973101194169015736668507096028253736133873891715055616.000000
-1588369612745976483337811013450814142470430914272623700537259791399128725949540990976.000000
-1919237199815781418499680924463722412009429857417369325363838861528362380760711168000.000000
-2004031574330647822883469299071890754767198303525538640242379089925644973233544364032.000000
-1429637589404069263499327786580004094848761076448002973235915932207450830229387345920.000000
-1386240489255392785844113632094244319684144896809946360250210862164028807541856141312.000000
-1493720465422178976966171907832966105504634956782718559487927965088871087645487267840.000000
-1543238940826071624188956564194999050899817562231953352006085139986479614151123533824.000000
-1806146044940541841534766067411464452918087319713534287761731348013762364819967574016.000000
-1579490665192458051484428866184079360508081113724874972326631611189299807704443781120.000000
-1689001963744507629908660775085271802729567947539265848817004631352794652981568995328.000000
-1794676650903598898027131319053627943499205357562028275887750641499702634994458427392.000000
-1775298002684983736185034259432981508417159597721740435414215568479255221111630069760.000000
-1370942512081914238869172667262048789641034523122745968979401072176117411030895689728.000000
-1585409208258582609410111078036807790056678159851654831935546788853536687480410996736.000000
-1941884965682321309091713738377733113088014143605080522444178029581615162359277420544.000000
-1889931579911968337052052760328110465239219515037062561367325712933023076943143108608.000000
-1666444453477941538661912655494681042874515050158725991868843492361073171801122537472.000000
-2130227483820174532803604880976834508995422924949700224595459843189930756978694422528.000000
-2094905413698529648328778548981972480999872547228798345442896278832531973171432128512.000000
-1507751563198774306757446886930310831426236855285181281124854566613470806052574330880.000000
-1320623478040232187875489136018856321375952290139779816820498405665890893747495895040.000000
-1279180252498221523283897702423202229899904412088020817491356052211648770790360350720.000000
-1331283102772213273907971122697998221049964230303258732627563537626886575843946004480.000000
-1239934123149875497442558835147395363439349205030735121094869942339651041936799694848.000000
-1525996037966640621729755896703419596537849530892390506989127429636911355400156086272.000000
-1473305159225416717763058053984911987285484970382432360832491469636774460030948737024.000000
-1504061158514968868524161422507520001452525150980124839161928756402417403237385633792.000000
-1403895346424272998560269218040177503881908891859416959792112815129532277079257645056.000000
-1777007780622190235770157604550405732239616126218620971145487037879482213526006661120.000000
-1547941877352910905110485217259216042018601176752417263491759010904327795834557038592.000000
-1762673955301210159767907031020837386782603465256843702731886405620074029835381374976.000000
-1375155689596688221349078854317998047223836902033488589671953209300282002293018066944.000000
-1988115287846852899732701201208512739876832960159880408619163766072378388338075238400.000000
-1728503732758757549451517512312043155862083574114531471440012719967651835548861988864.000000
-1845443986985614357718039091640442512441733116209225569881065002302771363560390918144.000000
-1762866160270449918575516222397264369738727987296814282683356271418301997810727256064.000000
-1570324532677951839829118895068043884391532935648499949885080287763772966612538228736.000000
-1220629577114082247662372601060650464604489547041057187192900550542119300346832486400.000000
-1470031971084101158779598432701565192864572826713869884459040056526256849048311955456.000000
-1578030634452263483532101784295360169880294597549520129051068741748853349572711284736.000000
-2069789826267434989951634869077724672671878959690214573555812391995342197097572073472.000000
-1714587141927602198906715458765721734657876060842192639003999013487863852564068958208.000000
-1584734747659869226666309957515744807642889764567352372881156443218864452112215965696.000000
-1374837408419343897493685258382952200524286230323310787946764456821508288519149191168.000000
-1419393531002991821314450971241068873480900006012768936593200126072216987658358882304.000000
-1984754949377513407379902479578308534027488753923220603748123360893030144627603144704.000000
-1709257717441891034097264306918371979044290732869516006171567610170281172895812026368.000000
-1357365018804708672724885963165802213556620780918317737357885912852282687310421557248.000000
-1881466354047220101717243277946647808046364823864786314319718698342069065377197850624.000000
-2082105882274042678692037739646456178601398430295790625635595473059162119060347420672.000000
-1531785897289607161856142383594056927617603428974723908693732242938359372484293165056.000000
-1611339406257856342782692966211429303959702684300384995171654035839347593223438598144.000000
-1227985589026463909193299224343951947665292380067658272369338758065883034488573788160.000000
-1312340487732265051747319312222761012223283611540378429207853380925140982178701639680.000000
-1606632486444465770608819348502271181271171100441641100305151059093545656063639945216.000000
-2071461884958674513292078843914446815998910683656138836321284214466802600292418322432.000000
-1538949395171899969539281787202136834586631419593391181371183529772774363785586540544.000000
-1416775498913671277954177204311530871870943148695710687615872808567576280458577575936.000000
-1576344812745533829234978594732277011535945169472554439088165124379928526295710826496.000000
-1541601405969876067757031087965960527611128098496630860392246297597676830033736368128.000000
-1847816315036914178560718652607680386970647065908290240926586516218869871739488174080.000000
-1826736244531393338549771247296031384631221241434105964120802041615720465877902032896.000000
-1883269008279147118480626341261076401480085090942702754690216140129381837699073179648.000000
-1495253272371494941980098671012077938661739356407675011688583539258163235272955789312.000000
-1454774827334493196682011537614658255688827392138038015565245411332915842237465624576.000000
-1817177513785370736364467365164279266587583170068849463620734284438273725839469182976.000000
-2019284079444497238289716605213464424913428337389363646837186049567217038456979980288.000000
-1499017304627264097256302507219079511488215461979510984465390758619814639239147028480.000000
-1845345698676601704292341171674985943764024633633864305830149409121750466473471508480.000000
-1545347270309809671270731654444873488192127546418046947702681624946729504200575680512.000000
-1530726084686204608414470488720258355618259966531015437720005625041217889737289760768.000000
-1650473701282421167437849729501058692912276821497973453286726144869861198892854411264.000000
-2004716690137407993585421307778437747959097717000071557239154186317923681040871718912.000000
-1857549563679689872419177180463338332851118577442259808820277480224653084608593657856.000000
-1633782924167403604214340275265984879690221733834741840361225104551299235382091055104.000000
-1709125456362150000856152581868448005187512603791327425655700754009169430005938126848.000000
-1543155803954795906624231226582113746144609261176488674115031894922129155818998726656.000000
-1176350576891005817060682537189266822946030887222522711445590850231528027276634488832.000000
-1549108664749616242016847915214420788386200919216250443517673272770770228306857951232.000000
-1528761640831773924025738126752891771957765519585161790081254284230989785650077630464.000000
-1560623456498552300989880196774787052424990917359763925947853110913997242767482290176.000000
-2159565967495202435714001065357778725156873003278401615545254093098650398093096255488.000000
-1293975575433662622615993481034310529311119286870572712376076840805248101043287359488.000000
-1656623221426186454881144744597487469568376634718859863836543973550041890213412732928.000000
-1360182642934057834112567698083948796260892668006641017291188904874597069131402444800.000000
-1573565781614176076426149023056431052470747152021288057325363043692119828234875437056.000000
-1785618401018916601435994866704165424290090459455476405933739343761165859978624368640.000000
-1959956638108717222917683462495083442643861065837043936827983974375280958009092603904.000000
-1821776504376327929594344058367561145428928998943642133431562267090767497095173636096.000000
-2115572472374663306169783994013928672659988754491631025690449075782529633752564367360.000000
-1286047626909774038359305929619052897408872040698540874813427031195737350032704143360.000000
-1843757425395361030467811670688271869814073689517874419836822638344005239391561711616.000000
-2081780539514226012144882079407236525396340086734841280826494961159772156921691242496.000000
-1255345251371880969120626538459386001313110713114796098692414800692764922224291348480.000000
-1843524282718872442003065647104893800949014344708078188016164502706757701144510726144.000000
-1587255008561709346487757884321753700822896285651359225692017934145673274747812577280.000000
-1947414478675585297537259919130124443969916561800413552214829846957719728600196841472.000000
-2281432456349039143969710848528407930405061981767504362404346546810916425226392698880.000000
-1868494398688548111897617994555395710854067697411894791927611957630008431698212028416.000000
-1545993743572116863459061837810055004315981423006382234814573499452917242999477370880.000000
-1796451566211589931434488398446590666620594985073739431957634392786967425008458006528.000000
-1279558697567092081682581921891133851650634258948207886892107557768146419671147479040.000000
-1889664292017589249875877176180269116021759747653114499819297314549004081516905496576.000000
-1587252306227924705707421355291105218450540318956213901001314757677754464612697243648.000000
-1921228561326098308142249084903504387597338665176984578856140412258723962499404660736.000000
-1555503984787973161121232219215421978898551538069124334804489724767282550484670349312.000000
-1712485583026023395186765885375824121071772609720682579010516160066490474233046499328.000000
-1554532716140025208926633968110846337098789729392165462095113521657332853564524986368.000000
-1415045277962468927252773778949119489537937135614092186629193069631857489750320480256.000000
-1336511624842349117426190852099143440178957396451605835277219154380475813910731030528.000000
-1462512303830838025934711850766503061807475927503314412828442572091138049786807058432.000000
-1445972010604493556320927496823018922043861348098569197691370152120503063777816608768.000000
-1715962264654125962281199735558411398355899765415246899114800240807821563649985609728.000000
-1824247938197783305844518470288200462634411652597768964354332636027345471680144211968.000000
-1479112521452994361300091561644290185490452940730912787705887601641312335157371338752.000000
-1962269462623613844386677693534693246847185322058273355287307262517654056913638260736.000000
-1632794921693142413320424338818224570817023117270685784239039140286407095825689739264.000000
-1869077988041429678806036893469136943946626218749983744848691858299736458202349305856.000000
-1618714938603484396196348372702532475386019419788911700484662651840992859908955176960.000000
-1768940787710984107053291706490471964200677785164228149677412944242205171098587234304.000000
-1751720589728246677471457382186142055070853263113679245157558488783917586151150452736.000000
-2009880172598832282912442455893586713899826158529581672996135463304186622148941447168.000000
-1494336910769620731392529070043500982721153480013358163545663527585663740090846806016.000000
-1398380142891502426845103078836839256597429283493955435782046568306502847158613442560.000000
-1673739549160154077648748924446263490592253436087730211513619000014660092376521900032.000000
-2174767341415042359001898498514472445294323855995543229953986568542293148709184077824.000000
-1862581603017620137779398092782164560142475201444405771309650773459561387521973682176.000000
-1541207592250612477075401366757638199454463978836880879490398432843173731126436954112.000000
-1624383182355589554337872165253196516281180786532650569610723978572600541288438169600.000000
-1856768478750422658323905350595772613338428683046189145122594226972618546052442619904.000000
-1533549934589513871822860103171023166898407387060446887318097627271452138077490774016.000000
-1354715986110569578224962783742376851461977596638284772755365191619840674673721344000.000000
-1760882344151845164732241221993455011856749713361674229348758012694533015046883115008.000000
-1729670218229543618578798643551071619614553511383250504308322063881118004525049839616.000000
-1685625908234890611926720944154614023469837019586581802017276379512779070874427850752.000000
-1653450947880824380216320014406900300989159931666426924108112264736076964189834313728.000000
-2029888511418195730803469787117345728093895554101147322956002700001438517395609092096.000000
-1571240455507174360949847793629532086628419940338372840545215152314338997724447244288.000000
-1988564689723463902208050171060844951411908114005960507409828392778378641466049167360.000000
-1712524240870372711217924733595196416326307198081603068717382515507251522225282482176.000000
-1934701337652659323206871931284847233202177967852723986973994367343196614940526903296.000000
-1614251201057007522337434359163440354492259201859402150768151478931281004562256756736.000000
-1901551106033860184247373249752760605913831151940619470678684287058608796012235456512.000000
-2078169394138293099534565866828923064701337738928526279995944669308741234598512427008.000000
-1625945725287722532326255965249302678811162356962305764436046312571766966067950256128.000000
-1937913826598364017025870316730487418426366683159218168907403309205542276664454545408.000000
-1708926982137864040213682140124281500223180696620560403475408253892977942311829766144.000000
-1762239369924695226318263808432436767973607165664140238773685929213303371170993668096.000000
-1878193293698231834155108752721308479606498828651081394835165166515775998017593671680.000000
-1776911210327337463698135728613097805459945430570804159928122279295321134116334731264.000000
-1852728174920155308869030651615377999588304985583356143000318033608342924418170748928.000000
-1529495190100646278975621207396986836538092431666146602416596826669668320760865751040.000000
-1870593157933166227289168104321245377431670890799763761028489815902545983837466263552.000000
-1495156264572476029330994055082771550281868154855263074104417938973919495104722108416.000000
-1507695702365840661354961876890324808556372640403587435881891929111781974022689914880.000000
-1699831486076823496135590937385508415376514005860713527508151428829563326057913778176.000000
-1547498934279564520343297242405628864708264768075707121533704708016557838572153995264.000000
-1608860048230336940479049770036064326176402918681536824336822330309548425011896778752.000000
-1605968745122890821203282658402477612150022985741158973072741807138945883608788762624.000000
-1621273901642847661050593427663113143040218392231870768959346626918989180492096471040.000000
-1568471221258218430270403909665054608005227265143941287143317238139614966102341189632.000000
-2179989349903277578737181872100178750087481010961500137033714102855469527285276606464.000000
-1568282728056488344240522369448450102547779948634213534234795746230759956917814034432.000000
-1891115067085893799676152103876170006160881613387970015533923518100063342391929602048.000000
-1978529871646631086794957609628192219732711636504584084464439716937290728419669049344.000000
-1712891838823343889513252536652700265378674965601293522825424967303797794565263458304.000000
-1661300167988976384179847560190809563369549884732861707539663737732654778614510780416.000000
-1667786425776322824248596246794446280018105922029190606296295124922805670577021386752.000000
-1676386990093190838758715527822650386485226318708533694155592614784470308106417471488.000000
-2052844594834495333705560850375007781189706861181738922256956439678327920848290185216.000000
-1652952000893593429687827273293377346325729452312849072119322353998102442636988121088.000000
-1587240603306606526840061732257715637884461054592100593409676090786679511954535481344.000000
-2011490992046597484170683014134422165712877423588840161035125643125110345387143593984.000000
-1704903400436938707742866233717181058228101237224515814600726991257862669746409832448.000000
-1714519073848572294206813792302356360812617595384389926502055614903008640196774199296.000000
-1684685205461727642595369375732953020415172746834596801951621637600601712725101379584.000000
-1612993153470123846113477931808706080970819523197162728576870686738600302526922227712.000000
-1556683100189473897567698731290179004887366382411798340110333622673848437816531353600.000000
-1646072042172312389742921582313521977287344367744388164865967757007628910047050858496.000000
SCALARS UY float 1
LOOKUP_TABLE default
4852067793009494571898101310160339214267125101304575780433525653635072.000000
40449449371219691274355191573217948690714442155535476111647008983351296.000000
-2821533815535033682321170103911955029830019916966706476758478899642368.000000
9407195622607409353741161769395429037967162898953513882031184836296704.000000
299271235896351393763994781573348877916445269559544547467913802051017324476653109248.000000
-43843771047464185591945088970393389907153343378414747196276087183114240.000000
-11187719501200859089368815576108142550348845936284972384175633511481344.000000
30316905809154659016709032595937691821421265977577205214511674878328832.000000
-1671279850363619987452642980521368547954685460227396670203868506750976.000000
-16583501488581900836676208328210100968369292336935436326378226807996416.000000
15783682806928648038434306100167185714566186417692778495516863155404800.000000
-6053483669462036472972124009387040287133462983800002297634464043368448.000000
24971550163642651479610469188808658559249454444461728217875741637869568.000000
-45606461602099742990250289650726903189659042084354383827682456460328960.000000
117273782009891538187906420028147232441276685118681672424171534469300224.000000
-90591585632558555038580453266662891959499230660138704375553784627068928.000000
40463842308527330363111740585314150106165319447530350550839287152115712.000000
-25387418779388627672277922227336800110886883951620218123965475613310976.000000
196795096861607123618670524980895482258373611334972339478058512368439044784259072000.000000
184334326624413351022271833751557760380699318618554793478020278433109870984766160896.000000
196562438803233833723442841799139424867474924851720699640457549787572120949062893568.000000
260470766148393942728598213979233062202421980997887060937912240603263264849183899648.000000
284428103292512506778198866058297401755492909004432883970063605605824236736359694336.000000
304580867182289665462292202385862227728102202932684615455003118789022377636458921984.000000
319121618650310599396167052077791788209552823007029247178022798342831453267818446848.000000
334755818274311362154975381259583787537716827124834518317167197411970437815178625024.000000
321275482582132072266125945939623522646056218509171006725979796910815553865864183808.000000
465887752268944284948907175432735046217253552943936421571284330528021473678776598528.000000
671758958139467909088326144892295991785939448302520457961478238258922873205968338944.000000
924697901485296115767992600294742215479299444199750960152136240131430473084547629056.000000
1122861905311077712158350231706801537871932810527607921480087102564798765517424820224.000000
1305790106185621404658538701616227564586075710900431637236013354620847569646995374080.000000
1581507823116493673636252291325852556716421315352280444859743612605814566186278453248.000000
1890449810289959853472738299961074933752284902640746667978479733902751765419345838080.000000
1397915004642518704540985046272655172156078926496387015218665856921177753706295197696.000000
1303107927060504777557876853832895364481118854210772250537985119966423248197491097600.000000
943452993597554731696003192137546711400251932229363139700082698735505059956301758464.000000
667623472667899180333128549360096214789378023221558796934697723727959405598869553152.000000
522571496762062787357320593355896576154020254368237975667922248587783233180042002432.000000
525843150231098633595923788747760725812795314648197881333566192885467834034451120128.000000
572965152239632165246851378035084468058476314708670506276388743374709928268392300544.000000
779061929611015815008274995005166384345367246607597052582354426491854306526393008128.000000
1210299314710714573772447516231171421324047912132813350376122603005821956896929611776.000000
1818036661524208547649456155765933431031432674175643883795923583385150450859979571200.000000
2175904689587504049367430467716841494708660126474876352259810742023041576840623816704.000000
-249549424989745039774883296846991235901624383510956304870465161567492397751290822656.000000
188456451671265590035229724948322586889347558676172498908940988103304639306914594816.000000
574063731043103310531289762149417529779232080341793884482008266860223169625319276544.000000
-228651013314730027496105287803039051759237534282187085778481833738545639191788650496.000000
1030546276332636742409892499714931058589395578238481862869601105698748698103258284032.000000
1519009998153863527409688596735031742529797532862704219094735438900972841812751286272.000000
1663463862762092143717980605735407967714369059597414548786113296182010335599167275008.000000
-186040416833047912114163985577712073021214264486193181276240311650809489585476730880.000000
-692693285855089456688845777333402840375116173859937922021322147964606858429705748480.000000
-184766386936794665417898819985351469382223670044642341777247261000018178527595593728.000000
149529318886808232107376332154163736201874370649141677153436917526862965365522038784.000000
68201905344421852023132467148730827580543707733377778584046450400714708827961819136.000000
-3248258404010236602568053109599267162848190240882700489430218244567928328572370944.000000
-2950614529588344775285727340924682428003758264902289551298958427624797472542425088.000000
-95203822330086723954907133758463127892747968929939088403308944111218637245381607424.000000
-591846085998756672886145982776494269258370422842936812314556531346551752259658579968.000000
-511257774561770656005362362027037474638039523657244219794614075457111174908475342848.000000
-695808276899286201736261469912411897066234289581035425246630209408578903588269457408.000000
-1415839837784531608397112685734263497208840510620889426943338566700676538190786461696.000000
10671991662949512041151371604642399720132063390634518614266168967390487059422511104.000000
-235662067643090922540495762858208900849099903025046035146026764827078785902711930880.000000
57247006983613330213991775389101303096938788130830619537880461585940480.000000
5689058796588129419112636588045847494411033350133292615673441375223808.000000
-9172704140276633307887106059318623096105077073214153274290080179027968.000000
-18906453003317428646060454536406160239539651795904680182373457627971584.000000
-58748193326171612041639256745262573498786256913543852220850671527657472.000000
48377263313816697044863256673941101026537167761497626235770719090769920.000000
-25013303783071442492822423994726692222582661145821364041088364286312448.000000
6457414643595815542078270624224925606140890217448985673244955430092800.000000
-55748497359840591490204727127882035294373090547553379327560411540094976.000000
103501666609121245673117884998304169841585045394847185928098158588461056.000000
-38399655889664674826419011122917847178552874629307750238428095657803776.000000
-17973583601347917907226775040891277845832704173606323554250312497758208.000000
-11139993960674681695716464218766559975829830345725725082200082227396608.000000
-405186896496166831312480113822957663256546026121891500383949811599857002119677607936.000000
-543906385929982758837944679167425565662172085985636452642233039636156385741603078144.000000
-573003947370145181191684506022242316115128782016370161754926205569798134974109450240.000000
-649108684586842283907786848496018123012974930166587685781011967938451325539202367488.000000
-582095172748277506690110835848300854785830825061645715568619741706374570992079994880.000000
-546628636215821594443293833248947067047390143035683260566393435618164167361832157184.000000
-571827073677632568525100375697868476445483864860805482552099923545768128336353034240.000000
-505356836772844373445408250842524670900994445927514649213104209639148358683355774976.000000
-429105752633200645615080198514643252117761410491032988592094435577663167972172103680.000000
-284585370185352822858930584246832255011380845974048065393801938034557169146039107584.000000
-430327877186690908065416895377012054341315822924692719750394859790520779061992620032.000000
-603909834826412725668160560070696292742071049425523138238158972367032857926584762368.000000
-841613782677006584619526915363673560045177409033382619426432131767152246343111540736.000000
-1190010473316699895851665184214004086575823015789908814501336664854934440028613378048.000000
-1538926295735592359364127785407093064553548359069555183072380898177994607104630980608.000000
-1799259180251306215757541825021416173693968021442836424633396959310155481138801410048.000000
-1045195882394150672419085994046135961996796249868207053034652235496540931847423524864.000000
-1119217070324418353124690937087221417523135645944489944921187718334198271134880759808.000000
-901422571444823913819816947354014497565972100324856032649942477702931110309117558784.000000
-678510003911354054257246360820995077948376929803498258067501406622535872808514224128.000000
-338632876214450070125743633724807700314713007514000704503510127959210792819793854464.000000
-1097252032824873399689192810680853808796367648099726863322065782056541794361396953088.000000
-1034665319929995083181115069159259483889608800458235007163212441500084263795581517824.000000
-1058922687783453690914732418904265490948223588571712573844940807786434795817175875584.000000
-1045914307439178201897328337460969544904322882448470474438606677727767379656472264704.000000
-883635226058636468189129087520033503170351427496987077692663131908650432557538607104.000000
-970257774262092511708944294289117889695197507157545234566976280578675439464708308992.000000
-1038735739427953778895076332607387802860394174952760604656093423273428309474591899648.000000
-975892993470601434784784849474472218562175769851448389165514571771387732971281711104.000000
-476865491692873975983470015952620333075592324174263689826957213595407114366705729536.000000
-1019665150866488337136235927824922488673648931472581590182364738059088341830582927360.000000
-800038413802397498166915440253356649785058331948337561825584754598673648707218440192.000000
-749935766529456691470904035243819475045845868895761147439073917783143003972947673088.000000
-713216497735526543004332428272584089588318392890457022296283460440169951458779725824.000000
-675774836369951970865768937422228033201287459544914911702263507672843315069170221056.000000
-737071286850426858752567912692681712191042476508830331431867800490947242918003343360.000000
-727157400536468659763797237376041277857201461960454822864032931419815239166118068224.000000
-735129964044635033677897969304809301651362979514881068872325055216485149065936371712.000000
-738273850088067703360989283001659146448382377853328382658867908375902158654055383040.000000
-736283178045147907850103847367943058486741545706154500283157290058420059538303483904.000000
-573635298252183267940189014212437248255120852299775435129065548245100409019806253056.000000
-546972016962910982486878904505095618600971452645552539229240051143178730987784765440.000000
-492800350705322781811159752590508324896558302253821698891486463854639791670040723456.000000
-410316750916404118033747524901614103438950555944181484838608380617027624243055034368.000000
-423916979456099845662953054135125927522422718815756819067189605600664331579354513408.000000
-376290420502020443835650316156265772401502592292322706581841975655245905787946532864.000000
-89222488831823597372390194440204782439214767697625742861302570205098426037044248576.000000
-101118323585923810645491959142037270808009532397954695073509357539547571015938736128.000000
328986666140074994234204507416219609935617151700338069041538907939659440072387723264.000000
323200632345731167690295235444598818792580295035841837345621842452376895048646656000.000000
413431441503641631128131776500358629809696250194747561594040596986230428273637064704.000000
428124555554331976063141660819087200267597639657260684048337403203616684415373017088.000000
478206602923909353043637261642077753823486592081374235993561079652142587620695736320.000000
548927063809939223014099368389724107356068664700749718654694315716735503194770112512.000000
602551407684620191939137875245954740093016100844260373727514280684153815379898007552.000000
551717091844292308259144217856606826667694372176205618773860951938573678973980508160.000000
476228553501928467315488654539697636600373387143022598776105939782956265995803557888.000000
339069081681880059972254461133895543985918311623640105611069136598886090143099256832.000000
597290645343660189092822108378621326070971196205590765001373777947887690185887973376.000000
266108280564870053668871338704857994354560746729835925726433463859848296384377651200.000000
-57743764318821367346915750585664102766179567217510959801152338010298448757372485632.000000
-196554204218445026724858103438215211417360729678436172951400129826302195034172162048.000000
614856619106854767526802511021508107164195739098189715058980624813440282299211972608.000000
435047100503889253853696685841125228306206126757935376647116370649186650970409402368.000000
340256703980118620542423617280535311403765054248788184583090271200874106562682028032.000000
153227336668391928525037868142541357305459752601884724367466929757170039750138003456.000000
-133669905730602853705512853738251505643115805795080600649079585386424394862647312384.000000
-58929502071295410481746598412030219583854427611261849317117856059591002007925686272.000000
-151467700562344711788486995226168702003191151408574529679278998987819998065182375936.000000
-256383053400842605136158122560442233150386270970484832563528234119258321157693112320.000000
-59163470501322180521910992941995656289235396611215715265896724244573956702352703488.000000
-10213335284096297776833918207402537457558962602166985373680037635884499280022470656.000000
-6365788423527501875468336053020031390490993801224022856149652310628148898487599104.000000
-80996320225394535515770109639172303007163407791124745805610795254892138280804941824.000000
-45355742460864642874233539924863930979532012016114076856579248724754300302948040704.000000
-48290154377485022006832870319629599739519400448204941464354965525066645450531012608.000000
-55437280968957920415159289825986356575770037183360225330505487878950755699546652672.000000
443614885485602310938760361862886306041036118116052413452232700296789116355346432.000000
53932123311674785198345930741025986253520626847916203625453675711180488849701732352.000000
40610388193956138208335217447247875299544195187283800612238967794267759198760599552.000000
-39640161566819925930810497679983941383532688352545142496116672968812206347681529856.000000
50538272194040080758489344982191320920662045935250343538722577385420715029449146368.000000
117321942478249405934168112692444443884485734771498108267896058293062076075048173568.000000
-157013011750105207251645866950807175993225633132820253463258668917053763075132358656.000000
-29767069087865473618511932896198198083080553892725798227700107003880032225653161984.000000
248455539414826201774397037416021436898551301029935961893295985107968615977062498304.000000
156257151191000881036981163051803440987164159686982256813270559681007067652180410368.000000
87979152641660250934169850153623964592084902388439307633833331376870593478726254592.000000
133580561986534872151118437936425417329240068360646494681687818244011163373273088000.000000
66237793339658844336446334417138528629431244103977832031719505417922792994618998784.000000
12130535829107179106420568945081835439244429550601113577992798044133885865474654208.000000
22672498192868439618611684260118061205244663129627979876801482517419230393721159680.000000
73952706161324149711110210681207085315821138834828172298746992660293281384597815296.000000
123323610915595568202905072212762933086917746280966007149267978243055677748040171520.000000
148371038745394745704059549425134055749244800768865162138433616392859975319273078784.000000
229209020429452409258561217343735240405268351009104685923104046683704848608858734592.000000
532391852010325081375910424170877247604390777959453530469871326495098056059840888832.000000
131143924148566038027165234463489887044396505113512491128145985005998165531639676928.000000
357369558539339400925599356251392557983280856336471577346441085185973182607751380992.000000
244155347163165518023117658694061086795944256274563119775100103582469858418011144192.000000
-43029319499999683372199908543279983229973289260010646274858982134169413932688605184.000000
1219941304610555942778545937273725669028963254842390066056975058754624813344271368192.000000
13747060077433336554193236183293172314141880598175146588004253946423260473733414912.000000
-759277273047051904841520457261910550474766114598038531697006126433825269900499746816.000000
-639782001491739942782184002438856006799333243636620404764975021971728848009903996928.000000
-738989132817136698179514916640667179196754003930806627499844376532817764021123940352.000000
-837981357017694498954051521394338323153885076416878953497583131494666524317087432704.000000
-966170820836380937060369885231090739848493445091850560559836832331238430001340612608.000000
301320980979261374756749581756479086872812799736115516474282116006090602443710660608.000000
573019823183546462925877703253146897164559972056763310819016839690642313383166083072.000000
556801696888997610970418464258661810978448076327082954855136096149303841230277312512.000000
-1718490971919532634958992054598797055374071687065612006301316252063998539204271276032.000000
-1025381692947726913407042876629730912452055658591583172651768498617518343009427521536.000000
1322358101787320384237951615214870205015314183032787370705995864800832444253622763520.000000
-1401334883486444028601518648309687606009036091861142374864674353862006295752052047872.000000
633265115113756192017781182448985878987591690613244292424995553467456000825579536384.000000
-110062356074333151494015029372246611358620086931193084338309245017415662533341085696.000000
73355031110343040077115540393924082824755594619844077074022665263870539755419598848.000000
420700846622426214039437402487895981478395452980300303722547612249014878019684139008.000000
-307873937085459397164546495201662552780582967823813051264424332015453966488947392512.000000
-941811319171509504231056915533888994482612749643918588961662353506248008415106301952.000000
-483656843875576379642423959175285629494209862238909143634476155741844181134981726208.000000
234404832492718908391122958794295063522364802928574835137467734180153592748055724032.000000
-603081351261008068210819300770022320986111318655280745708238877845851173952667254784.000000
-208049748374905437291746016330433746698772241860105450138971889013025532279926030336.000000
-34398700474452187741703484962070923205641864252360274637128848713414829566884577280.000000
-282705023068552100100689666819469399580464804786585800732754627521668784211831554048.000000
-256203882603287598881770757922724600820232108685389313393602250974323119558213238784.000000
128380466308515158142211685539375468333728017256191059098475713902457646125093486592.000000
-31530091199671044440405163125206161481360261829937510828713804441289431782342524928.000000
-156262478162860004619428271662609948519619351328587799512870970324888066151701020672.000000
-1052421798998543003213271339852716840836865750109386755128723877407907299629662732288.000000
615317244531918229214419848113413702118278226308341273331783610428907705363440074752.000000
-834232776593631105861067599075761565172305079865835529087335719994415156688553246720.000000
-337377271178872344081449380948274459414812735949379965626255497951905131389595418624.000000
-664182983866139231126665689832659027495943694915067183983455382148225821440244449280.000000
127825282094895336957957184399742878699285677792966577261750649536824576802532884480.000000
-176438456431930193953548294366128171710370333768520921340673176321794474707114786816.000000
-1110635656088792718692210502790851438128800101798686549783274303246255738723013492736.000000
-1046982490418971467951256199864474850660175279568099264824510925941648352091635187712.000000
-952654193100649187281112328072446005206281826202831960741709905398803771867753611264.000000
1659184705900636380182018977949188522572941622259134971799556085634629034184307376128.000000
277456114990276270558227291219666213815540464732031306737348640804458435619923689472.000000
-861001575888027227493366607578132171001845845042984613260598656765927279373385203712.000000
-800307513776224462441492493493790316466332763674891541723613215262602926511410380800.000000
-184212535758417003433414492224626903544507274125584773038565589444910324943163490304.000000
76240567426174911710131033130589536571831449063877807571169264446267251807200739328.000000
1905985237289609742235045689970410393907254692610392911801190506095655952426643488768.000000
1537694811404128104853938880814330640085168777969218320383926221187258990943507841024.000000
-1979126402917015056056811750413293376609867236548301558570341581187891150828328714240.000000
-894246888215307840174033175715999617868523279680869472565912755258237149884016754688.000000
16814188192029891612543732990386387393598518343926424548905148145762621079047634944.000000
-45066307685480795215718608932180179219684588101170179691622998706624969729269301248.000000
294221132558317876547573543370730292101327271055237194348839280228559739683956850688.000000
496059724421728659333834159827853985359761752325474034194079954446846218464460275712.000000
-202996565428475475727973363017168686669298506183681492212325942113522399137390133248.000000
-217110867520946779027456204131275421015488669245639789983426084297066656362326392832.000000
34796589925480484532974061498788486588065364070531743688522684258257225294731542528.000000
217319086328062033578373365427014498141119788280815084231221214488257154692094623744.000000
-750383869645150264969173797257359152780133066832617406238774186914708947645639950336.000000
-742263128348730806383717066177114668833619908116907501346690036870323706905097142272.000000
792881809607133992193552808294703930877621563642777508437004276676556850715116437504.000000
238360756410911299315069547988766806194171847303619201623961023535273952092193030144.000000
345764990732324530124394642046217833006273505721013683599498490975539013828250435584.000000
-588340233959450310166735094777944759062027197016231818758669546191920467799059726336.000000
-872926892382531767881357220980289502084614979544315684218236681463143646899445170176.000000
-699662698546671852741385506473352671358143198856216964667733170644789683036255944704.000000
-531203828009583432951994267351084170003033685480640455981238560281305113161629696000.000000
-1321391518311417663153665276981978005290105103092009212610568974542666765676186697728.000000
596822628311165439486366181237817743094307340674318624709237763459784689493177532416.000000
-720827956374691939771191863958670783014569594897711609841004971648869912537208979456.000000
-474080999937186123255536179261725652839737478981224302127565586333178042048428638208.000000
-744474490263038174424857741590022670503299375847359277948178487677849249353081815040.000000
-642171676508460403651838689374433816184029539569433583661472731419449381520674914304.000000
-221918742445123631251535873211963194887010541340145179398388299530904820996372430848.000000
-64774824055836354818673972277058789876888828658011520413375260405142210941131161600.000000
83386677599293372931867996125032350188158139364156586086466073345512476749416366080.000000
39847636868112394412477503983315908975400649594785751825162013434044020316507734016.000000
-144317065456170820508151457726969732927189494055883381586372925125811964089550766080.000000
285768827150135722934008661375119512177250856189864148067645977073753249003329290240.000000
675619964759791198878713762009607186368251224226371906555141824658496688735727386624.000000
-286377187311726957277965243918114776419329744972335534350630996327736133102782644224.000000
-675776991706195581476565724589475514200631526497875861255927595060038457360501440512.000000
-852713256887860026684773536438851811935033018043563249298772131114173744521230155776.000000
-451788666440773050281228254542472679588696953715864374584194438575174796791053811712.000000
-471586180690259120318229166699813145034294404904103002348837446186860860057382289408.000000
-1073424475559437174860871647174835480740189405860430288659146407448628088471489085440.000000
1103021306015204888336389564314556598479654331376666819858020677742038224393746776064.000000
90434045081220992101757635791695600357868542137075260602052168204132415384691146752.000000
-502027612928723706188436449389332316239757526505867792142491692868262943043994255360.000000
790600244892433839002502968834999765437123015160262900335947163630626311381767421952.000000
-52280380245981056772680500261884162348940683801864895220722126318877967341810876416.000000
302512322124178609033221856768486569677615953256162580264333856022089189602411675648.000000
99912654231374442419743334611451465489888065297391753663242903793637373485674135552.000000
-541249802060550263845677360987796318335436274561392215219424996835848878390283075584.000000
18500247624472360923267898233620130026066809504149401032503957397255629236147847168.000000
1110784818453518298207531138076297927493686988390880239083495775879373930109209673728.000000
-511006772549570752840381335387033445953360193531436216433804041704318643499025039360.000000
-61141863824473836603435789253366506045228970287212489503325986395540025873767858176.000000
-1089408517293892356835943841430503607635035555786915194645835829404267061816995086336.000000
-1225816907920559994354548809043259611486099044422798445963259975672130466442815471616.000000
104285885229655893421607004282158098071560595291761094605970602939011175409038393344.000000
-1177934322189612123860908761264020133809024090810235455009651879219440024923123220480.000000
-1002529310870934879660010361322189928128273390161400805212329433717882276748959154176.000000
-847514547719977972962901474326263107121867067076774987053613439501960115377577918464.000000
940199658845426169600191242620993788448646782792073508285496067577565530383659827200.000000
-1902444021240158704751968372558016282906215755011425323950847458584058945456077537280.000000
-398880454654683575654044687129120087094447165857818102703578621203068385693882384384.000000
-276714874780998159761344793969569226187867527546501393964227048157687359535033876480.000000
100526091201075199091957206938653277734703105241515909892243155493229565922087272448.000000
934069622926702891786644553257991260085322024102820907736713466343375915132741746688.000000
-211582025958098390007240774059356018499807791106069574687453632392613542246190415872.000000
-1691109845414041418711898513503184497979060836458224922180802543344149983916655116288.000000
1256743733364007789456846272022199996504096237062904108882770054220657011827213860864.000000
-819725680733941368190059757875907421997803267250691334417709891371800228841660612608.000000
125326573724715120787003399564306202869162329065044539903768938281118244321387085824.000000
133018587575038361834132337699788220397234539080201370595341441382921632699081818112.000000
6225418568642157032923050814652522190775688801621504085559022075475158078429593600.000000
-29175238904508965306015146463055547275608780276423647268400926728763158395864743936.000000
-34965798878295106914417583174431153720215283824460816931921393446485902997531394048.000000
-197600750214295643413094849248386155172540545375803322495862040367411665593195036672.000000
294371788246244910761683435936929467408071036128531841351086227334165091150240677888.000000
98566094628258895409325502964188957772503445303498609498300489936385412994126839808.000000
-202197756262229652077539675522726357258778469702185940806972682987391146278600572928.000000
-604331121865298175127457543306518084884722739260994430614461679429444852595531186176.000000
9394630950980108580171259533878781623945066658452886252583576802262167935478923264.000000
-616171673613784775557910032513031869720983783511143790264312103277927682889794715648.000000
-779453640415347337432845635881485574426600010014785521358287244904867807309888225280.000000
-903704569259830584694600038678017181424688334880369216167136969392816167374515339264.000000
717451410841689820061367328530135003244886003821220429207561564527560027766249226240.000000
929454811855453352264957011605668811441495334313763298399647883910027097842454102016.000000
-556384444223190300262096016922804328400382461527492648447559285829199815469799833600.000000
-744343566314007193745196231759087064751547462126726334703185470937881994502246236160.000000
441098596173473019765727520928762158468933927636237748212077859366256868276370931712.000000
660452861866342418979691533683851747657675294730575843402679048870376039549293821952.000000
293332191658947178853911793143796876021633292948557824043332441837850769496362450944.000000
-834772245780931778632708020971703046380909661603828811544935007827215274774825533440.000000
305708945096459988704376676683268712745259297274602577520443743538120574772881391616.000000
-581822143799116534857519949724225490566340754734511832309816617471800712154216136704.000000
-848407650562297713537722750431205909136672446801186270391503142528087626009041436672.000000
-594278227429323990900407295609992081723004176621973521866304103872687257074467340288.000000
193932381674166919369334162119580708912445860033195471290943280701164385400132730880.000000
-562396126471335349050608690180051118869937871089592701795901743383973220425431777280.000000
-300068242765026115559626957908237107211106063523432450425052348701749174090273390592.000000
-82920041664337324592802158717014512972089288005953461840452355840843975600384245760.000000
172381113472424237219278478870886527763820816727268389097508335079009156897668333568.000000
-367601450287203880983151803785828374412779053675364614142669438953233118622992302080.000000
-148737530897168128657489661594414436193981361262878848512691918672539368189407002624.000000
-21214267529976285172842157999155988097481648996754004144296193662347558780810559488.000000
169622852348752205047069501369415301728820132537040242127019957622468923444963573760.000000
8467381057864185084370237942802421796720240841964960576445456733218197405213655040.000000
102746508731152689528710390517982416787848281356623318624749983490647258927531556864.000000
77390958429709831607267703144628140670920935075778929484354806202215665759032442880.000000
533159159959387048747654603624396261300248406500506197108158628166401498184996093952.000000
-1196113483739119868415952245875572381452415852073149788049102443007651453941982429184.000000
436476305827662464381732892796493373661524320853558006383650517296514164177854529536.000000
229652191747009281787409066846515793250410568741632141362387149002041593487293415424.000000
-1503603918740730900219061510483937782240451168436167790966047984221650177772599902208.000000
1915879860220183666953080536679435711636499396976938427840095224933062683945582198784.000000
-764779498668510569908892953189354081995140182275816722561016905133051180200618885120.000000
270560144343005785928601636117946885780640072995729323441949396673607370868864843776.000000
15612943832252230309572149995662344883855383871513259780468688901498635084212731904.000000
311654994495988661027468410938025573492296694099418334270399509491751604451379511296.000000
908680814111733686081446481907015436661618355395577509563222170237447427329475215360.000000
-1390305691368667588089875318007284293802769349482446351271565122397867635558932545536.000000
493400198926596558008393563444411618356764207815380575464466442859741030333988995072.000000
-460124688043381317410960406110693878684664506143879744225532527479428999862089154560.000000
-110529092973267362814181882752340533587226722822403139579419546071200946924524929024.000000
-57015365406590630856200922424001910142837176630012000753310177313771166437671436288.000000
-556191627076016462709417279816711032842827571954314853295897221693350067043060154368.000000
-249202263528138018071064153084456681286623225484397372466006800215629946150245629952.000000
-816539224980791287229853027063835597929132125384493537845078227165828951698929876992.000000
-18654167903670092197487229500193732282067646755554553837607358949879403571669106688.000000
-527825851130199064829827793826076056386246280556143762742875420321855471464182972416.000000
-569367520604103115162710788745473320939769588766760855531737420248239728681103130624.000000
-193570116476116314617815114907233660200802551975828234763474264331763848590227668992.000000
-486881052235459803814294560427719886898072214916607662381004805133674038430785339392.000000
363024078606109419081654945106356789532460398740281920488724314485652828136564326400.000000
-609083485021543433680593890626716350526465100943513204545391335490957091832812535808.000000
471536738797408378499658812209161715411462716194445812118116424079617595207720108032.000000
-113981795554424408616864347420836357813282868949310563693815245248867072247334961152.000000
829844057064624636285419331540690557230243521420726610168208147575192227105181007872.000000
985978256476403141041818523778635577358309571641556816527178770010264435038883938304.000000
-388276338719094904226575588613414833913156315167873494635890963692903420069941346304.000000
-581475305112035210011474070077096700891178055095616181087153715575920125201570856960.000000
-347772981901016047560890047000467906525068072172931837892446619879796519736065392640.000000
-559447259221405418467291223229052640998596038531576419472670644733152103723331223552.000000
-683363256653968689001763190412060325507962415659752528674109399579149628732359049216.000000
-668715687781251019236248704759732190637200266183195219878192019328973282825937616896.000000
148738415059622052176359248264093101201129015922446998023926962528142939953867784192.000000
-255733167022074777900419488613438801601243566983739833060504315910670247197717561344.000000
428396672157730668591301913589385106187513991472634577333698487219930832268829917184.000000
-399091903277850515484135153986081002468119616695075585536168732553407483412391919616.000000
-860709672819865718166529901538774457385965639372052233001792997090506189692353904640.000000
391700923230985209209834857806860839506854844423041110590271940821711809178121535488.000000
-61169178158417064197488604871240440745123232473988293956342547555861829712598794240.000000
-669528666794394826527793787897442790645071565392369723867148828254690998116883103744.000000
-626297940065658039027875027354406266592555288051394362222882700910145326840679497728.000000
231023866818454847362569458603941387904649573528976865434837923616217508656923541504.000000
414474597077965455795996228383494521715106110506380958747827599775368108456103903232.000000
418820807658078810212907391143793163412986626903728098132652376413227364031506939904.000000
460739922944699831177466778335127153750037483933023643027353369399318712806981763072.000000
37654055433577019448064624201548270208296753169344764630386811148934740482814115840.000000
58699022318297167639727467218518295729166532919930072788885826426326012883183337472.000000
-498888638404591041903156940282278362833251586540223097866616036156929477266500485120.000000
-812410723362701934149087401340888489424473459789354396590733361899573232932164206592.000000
-958503612080200858815829015940451403031440767916199400785123058318902104794167508992.000000
462649344180604344871877890163186977368108106144885563172038409473262839356356296704.000000
-943782956575427713059551935647279976081157643128017675943012943649302901566482677760.000000
-703920447099769321478606393279431259616255467324594330935580709800198716749659504640.000000
-339330071223840349833038868244336308875480212320241133191141656021251083138607611904.000000
-853806301145275004280963945148138602177055161090723131303674823414726705044969750528.000000
-538280271030900514972963779673270984938560483646360112920542975453197721968935174144.000000
-691525199747069110440640979069462435916672065099556243993121336046523480440804737024.000000
-296804809339142184554030085384056786946508589608132395191071843314130786491905867776.000000
-72783222621564025565810915157170389939403788546055759389605069955668274980212178944.000000
-275170029501456325636758264192581693457266941051020599955264386842488183070455234560.000000
386452454556980209409231734159433738257170156594219317289019295585789247377220042752.000000
64534467736780530993383143807006339562864799469362353738986717657412784108704104448.000000
-217080144334834818055745634260378501017482932850894341618961878409095270704034611200.000000
-528361864038825222818803981758392167056886003511208611457393746555742132674553184256.000000
-427737807835181089465217544477521434562244618016492465375512909793008973899922145280.000000
-652925995255290382703947550242007871662775815904767489302982383821784033174143107072.000000
-409936509909722778901309419824211060756313303145342916355959446283058580808120926208.000000
-368708147661941392554751097691625453841802908362107100476665689358121150110226186240.000000
-1653624105369963172849581011040967679975770593281792301621832034059801981417234104320.000000
-349652436934834651149755532452506702979665635239862222326069371786999971513372770304.000000
489546970567785061801302193971064527080946367233463563872007630510478163176937488384.000000
-581135399596223762950408716561786018960570277750774051016671426068894596834678276096.000000
898821924248538999997884868321536043909602520514966664728974596953747586316505186304.000000
-1233576381772025158061472095649252413733301862758783189809527852947665168611791601664.000000
608332918255990097057893871950496050902299692389505432826844103131833324447190745088.000000
3872043542484632853962995976383899049648847127115593426756551971403884670014634065920.000000
-604116173820336198528483148014389059949217744934927702012617992501666526308109123584.000000
-94002030229292417224689261017634689606850066029423381950935753595076915832989679616.000000
-190434663565107466372748527185703504859893081435795297730357060344402992613371674624.000000
291326652014062369968815624403174859063505239622959614470725718724963231000399183872.000000
-483639413697492797492958302477521815707615424372876087349151742080611122935523966976.000000
-537248533607210337593500627483322914876024446076409346602251720388045899839815286784.000000
475421324511321435800490739288033662199831083239732136822961593177649747996589424640.000000
-44945174746372057453289277907031236828259250457417720518173644961826977138104860672.000000
16817177284545788237453794131958038934448501910502859823283544959998734821316624384.000000
-295476016825759298135301274410469627562230051337946876920183124381423428461368705024.000000
-673967811144720795128712806380860391233336604986771502921163600384095844701189439488.000000
-921897943228393072291951589240248182432032899792915648152593226406664286555558903808.000000
13156262711376249579952567996670926610223628540350717587942447633835504281889800192.000000
-128781869131164761242707348167223615659571335110586841676583870230736629181683073024.000000
-105797799881682885109517230316150462048947708035088363436067151600108989658553122816.000000
-1162531872757271776083916743989404480479020751344974656799707859946775423435954716672.000000
37586504728385879235857667067967346660218195577416953872776493301464113856454328320.000000
-1180313428242615878214179581755442676821607152826047746234027703348091276617320497152.000000
-445597980629895326436934336311929985615833597619754044554228029070477298124562890752.000000
1329162927782086249997398475476290505279155989178211467538539433835640622569417080832.000000
3275708280301469486861021292269396571162133142052287368270951150711932573781824897024.000000
-232061234836010569100995364829253066382829703488552286483076380108181344402286837760.000000
-383194817217604011506088882179952455944967825018097546775639293868256084877786480640.000000
151381923227095056056804811415675969365494588888702322215590645177366040473103237120.000000
156056013691551319900724078353152971451061852276455207269627879513587943112458633216.000000
-1149263845193097896423464673499039138090035355998329351845366098350032580677921144832.000000
-642840620487306808185888247120263467873797270276679153595460992090706863680533823488.000000
-36651382855347209701081957181500047870994970176396473506064896708628324195279831040.000000
-89082732086282876152483061506555014128743098792858275518862558759418663272263450624.000000
-821195405994950999435395588830658727213183675416480558960003318890466891786327425024.000000
-571915292265444345084383588303045782554425682348936282268347102920159535087604465664.000000
375504852512418899644313953496692830281987069678165490152753822026976221839965028352.000000
321402854140953045877024459922848773350246630972126009401336386797541139092531576832.000000
-386185393011712735887309374894922734352774508889909245322666840187133307471202877440.000000
-186059721717033001325207049223787458667425817536476851414646475091267534892468011008.000000
-1142927399509161296747726933859279279280878210369761058761527852282124581780301283328.000000
434886935802767505913316079382318228770729955953451032437905470388587504742652968960.000000
-1362654350956128512240377857127681711201302004306668243705702611477684619786772807680.000000
481296146347096328450424625128757182852687406328052871338038170250556236269858324480.000000
415833702368231008159002614995839829746493412943125516457855853009099007751251558400.000000
-312703483528721189581103662106395290691481028235894709066259701429768432875170955264.000000
92772753923938084417189161081990893097301558630214911122926482664635323725727662080.000000
-893431284262350483948240825736883221136758258591684299185076229917057983471769616384.000000
253214589164740621447767729277725703480101755699838756205497169153998271022213627904.000000
-731539582578581685578790544864486373534425408260589576277832852165639423357553213440.000000
251349297940364171268058549324449394449287908267861471057679029844553105091581706240.000000
-8321256188633814014295367686389118794330697681038131683598574991986913811848232960.000000
-390673961019614281710007092826206754629969888657376950643230029474766121487189409792.000000
-418583236503283574982436102613394720492478865081253923804932339821651207085432504320.000000
-114620087729784768220579567680361406757687899252375714363305522249586235496380497920.000000
-1827674311725184932284655543869844129428854896065382529198082091512195426199535616.000000
-1343088994345327477240943386432549830003373097906625620387212328181492964648309227520.000000
-184844184635505970584408676701691114547637874629545904540471149551488300464960700416.000000
448463729076716170630651594989564142350485998891424436961903003139090636143780167680.000000
725565494983727761262110883928193052687903571865808165830404099987683009197269581824.000000
1652943221858634166206712071392347980775236867293865277340456411147526399911901790208.000000
-49787776440294527098988794343037194233101082057656798940449714244486187646996971520.000000
-544387713439237299779703184241995960923626579763457496400645186603408165421568753664.000000
-1435336359875111899753403008926716760169662907974072574633004980964361294340132175872.000000
-123233503174784031477736486641126250178063113367948157980391783339365367349445132288.000000
298401427897914888588785193776600079644291261376841340603611321185832424289651916800.000000
1377990925430456424891574002428729089424062203892034831718847676735922521791138889728.000000
-467325547190105684679385132163732138871743545013609134118933550587109862225496506368.000000
2310410249430609669599411774775614925028466359203072374206047817706370870993525669888.000000
-1071054241273025390964113592670943004510826627644044830144382573384630405908221919232.000000
467613778082822301123126887634525037485268470483264204618786701323235221502410358784.000000
464860524266490427941501230290987554616584853547872661610714599445944084934737002496.000000
-363204584212238783605139897656967712880396331496679643811721515651331476901410635776.000000
120226260405781867225285651141603067655278783417333062455632249127168554269715464192.000000
-14843084517476872045103986356141779183836270840955447226723520733896439489103921152.000000
-1074952495944750945061889260615530074437560070810388104206382752659332365594128285696.000000
-1112765476548976932467414225474216170682311974422332685938529567466414891230369415168.000000
-761507633492092793855518436939790875308030868906061100537147410242031592869369741312.000000
-567151621031265314479942730997913545823899868705220247721415037514205057009821155328.000000
453036951728315966168458925491428995324594110693690298279492029533824075742314496000.000000
979633487416886492159696071094880619173322282851872447592450810942064355551152701440.000000
496418749945615811892571406440243729242646765844718301668473170020328343704197660672.000000
938281520859817299915795817057309652150126117230159767419437006406618314976719273984.000000
-26396083815602172040394067876853100814733403315955618192178479477015011774445912064.000000
-623656244175015767298067596997783736128159421204979506416309007847918171250562695168.000000
25793878829220256084127581429025382074074541886382976189164519260893916496421453824.000000
-233787901422206284446345112146526988128979096641918383967295832243150371537903681536.000000
-278707400852121786839090684739808103112435413553343776761016833234052865068281888768.000000
-49224902335213378319298399853107261053448726895269491703817677060739705537321500672.000000
-869923438929611508416831963966354614050106996546283434797697330571353777008220831744.000000
3068691367065606512075029236516182619331356426821329697354623262699616287804643868672.000000
96647348684238538653394215665570519084436184977005310803684670308461250748100902912.000000
690008287496244862756670933327221722381153317942692213191491348972261353233905090560.000000
1455192670190490177568315861652242252080136354896232307154683210417304749923572383744.000000
678038538105966477100680031097093707706181183534270291469561018729081613969621254144.000000
856992272945517030421833843993341235663300006065677262757728526230399585532858335232.000000
-704664832731918964441219538599529373994502981335111879482371802598706515723511922688.000000
392431109307078729780464175295845178478572478306084336003144045234189352135475331072.000000
119089829562674968695247580437656042642044635236344732518281708781349689899888934912.000000
498443829455062197620525465519744088344543287325495479274199622477076024777934635008.000000
704075995618158646542660946262275161372080494222018679691601349428952050328183767040.000000
-463012497778849877935673923661629191413464596725019632841637293027883635549625384960.000000
-365000331565624403562097954849556252042117194230439464103654313185951703808031588352.000000
-321841693996665711536837324358407866256493711623544005812207428331043704822954983424.000000
223825303012065506265166844752470663008919672300194142868631845177841965509296259072.000000
-23803919686862841673820100744096221610304742673046880851117234142995521269103853568.000000
-1474123381286145894721091856752112349967426471771639984693566735893914464821226504192.000000
420339029340815894520557670051658222736735297550947318564092288079863550412658311168.000000
-467427851046919702455394483079312254218126437045251564065221672129699129151606226944.000000
-1228217518591229395915356112682873266488439565811486915124863701674497705130185457664.000000
-1250455226154562030919025776627003951291822485247362993666937425582007757220998021120.000000
433075572805785785083765627873627361307652697521733065445360752221692388261555601408.000000
397709146501709760023343260541455392512821800488992270078867078164369146703098413056.000000
-297129393252153240592727667841986388111460829598337975809514993931708502579183878144.000000
-100056298167769607753487665377646716219954049850883436262466071658721276756645380096.000000
1057103911254269910143212850065195533188970310003627256774079416267523600281375866880.000000
405840091672363382066831063582146819081306996910885515675744262658456101430075850752.000000
-37138254294475320485822608464004165587416095305850275409128116486879112054255386624.000000
173898366887618377225441532495845699099247627035460026968547490115020077155015983104.000000
-1360121445704258047515241990734518140563024736572451817468064853776921686964443283456.000000
5412464253068735886500136459351651996453565933998669017381673355940452384197398495232.000000
-376223836747773614253695583579300461609248621574386705230732499069043744224263012352.000000
-77179269293675499743355818447349402190291293418104378706776014263439390970656849920.000000
-374622598728668778373376390498526672648633337386676360083587320160360762202065469440.000000
466573772620564001458664769305519823068000450810948021385509966275869820813431537664.000000
-284971620947183540454948370875480653934669012075633804027810094649822622155764924416.000000
-309857500412090314173384282342815678270799295422987893197819415802102028914546180096.000000
-913809118633289678271133123142509913047698528984285421058334160391822041340115419136.000000
29247264003899130882649312892168838844896871409052350400566296540018728366124302336.000000
19389404770631623832517071246946176408734909900872469333349704248548570180014309376.000000
-47761320610346582327773252672287563360463947018145976094522707790073518699558469632.000000
899020660475000229301036683110524301160178855930769523758596615389029080829744119808.000000
-34303169987906042200410553120028598047449511957832164675786607559389240832567541760.000000
-1305238459752060307914372173895285873822011795670119399104751477588124608419011231744.000000
-944517193004823493657039090979106848441269898859536413734744015182012632188621684736.000000
-711258012311206167811468509895602121730131912746842352857776134908083702964363984896.000000
-1123412729525224276014181424853299548499124758223715037810119974058624535325860429824.000000
351312622042130171311926007647615759919252024871726100683064031544337523759262990336.000000
-201484126466446736205666807867000813329858164919495949092005223372298604161259274240.000000
813223017096846641073951375214997112441866024522952607708949939607647968218207748096.000000
-620332799273735154221180886114658599682418705011828785930748338421958391381822013440.000000
579117095015456426988706989921395296375005233628690452175352806544571394840118427648.000000
-375348874749113568785363093390513798411862863059466096370757241340696832187392065536.000000
-3209319350548930273069341726141164420199947310886203613360101178116500537702034178048.000000
-1003992503500059515964006212707564881407588986491683335452529514140965395382992371712.000000
427065576233779508261371039062612184143471882541449844506976862695263470489119490048.000000
2260660660010407649201818114112615994620905929511708499677924466243759986643918913536.000000
-112806783981320599890523765445958188172438160570213825411261852860552197867374116864.000000
-961606144225617271719522868564179168113820973627869498467486755235986759976256274432.000000
154024342540894464173720532013299805773538231604426249940177519985325002366407147520.000000
207844226691886789217990018029332658535956693053264485696019634886753210598164529152.000000
-33266372550189697351623456791438215820911082504192962928110307868952842728533655552.000000
-453053454819107793800487149430681599418057435023064582887451770185669631565642072064.000000
773933698644964293616571148143935066688586688480630594309998922853941532376629772288.000000
-364404368576256470400441823125109214942903757263698504283402190617748533536259833856.000000
-601782809063055615683247493577666497603350292183291915428306564117747174256043622400.000000
296095723729251194971947594957297672329797962214259231579964167671295206327708549120.000000
1225361510513999199645491362863299735581253030741346514402211575866710338577453023232.000000
-280426399043985758562764905768096737577507196497001115410256994426639652158284234752.000000
492421074081928830752933755449930416857195617586728142983061869069959236937043673088.000000
-198846848093651797739813954824868706675960245632721636634836752603904820680480260096.000000
-365886774436450615314541163733187902909148921275744654697137011970677809992651767808.000000
-219595510425620465964867512566295788642871550453915926443856692539557655287255007232.000000
-540460221214120893712016743086883374691342525759487398823189916575201188737456275456.000000
-1206923587880395732317800832961611270093970964319843905417599742898437479285762555904.000000
-240094353897392116245005432959706923653128454004462425795433737043087508940456460288.000000
219739715242107295774858373513360803015508619071058310842727330446596484974828847104.000000
403300816628630790382574493165724479241972130344833585428290710788992268419572170752.000000
-215302080003391708442288532079041545244464909041314314383346564727024947849989193728.000000
-184867076946610858441821960672853923270553310901611157194200872277048437853973905408.000000
246509470833153589471935061763394608121106815939110624377670876734607552446797447168.000000
2503164405870955879710765527731211863607778479823366866868799870996133627777939144704.000000
-328540252461761124919972975997659194389702926419285190015273612123211455321358729216.000000
1577605660839237886653364127189057692670729100535770990386729659990753253382141509632.000000
-1006639661589019194551360103949156693337569525587867321393135838977860697767127547904.000000
494165481652671065430410347855017219858213015997108589422859553641930792655321563136.000000
714683725851449783349269169795899143075837367075137618383511924427577625875121700864.000000
-452848566520259600797872410083166624058196496382092972251388979274679697480989278208.000000
-547487626803845695368406867051633995318946139149225379095140529014517124881123901440.000000
466951137527811982618335030567127393906432333171652179992942926525889677505553498112.000000
-1927866693421103706005234155844849669057987214020196032770516379500161361930535043072.000000
209842868430691058947330859336645537978883659010010353622631597305671097142420176896.000000
1083047124063303692398879791973996315383224886648490666147115361953122454155672158208.000000
-65925966506170108865107046793334479072707595867123171060209271457141147150692909056.000000
2867242348216560649172938869686799738065376807940136921187096094441841441898412113920.000000
3809388619969597536677705720204946883192347048857172169916048468909684359071396790272.000000
387486358894740587609678400829151951523075236708821698236767465686727498518509912064.000000
266672325359245223014968710352254702501179110820369342151701612994205507715319463936.000000
-189528020938486658448863017622525671599373601438476937809620353366357398966350381056.000000
-353626797536348789027454656414327354552776496580685321996687805157814202891778392064.000000
-273432357182214676884946713476711721831904465809207457293852336225975574136247812096.000000
-261003987267908114891588437790125424356831694520663632008670610675471336765749460992.000000
156092960500494630310526408668145919634664194588935799253253325456718354227075743744.000000
83672982270376722679431208550611125395442056762742705409774628134503455476200505344.000000
-911471341040890678908991852000745943409987823992908461127499780401418784734644797440.000000
-730166872455039490517815936385535848086261643361939676080977520607993526261502705664.000000
-201115421998804854218620028129402773677240933673843408928924432075340430962723913728.000000
-337631025069220057472645595820213711448536614085622151893166995805707539782303744000.000000
-286160845103273031971259835070862867522140064631932885673398553966020249100042108928.000000
124846550637744416323901133580935301475165407726820832065499832737662302751117279232.000000
197479285351099942506736679958316861637806053346070434481348189073519037918486724608.000000
50950494163128386837885943657956688007204299537312754410576267235448428463705292800.000000
-29769995458114111821192718649788623634991845675851649507119312263895293183397986304.000000
-472507799368014698721823965742759330810877443143079005226160940822570095904462733312.000000
2645763928247353006822002927347976413781026866619130394887415224957009999758079557632.000000
23502306071937114412510507968700252649647443624800413446906029258012085582085226496.000000
768172566381384908988411170910595864720987589795434938793221373825994668224968392704.000000
321810049884370187827410831455181472442856772281746548342192695672116804957857906688.000000
285383699539605783786709998238108944158476807471681713869394691791870010970748223488.000000
-391162488173988372237861033038224416183944861606044040062830100819334319783326777344.000000
-1748267080098329455527736510515585206618982513893028123818204160422627084743982710784.000000
-467493417823975145436167763540310843588959987088246107878693305805653354716292186112.000000
1759493947824420767823846936859245847136068570058739277290950968925523709357723746304.000000
-659597524200766613063198773651098730466845602405151181924480688214145625724926558208.000000
70922077352751759916929412730403018477182316384698456663971202339015184681474719744.000000
-519883791515380282548336855100395448892052945598463248715906661103742410953112682496.000000
2090740393346007458118976293718877916538838899436990021152675980539351219103005147136.000000
240239355262437416561006355814118108205272893728284431858782203705411875798928850944.000000
-123741860858160552369368766850137397320090252517459991991881287068883334284592545792.000000
766207858536573582497226045793984425945303686461392168496610720701111733983824052224.000000
109698611204359746538501820136154774101376344336657987547172313760907904268558663680.000000
108980173182404380067596697987986611524150685069249127648821848929639949421774897152.000000
140187875292191337627285595709073550010540431914209932404516461410279455458924167168.000000
-69040984914519256493138657968197318588486392460208243015822250073153195756348243968.000000
-329431963835320671760451213443639239490050339913799137138502317248457615640589500416.000000
-1533344996579867381500552267599748616949318964671680051071347282679931525352759754752.000000
-208348175501931352206396932938730455045152272688580617171760754161404671787874123776.000000
248832997509486410194873483306090921961877528452719341884350247904252375433444589568.000000
498648413039444361137893204102558732278357486325837212827528434106868993847048798208.000000
43772250974382616500997822062192860554323590305737819238990203882951104258539257856.000000
1220876368402039308337160395651891342669596509208426205806944048066222285893794791424.000000
245268932965785061642830487731167461684202508453434175397457167954309227062679830528.000000
-392477281257583249572064932215710445836442493678823709462792182308134158355679674368.000000
-48748410748885580255705457655602870355108108180534567104803910082962540005437734912.000000
-992113177552640956524901817009169403172704445450636493737585289525492540799310626816.000000
-619470883932718936785572679044403787015831553387388336052044239978664978503033683968.000000
-419758593454881273184139796600040261709015163436063456543638703115881115693795508224.000000
-1664063801776553981890907206658320020000892204680254116782036494170026681672222638080.000000
-912408224026273189018309952271211537710976842571750218811174530399004597514689052672.000000
-368132374857073266942317584098646863271625176143706884194792833582828399535876734976.000000
-264118505417680624466877678934058675542836355578383045430449755631431762576198860800.000000
90093144483149122292505686304365953640819928310343376863159323832704354548984053760.000000
827101403276986480575815704727814010309834163676132133938036196925095014493895786496.000000
104528477762574948542027477952974207081776406091969733696816868646081520496086614016.000000
777843506411559610656887806256059895723354363139790384123599005055582723392317423616.000000
865007964569484127035284211276002069205184831440371343672789178974551114021618057216.000000
992160020610813444209372834137624761159426369723525811860521146185117066997090222080.000000
109145853839871910572164292649392801348440279698188027488996887349967369782230515712.000000
206956201593366947565023134610569177039325375096768148076767713127566461585972002816.000000
-2496287074873662139217074035264032171589029119406645719558540280730617317831865270272.000000
825632256829814953775278481027147699158840618335550140777365023704396882994081562624.000000
-2454600783124938722601344778109538333315751944132914492767562408757108001838926397440.000000
-1386307151284901546120298173140504137600846595352690225391263783336801246573288751104.000000
3289801305085801237570968480955831001538890794689880722220412320552556078460148121600.000000
-556033920423432596731965019444919853074087356086835716343612830856322328326647578624.000000
421148497088678373007783091090761769691279297652111757945640512987468242901851439104.000000
715170034939191509630244587269023222015670526684374699957209327154804734233099108352.000000
-1757767539195458144706245536237818170343492084241375685756947143007579136019214106624.000000
-262217360622521392777791062658275132234599958844005651937608194486784402655784468480.000000
-909352532436531957662643383653758437268154179354174288141458399491719972747216945152.000000
-151315988294123650593938136459931957462822724199864409097355050458393485415796441088.000000
220050088806666748091671781981394935856956441841514303733738601129816741550233747456.000000
44795147554317635484928067228968085775914120079469003617386483094908424877078740992.000000
-986926799272151053677227347193471266258859208570233354112673462706532861217916059648.000000
-717773597356037350219496485954837961128025709026088799875828805539777414206391844864.000000
-162114485171820130826646169959683412014333601052712533308738484864514121714263654400.000000
351395014417683026932804271974314379372542078660793366553693693215305000691328614400.000000
117848491852432703538034842928844755516780555329747460311605449064045081412790910976.000000
237169216260784078745556433661997195187456068532833891409557864470778703746936340480.000000
635747420682211698343932052498639537436723814362613137365052177538937796117095514112.000000
868762138506004236749401713926167393225900344484955802921569868186165818300085305344.000000
-476348494830680267688078603946275141299346040543024234053913287826536868900226727936.000000
-825335387344687650843584505849457662411252797676846491416392429020288380410399817728.000000
133858647769934572889084453262015562652394644546785045235672567918811229432089411584.000000
629462501982664084232932672319688810060293209325822618429084822186837239258444464128.000000
16362717196939968750494774137033401610579097561932647456279555470690197231131164672.000000
-541780670694393510748544154207823094735643604472301067394585771797498343129746505728.000000
-144753127359388316716127229289216072621803443247349933091856214877012490028578766848.000000
1002698868445312416615528479876240778390876635406452523287598567780206160521738584064.000000
-1728303303279387086181486089040162091267766546152571734841275513099020116903292043264.000000
-354010768644206800653191688060803657580915318689114463736607199872018069942200958976.000000
-1490897887728241609874753144445104339030456472607118391396418349125110073188201529344.000000
-958828570474926430121697951686189531002883486136055705599840024036110167990828269568.000000
-1750689679427577373822063619739194808201763231561176693831224489627625599943678361600.000000
316039125572509402410405174287611240412904062195862948912049299961991020299883118592.000000
-444085127179467980363247330076129351254023555998479356722110250143992611822783954944.000000
200131668528023715018282720062611743423258838302077087715420450006511353733408882688.000000
-367364828891289625478068365670525836397070979201922768137293329610085392722769739776.000000
-140596171911278909282562086346588003355012428144052478307038620109663935212801753088.000000
249295056687941177568548995156069408722177210270465802076519395122052342624475414528.000000
138241780837867327339142472773067630014313979705531700563701878529383809446576128000.000000
818228098531259500543802014524690799678840046836701815767509609944361036154291617792.000000
-413610879099475351709884724567661256155117753818471202870566125889527710911156977664.000000
-1069179934516957394729270354171056080530050375141904630254889396744449870754635317248.000000
-1124416340249417779393668615540479603371393948209120647511349988890235252012669206528.000000
2052802416580998852857082341104996175617336381547358103637682376400979743078258573312.000000
220169314539073786638670274504057186766267073393341762799651505148740385609676226560.000000
2263176689481164357489566029959231750986034411143412710303583155286639113155895099392.000000
-110813382873388908510127876599280322703674409836103460194600256944881469529719308288.000000
951587429531972939963509761568183010355750169198665142479248186902142174863139274752.000000
-554824277084898483361107021371085063106518243990327694256572897741844444309845180416.000000
-381537067201262259461228947383875574135232391576628181796062340735754559444400209920.000000
-561918109140660158440309644021874302695953306106385658741153036275665634566795689984.000000
-451225810141619852623862062388952181618777098535247871318620676310190046958070005760.000000
-1287215827574691666051719194339236566059108615397591758853646761242498251820940394496.000000
-675063345783288593810012471563614631967418196856202450584110697839389760681490251776.000000
206652915971396916328697040975920271081183444605451880073266979244586890859808555008.000000
2036423601462149539988786598314602553631983300719350777477741474423454498389892268032.000000
-398337068396869605226527214558639204502393101313583712027527931446257816195949395968.000000
571706561003058264530094356879288523546328303601063491405674779573656671200269565952.000000
460990227072780103984471771875107000207627937969491800650154227208288515929952747520.000000
-20431347023003464667791784611545513685454591260506561603524078935451265786523418624.000000
31099307575019130681502536013822909917447271637125843426650584322566485278394941440.000000
-2498852483648281711964515603156712550041346453300163839047243332228110031762275434496.000000
-1754880613990918767493309644804651513992786059689154333507161653484219032902570082304.000000
2500581416087843070630590332166429232421418344693990667200900643574034641078018113536.000000
861196636114301335075376711581288045033193006212622727017806231796583014784697368576.000000
-85725307460575975361512813150961321490863782024163888648600402155195727335330414592.000000
33321281748637741077290585574472718167386249247330049612515643907790872322978611200.000000
-372013586437495501537466222369638088080207977397902548357544756578825793877259059200.000000
195706533060169045564379034367944715540204972076706652762740793765046111418378616832.000000
394674872023322416997564945561119427603883236314183687954914211056898912138343481344.000000
38399881490006500516075473570199897149004741182349040264584973246045821371708080128.000000
31807162799923388208520511590685211905330089579158315703667907965821695009453244416.000000
512097948296007898820069554259684111898702636463065886486609854959112127969604141056.000000
-326028749657447986578500657640207751149763801313837794567232732011016652047721168896.000000
1093217807203446888511601746654836906743451340286410511125967547539671032091144880128.000000
460541005117056722252050263648245326169397576779834048726451771565324447213305200640.000000
-141808588304873360494887243683134808569270644953293825387079507245420566355489325056.000000
902951825032381121547326564667508598406420671092463874560550339822860986078424203264.000000
298844965378105279961543906334211054578154315783230206138620172482553724547383689216.000000
-61069466764064917915427360019201868873378371516693079648275689924671321636396335104.000000
-845199263021569063071426107174800168867639917055549364955433337732787088952903335936.000000
-537971719449242565051747625807950899456340904272979261991963039918544677053078175744.000000
-846802662140744951733105120859102237729351207925076060228986930727308682740499480576.000000
-1270801797099411707717443242085617600742786106326304870351554732998759633629346791424.000000
-963267791091765422694813266709662681056312092799539211311003685444774555490958966784.000000
-161940300915608876022913406924133636147071316668927254725120917018680551886530019328.000000
-519998859770549248991622304785834555058784909937829640611426209686088673607288881152.000000
-89819682716863534058571772166535361407656512089776092592272697451478319866591576064.000000
-342419983380020433893292395168452519700887882408983415099119633349828697696264781824.000000
-1251738010987350412409401812612183041384468576255544777869463116792431399809394409472.000000
-525504352818035597611032552466029152876474959351845025950850777961770932130560344064.000000
-964999523614730416169049442590262432302050129012602360558176033164118549449760833536.000000
-413067336920129736885572360563565925509659995372331971747753233017517135623069106176.000000
1902575573081102343986256540307842029557895866475811719895501756607475310551906648064.000000
845380551192071470610736496789201821301813604019933436201851944768066457839484272640.000000
-682535050954636535761778356910497914496523009438008254100696141451226388416130187264.000000
96569215273604301076011285438176625521651399714572974572424498723694269380134174720.000000
735817906729299754587627876705966307235683755419749498033916796967265419229313105920.000000
-20666631689670656457171894853997750954926716626830281072432989507520103055754264576.000000
236672799804404739271082717244933986834228165159715221984030804219410814192035299328.000000
-782808400080174126977127998458069352917651041792596905881759396833355758879748653056.000000
1095631470266990767406596343110102782937329467764078189832576058727013904568777965568.000000
-303940383171179709335010418968052437037714149769222853265084406144060172262203981824.000000
-64057323264747168629352611602029834120387272558595742208582252068090315759287271424.000000
8477832485344375950881847834438527101629182457893801662920847954310289842941984768.000000
21513623364126310481535693429888317916332046207566776473474725949751088497177919488.000000
-17201663032510092209704103124216851848401435034163374493705887537634318861698334720.000000
710224965595637807828225631844854454301971054821144937903480210777021685323603640320.000000
135653108998939962351008871360717397933977451785750005533796284582559262120909733888.000000
195762993354374474935382984169741878917151876616875771799227658784092273483454611456.000000
-548005160953559815722067993178589403762576713194681305672824624109478243730565627904.000000
624560969279477182206210366367408301423355886776019242170973054694265506691027042304.000000
121026358762777068281639090615698713563666539029123345239926362573027812001953349632.000000
-369379981744999021175269457182209399264752612628795183131173596909239271228176334848.000000
-388741632909549092604006445585434840089847648363909925820901054464423278551647649792.000000
-590925230046083623445377052980053531601243307083801370466924217720582003276956827648.000000
-1088508063155456883636815016726105674090933427879193362226491090149268981355798069248.000000
-1401169544352828512962503993460223610464963485470553632135388166648106973563203878912.000000
423408692662213182666937777599421633858829871505231320639441752768828978460037742592.000000
-1172804187078293429586451604643591911514652080371587024876225879985286793319417905152.000000
633268143718138053638650916928177308231687252745960057007076736737188990091553406976.000000
1643302132248657144217695429516356817749132097232586332852529398732919751649001472.000000
-1431952476202024965505682216856571296535516825404666609047627401729369163504816226304.000000
-1434751466147034927934799848441620004429740910268375637700202360550340363112851439616.000000
1348923577597801051052799985697619952716802409257891957205977319369669747454160928768.000000
-1172431277167096702558461519064889612229197120700403491989054239411662903963172208640.000000
325958740735659944581975099335066098569166389428217886218831541119994451810135834624.000000
-225901001452197047754691112479165385549046996545375530456417899705767639591665270784.000000
302004273782446576505208320498869484566772953437133456361559780934680807288820727808.000000
645826815282165440089119989672137315279376521643731336388359010126132437938708938752.000000
-178492121280504940025282321280281285188288788146098765490590761366320232493278560256.000000
193339954073062555677522880447951529343328949423370911016513899861352519840408010752.000000
-1458135433208694135244851616273137673470388766170280204311972408914258659841629224960.000000
967008100911861572120318637324955897749595178006180175089371409304121111694630977536.000000
-426561291155453747464103551285509149069002289322858849616051499895332524551118520320.000000
-396368870674097410751971549228643615805128030459526861918926870691694535755717148672.000000
188915365251258962199489143252031624307464679287839338074878112005664881091941498880.000000
-201042985043510469923529460949490559133490228567997044991235671917239599290361315328.000000
-62228346113048705605962078193249936422543843311479838288781021410805046049926807552.000000
574789548508418646955016072357612011098887544339810778108571409529339142368483344384.000000
359496066884059414044013513416832023867786948658595316917940588677492452771619667968.000000
-797952971939190940433657186005421332651169160816562996141497936382952673223852949504.000000
-386396174710041070685537898134889408433130213208980762283055332819912274925980745728.000000
-624059524694983625203761266891604307274337848877750877174893162767235042175688376320.000000
-453497002945778967235300144851113258854765680878307889912178891024408130949952307200.000000
-829181460700080886920368665431373860187193173621722078815743795590521272971573592064.000000
-351988670025538715525200363770453257471357207270444638524189564244701824008998354944.000000
-373565905841196183540382079771427043086735297958596137857230384933401901227342561280.000000
811392104104942701937553912708120768477475435318083778532907040510223780499339345920.000000
724549136134229753934780919364281444531240359575164521124121677796065773576098152448.000000
-340265650964112338349632828030387102660393102972582997034434075186865658454519840768.000000
4068887869366420079523778344631262696371724607393055945004096382002406350198407168.000000
-376427740653048879715789019537921387482756105669344856944500637256280404334575878144.000000
-599190274938905024430771653167111894245334123575741755443627833184873364500277886976.000000
682385471067037790249510381953775738352024114646842541492610543889746385703429734400.000000
2356202144129512980700305475131868727765223438552371714355445731369041993844916224.000000
-910938276320174641082137531479219674657442748222039023512566014881746747920834625536.000000
28004015397991647331076416456822264774335973317757145083151913940104748466847088640.000000
2369915863220658672001078519472715027889582372356627005437706303436767193262549106688.000000
1391193574163226647682450631094607310348581012916583150126637514448976562892272828416.000000
143090813046077747663171693051993325400066422571193084645160304483406985339946926080.000000
-401197368258323617079071725408027208496491793488705036721195633997803579222381297664.000000
57509209333221237818723182547941245347568839858274604089535741181732922296891342848.000000
-595501311408869755946632716336573019829939937684555653905824770273012181082394591232.000000
-117030616332239056475157946935842675539096015419311121122126629891038093689952927744.000000
16197471615065345348093238847522705406626878042291746739931733316660237010886197248.000000
168532683905968997945360970063116585327568597886654160049234181665329305631768707072.000000
-338821485555813462911339556086063833990739200781034430083763419291689068694985506816.000000
250361023761813421481693143016540186762666805061413850001407720872891571204134010880.000000
194280193621839444022340277541362898879974479922760284043789454752355003787326259200.000000
271821966301419123672258933608682521272499503150016063933820014487724611300122165248.000000
203210781314705051676088922233591816992586919051348162718070994384998979883583406080.000000
263891484748462457356652138714580651703477711275243366674752168543194769261852622848.000000
446183441649635558878455079127052923105316710941454939521356382391123828289478590464.000000
-269361316255348727575366494750158286112985758247617176545289324645287822916187062272.000000
-468862422974947225157874493029899154817467720382104656338518593287222041754264928256.000000
142658075763671503637702654489431589508965798019493443963185879386667924801244364800.000000
238622198861115119576877263821346650601042393995367496213396827045395554880016351232.000000
-730179319727061144930045975006092202444154644264070388518373298757666425743693840384.000000
1006192316257053192809451176089707227483711587288779315377712176952914830079628935168.000000
-365315973004673840413855109696540678599461085983614945351911813633559080354596257792.000000
1573828307310729322522186359383285197655774168864465506659167605274270509675959025664.000000
-154003850960145140319298079369091759218152637534702483538846861734057085389334642688.000000
637999192484230220260678249266333846379086677792020586075555911699580645838021459968.000000
578646029800297496095360598348698205693909919305421603093968949586501948845341016064.000000
391312486901165692287086598501419333053805179308500489043165210615844345732050976768.000000
-200857090987491768334130788316584224988985972828494590193130774490348325697486848000.000000
1112015658445366013187511424703402415036607877215703849449920152987765609512990408704.000000
-324408178939200205976932897070383215757719073121907692632844701732603072215955537920.000000
2382934444432008693315863796559658386472883226494886491655918567400997704894198579200.000000
1220695289095000759883381891413344974854576090704101902841408891073757287504819519488.000000
284219177706407517686642201453694689733432181002971840836905606053276788057419284480.000000
-47222564839754437493329748114558490464459043356111585244365164311934959538338267136.000000
135971180036726322962549367393886126914063070126197353874621148852768184511831736320.000000
-161083891512862095323865412449828565199016957179851169098087143689805742248552300544.000000
-67050054865932271888062074659399902395632602569413915173341204994608144406762487808.000000
233759893824377555790136678380332169394526385096555447960465755110522031642423328768.000000
373498862577601434829303910163010382551990548877321358754222685279872138513462853632.000000
-128244882780558752434394715021190648496905742181798906422619919483448839594829676544.000000
-1225108363115375270084595009240796440342435356726244008812353807013533912997358993408.000000
-627441979270994621084425347035177396928670428340686770427257908388615013059839131648.000000
25613489142416016645582135254072482763476132838352179631319817936306059516728836096.000000
-42356278747892156969675121701578903151080533121413865840774562631314167620960256000.000000
89459069940416879276253331303756362058713932999655340380589388007529446641007329280.000000
-687517459970377379793894807981868827935306660193193184687715954175205072893051404288.000000
-161007075123246032929759003047415032207531936915700575794860815067407967386855276544.000000
-652713409807810558964006048598288052446605429198373767447207618263624639142390923264.000000
-97367824758673206928309471991692194784310001927811441987055607198610673548503547904.000000
452884769586345402806516108787901934025852320428354363197406921667019245389065748480.000000
505763719894283471631102103745457495481354840765881572770806345254605077858194817024.000000
623045381676878455610757119619790551658420023803062758339377814309606805822647566336.000000
12754989094601314885557383435637203427530076322629303463990134642645280094435672064.000000
-39993939306800610373421334066124950801543810145236027559456207490109408968106311680.000000
-506919501463109860812073930991055643716365425225954022981731572827452962092554911744.000000
-269992280270078850311372246279835125963132999609401432391040097523532141990537854976.000000
502000621401143863950035100761701188604847923569835550467031527991456525338923761664.000000
511129918538150046772017763122663825854461166464800296215437504856110099413533196288.000000
9408037983958124298928681889947412666390224372134078851825568248128967015911129088.000000
55765966742784418133514976586095571128553379615785413996925493507240503931394064384.000000
-360647730989933206328231185663777421146898359921707786981075442851013143830355509248.000000
284521989120836085092602672920262353279687945823837694435121228554804050324847853568.000000
-859333577914544577433145276798567638097767495232357943885327874990820111198350999552.000000
293721491831881645366552452076108226546773368474936571903064050468371941698930999296.000000
1687520017371357440245951147206516442924322221434258466574400217453575960916196851712.000000
188679089683759436964965598581358684477547061620243045305495725824463699683475193856.000000
1530910765519447442988573122281870643182762889004840345439114345249053850872800346112.000000
16059784495201219993597751607932751845436054706349773794648594163776912723674136576.000000
-142198112935195358758275060521130301800296094111595789393458986198140649706243489792.000000
-12514152555754791738621673710213663122068542792492602105287504799929944691622019072.000000
-1609435193519008003646747973830858746122353769519615292643091210575835730612603322368.000000
-2064401817973482126783801277510360347088814414822228157726700235950360534527250530304.000000
-527471095092984219514934451489361164303350412958334085998294597958600515012303781888.000000
-1508021209344100858497668281994261917360578251158560458653936442577551197180876816384.000000
-579664974663318483890896815552392616297159312415477915919820463148863233881666486272.000000
-426847495644436937819695011772934053298450369522113451888807940107041196259250536448.000000
-1094062459454816677699215907580731891955877344577596682296536885980064751187841253376.000000
518607201417426184023547937143800457223672224100146598293410883090359735918228668416.000000
-3862584588297963332344353497158020600450061930101401025538979099135609351702577152.000000
672315933503587350986528156509032746251505470644613393710487325622582696652681773056.000000
-17464175901203766202461335439419164533371402827680560903588570005456269407816777728.000000
121797141543726557280146639654942376642160268834978344646155525844740450981689425920.000000
325140466177676668141693635616776896843199538361485256469063061574592500664062967808.000000
211557320893156686184706353467257915427187227476838221817548838032316410386855231488.000000
526064187738377880960065954654873484868375509192987389624368786254421294562699902976.000000
613603569442303168834127191802948605778275668691324118812046467825485129132332285952.000000
-900103626526681219309115103832274039207228699676025417492928236068073147332701454336.000000
387901229091999699065131299624524510093161335056030999845250360239673021654030614528.000000
1908500125212190160759181848795787700971014210297560883015213498752879227384769806336.000000
378938863313718791680876192460959973915865167577807982345868089699244953845448572928.000000
144895744685425550262746397443956005125026170488133494134912889075358178090525130752.000000
-359508570322173525029525922003703549309422421102152286539401582199321294372689936384.000000
-462874700086099941424569195024713369547302003643826187898436208445046291107606953984.000000
439011171204123807553578314949321608957725012240228381753343859503825844273347035136.000000
436751149408258831786377407702573220285144851211904623296333188120949811889659969536.000000
-476675756172388124382694177745573627383818452923646545706885900717035160311101915136.000000
-74340941306707365701510449816601581387540196655900247188708227917100743842120859648.000000
319074295521045036987643841510495966777684354963817157786690489509820922415642836992.000000
-88003039833151556812039109913603318489999881169761246580110337852410474768413753344.000000
-210875348370962092739485729643888552979332088123437907727641908884766007926768795648.000000
269273428899693020935230880750621802889083058344475495544664321155458976110182662144.000000
-689923867771579419700644675637694288147420654464362607270003064639004163310213922816.000000
315655221158231135375948676499591863143563140898652810588124149834098554487409999872.000000
101946270385916809595802838143203960103164972146398183028708038055214197018133004288.000000
223719123874180864779306173794527201539108238264137501998918167931674013517005979648.000000
734322214199407710445386549366771659290654226486978432460203684453463629601043382272.000000
784853083532628566822088090614584964242890235469588278143379274801647714725846319104.000000
157363243719900561725000151176648951774314610195553204376652520277625192825093095424.000000
320023888766151197855938429979867641638102372244118132020545276867712994744134008832.000000
65983753664351442591097307158784011089840472347932079617395067256846634652237037568.000000
-24652828179414503879947602690674298482940676825497341992258970347447364060094398464.000000
39027841910187076507457021807847553553307383083608411867722050036555599840339296256.000000
349406624750515474538979782798048554575450450921586519171868803998187740749373636608.000000
-42276162158615250334766417972856106914339988277968560982381665397965336641399685120.000000
-273571336970978712639880184265622450218622390796371859045668961191058898801041342464.000000
-71302274812716311667502640345942766207486586523636645036103250077822770957405650944.000000
-41965308010945084520162633507682388834990841860822282159698229135603461592543395840.000000
-1333069503931659208084344926396189034322096764369722533638949636058606956857157222400.000000
-470460003158177264614329736626974429395335761825582121388476385559577845546161799168.000000
564406983307886343663542237108096943773855679304781539295522143871683166473465888768.000000
289129501436981602509815844349350754945381318868263264205873689618724269792289619968.000000
-258146412481596051330343319615481275603580597934787683747401579001529441498706214912.000000
469493541486345993230749954237425793653344930832545627218030983781176464354769371136.000000
-5207672301412939380607341627677680865962177532106469292420666645996079701649522688.000000
93519147695474283061545730508208606880446234540053858806055716785282297362147966976.000000
-1086930422200612166831675052532647096949131207430997077579303085616017748560523034624.000000
-471443047027414738681704958901943981779265099732343764365473448973455101352959016960.000000
-102518268455594224612033864749585091549050549933161405397295483526957638968720490496.000000
-37946863827051258470450601703237727103884946595144855387028421166419860464806658048.000000
284331841683364730585913929561445449221585859492167360763627611193794701250502066176.000000
-867477823642131401184152618661124306124177120000816316068230071643617325401369477120.000000
292533799677298715266192866544934445639654762792065292787112123141023387214407532544.000000
569899583443107479648064415856162425986070092976317235327518981366645757325372030976.000000
51256986835826292933565576403386306944033352915559967891303862771082307861921923072.000000
95356276490287027124881803306740439918056238417216297249476741838916539507204423680.000000
427116767457278587722943958062270493014485305538001130692172944148360301252379148288.000000
-134353533798881846353570052053886851746989367040070578854068677592981708139359371264.000000
-82117223723944371297681374339462679754965081752885579311166144273162863133820190720.000000
-1090293027044238362565963435390882736956334348490838768589309502946814851416441487360.000000
-112257633641617115814151796252646290112007637834112323403840471087069586704799105024.000000
786708476102550883884057707831850189901869731261026059506746619554915490884852121600.000000
607782834625871490479848722272608188282681686006237398406396209009091163970280095744.000000
-723063266040765420300659935071277527782403636352206080533028168868127280521317187584.000000
336258180395333954589988943542302077918703087956481623371097049110891837540072947712.000000
-1203588605210952605897884785846837288554303654263872807290595072296636616562809241600.000000
-291233254638750567294585869433642461126750002911166872851781729598121886493060366336.000000
-12387916203053743447871771523606888001332732442266703335351686210676516967698923520.000000
-113362790331992168615261727258807856184324517251713247834060149862162283228272001024.000000
63938446082300614322170007226295893644939867500037829980599977836146579449818644480.000000
-1367198888559459507381537166457212912510907164921582701527543203312554846540347211776.000000
435098308037923672201135842099297635154045998088552286284436503435180569389000818688.000000
-151227287059738005871942163100472060683378442808967184239008164172616146092451430400.000000
-1059768255159774885384454663063571830336526254131139053907883950308552750921863397376.000000
159802877765351997036514841491608052457867327565951108738563843488503901772062916608.000000
-763104663741592560066364758276459266291958903447436253746535072430536535859219398656.000000
-99256613967583826766642133470681253998255645031704116409488557956114527566201618432.000000
-81005642321446972987279669466230148738357556931302725104854665027236970274146484224.000000
57232038725712919092113035890292195862993047734755195653552002898812329324139511808.000000
-706729148671208708441138587450326482048006263064717226929485005941211511118819753984.000000
540548819537749763899670652080888597680078707045857937546163959153050653407234228224.000000
-617913942383510159300196303429605164194748486597741406974728123726543607556586078208.000000
421515463823993890377528624414018171841133485754750602614365176436458799076846075904.000000
658423780318187656551508684235073585728530299859730579959807761265284971503426732032.000000
-155651889472961663898549773756056274858613841825814786056239763156197721357414301696.000000
-157901994365381523004199909529751315633967239611056226813948363865264567044425121792.000000
-131105753725115844827572404858310998736123010130047973830409934546804590178310553600.000000
269236815689715346521944075416558553359649809432465191011256837964814978763506843648.000000
542338612893667514055213116964536094866587798790979776894042435214498117500178268160.000000
453704569060346828235393873496984382207495011573958091049086191487061970804176584704.000000
-3577374241054410120729839364285034257256818460177831513768148183219578171404845056.000000
-384004459500236977209579221066079534882564402844541702216997600791429051490708226048.000000
407920574130925366243780827712342704389170669732386850419879732030636290066733858816.000000
184211676847734886299960294956525193738545249980685478396159707866479598289974984704.000000
-719244721428884883336861729871629509137741317840950286914272478174542829645125910528.000000
510303975766808683263389532756093483683842161736453536075855919694215377291214585856.000000
-34326863854813726026281751106524644718660066505175003186626272221428319371466375168.000000
-948205254516901582831107618029474233280264110490258230359578921977488017582679130112.000000
365215402344909172015011703061626516517547572720257106701576589619625532914080415744.000000
-2054171921879997931883626902038524854473083036524503769006691964515819963633983553536.000000
322985243969588920265195450131163367641285292647075871126856997300792217856907411456.000000
642456815177960234385346645808993968656490141411663282843277329941663100649047326720.000000
-316419245746908201264701851438868990151812564516671282872644022431978039542867296256.000000
-322901876216624558544903387775428345561654049509947512195353172184604370825853796352.000000
-329295299434760984893657071220518460289971025318740446615637860600151694368000966656.000000
-96949810289589897036135688254524519839205462340517756869118009403493636448012206080.000000
-425157418710776454976952537381914954764934010399072627125559036389730117591398088704.000000
-185875857614648935159471606455967375180457637780322322513064159741310711169372127232.000000
-465325595169606530106735810055405094039193277435512113323769832155255296045178945536.000000
-148710467217611009448061022671823064494744489179174252940065891663512907875943972864.000000
1069220587171055915108404828056807959899484375049502917612604604875607319181250265088.000000
369869128419510695355250290780988986668823488985621055987409813203374386491600928768.000000
483099231958553356901210315838583112027190513567390171769801334925696191612755902464.000000
-418673866469621385304181428606838433775359584553420185652835161052032721043962462208.000000
2015276386732456883287527729053627305366432159486525308277404741545725011005800448.000000
447168420959461113912090141108574399915438159535103340811279280747841752406616440832.000000
-286728858418491744066768000876534094040577883815854892640261494843555122564703453184.000000
-487949976721402759141441990850189945820805441053233545669840557356527918581066760192.000000
586519623718603148413442019982555013107826210113392467962846174299819730799027027968.000000
1148342549995402108612228576914953227314279623261728039464419998397057094068692058112.000000
-870219730447412405752843538315697188736585503231540935848757640773808576271189278720.000000
-129607070847327406635918310093653403511570422796253444924049292748687661126859620352.000000
289219080603013294052642009837955973414926058050414398342325218783413623615421153280.000000
305396425825119147330697026485048653169918659914763881813495539024719337964320063488.000000
-56770416998775634586428471773556125624499075364575916844772502397946160651417157632.000000
-114376263933541415634713715414623872476336187393535409158727281940120134299787722752.000000
371863713472525524304268597472538315340689534238108049298142751115748667569530208256.000000
-276692170742087517720564628863017462818307395325306385563436647011659560172474335232.000000
-3944340299594881272763704140792836892387331013535338550405203219889101521924653056000.000000
-545854425037042277828973401923167789795069294751925870965663201904120326236575629312.000000
-685621598685745156155269877669559735353694279119397775243147417670459371159979819008.000000
-142025827698040996916312130544661685329959143244565943563518185634281840683826282496.000000
298083158542846496167699905755496027654733869128209765262165697316238974835595673600.000000
324604053049927470878986101152913185309370865096485085088657607528930861149973381120.000000
166734321156485751513586911544766799554033721141544263807247572712104389539117662208.000000
415052622700420830196155485560160304686725663206366691471939335709157396051348422656.000000
618675983375810400343711391341670168554390953786764666282585242958111140457132064768.000000
-90895388535194671252368110340753760008808277145942642266526925615900700242052382720.000000
-300325821966822309752868437871640439168965569363868208033541365182535788397433192448.000000
61176159715012402186101254029115766492827265869190181014326287066579498768644702208.000000
493776097993909492055548768351681377463228632495144198393536842496166003538437079040.000000
970905392094142427201634735584531955391163613581699584945647138055964833370704183296.000000
-202654417905921545832240472202518626352602893151373828238639473637741322017940963328.000000
-689815695484208861971919363424754629856423872568386895219254523090381226173590929408.000000
224540080558121674275348791572556745840379843268736758187014087113248070021089853440.000000
21699869152024078218817326496659229097143685740327552054598870792453157328772923392.000000
-435519798133176819210678269551598159158548948876710178719387983011955772298652286976.000000
-88660589185812553158334602928624804248852378547106586492412914537126484147810861056.000000
525156179203904860226242272738579589055864114560439517604572872926096780430132903936.000000
547015721782841456389527922184604194658016871706449131774172878497516231430051463168.000000
306083555935787396941775243651700285756844983768737475280899728507970533938167808000.000000
673904483692666271991692282547224845081788100553174515358714379804128556323184836608.000000
-302467741036496503791665482442600580818194466067680297344804673721971010800430612480.000000
277887273867149860387519744607863088601423784898210521151424052820436097969162289152.000000
798244406666189778591012260140164576092538979507138951645143965142658561834204790784.000000
1184258886323078676901974756117651411135771100671800250826583737381646481334596534272.000000
108160011686739100463731606555482416276772702320941835740540029379390724092637216768.000000
-249973749980667668846535019504010430919239179356957938983788531966744207634991153152.000000
224621261002799626409722655821354574762635741342426682591363350241734032002740387840.000000
157044814163516534724211168220682733390169275911877250079230326261260732819126091776.000000
71882081759361654716251810566605226428251737826856468587913583915013705767013318656.000000
-72066326682620933820903103441407856350434555437428517648851141089736036012267667456.000000
-918608548817681659032817815944136388233346014403500318752051236895398647235705044992.000000
225749355931884525996824740914485311559340558233585756705026013587680647135310643200.000000
-249505466457466271185861574319564191541299872673894913261007487140645003567436922880.000000
230697926302820190195003749793872984178220692108037617517389483045389833205350137856.000000
344648835394148427145934113585610176132139102685647454094243146441889224785521541120.000000
-223260044764001097822454845208547806710177226183855334616653120873435521445112315904.000000
-63411040128318682132105410149303837013765531816525018393074545332081260612758274048.000000
750276197539894863111231585444736835992402827643675616505070245844464948825877905408.000000
-400931558473467880045056127533954377286869676240994744562227397813040783712736772096.000000
-552685742348230173488957149391817244854032089943911326053151658550942157592391057408.000000
137081022710550766613710515899815538680727306852592376514879128864769314095911403520.000000
-53366068812147303547983862113191951992678012557421274015921843429981920955457339392.000000
555132310795683485440239259762744228139424546456969092031112251114605920098990424064.000000
-255257594676108220770959327150203815776013486169447585201028884967496036956854288384.000000
172563566330090904790114913594417922532417495177553249993788106539650197415054540800.000000
-406880796734071962778728744542834250689550947227305904102837478845733598053439373312.000000
53917014351520821046832271574140328861061375838493768743105868448058242874034094080.000000
256592773892182034638944617451674549641595784579681072377765386215897063280391225344.000000
449805908159064547896043525197017240134830455966554866338123320780574372507131314176.000000
-554191803169128872145407274660858560816784745453353908638911950697989953772266192896.000000
437972945903403624685048027320769667441557617347420696005462462864106808845312983040.000000
-30108687884118450534795696546975447091192162538363390561780602430044089062785024000.000000
135073632814770000355642464860888957285870448759050311926149233693320424070601244672.000000
267857286618466696129680210815178423142209393744354376548171272367727265615322284032.000000
237599177665545400877875180201442536462090498553005352314178857621733131281554735104.000000
422616191277277536100145252871993842938478927989899581213860598698962206730628366336.000000
465096667922211765996802438065672595543060214912199216020109437805133781917373562880.000000
-301205368217084345228526678100462755390885571693751861325887868656036045365295710208.000000
275356368370018566825956459737009291961255448356470696992540867100816176230298550272.000000
341396450302621486554225746586910735959353671253804082918381800258922723114003464192.000000
132587916981331687476418289164160349520136395819310273428394000777667729636397678592.000000
304210199977640337617158911439108513514626645408115417135816762974664036718991114240.000000
157509801755749459708712010711503676520071472873713371532037330042956568134332448768.000000
306572247100313386752960768796591063026166515994350568517805704809375857991141556224.000000
607597988537551127685826145370634872045669075426479725344833569145788983312541286400.000000
-257585292837786479204811519172443883277556219365758312785300199989901027222604480512.000000
345776710323018496730355581889592378403401989276551927010340004278567612235361812480.000000
-125145550493264622744615903254576809825834917028899968481552407544606773962724081664.000000
24678335257701515748753539628159512613608479720283617957372157632666621812758544384.000000
240619656866168385395016095645715260685659216768741196883833036030712167455183077376.000000
-63079481374679853127650613495667534108719571519908198917149773725968571537423335424.000000
323851665575830892892898881306181240992896152114520055330369780887221965940638875648.000000
-455521001933890550036076183084418347590287600224780113655460731143872495400387608576.000000
106260052657340376553178075721164188597462211046970759831553810992905631406690926592.000000
209091718020125945669958457709399693326705989426907679597451897930430158083379429376.000000
347711964825236893156863569426674619915297095368284049421451325669092983591739064320.000000
-341971536505654627067431181796901373698635686426169595720598691652281169632141770752.000000
276473734549767971854940057429002418969814386692821337097912556717400563918389116928.000000
307212866345468910025984774744697176371593810387196272422703386817337238485110620160.000000
193358801067767485780365252331697086401998174738675333953215300190310168140334497792.000000
327088370742873177573912559936325594498411099196812777536854886753057323103392104448.000000
41463785813414409953585028045371567242765434439591207954982764727649091034453901312.000000
362166057958497859865019757262106664795540183837734797899305402556595713561994461184.000000
205160321677401863300413175009600853593131573216003649771119443388412803322346471424.000000
162699208373089720214853606885173025200065805921282168676555589932776186913706999808.000000
373216026573208534617509155812516348006669989867813632118197229927511789423487352832.000000
93920250701471704697384463251510486976787704978863212008680978231613203173397757952.000000
339883246987822336962487117185712440199223206350037603895723037902638226107862614016.000000
196242362504802059391516818963554568265465361887782717386883189326400688537504579584.000000
95748186398107273985004206930348902985834594967223586879057903140715039238947602432.000000
566214314903311526922821604096730240515568546839871616645832553564507843416467439616.000000
-194742602402728942524618566548670387194340475598904198566001806856063060673929674752.000000
179585146675203137365577518489598772673647754967150736759658583686168020597176532992.000000
368264845199016525354625837305465525560999347894707460840962037918306379410347917312.000000
542690836694179942793358083092212584189397487528444919801417775774870093467307999232.000000
-190359207687585201934544670307789184306263235652378838316371002196986360370349211648.000000
-61157618903038631289236867329954853507586689428670021632024744371039151746409562112.000000
471694777064545771527923302476569140028170659355022696932340442221658202319337029632.000000
232850256782119579364669437952275104214519436168911063538479459249167920853778694144.000000
579530225679001888096814261834674766314403006814519808368323154963472549523711066112.000000
-151311215455147271767321291982267735813645661635816486807907335064603846810533888.000000
440048134952486666528981132358363486305568972324862732553136191898905647541617950720.000000
-68735191530915465399323210198191905914635036318822837422729700418086927006104027136.000000
318759801068613481036593626490762220590721255729590336669664813459257778761629696000.000000
8803139006370656356064650750427588118443524067298260365724270831928491955923714048.000000
-84494490099847734407769782305508207476888233779917738793040879420739220082706612224.000000
-16208580452764117778791176980357626250714907383309520515844979857948143617553989632.000000
25339381125186292898101622493502499649129030899589393002976885473667790342298009600.000000
-504064511883476434638950949988501310052618772081601630391560198784577198435048882176.000000
98894133561425470424841605489946139509291595344213972293965095565840165282598879232.000000
272708231421556855138866476520521494824919571015575904184696611712408823882196189184.000000
125642652276674795728179640190861570580515380807224172732440292783661911128089296896.000000
-38476004501674312889845327091619958667929200692198314555363624680203081103142027264.000000
-85085538527997771490633601439566503233493285228734731758656147952308752444706258944.000000
348521773361286721580115601146547021692740662254076995806953010048630089330513149952.000000
-157784737355781882654209048049453244211005867608677016834030506258607684668861972480.000000
240750171793695096534449775067767858863456253350364522882986187116761710571397578752.000000
155727823561523741065281631084992806885476578190865047793951822767997944572520955904.000000
211247238556622966490930623010950409592002147659862531994917231335728227917678772224.000000
268907630148064039053149113355924042105065407557999262823075771928285181792101597184.000000
-62325162996980337716376186312169862346229801986005817240662668051988668093864869888.000000
86797596416933573776396230591221972380269288848473984067190013207332930476488785920.000000
-72787271622966189915680035924026479872297284446912327159111805937496669909105508352.000000
36153918686672247407110355810279601673597093877273572008655036898743657663001788416.000000
677903362051899092064775448061175841304418021698059444693364657521323411561523445760.000000
-189472681295514655303138079656158573183599685854792235199694495909735786694238535680.000000
-64212565244657380237042948287745094248147640499557410968400600431959741787359150080.000000
510438420336350977354458353384351760678637953876976213180153999763693351228202287104.000000
93074450583549281078280493399984750776872512581939120580213621655861844325750013952.000000
445555336398504066222571876264046969200131111978163605525889811819640154035327074304.000000
222046626832427445448346195580660434727342625915983417270169003165073712493384171520.000000
261632103462182574264878139496186499383590141174945900936340472743409889850125451264.000000
752056739689073823479464997592935397315543301781522919761500777849513701544722169856.000000
135718092953170823485575979144248838585873175954644311105685879699925336203401887744.000000
216729282093138354301200184188251042248317802127471376688951605770068036881041326080.000000
362179173566553881245911573014074644884119402379821945805474131866313094770519441408.000000
432251976384298658463246673672075121205080499625415697732369842544462317372347252736.000000
202482515824691865235191175374813441630884797588241117408536836706638968045313196032.000000
507280435310397449924515168309684683548399278011064734195607887625956658837987524608.000000
39802966180074276764654870259885428342056902432921109190942119713304407861979250688.000000
138653687890533609121044368336291758712134874704191071958914259324706620582981009408.000000
360257472346699982997499128420316750584128818541948961517876356573758972411313651712.000000
364260999496808231852488750036759081467625649079186691539334877515889899044505387008.000000
202707163027754000972340826151333903706882654663005458455636850722976315747472506880.000000
-14245902983909016254003946851746736393510933809492498662722331172111589212535390208.000000
94226570733102308205194106444249487448265950747666511999540845300108287744705298432.000000
147432011093922909254477254503298976232653757360806999271101502705180818430702387200.000000
32438670830239770832521928598657664117525765463652027523462156228377948909993984000.000000
-161740789906844250776649786625211323725825202000304738594547896345233633140164001792.000000
222370473027848527989034770978706964666240276921081707163961642561279091905644199936.000000
217898415973329028623244378498629535016085464860709521954875539331354773639059734528.000000
207103172871986597432687814108837058108317208982874471718027654088114328719306260480.000000
385869589565688602136340792920499496399394219622716003300669220137619783003962081280.000000
5287145269962458853077609884329436084058094439659498401757459743677920232276492288.000000
384222579095021931377170494533102728266934738697730082966191705333930741171839041536.000000
40972755109139431871595580070037654513520389336441611128696817735809514767869018112.000000
218536229495974690510876177986547101778167018480031431695305110840442945331687063552.000000
-29377766635695523407235439073194169563775401681841107181830626352664426959651995648.000000
212861288216875893588527799256862129712136216313688171608725170638611130923551293440.000000
99755152790025724139166419668826460957485572209269547455175292053123208327781679104.000000
329638993507871787145506671972715078484569265056106657712520626196266946248772157440.000000
472059804967562343419749158174582307205060413116244676055278997508848758002955583488.000000
-25012006675892919624034990838548128740653950445541047560932023628904652006592872448.000000
159010886097093852907772361703857834855442294521847233611790107022226127024920985600.000000
106934130851055687910025867960478691959665724346551700539208335189152407098373439488.000000
167221032473217291018933921607123510129908173782694495735962880855773692848112664576.000000
254859585442422840425883071467238673753356676414167236161424606714952783246647099392.000000
47236974781956408202766646649400887734169938887096842277627527698037566212556193792.000000
271859459077110716511923333531904631912565345553044861934139962018537564366862024704.000000
583892347150195120215644376650110722638433093701407154921547129319388804281278660608.000000
733901500474157041272417604392613805290976909580986825702661582397845957426626428928.000000
-35433004242546264278934831501872814647139714657159308919920972290470905955248766976.000000
267149981372666706488285691532744511144946926422615634732026200402607509289895460864.000000
132385198517158552480283147305635568844415300234597547331858630198882107892346912768.000000
162523226881546219307194422464925571714647433524228008077691246244326868774562037760.000000
288215352734943352456639371807944634524924783550851033933448322003079727647509446656.000000
235294796293435139774180642535111949261443658071308768588253300557860010812044738560.000000
350902553597140477174462031264299571008769232809987322662655441955726472280549621760.000000
236428450378789414822415780763279720139319985203208276340113617447114555659638538240.000000
-111358588802607809914307631996630235730457568685004965107313578946358684215345676288.000000
29386358467049954541073703516416467147552547397188131683435231585210470836398456832.000000
139897778137733831669552297975352808737807215560836821851874133959928337515000365056.000000
249795108959379650562191978054929403936005009238846235623516140444717854159794077696.000000
-94299942164026513620220974773037382493113559784248611952644638764090764861416407040.000000
-24392373743220897317920357816728219417982255183621023605852633302223884495523676160.000000
-196224838401696613619310399899448838327236300290260585100926736863903784897551007744.000000
-176357891964706144337891287853723702974742394776573743548325790870991358202403094528.000000
449178421454262159864885833376556434940082621407948727887673104258315870582404546560.000000
-15413943908839729174555087306265506690456322111228262682762800613789014284386172928.000000
635035133806599255296265918802156665119018189118214907667766009547216902065609506816.000000
46664662080363911110201594000970000095111726994659010029103884995479084639971180544.000000
217074956229310342532779340633142111830492635233892198881807255586345051915773018112.000000
249178706470812798663938524396975490925043927496478578836135765871620448025736904704.000000
256126324762427584918523757536051933576592567586358805492624604419076173195812798464.000000
590093424821693871126005130374084364251337588151669079014175115975231978540822953984.000000
61374396295735268704312102488061035508235544131416343536708030058804815132065005568.000000
269850346391315106857431853302969185907874577212846625670293682097469497751950589952.000000
-35558355679105602115085274712955714379265292249216540877337750112563217262832517120.000000
-42102319172790501388476493194918543633050815460847086857475143589117248941972258816.000000
-167068304055437246299820904320366516182379463939714770289049727459926684967429472256.000000
394607547442217611150318324942751715892273767510334384828864933084529170890170040320.000000
231532268400842311558844179649224728251370251063913851882391708642668077170223480832.000000
-181842323596259053417341330695227904967188105750787639805535660304229258699305123840.000000
83163266760734973417791191304069544467986817632350074888533869158332099835788787712.000000
-20966471858550238266236554242151298875697362434552934736279041903043841037313245184.000000
124954943069085362074421032589749005468459324404712390432240794973569327105237319680.000000
-160116653360416753398366496824899893948995307341281829467699833127905164948118962176.000000
68371064318561808224700760282800270855280294413292021212115822341504500716284149760.000000
73888562104100528963232155183458684786766154631187126922509122240302704797335683072.000000
-185983579221987381382906816557411323865552313343206803261506177867147672338672123904.000000
177963752838273955308171179270668199353203671126342613020593030902663838893277708288.000000
271256597580540357349054131468427221955137169031965196850169315231069709958150881280.000000
41989596423085059168395521595026102275260345731197717333560306958211072346390790144.000000
398724011137218994349919611580729805189330508501857106292030659936352443701621948416.000000
-171404194205615611658290884851149887270722335574203926578876678156940201404412198912.000000
412117539869428554047502527836958428051291591141528130015100063234414820234604052480.000000
147145573895985286686783462624689366440023440833096928388418861658388905463965024256.000000
227665553887622511750442203110221999909268942843283138272544650270343280093277716480.000000
-165722007223073203453108255583557216212156603946467046231344007837147497257651666944.000000
149704804145724231607738551512872348564520581786962204606201289209541050243404005376.000000
-58826181683822635382398419794170986304827474385178367259871540510793252300394594304.000000
1332725325932663646814990270687647759450792582791925180726136346263484391778942976.000000
71313750741932475940506357070880735691005006292589187330153138071096780780990365696.000000
380166894102690557343812935055202618581437203369235937410159551840080574805278982144.000000
-87986230745052370123974880788176928004872259850841242107023584489630454162550423552.000000
421759230934354049053314384901883070789344674525066406082409484475118431152547823616.000000
-8341065652414709907870097666047222771047825912411455629330884845792763132512305152.000000
28318003833181885445713907653424870451399539012687736157654892910672938455286153216.000000
134676427577419347136942147771339904407812674956234256640282006533058763561803710464.000000
21488410818135740273757585135234826294556066682640811980705584134265258594380283904.000000
608122385210249062933394111936479473317152812577843264804743802414946347514637320192.000000
317673810215799310364773055437188290408474213538255636847287697970975709455422849024.000000
-36111577879760492442010958040842862709810977809963114894351837574699088997957763072.000000
340159763345147614432565173132255080938749479208410506537815796021152786170114998272.000000
-249581192673905102491950991127253560000801606468317250538867289516151721978696302592.000000
-30581043041753721888743179222265137977323749332003185172393512242275937905853595648.000000
316846029330935586703297745664480866716502233396587557245388560182441039551732383744.000000
58014054191930212203349050466299617173736818560346685339683000369782352098726248448.000000
218226547149877853123579853891272126684417005942073731565881155778444752340259962880.000000
453676737218653082581269090198907869251243853728619249364878906019647639589109104640.000000
363314470407963510816395632078070807158997864105374247857222840127743298960699162624.000000
44075850138213238167063095337810382578954652527236106951833107874948378605924646912.000000
171318835442936265146079743043044575309249606992186298123915753813356475848079704064.000000
246056176504840078025641792298312658250300801202650587436672704108313400304694460416.000000
66923953770309165199827862078849733591802242041319964476446478204408486179345793024.000000
-221771294843783155374894800132973271612443809526778108253574710383629159081292333056.000000
250857399689215294405941780233362346974119576483823465516487222877702503608543608832.000000
393005365259759613849753073913770405886683729651813346902856826666973452026637189120.000000
101765700325648786401958815064411824702556595534773582218810811434607589272850530304.000000
228486329085048457347025239588068330461132001998313412784509764390443760358858424320.000000
104028644775237778264983089486063568941059055977598519278521579936905041045320892416.000000
232080232962395628686220649678313726563514300906493697489423847249717408179421184000.000000
-131510535512061130773218511238589374238986863431806731739921194663725474522744225792.000000
15669665396757965824845841451934699733104584770074557471894310880091331193953320960.000000
-259988923073709034539848753287755311843287666239816002785424616124526261314848292864.000000
326674921403939781789884612288490162022165512622896373345149015836638842810263404544.000000
71437762659469224755559313469177824319225948992438700080698365669203562279974469632.000000
387798308737289662162182342552914620559234951098841831688098641349034437921738850304.000000
221801861265233520970834979797802063258223697561035981947352542589825423280510599168.000000
157440347429400826966706997399429276400217428821672493546599599398510087762551504896.000000
46641922696221183302786004602212734720083283849952485370253588216507074442151591936.000000
295045728934279658778676278037227957013618859999565665229651597624302905977112363008.000000
316020564177561418594470936462866463368543396076832036199180616441883094506713120768.000000
591227556877523545993383095646266730970518030775417940293099229862808166998439100416.000000
350775235055472503688637508410576827662531344329918202651884015032707548096009076736.000000
77180175647111740258934845195382489890319584740688128748541866368621681471530205184.000000
98152782899713211670818828892456470915940737846923958192524538490476019466155065344.000000
-55833206335683919841143976066007232124968604047405441352411063278066347468119867392.000000
33921057013683963071766224863785794397594861882021820648336864019696579123389399040.000000
288228768756511789018156023690597820776661504104721793683947242535948486751876546560.000000
-185799416753855082297573768021475925426996859997763508659478773851386664569083527168.000000
-25813631610504560413159681096172729651510647894658319034466279805465387870235656192.000000
162572467315808453848255296721414523914699659662372766028654410846303822928926474240.000000
103141857694679609882717869759392207144134950287841218615963863656560339846353125376.000000
454391471082778557693158858879950009675998549592852011828850119409633281483365941248.000000
-1669884097797827059162087606250729357588474663179793398110207010456375538302844928.000000
536929920106048484331309072293614131730228034054724688769682917174746748603311587328.000000
375887986841359884838323186301473488895571842746004360065276423903881293200921460736.000000
163181790185054947044343774767224067551802468188755500592247457431910894174382063616.000000
514117796761273576482401411744439574543728228689085559903845617392418560899343712256.000000
60180430499690549707508259468650110184510251973976549391994650307818592635770109952.000000
62016471623373670168876333335203477558896091965661946942083357380258345618692374528.000000
121085034952105818513712919367008113110489100636505467661901847911281392085230419968.000000
330640478922288280957432356573800924610236426155553264334546077615035393008021274624.000000
256434896632915204242996075468626528369598365096756184222613398914720737270276554752.000000
-25055356787858424077315660356198134930822307488148625468833160466000787314330042368.000000
101058446826713625081874631267799307329984892830340491563742266713539659985819009024.000000
-161101398082122060993311934261623894220470561762108254230420927134943538332024438784.000000
45118763661255110331755853173337896144796465026692957184392475155039205934845919232.000000
309821458119418060365860995851956842945678299018877114263115950912144102197326512128.000000
717244218040709596506621918899028024926730230934293127635295280209318731898578534400.000000
216844539710436699783831456469351394352544565233300742960359810304227007603970932736.000000
-166387895857377461228660459500438098742560844613464730632888789389937135878527778816.000000
-46850358210519570835095389866146421117350708242420712108873064026213517682435686400.000000
139969095266874436345908654285043794677100441981275941741713425412913802618431602688.000000
249914910603813149031283695659883285638776260234621963157900953189747369864570339328.000000
159710918127339673300287298662692675545844065940244962334232024459257256553385820160.000000
244240769034924594875328630254177306433964795106516127416261760131375234630457229312.000000
197953351169932987690243058626499505466452696150219816882239474192071962596370022400.000000
-17060085194223083986606057931111782881268886268224519491797020628142167734026764288.000000
95278950051037554794534937337076009276636041450174959649034052119278077909607120896.000000
279800925333878587518777674480438606662930831244550133721096424349198855229358997504.000000
490469311847946360703244847454358409047577063637909194365660699162443839003412135936.000000
674919171435075542489108020207760591599645757735886988732715694523115979357514891264.000000
574713808548422750061621685430967767337831379300437483192887654972134732033633026048.000000
171284657471915806945933704372706130984678592820062041473001352647404492990372118528.000000
133998809174457141701571995762495025581494004117501286947770836017252066635116707840.000000
207078311457309548616764910551299682369793812286847806298214490599292755833148932096.000000
116349539770356128127796873070628169236751303273667874843670003360113884335609741312.000000
38541159421355626939975819618934790067725652458387153175106110916497313927717191680.000000
209276836882120403792854292910130051372988649608840303459945749931046140751455977472.000000
64629817145188285514534156192238877344409408788914636502528144556936880720676126720.000000
409049367285537396487894410150381726303558151905535137763549491259441050705612242944.000000
-170186038638648293378577987676097107020213242036343244307014157018515242215511425024.000000
-130365025389730628370612002980296578144790984877783314949422824543152189810107482112.000000
248607250703552041511202427934232906805911277478290190799120392161896756167888076800.000000
635271391735844840971488604721717388029282250569984743149742288149176996915199344640.000000
295786167249605542422870551120333420575146581554631663101412722769042273335490117632.000000
256969414504981323022532211588232220954079466960470925619518943275878637635163389952.000000
-71299497859079550048663281809300928538168688476276098492544341008683579129567641600.000000
423308439800925576951313127661332805442846071858787759253896853204724892903430684672.000000
246467233509586560133189909242654616195704897900372452009674737189804248845961396224.000000
-51685344951425081496607737304558560308675348691243684860640621095437087865114198016.000000
320988462157555968287110224853483758726732812184728193669019885917446095057203494912.000000
196843507472878762298153338244437013857541328686541358697914523322863778489400557568.000000
396049736217367681629334322634840548090022867121874093360263560588770155602441666560.000000
455407077387845438515194872521957618009896076844661635215893925597560860215720542208.000000
569667187324242895662099809760030681668664620572117697454872709131472213330500780032.000000
208200301938883165049051600147716557956080871513439334985185469817272393828550049792.000000
663749361144193102986121378036350994012332178581645598143460207368552966430671241216.000000
350833269722747900535642376692316759425654549189094314838905806626227605476785258496.000000
446447820013599519376764509896454654867657816812860659389096435084851045983554895872.000000
-20700640484358698163138677070529603096294119212407047676394189264193394680132534272.000000
511011288738732602330733370627599170574964513578006237563191706631188121525470363648.000000
46440716796044136858149085854564431547523306395135092667083295366724229903027273728.000000
48449875734387274291599329222410943657612138568825595475909518092463740037768413184.000000
-16523308936024504616526765668344946748721300917920962551599314201206013977358761984.000000
172897766183470303471872893266320763065464510423068006914535400381141206768279355392.000000
-257672213488183990512198691242044338235212118312101512869186500671334774133284143104.000000
218565642811370056351615968906807263717559487870531913157047568915740481308493611008.000000
101347478124470616481442985587069474531688424447328892998747971246559054441740238848.000000
-1251070297995293840598280074806813160803630461581126223638628568378787165877829632.000000
165371727313714374718470638494475217957186190875187885474794461629523683831902633984.000000
-94359915454350798528909155503475796959056943197316115055593124558165454126514700288.000000
280977993027087566614003812439789842056327127324111117421340090475711900997801476096.000000
-22841159922849899619117785277725005039079446067951701372908840110672546438504775680.000000
457588226489236805361233887492174834933909958415243607525986311384713754715524956160.000000
181987415587675777629933757892440681802614467769721330665814708260849023986312413184.000000
200314557802073548566034492320620077688283131018779450820514297614976223966031511552.000000
104916518698992610947166952429176027836003320914503632866454388217454327315761725440.000000
282505144218358778005658189368436296944177713907114405880609395526400008561354604544.000000
152454090413723108354958163790717436093708496552917831920364019463038498206992302080.000000
88364034996605587050961251315471961718778098460517367019635074231274595307885690880.000000
644901590001875537529859679479150383813060187547095362412020312082997679338767253504.000000
422150099427934409540558835503712895749734943268830930300049289015059154364140617728.000000
587494479577845984844722763955748907409800733794074189961639440619797008244612792320.000000
185965488020042953537910978634686570833898289615201979137339802025998466166038724608.000000
573699604087383232437620952258287146023750663663316190173951042260480964895088574464.000000
65226724495009856667281273766052113408731197592025163686051431984931371171197222912.000000
-17661859792867315386767470807909932770720187337744935609376118054877836674512977920.000000
66854212460032434333346681797571692942976014929042969784042734352827469096604925952.000000
-10312578385470092589971848244024081204406021863440134709353332126504000049215700992.000000
37438675851306364723441894820659529125700801383826264726043997541557253182914035712.000000
163907687780141837124391236124752902990550901643002589131539590180172628210112004096.000000
103743687927316177960096291492009075119368590746358897350766726520664457122265694208.000000
222085211465499990121568340647654406590379250513688982012885493693939143201911734272.000000
146989745681144119028140984105792411462549072033145667571345399218433581927614119936.000000
371809898939415735639899764069244696549409216768676709611170513156411351132698312704.000000
180949649053019320994143795742838780099666593687024748257620036197062478043373633536.000000
115416448415155036636132716607811294654666895551910646828263798049027413130071769088.000000
-167000816490158727713207275468486302783701695825596163940772991508940498928555524096.000000
315462280985658691862878654565175843623536548591471960693693106261725102618137591808.000000
160215418590725078717119496582198573924946160421498335420573317435796625423721299968.000000
114392522708722210956708670301464913547569095957264911954130106087322040521323446272.000000
231053923053150656518794309738024608464313219173374072761049253785597127410042535936.000000
-10246934150500697656494764771385933144631960013421881477148128453154103030907404288.000000
463208298781061955634221822108085624292890842977613711862888459063617091066646233088.000000
481274845492091287186612646448160010592409309547514893840957803071008484320916537344.000000
696030783697804759155408324621557124563536111926791413240305064726362206231725080576.000000
832556886394391261174380580597420363983065023591354998653335437909226227294711840768.000000
-49014970792266388552272757722031588518671229908240598528839683469440378298651639808.000000
444534654595080613605817349532141342291591138899271704816386975120771998760854093824.000000
13805847930503404989882198876523867811312369266880349888037446829343166421585100800.000000
13805486534413474043714900615636176930974546970604291865187503752553587185012441088.000000
71911742660866768003628761160707107435778447461998511855603226244006302465484914688.000000
114081455774794039847312721930893680112240687050855832613117300947954073464289099776.000000
43087527876662250729652775687847430028247144208389121757489925512664531423216009216.000000
96149576118028402154845439661788271507852450386994919472589104854764443594859216896.000000
76115477773181019554150908718349705227000177689472309492615912812037395030642524160.000000
192515903911560119287982348996020153546757147436865523741163033634934712280740265984.000000
233459669254926941887095040913560232377260191510097104950706622173944497144254693376.000000
114718518795581174920797937181457392502372218343723620006750199860017343754393354240.000000
249510831044424025547451755038644811992699227254322582025809217838395766781211836416.000000
346333636602147457239992057817557235321213878921913199331173421760459272159143919616.000000
73732383343189319059260505961610354395733398324839411364313734626361490964318519296.000000
23328440851980444889149873703585300359335790849369368455323238254142222389395587072.000000
80677009789086095453091402191408347143311492456095976777469287979950560393132244992.000000
138488067345097613633128243167645989158268261196691902976276584436890065801559670784.000000
242432057909826559196724813007501218448463808114673792297551132619235647696192667648.000000
114805021982313040945420637001404437856457443582758865126301980515442869811569229824.000000
12219539376247393545105739885908817983141011414097100139547455572522441107476316160.000000
292189814917995397083112339839328210890354168706713426091332005058049381072789045248.000000
83128521948883948186074054251022270121734276132813711300365865854528155161454444544.000000
130024576072343249440899470118159750308917682701447635260441723050046717754465058816.000000
134290381762097941005154131232788870168991724593399412033780831112397324554019536896.000000
133880369713351216871397419137390056055471845363673499306571646808010827714451734528.000000
115153070254151125268307767010554643035123301918183776960644101707972124963080503296.000000
92854199973341246396702460180344210991947401422900427531589492634452240102686982144.000000
CELL_DATA 2699
TENSORS STRESS float
4127726846655034830094809520397956621579778964389863429263237099828106005315584.000000 -554627582241616460200001147641096645243510139786130358440724557764177699012608.000000 0.000000
-554627582241616460200001147641096645243510139786130358440724557764177699012608.000000 51326522581340381742812840343354589143468327507278041746483564758422266052608.000000 0.000000
0.000000 0.000000 0.000000
-14046236992569979576964516526066639487272653143563044912517272396121827309493682176.000000 -4784400668972036317593025017881777324563465004252579765428624479010276971739348992.000000 0.000000
-4784400668972036317593025017881777324563465004252579765428624479010276971739348992.000000 2136039728629611887375791301020767353176964606814658078080243033706998550616866816.000000 0.000000
0.000000 0.000000 0.000000
1167336046385335702122996679691394642800230616103879206819497733116802632031141888.000000 587786091190271199958822365272827071255897185508978548768800619805810281165094912.000000 0.000000
587786091190271199958822365272827071255897185508978548768800619805810281165094912.000000 170065144237937293176476511984212951484638291868037960275719439596366939977416704.000000 0.000000
0.000000 0.000000 0.000000
1528625142372114215427522178105594819411878228832055507438035044327919228821700608.000000 1327888431130619039487748599658855290345286112864164940259211680883790565047533568.000000 0.000000
1327888431130619039487748599658855290345286112864164940259211680883790565047533568.000000 527779546466192450049545837682131522275792192407012757222080376266126068948140032.000000 0.000000
0.000000 0.000000 0.000000
7176400563183221841226210705509189830701134344212962255977265682796302559940182016.000000 144062943148459434874843453841991803258381007206512555230024669682097367342383104.000000 0.000000
144062943148459434874843453841991803258381007206512555230024669682097367342383104.000000 25182734398566852354758022170749844926917670523008698818755435321109819634483200.000000 0.000000
0.000000 0.000000 0.000000
139744022627346087839518648613285106562945374552068133513508922838207003759738880.000000 -174876492521321910701589733458476970892583889244028657389355195271767559172521984.000000 0.000000
-174876492521321910701589733458476970892583889244028657389355195271767559172521984.000000 76037457447110271242726588351558856668407827895034196773279162496759624772878336.000000 0.000000
0.000000 0.000000 0.000000
-7974697914833156983898943313714690704060740354493881102028638454584593264387555328.000000 -67463939693843167681071355428164104890145736566931887051956958138695585997258752.000000 0.000000
-67463939693843167681071355428164104890145736566931887051956958138695585997258752.000000 3555931448789646916642467125795929867564139001541803852048453982059958559047680.000000 0.000000
0.000000 0.000000 0.000000
-1129677423887978073109004529958693071097029803589083375137628420983589195631596404736.000000 -2179198300591510324769396118589343316978756133502084483931033969963383938437087232.000000 0.000000
-2179198300591510324769396118589343316978756133502084483931033969963383938437087232.000000 33836891157020255925782727605394149532826847746197511850502761364804789457649664.000000 0.000000
0.000000 0.000000 0.000000
31281430743998469635639357941360108909266162763721306932307982040365246057545728.000000 -49351688536329729103987041562441478715122216269856790052367621672769209818415104.000000 0.000000
-49351688536329729103987041562441478715122216269856790052367621672769209818415104.000000 23690830301103198996830563329840707522341465036957933888746735514460040709799936.000000 0.000000
0.000000 0.000000 0.000000
1803285698490636357936952793272344963720584559633633936828500475738800390118834176.000000 -1027078195490485784903349245070085772615611805624220785679579339926063713116749824.000000 0.000000
-1027078195490485784903349245070085772615611805624220785679579339926063713116749824.000000 333400617028510192443993966558594170022483707476512218092295410553903407760932864.000000 0.000000
0.000000 0.000000 0.000000
-65177281288095508007309134571295889617232234218634697649371625050322565788073984.000000 -144941458351667671819391331496130161895536321040328338959456583014651056046997504.000000 0.000000
-144941458351667671819391331496130161895536321040328338959456583014651056046997504.000000 87730596307253811584561329506960151344152043056540050995830187423901039447769088.000000 0.000000
0.000000 0.000000 0.000000
931854306067398107475925713980065145494727365088235395620389996890086655121162240.000000 -684607197421212364683960890452912467091346551762220956325228487913946361102336000.000000 0.000000
-684607197421212364683960890452912467091346551762220956325228487913946361102336000.000000 250715228553203996268556760954949601568708926057728446073789217511659663890841600.000000 0.000000
0.000000 0.000000 0.000000
-807473296105779907844861355502016412448722508273474139246470616629403196294430720.000000 444034756378242283633902423278400002975771682636194799011346143017362852371496960.000000 0.000000
444034756378242283633902423278400002975771682636194799011346143017362852371496960.000000 233022246423429865070598449015765579093240073949101412385486970438187481475055616.000000 0.000000
0.000000 0.000000 0.000000
-675322326783055133894947436639242997971282521474289649846906589637892844323602432.000000 -378417568795683875688801154790198132155280952409529030427108181618379056509616128.000000 0.000000
-378417568795683875688801154790198132155280952409529030427108181618379056509616128.000000 197792291986789665549226766998486490470895286367394811843389810248866985607692288.000000 0.000000
0.000000 0.000000 0.000000
36871829437725495915164906806495906820815874457658512637880776387990248159707136.000000 -42498283440425122254993943898769968844144479678895564635870337936254005990653952.000000 0.000000
-42498283440425122254993943898769968844144479678895564635870337936254005990653952.000000 27186741014829507909434973595876720797322301322541927458565448745293835124342784.000000 0.000000
0.000000 0.000000 0.000000
140840223371669339260593519548152235084263663757956775031674623813367461849333760.000000 82616964999792277662605115998870067306005324319867064111412538875628178374656000.000000 0.000000
82616964999792277662605115998870067306005324319867064111412538875628178374656000.000000 28308681590512166940988953340965395577732352340118644949248711434194923345149952.000000 0.000000
0.000000 0.000000 0.000000
2164499197951366331965410498067185817549456636141380070722058683224345501266608128.000000 -2032879371227329261708856664832511276692181452895519670894105177847718808301600768.000000 0.000000
-2032879371227329261708856664832511276692181452895519670894105177847718808301600768.000000 838057206928918833579917096105292559567219480293837127605645671801276728797560832.000000 0.000000
0.000000 0.000000 0.000000
1686792032705602431179583876800930778301773796270046389496922306066140873501966336.000000 101051882710951966999673668272988872134831294015060545840787978950394348688113664.000000 0.000000
101051882710951966999673668272988872134831294015060545840787978950394348688113664.000000 30174654710785130114966905401593322263371585288108073504014616109138129404821504.000000 0.000000
0.000000 0.000000 0.000000
15429578743976407215478926914541540678620292003054845447692374987100737344855080960.000000 -1939221772311862720150032029420392195218285345996648243073734648630509921512718336.000000 0.000000
-1939221772311862720150032029420392195218285345996648243073734648630509921512718336.000000 160834155965337900893109805987455117705460994530067775034761551821613411583655936.000000 0.000000
0.000000 0.000000 0.000000
-4845596718519268452916356603347417126099568644956826995803098250610019269154439168.000000 -676646876165026565350267083693667830339971448665970101561932042179193260564545536.000000 0.000000
-676646876165026565350267083693667830339971448665970101561932042179193260564545536.000000 168891387735945354485932426904031364674360954537557438154037006116001508382212096.000000 0.000000
0.000000 0.000000 0.000000
5140576894291494177468735756451516436004148447746885713059783757639587307978752.000000 6465308425646157664916522535752931806314428569566460141770923966074784158056448.000000 0.000000
6465308425646157664916522535752931806314428569566460141770923966074784158056448.000000 3206263425947587067095981913637343626160170786789563678794793718027496317779968.000000 0.000000
0.000000 0.000000 0.000000
-8182256850806586446322362568381897731116363025784790063868286156616363346963202048.000000 -6903901040235409814028968442808695325602315360617524522433773314109575645552967680.000000 0.000000
-6903901040235409814028968442808695325602315360617524522433773314109575645552967680.000000 3880539231987624048278013284327451305097504483289094672588568578200709447364378624.000000 0.000000
0.000000 0.000000 0.000000
19868971889607927418845963599093158665989696809781527349567491413535774446977024.000000 -8681313941324867014674683868514289155289272029564753740366550479258836120109056.000000 0.000000
-8681313941324867014674683868514289155289272029564753740366550479258836120109056.000000 8939233293696145573660857762892018695016224423874080472985493529488804735352832.000000 0.000000
0.000000 0.000000 0.000000
-645087254307379754486317969331091551508497247293964524705691136390613501208428544.000000 -495353603679069002563183389524138096523178399677837851042264845000097006197145600.000000 0.000000
-495353603679069002563183389524138096523178399677837851042264845000097006197145600.000000 267335724441077656848923608624837029563758236465685322757173513334644361033416704.000000 0.000000
0.000000 0.000000 0.000000
6930404302634572877914324486483854163237171704567998898779208080625437933305856.000000 2659470868701253769399463311284413329782347897367642736931085268968342724542464.000000 0.000000
2659470868701253769399463311284413329782347897367642736931085268968342724542464.000000 643329635502316151461243952795399900981799423727043565219280144611456158007296.000000 0.000000
0.000000 0.000000 0.000000
-284646071088534135008032875179106596590329756562564844191519935821301995723030528.000000 -1144905447432672734311092341875812930007198832473967251408717323964110487953604608.000000 0.000000
-1144905447432672734311092341875812930007198832473967251408717323964110487953604608.000000 653521111229412378674001133278455174661941647811588668463071578363598748998696960.000000 0.000000
0.000000 0.000000 0.000000
-1523242142899432342233955995072648353142434556575140254565959052802937133065043968.000000 -469486075057466357764920401048397661187260447339087012807313163561688762358431744.000000 0.000000
-469486075057466357764920401048397661187260447339087012807313163561688762358431744.000000 200654260253417858626870670704511670499554439273897917372688352733181662086561792.000000 0.000000
0.000000 0.000000 0.000000
1338845861336216544429698918419886480696057308437519288629080511979244245483520.000000 -8995997220566829843573566533851999086179864258889628367411640904845370077478912.000000 0.000000
-8995997220566829843573566533851999086179864258889628367411640904845370077478912.000000 5601122722093269194648836326076219145102404203342994697876646950521179996160000.000000 0.000000
0.000000 0.000000 0.000000
-700170361274026952506999020624818642261821960778495791116019567787019106722512896.000000 860660760788823168145727801711311188696183649892037192953914627374357847478370304.000000 0.000000
860660760788823168145727801711311188696183649892037192953914627374357847478370304.000000 494633567537710725366071937125158553342184615666977067348326159692079930626015232.000000 0.000000
0.000000 0.000000 0.000000
-3212434059973803559535504279347400808523057525074501255162926129008659818640048128.000000 -1317400179997421206678667685376090145403200096574178685735520527523004385356414976.000000 0.000000
-1317400179997421206678667685376090145403200096574178685735520527523004385356414976.000000 632569932080995348416170538462721679102380926065084484224964074729274850280472576.000000 0.000000
0.000000 0.000000 0.000000
-649566025280959600756379467266217863154195737975319526748050475020620241372708864.000000 -199226055247309258469100570852971756811246454751620494435255158942713215180603392.000000 0.000000
-199226055247309258469100570852971756811246454751620494435255158942713215180603392.000000 84846418501135570856300247851117018818293607314242602051563335401907827712720896.000000 0.000000
0.000000 0.000000 0.000000
-2924055244683146535494195487938749156476824409784298199413288517799811150249984.000000 81319073219684571901498111397535169741017676536906741807147261625098881581711360.000000 0.000000
81319073219684571901498111397535169741017676536906741807147261625098881581711360.000000 52451282866883709540042571256638795399965635581933216277651032499834952626470912.000000 0.000000
0.000000 0.000000 0.000000
21234126745903595609045320369103952955638979797708317244930524420469047143956480.000000 -5317558585584459570622266342642830946814686773585989111652433815149864116289536.000000 0.000000
-5317558585584459570622266342642830946814686773585989111652433815149864116289536.000000 1279930435390245390175730868043683246100091919165767303041077281472743735296000.000000 0.000000
0.000000 0.000000 0.000000
-380476234690801590762448252333923214286705474393578707158901230893822631001194496.000000 7402797597172333549379625166385631424647007772731396270444424257168559407366144.000000 0.000000
7402797597172333549379625166385631424647007772731396270444424257168559407366144.000000 1147201398673664620204676130833847210209544599464998905525564794734087235436544.000000 0.000000
0.000000 0.000000 0.000000
539493333061121732987014246562105687490807807426721748290921925478055036003024896.000000 -392457098963037421599786804484053712521747146969023939235658896538544714035494912.000000 0.000000
-392457098963037421599786804484053712521747146969023939235658896538544714035494912.000000 150446194886830347137170679700984911797796353863200079712740290639489197559250944.000000 0.000000
0.000000 0.000000 0.000000
11927793311025414371593551607896177301819965499824825822650128866458682855417446400.000000 -6898625996354662056985132886134788478828782401160471815680822248809869714940493824.000000 0.000000
-6898625996354662056985132886134788478828782401160471815680822248809869714940493824.000000 2190462456133331643082573018757354241932556027788318297126574566182590470812598272.000000 0.000000
0.000000 0.000000 0.000000
-168627222136374690656360571055358035425779751031567109651082098216624649429598601216.000000 -4654555093168647902702658338809002348194501287843657156534027015135415041406271488.000000 0.000000
-4654555093168647902702658338809002348194501287843657156534027015135415041406271488.000000 260066029472826393546645924920526417458099124028069837449077999505234409082060800.000000 0.000000
0.000000 0.000000 0.000000
1124749135457787523336505976855078185194864528998451728823413701143669917609885696.000000 39094572410613985393604658045869130094361590019767016553445003551688609379647488.000000 0.000000
39094572410613985393604658045869130094361590019767016553445003551688609379647488.000000 1121099341824576741900082173629892424325683337152336777881604399467485464625152.000000 0.000000
0.000000 0.000000 0.000000
20939480933662012419654825532662479576133120774752282992591723364644861740318720.000000 -5818721755506846012530932973743051891298686575146748866428597628240583521730560.000000 0.000000
-5818721755506846012530932973743051891298686575146748866428597628240583521730560.000000 1026641631627754114657769379905637581339134433608394126633620123340804158652416.000000 0.000000
0.000000 0.000000 0.000000
3371478172919801869844082632625464066854397606784827834450785316313483547538096128.000000 -121933595132215183531780855397599982771230587846888376758872837798156681686810624.000000 0.000000
-121933595132215183531780855397599982771230587846888376758872837798156681686810624.000000 4179175008152197769227171480086201321378490468510554094895864113433604119330816.000000 0.000000
0.000000 0.000000 0.000000
-61709820249530900257676746137235505211534039628717924995323020390545935065711378432.000000 -201053387933077706421354764100927436701060651914857241686826010836042094833827840.000000 0.000000
-201053387933077706421354764100927436701060651914857241686826010836042094833827840.000000 5764511725324059989769886101635214673217786930256813726063964007136124737683456.000000 0.000000
0.000000 0.000000 0.000000
637899849418677755260258931538417119574250111372711846048847157705854863271788544.000000 -170600531932155408946501012863146664977925254018891030221052942858079854837891072.000000 0.000000
-170600531932155408946501012863146664977925254018891030221052942858079854837891072.000000 29528925841218541233377498854849879698373358232779820692650574921111022914764800.000000 0.000000
0.000000 0.000000 0.000000
167286740812703663551360070662266680673901381977447060454538586295177895164772352.000000 42851309629516023595691343259728064885727895616206121207942634638476557825343488.000000 0.000000
42851309629516023595691343259728064885727895616206121207942634638476557825343488.000000 7010671650933444148491470911236206687133982075993626081949279262631695849881600.000000 0.000000
0.000000 0.000000 0.000000
-327709752785099638115331610171584230942031850723107475531842185614045013126152192.000000 776624121592037145237265975608338020636539345323553172288102142420944243679821824.000000 0.000000
776624121592037145237265975608338020636539345323553172288102142420944243679821824.000000 447384805413725273275704624029446184206090730776179211741047739574222485628911616.000000 0.000000
0.000000 0.000000 0.000000
23670811528749476137698911755110776125629167066143355052179847909603044570955776.000000 -6693215394454326696157437543887728156186306538889897944730001911787371892834304.000000 0.000000
-6693215394454326696157437543887728156186306538889897944730001911787371892834304.000000 1197878828939869822578130916677936921263263299824158633471720280605152776290304.000000 0.000000
0.000000 0.000000 0.000000
164653743991225775994786161667974877272969024882021769417581388572466160563388416.000000 -391328572161251695753278906018799888927538248644746241958380704960734980189716480.000000 0.000000
-391328572161251695753278906018799888927538248644746241958380704960734980189716480.000000 199373824653236046998422148661656526180406850247090090141729231382377164196282368.000000 0.000000
0.000000 0.000000 0.000000
2923609113911100579183850591143965797500132968933753655851347860163048266637770752.000000 7914829396394888501546335455329298406304278388461477024634673369089937765092556800.000000 0.000000
7914829396394888501546335455329298406304278388461477024634673369089937765092556800.000000 4100180066372757190113146176263086732653276484517076266523689076500914820836491264.000000 0.000000
0.000000 0.000000 0.000000
10152930978848941328793425903462907027488078676250869100138715978596085879799808.000000 213726668132091312579710071535022768176707929435286252062020640778405464244224.000000 0.000000
213726668132091312579710071535022768176707929435286252062020640778405464244224.000000 102802431712626910598604238924160063714249025952859825561212174364720916070400.000000 0.000000
0.000000 0.000000 0.000000
-6196216988269821112970234980954675398378216417836042877128063422106849885791363006464.000000 -31129758097392494227153361386089442871789636849937096874173742494027738238228103168.000000 0.000000
-31129758097392494227153361386089442871789636849937096874173742494027738238228103168.000000 312769859889111175227455749332235779895659971764397126433521968681210985523970048.000000 0.000000
0.000000 0.000000 0.000000
61799748292137955112179755041544861966601381494611001313713218932974584007229440.000000 32339269712254818774759784387765611067835250931093649044352412306292008212758528.000000 0.000000
32339269712254818774759784387765611067835250931093649044352412306292008212758528.000000 9574303233138001812605964652951211932561995104076018200167368561697000024702976.000000 0.000000
0.000000 0.000000 0.000000
961397059075248345636458581454166048717069203036636403967298312318684286173577216.000000 -1253190957478416376688501633615188171213545847854451852972740332056020792681431040.000000 0.000000
-1253190957478416376688501633615188171213545847854451852972740332056020792681431040.000000 575401823591875433999241457779793567231092842243887792905401147233788777308618752.000000 0.000000
0.000000 0.000000 0.000000
70299595246398542816558094168139778589930530069043482451094778078419245244350464.000000 -182791521992899170300329166129693730822949330747375952458538631833661011981762560.000000 0.000000
-182791521992899170300329166129693730822949330747375952458538631833661011981762560.000000 94170279447579128363801080892059467168435795320045315916065415879492149778055168.000000 0.000000
0.000000 0.000000 0.000000
-233259006805987154672441175449183278712879313624809036883405592339063669933473792.000000 -35753992413408488493399129967233885743063793011367430233987094036920785447157760.000000 0.000000
-35753992413408488493399129967233885743063793011367430233987094036920785447157760.000000 26787672717495693415383413509834840277103801943801182323340699451106749948362752.000000 0.000000
0.000000 0.000000 0.000000
-207520175401363289484342111001511473279563967397532342898554180748594034266603520.000000 -84165300407013189096050434331282629327886163135498313955420668908055318197436416.000000 0.000000
-84165300407013189096050434331282629327886163135498313955420668908055318197436416.000000 40212867827770931867766123270119390220138091567530615230001401002785279576113152.000000 0.000000
0.000000 0.000000 0.000000
-2463851989048588551617081405931320673693353957690283162443939652807102767824896.000000 3185320005910902425109014445232050444900153211899424849633950464693941095628800.000000 0.000000
3185320005910902425109014445232050444900153211899424849633950464693941095628800.000000 2333227212774068144849381924753347709592627911381549392315601549849133987135488.000000 0.000000
0.000000 0.000000 0.000000
40070064334238730693998452962730220023821393055429385692538046082005076319141888.000000 17879015240935421983436363500865707840918831878053795558059458571720927632949248.000000 0.000000
17879015240935421983436363500865707840918831878053795558059458571720927632949248.000000 4398875849656601314062934943621283797154790470719577063376696280247417715032064.000000 0.000000
0.000000 0.000000 0.000000
41921245146145541552917421732599287822851148785919151482710901864784864829505536.000000 19383538250790264428306690543613083497403540382829156221175190582108290556100608.000000 0.000000
19383538250790264428306690543613083497403540382829156221175190582108290556100608.000000 5248336415564090857595813806863459723360057356647237977793102465660451800743936.000000 0.000000
0.000000 0.000000 0.000000
41915282854225375029155025296486673375176422660550943276231043442775863647535104.000000 358817756330816553841424521956196381781310115389603214829321178959721258777837568.000000 0.000000
358817756330816553841424521956196381781310115389603214829321178959721258777837568.000000 195841380889894405581583059529877752701068064595636918405901753826187998440456192.000000 0.000000
0.000000 0.000000 0.000000
49184706030464172573097017690854731979512333728948248163130817528988412101525504.000000 6668419623099542183851059192839153749849090767828135186459868441825089459060736.000000 0.000000
6668419623099542183851059192839153749849090767828135186459868441825089459060736.000000 595367171990148713423264466373625931444889150173388050538153995834659642015744.000000 0.000000
0.000000 0.000000 0.000000
1112459606609189705094749111745289869616975750723907112052486461739471451314978816.000000 1382479525571859293608051563845878584489377093027363024826372786045783572182204416.000000 0.000000
1382479525571859293608051563845878584489377093027363024826372786045783572182204416.000000 626375173190815556438461609833089927847258483356594512172051269987297348315774976.000000 0.000000
0.000000 0.000000 0.000000
7507655820271116067562509789887165683621040975398094061124744030459528543731712.000000 752444706688085721816733909049911597880274536483270007381423895505935011938304.000000 0.000000
752444706688085721816733909049911597880274536483270007381423895505935011938304.000000 49934988505727690302110508642814339521751424224685283343535756429700882235392.000000 0.000000
0.000000 0.000000 0.000000
942006996645956346008605263934114339499538123779987277681707631447840352446185472.000000 106743480455927842179662266191074723591770782649771139879692595715715951396651008.000000 0.000000
106743480455927842179662266191074723591770782649771139879692595715715951396651008.000000 13974065658241675842075636302555457810808538504746310893082703103759451892482048.000000 0.000000
0.000000 0.000000 0.000000
6194009133690643620212940363959607742379426931339117624331732600577128109441024.000000 1804302542586625320970199208655981780770115516117323713929825924750745496715264.000000 0.000000
1804302542586625320970199208655981780770115516117323713929825924750745496715264.000000 331684707671117276706392091695951263167318834630342062474040627984104312274944.000000 0.000000
0.000000 0.000000 0.000000
778693480365547607280292975897071465502667999298360450188522288079055829608693760.000000 5787578931648872015585905486024415178415761827724631551909027989362382935292903424.000000 0.000000
5787578931648872015585905486024415178415761827724631551909027989362382935292903424.000000 3149197400204064971344055274863926434669297070261975788253821932245568026367229952.000000 0.000000
0.000000 0.000000 0.000000
-17730300434200000532750720323602989323665034555249806443128418645114132744141537280.000000 3270766289652988397466691496778652897537613581528913225054429548507352398454325248.000000 0.000000
3270766289652988397466691496778652897537613581528913225054429548507352398454325248.000000 1019838322320844241428284371756567245447382903293793578289517895934463964698640384.000000 0.000000
0.000000 0.000000 0.000000
1403814872714424851699825450768200209982866255858497344847424726054445070826864640.000000 746117093709045531824752567816866668395961367302033762995597279195153911506796544.000000 0.000000
746117093709045531824752567816866668395961367302033762995597279195153911506796544.000000 224636289426029746961387811323551300567460842431475488166857924459281254717587456.000000 0.000000
0.000000 0.000000 0.000000
7898021135950178346433129511681263554039292432827365636192513143856261507821076480.000000 -15991409248906952986237525410337854518067332371601172316467009413463115938515648512.000000 0.000000
-15991409248906952986237525410337854518067332371601172316467009413463115938515648512.000000 8007664630777765299735563195230572107287979527281812457035738944719196563498336256.000000 0.000000
0.000000 0.000000 0.000000
57420944981656137710405825792911867628261150513867730997964244161554850389164032.000000 20289682649202508221008575221198637988136898588612514360536442156840908381749248.000000 0.000000
20289682649202508221008575221198637988136898588612514360536442156840908381749248.000000 4433933225159099112576982935953424233821228231274988096233097332552977073831936.000000 0.000000
0.000000 0.000000 0.000000
5540259408778526053318492770924822400050350254723231196448028412313209361047486464.000000 -275049133318354732354248844987108650904144491289865784709472345028521259922620416.000000 0.000000
-275049133318354732354248844987108650904144491289865784709472345028521259922620416.000000 24099856918579374149784346519522695996932370339424967692393278340481805440778240.000000 0.000000
0.000000 0.000000 0.000000
3785007398206731535162731845812534693624980037230445779321583675795726347010048.000000 -652542330937570710249865509800552366778574674144163459867502257583436876218368.000000 0.000000
-652542330937570710249865509800552366778574674144163459867502257583436876218368.000000 166216127519787742310042626973181232454399970074732626237481819728240325951488.000000 0.000000
0.000000 0.000000 0.000000
-14942919575669835413597237854594528117806042361626739980519693592406406731923456.000000 18359968594419554252604824976672626140185808251714455045442363839822877505355776.000000 0.000000
18359968594419554252604824976672626140185808251714455045442363839822877505355776.000000 10495740418665584969305445686316592237324763887928739601388802615713426890031104.000000 0.000000
0.000000 0.000000 0.000000
562879975695102420596662504207646963178082675157201423225213500246409071573336064.000000 -2082754008666617765562603486748852608931308595317516860771371833945887487043829760.000000 0.000000
-2082754008666617765562603486748852608931308595317516860771371833945887487043829760.000000 1106144150246618566999414873184238098505226571268108093373529306734794867780616192.000000 0.000000
0.000000 0.000000 0.000000
661408164748473805433898647992492986833947648853661205872704080452866145020542976.000000 2710647459787390886042487453448583593987877557971288284764174698472834154029383680.000000 0.000000
2710647459787390886042487453448583593987877557971288284764174698472834154029383680.000000 1446028316228300206447413009845118850711253329128668531607908726816812468145225728.000000 0.000000
0.000000 0.000000 0.000000
11227835023963111645617207554178889501787755818610520008185801202418388611650027520.000000 4003654663446640304223098076166670482125983851035793769228519754107509628909649920.000000 0.000000
4003654663446640304223098076166670482125983851035793769228519754107509628909649920.000000 877887388070060497696108203131587108829678014334243186340982050925535646032330752.000000 0.000000
0.000000 0.000000 0.000000
283361931303756704387959346409310449416706352143634927816480591230069000021999616.000000 49405869020689015957334252372702414980804571548988072499799003402195693234814976.000000 0.000000
49405869020689015957334252372702414980804571548988072499799003402195693234814976.000000 10872925050574551260305185321451454816996414471473419624765625895346730944167936.000000 0.000000
0.000000 0.000000 0.000000
-5236294113269742386671386751433955675584217259572355339551615683589582715294318592.000000 3681804920852793224181797232808623647620044128706019456337266590513829365743091712.000000 0.000000
3681804920852793224181797232808623647620044128706019456337266590513829365743091712.000000 2020283088573428680199525606912133808063414525682642319610672212571694136448516096.000000 0.000000
0.000000 0.000000 0.000000
761248293986524077998971350638781700930949188155844728273923645160773597314154496.000000 1406974083336487096354618648070640360391698497098429860641541624238432273737711616.000000 0.000000
1406974083336487096354618648070640360391698497098429860641541624238432273737711616.000000 695735458395685330360226525711561450535240811808452379205534433604439015799390208.000000 0.000000
0.000000 0.000000 0.000000
3429006566989945171027108210826600295427348592053536461391355555980922674594447360.000000 560850644561463910944130610703296736012673392925924170645443460599314089750036480.000000 0.000000
560850644561463910944130610703296736012673392925924170645443460599314089750036480.000000 60081931429743693409235691112120307757495435432054337580725160103905842669027328.000000 0.000000
0.000000 0.000000 0.000000
5042904056785403705634530024150062228766808777193461834048056710967568633870417920.000000 -7626549333202453748497782386069951797565368119716394744785638479941417375702712320.000000 0.000000
-7626549333202453748497782386069951797565368119716394744785638479941417375702712320.000000 3676871507990248100073868514959001348799618548267855465854082828455393711842394112.000000 0.000000
0.000000 0.000000 0.000000
5805982219835718731056971271131409073774319085113952227368217584196501966220689408.000000 -301474101254566096034014368912578600028752561662193015548661487510081655887888384.000000 0.000000
-301474101254566096034014368912578600028752561662193015548661487510081655887888384.000000 10427396266669684452046127886962837941369616083065792186432859206187535782903808.000000 0.000000
0.000000 0.000000 0.000000
6237361162440149470097822783479723006395398114599184138209131656333151647991595008.000000 -15961886512823214302732235726938380846117714510382163292800878004677528468223688704.000000 0.000000
-15961886512823214302732235726938380846117714510382163292800878004677528468223688704.000000 8218100010436485797033352518923517629536969105755425140890793492355327973717442560.000000 0.000000
0.000000 0.000000 0.000000
-655599593397443390689290016670566502097152042282055007999222173740080173140815118336.000000 11393364066470547649469592796293302306345803017713275124951272373418901502062231552.000000 0.000000
11393364066470547649469592796293302306345803017713275124951272373418901502062231552.000000 395199273796383787135749897611046377955992902098685018015156756808192362754867200.000000 0.000000
0.000000 0.000000 0.000000
-1509091167935117335185729386014546753101778619335681771474032424665107098578714624.000000 -190113796345435243446768252023244559616336825643228750428611081702967114918264832.000000 0.000000
-190113796345435243446768252023244559616336825643228750428611081702967114918264832.000000 41913289411595435645284449552399372308928163354417200289946672713158401621753856.000000 0.000000
0.000000 0.000000 0.000000
-159547035419312767203614652188853754003240180596696459032678984483667583969525760.000000 698887095175320710690225154473486945084919505144485599918460462469903912716468224.000000 0.000000
698887095175320710690225154473486945084919505144485599918460462469903912716468224.000000 407524268277050775903673705188441422488862129794697491174144565700835315866927104.000000 0.000000
0.000000 0.000000 0.000000
-7746291138254041169561631446474993162440906290832794402471305249164275291783168.000000 -76074150514681121441870601406503499055345761470760444827549703795018570227777536.000000 0.000000
-76074150514681121441870601406503499055345761470760444827549703795018570227777536.000000 42929332227033292272513549466563141120561643892142767272577637760688942286372864.000000 0.000000
0.000000 0.000000 0.000000
418864303439498332691366321552615519148838105103328207678645647034326864875225088.000000 -98744700149604156239602488722715567993587618886374113529561959736043326557650944.000000 0.000000
-98744700149604156239602488722715567993587618886374113529561959736043326557650944.000000 20595805989460719697704167556129211009629418370719735471699930862058914678046720.000000 0.000000
0.000000 0.000000 0.000000
310631859532966272592431290656583929067624961024646448547964040137543823736700928.000000 425783040749214103884359012604652511058549048653623776307179510261061524526202880.000000 0.000000
425783040749214103884359012604652511058549048653623776307179510261061524526202880.000000 198046304582691560359813610270026793419943178727197433685614021808491283215286272.000000 0.000000
0.000000 0.000000 0.000000
435913736946050235511695632503075356389574425520106251617662959343165289529344.000000 -947314929823047131196866248108189492926930543558255811554900897613590833397760.000000 0.000000
-947314929823047131196866248108189492926930543558255811554900897613590833397760.000000 476263476150207300398636680044461321950813761399649299585946533031549496983552.000000 0.000000
0.000000 0.000000 0.000000
227387858619824315710785841934797696652087886989546631800213350874377729026818048.000000 -14351845158532295166582190078216443241070834041497682034527452578150862569865216.000000 0.000000
-14351845158532295166582190078216443241070834041497682034527452578150862569865216.000000 758114164805015829613190317500635049144709224633427071869946922564661119287296.000000 0.000000
0.000000 0.000000 0.000000
-866005888283992524006511619919673345280897822318489959092662849934022161148674048.000000 138819865420139613792979564983696283816020526278619287045479435096341738002841600.000000 0.000000
138819865420139613792979564983696283816020526278619287045479435096341738002841600.000000 38987215895646078316196482299493349644256903529626394793954097162376764802990080.000000 0.000000
0.000000 0.000000 0.000000
444161361594605236928295864441698275524448140756065473554502694728274086604046336.000000 210972586053609403569715330897357263873125536551467533918470008221880711729119232.000000 0.000000
210972586053609403569715330897357263873125536551467533918470008221880711729119232.000000 54859046314035977142409284814240233606648489432433551860333828966703291388919808.000000 0.000000
0.000000 0.000000 0.000000
5848685699932206007954382362802036663089236796765373656637638034221088378978304.000000 51746128594440028273144097295294780100934176186234634792227315690006327980982272.000000 0.000000
51746128594440028273144097295294780100934176186234634792227315690006327980982272.000000 29389366616718068715709604110550197183636652691273021541249620488172960225427456.000000 0.000000
0.000000 0.000000 0.000000
-456893889508571727326790743105530038503101034592690065968270815499578763703746560.000000 -11984264259080928027917720584467614643699513870864368586683778776587778379481088.000000 0.000000
-11984264259080928027917720584467614643699513870864368586683778776587778379481088.000000 607757118274080424958034621714469914721277684593092076705043423224373849358336.000000 0.000000
0.000000 0.000000 0.000000
-3848154800481392047876026586528500050474999743238310054827859487454281804797706240.000000 -2850657202553280949503082129772023804988131414448365311531897995942007322823360512.000000 0.000000
-2850657202553280949503082129772023804988131414448365311531897995942007322823360512.000000 1573607003920577196556668240441846818117147307995530413040339916074866010075693056.000000 0.000000
0.000000 0.000000 0.000000
589205565966372382399814834920200162117655435820540501202258630304294162124505088.000000 -837344778817603968961112963899729573240261450658182822907242897511984420532256768.000000 0.000000
-837344778817603968961112963899729573240261450658182822907242897511984420532256768.000000 396640814088297182303862827578810179118258676881309267163826814099221117734486016.000000 0.000000
0.000000 0.000000 0.000000
406730472359602411171252604520746151643820917724755473111169691999888654433517568.000000 322528548566744569392214334413607079571935227320923949865494531071890530175549440.000000 0.000000
322528548566744569392214334413607079571935227320923949865494531071890530175549440.000000 123867840666141718923585056113445704013339184435469511177816240022557412166729728.000000 0.000000
0.000000 0.000000 0.000000
367099348175157732504626714095492632510016357525796096475539881732718051211608064.000000 239957745245955580901984244108391571238454385882286728965309272875121221545492480.000000 0.000000
239957745245955580901984244108391571238454385882286728965309272875121221545492480.000000 81735043790434059096206005077208551647092096724881323720150003175443954334171136.000000 0.000000
0.000000 0.000000 0.000000
445894191386393521210039456215738213425512836116467149262460984832260105316597760.000000 119336020376519928792259787175014834731583000960687117080017377881186623006179328.000000 0.000000
119336020376519928792259787175014834731583000960687117080017377881186623006179328.000000 23541133245511476807009992768236308663473234825677826054615818253606890453860352.000000 0.000000
0.000000 0.000000 0.000000
-3967461128046440576920083632472744060857352185533598269339065464984785164013928448.000000 -777754532900294112962565140092919371602531590882677764942150086575095413416656896.000000 0.000000
-777754532900294112962565140092919371602531590882677764942150086575095413416656896.000000 253299277054777205063045180188657637066315757031334500801981746665942430494228480.000000 0.000000
0.000000 0.000000 0.000000
87416268520872324487750425837836484142655435313957714627982519367935382924558336.000000 148888658377007328049153776211204857694528370884346502041882796995570302288134144.000000 0.000000
148888658377007328049153776211204857694528370884346502041882796995570302288134144.000000 72513301599787989745876077734509400935622998099308285637014378893569516894158848.000000 0.000000
0.000000 0.000000 0.000000
269671082282726660642852443625566450051449871674580529358468380183596936888057856.000000 3309115292597276324886041644625000321831520971936279120496720080069552739562029056.000000 0.000000
3309115292597276324886041644625000321831520971936279120496720080069552739562029056.000000 1815886012083652832963350070934296398825989185028994848150057861437297790856200192.000000 0.000000
0.000000 0.000000 0.000000
-22880083911531299901429520752216120611808944284694977781087011869763012950904274944.000000 -6805728662225118998063512828448697430852101370006913204874366528279980154934001664.000000 0.000000
-6805728662225118998063512828448697430852101370006913204874366528279980154934001664.000000 2885136110902531947198111936199211609663487336964159363301793467734260384821936128.000000 0.000000
0.000000 0.000000 0.000000
223355813692702666565559599270505414840906133211500519750613492674147074143420416.000000 209409031878148116973852288442608604595978110023114691142314710127220911306178560.000000 0.000000
209409031878148116973852288442608604595978110023114691142314710127220911306178560.000000 86079954545391830949846765499267075985363911664796211600347084482103914629431296.000000 0.000000
0.000000 0.000000 0.000000
-149658216150324899484975806874077620604524704557210542432913301904950461522071519232.000000 -12843536158194411714333631769202042723080636498389879385189185405107112351667060736.000000 0.000000
-12843536158194411714333631769202042723080636498389879385189185405107112351667060736.000000 2113012203896000741352632351466135793274296391903872060610596482643998204768550912.000000 0.000000
0.000000 0.000000 0.000000
-215080932423590252310835265854150537855889913816860433930375556953374785917681664.000000 489198761765991212307941765665363908784516933067924817901906239469659534821163008.000000 0.000000
489198761765991212307941765665363908784516933067924817901906239469659534821163008.000000 292547552410191744264405078500207765601867179157127556890358757204167881838821376.000000 0.000000
0.000000 0.000000 0.000000
-9201338749327623099716389042897302485746232874318418006006843336176945610960666624.000000 -1417862817292102591105528245662549488166042894203968781912086413710238077878796288.000000 0.000000
-1417862817292102591105528245662549488166042894203968781912086413710238077878796288.000000 388138692218785829725683689606770533709850585561851667238952760662618527582126080.000000 0.000000
0.000000 0.000000 0.000000
-17699967329864036791456959528556525541653118759701456988515725029495607169589968896.000000 -2863983419527858571984586447913096663613077825065132282214202631570054918510215168.000000 0.000000
-2863983419527858571984586447913096663613077825065132282214202631570054918510215168.000000 882979650589626767750224763084312061313880503879823485048013339497547984862707712.000000 0.000000
0.000000 0.000000 0.000000
90599582948616812838508460134860271476477007190372719265554966291637858608349184.000000 -300916754988886378216843694671077730675762881059834382384411198022405340839018496.000000 0.000000
-300916754988886378216843694671077730675762881059834382384411198022405340839018496.000000 158973242781901407966054341254781395636239594156062257023765536737406840844845056.000000 0.000000
0.000000 0.000000 0.000000
2745672459109514612767034057468953440008359564311337776868847340711342382252032.000000 3245391450328208677819322734163491419652629282746863518089342620874543590277120.000000 0.000000
3245391450328208677819322734163491419652629282746863518089342620874543590277120.000000 1449080456074746297343324688283287433103464764793189480601269930655452630089728.000000 0.000000
0.000000 0.000000 0.000000
699309522701814129446248371130982770470598401798195673097527677722903324640935936.000000 643234702053709910006888907032317325300376362847362992117460232728929008344891392.000000 0.000000
643234702053709910006888907032317325300376362847362992117460232728929008344891392.000000 262212924980874795288845163396728053455064277846861349792863981912859764091518976.000000 0.000000
0.000000 0.000000 0.000000
-147474718806098454449724721301501609721726202554264615719345977471743430745915392.000000 8809167977611922029874272351132833621782610533667130568336497757461334481436672.000000 0.000000
8809167977611922029874272351132833621782610533667130568336497757461334481436672.000000 3650614330595970642549010926090321364217700551967557575563952963320490133291008.000000 0.000000
0.000000 0.000000 0.000000
-229597390149367018237347703394258546648745835300715798665376455203190055253311488.000000 3400860631740000394960363506553136757761053193054653181761854578674458739867648.000000 0.000000
3400860631740000394960363506553136757761053193054653181761854578674458739867648.000000 411359867183268851506508106125750216336677166279664531527025449831273349513216.000000 0.000000
0.000000 0.000000 0.000000
-725217768911573748930759380188903522825755962905374625588119866447301763743612928.000000 -105989114483702362187663468057511468742221802431571910895409242449543926581821440.000000 0.000000
-105989114483702362187663468057511468742221802431571910895409242449543926581821440.000000 37244487728042709559327208676899063242842674197775343136633741006557379469246464.000000 0.000000
0.000000 0.000000 0.000000
9844697260841359765577605892744538921727874072639385454826920983389875360042582016.000000 3070306500978550279006781432568277306812892253606403950085192216903117795626057728.000000 0.000000
3070306500978550279006781432568277306812892253606403950085192216903117795626057728.000000 603543575636252842845265070637157635299281684290399184941143904808752530547802112.000000 0.000000
0.000000 0.000000 0.000000
637207361497843080772334516801421093773977578561469095861839689043274011852668928.000000 325792477496725529776290746100753542409984196076446550192119240090896840578301952.000000 0.000000
325792477496725529776290746100753542409984196076446550192119240090896840578301952.000000 94969243230456028192447782629749323487572079667204665422187302104947216021979136.000000 0.000000
0.000000 0.000000 0.000000
10635144795293294327430400888838220683250373237377764844586424949024519570325504.000000 17222190006709477865365484666895883289663238810516083343821189085259960665767936.000000 0.000000
17222190006709477865365484666895883289663238810516083343821189085259960665767936.000000 8376183481973214615488027395071123161904569368508668513029700497991304961064960.000000 0.000000
0.000000 0.000000 0.000000
-13737298876567454526640151930344806143904159027735990761534965566926023427767664640.000000 274706145469605947690386480899825683344705449338936768961777827594431248384131072.000000 0.000000
274706145469605947690386480899825683344705449338936768961777827594431248384131072.000000 15167460350014815793798402116387002327309408844308672064849651160568107269881856.000000 0.000000
0.000000 0.000000 0.000000
-67706599766093381739340129422859231013885361516956546744744105831393241814007808.000000 -157692376056680566622196702211356165773385342923362682792636383810502843896430592.000000 0.000000
-157692376056680566622196702211356165773385342923362682792636383810502843896430592.000000 90832781112762980627969971913085931355347766329059336921569029125374883169042432.000000 0.000000
0.000000 0.000000 0.000000
93306587814303095306671462025933509926971804068249182552210986858114727440023552.000000 323551055360897729385126327342091776146008783023588264116752844689673173814214656.000000 0.000000
323551055360897729385126327342091776146008783023588264116752844689673173814214656.000000 170613631430814116795815249561162725252094824669126866283160147662259512011653120.000000 0.000000
0.000000 0.000000 0.000000
-1838664304041101797596180506158877074665497418488779631424782461349590659497984.000000 -42263941404383033576858259487821743580406402454414027194904994174807530889281536.000000 0.000000
-42263941404383033576858259487821743580406402454414027194904994174807530889281536.000000 23667872769736985975681413108686816455789758159087632228875988179477286602407936.000000 0.000000
0.000000 0.000000 0.000000
-918303554595184146034266741497031101088036322088013050915374660308914458442334208.000000 -804834898200142265682374683270282807583941548491147857399627354016823897711706112.000000 0.000000
-804834898200142265682374683270282807583941548491147857399627354016823897711706112.000000 453109217427424312913483617002640070928230628554910537878285391440722735403106304.000000 0.000000
0.000000 0.000000 0.000000
416770091072991929543485303480062876925248566677557078318866863751373019190132736.000000 -724867567672543789533926973163022848227175960363069727813291244483108263732183040.000000 0.000000
-724867567672543789533926973163022848227175960363069727813291244483108263732183040.000000 353382615116746853524288861905693656767795815048578768974344146785746882184347648.000000 0.000000
0.000000 0.000000 0.000000
-2228229132365964316138418636014520693441244091576556987024062017482930904799117312.000000 -1476693288374900672049347494796900127492388181058226562902750197103004117085716480.000000 0.000000
-1476693288374900672049347494796900127492388181058226562902750197103004117085716480.000000 807093770185083984603799627028679572527487531419362316247298672257361940400046080.000000 0.000000
0.000000 0.000000 0.000000
5735226325259118692285476990682046596124745637863516334822506595724702060772327424.000000 -3277020341715701386838989237513921268306588724231961838935653836228287964798517248.000000 0.000000
-3277020341715701386838989237513921268306588724231961838935653836228287964798517248.000000 1051099246366143861273766837634970026303936249236439592436494761944909389515194368.000000 0.000000
0.000000 0.000000 0.000000
9929658847195378694553703330444186342587035749608015772884722598811732342529327104.000000 -4306426844726468988747305503101810363209711367250486798844823332279555988442316800.000000 0.000000
-4306426844726468988747305503101810363209711367250486798844823332279555988442316800.000000 1107838241100675954580190994712442167902350761371327070947210413202918043031699456.000000 0.000000
0.000000 0.000000 0.000000
1426091550877697356379710815936787408788125159827093887140365785188091436204032.000000 -15964640302015594360299907188047523638995557778664159578809944971554409959915520.000000 0.000000
-15964640302015594360299907188047523638995557778664159578809944971554409959915520.000000 8937337858031988324750992056995588121065021448062104899442499166881573647679488.000000 0.000000
0.000000 0.000000 0.000000
114463682690937284999618652041182291709795048805450256275990685037571633957568512.000000 -88039097980543579769458949310436474479724282400614384533956036776805649591828480.000000 0.000000
-88039097980543579769458949310436474479724282400614384533956036776805649591828480.000000 35968516859412421678399414578784686878116849133503747428417130926660623727067136.000000 0.000000
0.000000 0.000000 0.000000
-3426544124981173104744934633496674398505285532097507942591337608060041775609282560.000000 3158168096432483494015727780322923027514228710110868255713918585921892656802168832.000000 0.000000
3158168096432483494015727780322923027514228710110868255713918585921892656802168832.000000 1786588966998012812410870340868047012425987912647721532654528147027678642021859328.000000 0.000000
0.000000 0.000000 0.000000
338292874983461454658753935633542121554168507319978249496312980696329955737337856.000000 -92872707259556685765053191731650795394540137888568758679065642856646679298310144.000000 0.000000
-92872707259556685765053191731650795394540137888568758679065642856646679298310144.000000 17231217487972679935337487262966671504649026223359380844160428705185853136175104.000000 0.000000
0.000000 0.000000 0.000000
263010001943870269333759816674578928757516602879379601397824585046975877652414464.000000 719290573056448866767829003308582995433247152762932476121437933046904429192675328.000000 0.000000
719290573056448866767829003308582995433247152762932476121437933046904429192675328.000000 371960255382170470087125849392115232262382628346520056016628244641140191745015808.000000 0.000000
0.000000 0.000000 0.000000
62884149220033112110317356976921773161976297246406327029523626249828892223209472.000000 145909276966088910159888417202624580610743439829427503066356874432780433224630272.000000 0.000000
145909276966088910159888417202624580610743439829427503066356874432780433224630272.000000 80406086460454074851963658970587815098781251840074262760141948334982961794383872.000000 0.000000
0.000000 0.000000 0.000000
329647224093347295899455826909591540876046073973755130441940790243956715448958976.000000 809036042324170415192102481060826420101489837851874934832029025828931420785999872.000000 0.000000
809036042324170415192102481060826420101489837851874934832029025828931420785999872.000000 414767942789301255896272424327517966854170218000373601702841576005391127194632192.000000 0.000000
0.000000 0.000000 0.000000
10191203249919553221034482489103558404530640055147047732070307223040485006245888.000000 5063539585586820264699186108293878666718469403480448528319411414256440955633664.000000 0.000000
5063539585586820264699186108293878666718469403480448528319411414256440955633664.000000 1443835798448999779900092882091888908947359377510586082614601306903149937688576.000000 0.000000
0.000000 0.000000 0.000000
722351002102370195176420989487609635637372922515202071205438712172327594633461760.000000 -173985644184310400648975177144908936446817847456206463976009134587122873962332160.000000 0.000000
-173985644184310400648975177144908936446817847456206463976009134587122873962332160.000000 32208538475195407371463368676301563840547280038689818270479148114755720675590144.000000 0.000000
0.000000 0.000000 0.000000
34165072311688567269575756870535522581556526085692443089925538085922518857678848.000000 -18598960269448882177709969333847206921796653312426942199522584871483970794029056.000000 0.000000
-18598960269448882177709969333847206921796653312426942199522584871483970794029056.000000 5790039665034922214352131387838137569813437824428874681714684670419971533176832.000000 0.000000
0.000000 0.000000 0.000000
97131702850268691736285716099870980407396949224834857889819128180591313775755264.000000 255354238905991573136551250246085399181347028690986947775344359528488020547207168.000000 0.000000
255354238905991573136551250246085399181347028690986947775344359528488020547207168.000000 131741318990997716360367778096995256091981315467498624038966541316672368119119872.000000 0.000000
0.000000 0.000000 0.000000
11915863596880915875033639357975893360810579982031460546667305110011904436207616.000000 -3296752148209695938861479026139057405048937999355122606584171894920709857607680.000000 0.000000
-3296752148209695938861479026139057405048937999355122606584171894920709857607680.000000 830727639905737127117744374431580528756652687059839048069053511491417926533120.000000 0.000000
0.000000 0.000000 0.000000
-36548475193756168797227321279526516942595271618133987580414188079888971098750976.000000 -82317008983477007954157936187545897159907367045136240247583230415186541854851072.000000 0.000000
-82317008983477007954157936187545897159907367045136240247583230415186541854851072.000000 48381971651891258350303845644856968861707281343186997544313779380984705850540032.000000 0.000000
0.000000 0.000000 0.000000
1364754280755206955439761135453011719871894066152210319694470476626703339766153216.000000 380271268069076881386733115042978317990815440131447614833700937484450262849421312.000000 0.000000
380271268069076881386733115042978317990815440131447614833700937484450262849421312.000000 67166714761553806307163457097947140708291460469976371028116573908888547944824832.000000 0.000000
0.000000 0.000000 0.000000
326380466114742834752561222804792445453843001893700645675916559209607288361844736.000000 197051551881772971089741857325278965964463590619612836632072185897563688557084672.000000 0.000000
197051551881772971089741857325278965964463590619612836632072185897563688557084672.000000 65904455664162132954532860784044151355497558647570182002731955369987222508929024.000000 0.000000
0.000000 0.000000 0.000000
136199682997001107852411610212887369263207165549720967848155177008316361566322688.000000 60787147426223235957028524445473398559529013101137569493414661565733392055533568.000000 0.000000
60787147426223235957028524445473398559529013101137569493414661565733392055533568.000000 16169022524040453327139884595584213329845688277921553801782823584629963303682048.000000 0.000000
0.000000 0.000000 0.000000
32543971772440172402718759689476624378044477143241751695275192949704248141021184.000000 -86844959712416430491818033986948652807221932177796971869977742687507517055959040.000000 0.000000
-86844959712416430491818033986948652807221932177796971869977742687507517055959040.000000 45308090513475884277149847549993824717853667089815006313697740815119174141476864.000000 0.000000
0.000000 0.000000 0.000000
21011549654358843410067874171458368819677146757985908674729996578273188896571392.000000 -30260179605337428503338982943265665875218947244977730084279544694036177935663104.000000 0.000000
-30260179605337428503338982943265665875218947244977730084279544694036177935663104.000000 15183148747703749082019188369006713945519544846872774211010570060769782015197184.000000 0.000000
0.000000 0.000000 0.000000
-46938116011745288564156538689982212504648859011256462403414945225358617348145152.000000 -3525430084290774463865549794402903337837915852971360833630316915197141957214208.000000 0.000000
-3525430084290774463865549794402903337837915852971360833630316915197141957214208.000000 1360139695531351944106070057553744254590261996129784643556961089076062563860480.000000 0.000000
0.000000 0.000000 0.000000
23302639410603670809048892573008143643007338617365039975251251307766304726843392.000000 -356592360103280119501164213621149219598718288068073132511620848751741039563243520.000000 0.000000
-356592360103280119501164213621149219598718288068073132511620848751741039563243520.000000 205606150045730409848438032581676090506191739598479846938268564335652028354134016.000000 0.000000
0.000000 0.000000 0.000000
-10665564295042869970333837393112228254717780629586969625250942881687353105055744.000000 12943339335846271005094372671731217327262547045306020835529013115561106055626752.000000 0.000000
12943339335846271005094372671731217327262547045306020835529013115561106055626752.000000 7430964041480733067400619835472924305856288410127410020279595745748668240625664.000000 0.000000
0.000000 0.000000 0.000000
-1052782442421994770243824696752918993048150160889679807143208303821397660402712576.000000 44674495534208339140137380866659099034166235031279994512333573509657239792648192.000000 0.000000
44674495534208339140137380866659099034166235031279994512333573509657239792648192.000000 15765575853966452741363902230681701816171230291488060501610937422362932345307136.000000 0.000000
0.000000 0.000000 0.000000
329741087218293653119903611029256265483630015736294282366457320992258301886464.000000 68690398977093276475409659301295754405240286171208833697877927873422955642880.000000 0.000000
68690398977093276475409659301295754405240286171208833697877927873422955642880.000000 9270717275883732126437380730681393319596620417177612790214906540162436562944.000000 0.000000
0.000000 0.000000 0.000000
516091028993185881650386835897682774299102298600432080622023746831328584994390016.000000 712474551797890914624547582744628470212040532531627595748849120960127603144916992.000000 0.000000
712474551797890914624547582744628470212040532531627595748849120960127603144916992.000000 331973127513246785173734774973717828019865330619039455542476371447040955935358976.000000 0.000000
0.000000 0.000000 0.000000
-3793810302046951452122323134863737934468679752161744265075997569428527882061217792.000000 -783399602375876258186157903105014838690978294861873663544899419028769335979016192.000000 0.000000
-783399602375876258186157903105014838690978294861873663544899419028769335979016192.000000 267874037641715244454740563256567968238650710165115959003157612232375372590612480.000000 0.000000
0.000000 0.000000 0.000000
-5222573127300463009786014048697388182958507960491350066735904182028822212520181760.000000 1372231615543890381381989535857495006004276844484567276854750756104829528059150336.000000 0.000000
1372231615543890381381989535857495006004276844484567276854750756104829528059150336.000000 557902085485866089646346808275889533760211829910832445285695049732111836198731776.000000 0.000000
0.000000 0.000000 0.000000
706418559829288339519908829128864380510348067671645671237797546708611688346681344.000000 311992168030626718624802826877181525317727372980427936367725088348981435152990208.000000 0.000000
311992168030626718624802826877181525317727372980427936367725088348981435152990208.000000 82094659021446203257145238331727528238203096779195670442629901406478986045816832.000000 0.000000
0.000000 0.000000 0.000000
93067039315182599447325755028541486199610477820419400839470744679061022260068352.000000 -161516876859965646979438004481764598996401365034377768167045407500472681068756992.000000 0.000000
-161516876859965646979438004481764598996401365034377768167045407500472681068756992.000000 81097198201098882832857488361659955235427989645926422256728428239294507123736576.000000 0.000000
0.000000 0.000000 0.000000
583222256491955180086906368995476048865126296159256175155127263411520592871948288.000000 -668155416133253689056218815536547197053181931647839865851508592179404560442327040.000000 0.000000
-668155416133253689056218815536547197053181931647839865851508592179404560442327040.000000 335178112384320268996190266931505444711747618667764097101924623213463047201882112.000000 0.000000
0.000000 0.000000 0.000000
441236477207109439381766259683385186796068824346286401516473263407663449219530752.000000 261517370467544163624548398857320710944880081242594204876118094969432923780939776.000000 0.000000
261517370467544163624548398857320710944880081242594204876118094969432923780939776.000000 85409181580110611997188930797389812202350256104256069798042914131503409344282624.000000 0.000000
0.000000 0.000000 0.000000
-255918066906283050620143063905531594652398770339102511917223315231537477013471232.000000 1013666133379670574031809170251901749528083627717979059662590314469812045925580800.000000 0.000000
1013666133379670574031809170251901749528083627717979059662590314469812045925580800.000000 580312846834173160420410833184970060637462003695324127382209035240570159267577856.000000 0.000000
0.000000 0.000000 0.000000
6254411868323412590351235502216565406704293136733563711548966157118288254992384.000000 -19797030804903011967373994893442040626298119516373384988653925237009380842405888.000000 0.000000
-19797030804903011967373994893442040626298119516373384988653925237009380842405888.000000 12064698756199774181738242937896814510398053707430542656896596192073608329166848.000000 0.000000
0.000000 0.000000 0.000000
-4738703349396753224941695044056759918481391474364854306187706759754133582167146496.000000 -1030339540585708633432620801296237541347935258339132774031073210638499189530558464.000000 0.000000
-1030339540585708633432620801296237541347935258339132774031073210638499189530558464.000000 358274575703257796738425292429737367393866878000993657951280358509374899331530752.000000 0.000000
0.000000 0.000000 0.000000
-823286394422841266423481610977164322777861202480102102852333424769439380778214490112.000000 -38765388948729128363608187851476357767002034699919458184862308538752761716648443904.000000 0.000000
-38765388948729128363608187851476357767002034699919458184862308538752761716648443904.000000 3622819997749184601640599970407826242956860739417987910571700498863701920562806784.000000 0.000000
0.000000 0.000000 0.000000
3083663255321404957337549449879916246979106137438996401071735465411094438484115456.000000 -2623291150766482438422115253497024437817652972358390895184438595727514488983781376.000000 0.000000
-2623291150766482438422115253497024437817652972358390895184438595727514488983781376.000000 1038427142629336099553888499835503311992114283563509997047189985611417973187149824.000000 0.000000
0.000000 0.000000 0.000000
-103337951775539668236498337782642231118810505313783186746235797120021662904877056.000000 -773003525194339065795895735950306288442865402583143688715355445102880969686253568.000000 0.000000
-773003525194339065795895735950306288442865402583143688715355445102880969686253568.000000 385694370841236665846919105514198527817630049770835751760121135342770994133598208.000000 0.000000
0.000000 0.000000 0.000000
103719094278380124608149762882852533353195876020732219671224069033430267163836416.000000 -3013898145911836676988950208532818972642403443926336487181063762912343815467565056.000000 0.000000
-3013898145911836676988950208532818972642403443926336487181063762912343815467565056.000000 1667781742285366584065462505542713013714260908801879424239236977037439331402252288.000000 0.000000
0.000000 0.000000 0.000000
21445885498581245502948428478938301287311894859290571403923040241224380426747904.000000 -18424439240534424505034700187809743896117277425951691893973283963936794151485440.000000 0.000000
-18424439240534424505034700187809743896117277425951691893973283963936794151485440.000000 7353318247415684332610848645966497111651819642136176895988623381703472017571840.000000 0.000000
0.000000 0.000000 0.000000
126660285123979221740384397296739443045195824337363471888191455424975985870635008.000000 29992176763329882563143766384690733413071187591660542893155862856405431183474688.000000 0.000000
29992176763329882563143766384690733413071187591660542893155862856405431183474688.000000 4726594103117457509186244331305866706860515188255980614376452748532361170255872.000000 0.000000
0.000000 0.000000 0.000000
-252530099974804028565208372370031284868035441218683684164195923395279958388506624.000000 1703210865827189621873598125867764112490878362622179232992989718511547761559601152.000000 0.000000
1703210865827189621873598125867764112490878362622179232992989718511547761559601152.000000 968126550805507065475881714624678351102659416365368790827553866053102824469823488.000000 0.000000
0.000000 0.000000 0.000000
-112854860274989041059892471016890077982922953477160556353047426341501897912877056.000000 14087997196816421230793118310043218728959760260791807649865334473225020536520704.000000 0.000000
14087997196816421230793118310043218728959760260791807649865334473225020536520704.000000 1114627439750967190772531139169829545150117595158427433792794821875030250487808.000000 0.000000
0.000000 0.000000 0.000000
204966488784741561395428178538711859253475561758651557128742350248603615664013312.000000 -90173568716956308801908743014760215523651213131937210512009306684428132078845952.000000 0.000000
-90173568716956308801908743014760215523651213131937210512009306684428132078845952.000000 25596527926206353461385846308644919243375517696389187369615661655827698574950400.000000 0.000000
0.000000 0.000000 0.000000
887886258588161558403584592694015133749855596639372450834515663633553277138763776.000000 221223920797954650584886570777971070333999700736782222644371959250430354392088576.000000 0.000000
221223920797954650584886570777971070333999700736782222644371959250430354392088576.000000 35284591980258403570401282608266374932592088660421066570582663886627011727196160.000000 0.000000
0.000000 0.000000 0.000000
23455912834221900236436747369662596689779867631081754765537933039070309347491840.000000 -1704394511578095372342867173821551178121867680668231818989857787397001978052608.000000 0.000000
-1704394511578095372342867173821551178121867680668231818989857787397001978052608.000000 82266092371871520439273267326175786514557483619396147344774945153594152714240.000000 0.000000
0.000000 0.000000 0.000000
-382486387475322500779092145206085673676117015853282465541768623765356388760420352.000000 -479667891416554465000930888610607105366854958757308168871506609160345932768739328.000000 0.000000
-479667891416554465000930888610607105366854958757308168871506609160345932768739328.000000 275484304408921877536619456173403754877457986142588605131472868010375856332472320.000000 0.000000
0.000000 0.000000 0.000000
-634412257344405620002034787858712169498429895053893290291595666320773695624183808.000000 415387150082123590141488984917943696019405609201069318407950424093920464532930560.000000 0.000000
415387150082123590141488984917943696019405609201069318407950424093920464532930560.000000 225602108244564822566958246110615012911932147286213385221499110016391643836448768.000000 0.000000
0.000000 0.000000 0.000000
109008061174252388406588790479559118340696357344609747269758196451540998291456.000000 2586035497700057138518804164060613175009700733917492731694727385506181017501696.000000 0.000000
2586035497700057138518804164060613175009700733917492731694727385506181017501696.000000 1429009328466173776253104085993764112458446374182949111309372574000340367572992.000000 0.000000
0.000000 0.000000 0.000000
413570185670820401369800812398623901414122084830401174667568226962069641448390656.000000 -165417822034161107025906716245553030292187649877107590517762927200184769032749056.000000 0.000000
-165417822034161107025906716245553030292187649877107590517762927200184769032749056.000000 40015096274935896944652097052490812067858804439699343583439233698011095467294720.000000 0.000000
0.000000 0.000000 0.000000
78516615832450974592532487491698852958614496598164327422142905489674319622569984.000000 -7055751270867836345409789985892668073518689217600830007340531719292846952415232.000000 0.000000
-7055751270867836345409789985892668073518689217600830007340531719292846952415232.000000 422584119758201723228623621367511784702837419471405970116000095499105932935168.000000 0.000000
0.000000 0.000000 0.000000
84655686098014599624789527421462169027643043239181456487081441535972582765887488.000000 -170455688323751644353301818655930596446392235230078750703307215814377253602590720.000000 0.000000
-170455688323751644353301818655930596446392235230078750703307215814377253602590720.000000 87395210446494829737807616482092862409766935359595506813160194618185278950473728.000000 0.000000
0.000000 0.000000 0.000000
-304136504117898530680255823571148324116505025641237227908494547595188174315323392.000000 422311944422326367551488299562205154810128561427184267324530459508968168349499392.000000 0.000000
422311944422326367551488299562205154810128561427184267324530459508968168349499392.000000 239071178899424672338564386457026620403356571974790577015865606456620941374914560.000000 0.000000
0.000000 0.000000 0.000000
14263133758758733923924187210170365364672455303566398324102174131166710241165312.000000 -19818233975931644585192255111549605249321773335629349281151215132841984907018240.000000 0.000000
-19818233975931644585192255111549605249321773335629349281151215132841984907018240.000000 9250050888774796653366950209823879701808861838103811304610794201885042750259200.000000 0.000000
0.000000 0.000000 0.000000
-19843606397298706514992108592179439740740562350431055446631415476153613126362726400.000000 2356850892783750198359699427514872838058482951446171397975911789317637197533282304.000000 0.000000
2356850892783750198359699427514872838058482951446171397975911789317637197533282304.000000 520498295072507857437433348679472838843665357903680953877024480631508339095764992.000000 0.000000
0.000000 0.000000 0.000000
726125072440041664875841400585171216637703275481400592609363816155275391141937152.000000 -179606899640145124636343206520765931995479896371634082364905934538711801714966528.000000 0.000000
-179606899640145124636343206520765931995479896371634082364905934538711801714966528.000000 29471661983976254006349577354646326699994220544339241134046702195742625780203520.000000 0.000000
0.000000 0.000000 0.000000
453812215306441789760076972036314614493485883191558995174731601407663996403712.000000 -746748122380917042233105967733124175679076918586790932371619964762578151800832.000000 0.000000
-746748122380917042233105967733124175679076918586790932371619964762578151800832.000000 361444442102410116916413401817679897914728161543908205182553158054000149397504.000000 0.000000
0.000000 0.000000 0.000000
23233142322892298796737072508385126786445119058293491419772327814086943737643008.000000 -745111938342061176303086045337762267406363399908299596298548249347731304050851840.000000 0.000000
-745111938342061176303086045337762267406363399908299596298548249347731304050851840.000000 413744308119540206904878453814318998140769901430687908882371084145478935206952960.000000 0.000000
0.000000 0.000000 0.000000
902794678883626745559984674420801575190773980157197542178280394526398624223461376.000000 -537064504880749188091782684372356256032297559924916082253838428188037232908566528.000000 0.000000
-537064504880749188091782684372356256032297559924916082253838428188037232908566528.000000 222576662469665817821909847393912967725123486602013902220085966109821739936514048.000000 0.000000
0.000000 0.000000 0.000000
650139072497396009787834235582174799666907650843230985291009236672638825518858240.000000 274722055554345531793847865962302307002921862485888122867535134148863718116556800.000000 0.000000
274722055554345531793847865962302307002921862485888122867535134148863718116556800.000000 93309037332971569495813670182220420408011427740342318941282297432386731820187648.000000 0.000000
0.000000 0.000000 0.000000
-1199648303152624469202418974778044003094907604782128341142004961442914777876660224.000000 239725700783853573866244140205823389679705926226602439440738456633095105839890432.000000 0.000000
239725700783853573866244140205823389679705926226602439440738456633095105839890432.000000 78782037679884906813166406448169681571868402517063128945907733164089959526694912.000000 0.000000
0.000000 0.000000 0.000000
-113141957739808625021043741479383025418728377842454122807930927269799965040312320.000000 -122941802021247858814802500477922503302496417782767420565231016542728177716297728.000000 0.000000
-122941802021247858814802500477922503302496417782767420565231016542728177716297728.000000 108337352981128398542152901394358019058566603800489284179579761147469040810196992.000000 0.000000
0.000000 0.000000 0.000000
524201774783625868186162936129771902426489146806250093369940350900747756204195840.000000 496094435508726294624737532974229122207246802685325137670292788131100844659572736.000000 0.000000
496094435508726294624737532974229122207246802685325137670292788131100844659572736.000000 204965051945516245722494049550727981418689946101667394939597982604915195722596352.000000 0.000000
0.000000 0.000000 0.000000
-447918352006911010141750105714357344596397418085163228821863575175927378739200.000000 -5084644945361943904405038041892137998957748938246769141351116267987782235848704.000000 0.000000
-5084644945361943904405038041892137998957748938246769141351116267987782235848704.000000 3121816127313853356419307647707771463878126389276361250661000697022781218357248.000000 0.000000
0.000000 0.000000 0.000000
991403668201005985204573756248902494323233706730035433285101242683066511523840.000000 322987364673760152396758420360505589312181275565688820744198462363438881439744.000000 0.000000
322987364673760152396758420360505589312181275565688820744198462363438881439744.000000 65524683211650428741032537243526450147511358433457613586662578911695190622208.000000 0.000000
0.000000 0.000000 0.000000
-607360230668166588650173178155052700180458068058146363842001614107279665831870464.000000 743905752938063035290315912576199061299514475591865435494262562533793952478265344.000000 0.000000
743905752938063035290315912576199061299514475591865435494262562533793952478265344.000000 428696737174631810922733721491682896598496064843529324360854957456682250384965632.000000 0.000000
0.000000 0.000000 0.000000
5522693256663769649447953733615823600902186094609007363046068741589315467870208.000000 -55569585934609417154895677482736677242957175656874334620260337922417427803537408.000000 0.000000
-55569585934609417154895677482736677242957175656874334620260337922417427803537408.000000 30410308048267626101239594596644440854705304944544908748369611383897234887147520.000000 0.000000
0.000000 0.000000 0.000000
-326121888620684760066697359789584971778592046328497685463396052663545614041088.000000 1906291330691143818185857052948973480048966314166850283281570203544165801787392.000000 0.000000
1906291330691143818185857052948973480048966314166850283281570203544165801787392.000000 1165595529705349266766719831773918474132276315910262676343962779544637115727872.000000 0.000000
0.000000 0.000000 0.000000
-209226841442868279166168596915823084001177962873777557660282300199717555681858945024.000000 6357339602590387851810306212927189406478498141354109739009843335495891590624313344.000000 0.000000
6357339602590387851810306212927189406478498141354109739009843335495891590624313344.000000 384189811782889456097011911397538355868614624957636781456956219759419439383052288.000000 0.000000
0.000000 0.000000 0.000000
-383701735737291072508008023450624268677108223814640901590050056129110892982829056.000000 338377531982248753365805239668299160090261478358326345855744726852296408674861056.000000 0.000000
338377531982248753365805239668299160090261478358326345855744726852296408674861056.000000 190619197764225236675870548694176433577847509380391438588433184367374596023779328.000000 0.000000
0.000000 0.000000 0.000000
2316853280402971184264933063721555297940699809223661769847350398939526507838570496.000000 608945523776641430696787722341360729048284962101404541352661589466329876883570688.000000 0.000000
608945523776641430696787722341360729048284962101404541352661589466329876883570688.000000 123279449927981023356442783352469214982574186801805587310157086135672442252689408.000000 0.000000
0.000000 0.000000 0.000000
148679498492147349033600795142464760220602047447266911848780311571306439059177472.000000 -1434768825943031850080790514273930700561999757327866978858200162056781648350937088.000000 0.000000
-1434768825943031850080790514273930700561999757327866978858200162056781648350937088.000000 812766570631190518418685553643807839819571633777238868997100424769572376040964096.000000 0.000000
0.000000 0.000000 0.000000
1865701875802253891624146259338539481240149600806307736311815710762222819471261696.000000 -1047840898839768300500952056174528829909352603972508930367808707485889471667240960.000000 0.000000
-1047840898839768300500952056174528829909352603972508930367808707485889471667240960.000000 316942710451591309833586620471962395283469599561304850115071159701965102571847680.000000 0.000000
0.000000 0.000000 0.000000
-797467114078949629522306447980071889261242078290423408355355531416567693982040064.000000 805397533569705363918258188431217229543751477217238392467317060897504466623791104.000000 0.000000
805397533569705363918258188431217229543751477217238392467317060897504466623791104.000000 554404275924117302536189305935892793731468578865310928915425526364831893216559104.000000 0.000000
0.000000 0.000000 0.000000
-191508453561852552593543404637861634408291168201942756217480097549082469355575312384.000000 8104253205374342844557375695995392017084060641141477595771204246191765176128110592.000000 0.000000
8104253205374342844557375695995392017084060641141477595771204246191765176128110592.000000 680882904056083802108901044822067520061906016810642186331750528014591809099399168.000000 0.000000
0.000000 0.000000 0.000000
-2235635929909602958727404290379979636645039179429520215781303621560715339618058240.000000 -901986740777082266408505396361295537548186126458591676467463754269707042356723712.000000 0.000000
-901986740777082266408505396361295537548186126458591676467463754269707042356723712.000000 432398369245135142852700883658262493260177940326414511064277090019223802977714176.000000 0.000000
0.000000 0.000000 0.000000
-24249853555005621245504281078328856960150805930134949458465312289231443027034112.000000 -276799989425415311460553719759412580673634613651742870423585079531992175526019072.000000 0.000000
-276799989425415311460553719759412580673634613651742870423585079531992175526019072.000000 155550726142369726530604006501107734331377261440074395939218911733517062246498304.000000 0.000000
0.000000 0.000000 0.000000
-446916999600652106503287867796583070414190799289725125420318237554927542145646592.000000 409785651915634284692473122767862122891594421498847325795713495147547257905086464.000000 0.000000
409785651915634284692473122767862122891594421498847325795713495147547257905086464.000000 231962734846447747038131546004458870128018200948836485299724832840004991291752448.000000 0.000000
0.000000 0.000000 0.000000
139881792836127066039777814441576212702213514705990793622008773176179435069505536.000000 112798555602843634784279929561723974024201384474383885357398595334661002141630464.000000 0.000000
112798555602843634784279929561723974024201384474383885357398595334661002141630464.000000 43559644510343888780360759748988273556900345003002044628205198040132930034991104.000000 0.000000
0.000000 0.000000 0.000000
-73875308859557868686377216043843024452318572242945031189292579242301632574966988800.000000 5231151927132447341401441288599867536545182976911033029329577397556238913246330880.000000 0.000000
5231151927132447341401441288599867536545182976911033029329577397556238913246330880.000000 719752268600491368283774170227754919648740058656930463085639741762029501162717184.000000 0.000000
0.000000 0.000000 0.000000
635597946204283428685592535916470268294652058843978390156658576865998598569984.000000 102914520295418136140129420893744618277499579042115013901543186300552358133760.000000 0.000000
102914520295418136140129420893744618277499579042115013901543186300552358133760.000000 145635286155672617844915151481614545600891685347678449310683297096873375956992.000000 0.000000
0.000000 0.000000 0.000000
2945271769010204183182071156395183446609531762636327203867832115416117821833216.000000 622524551921086223073333179934123431604289778418898069401231727708813878362112.000000 0.000000
622524551921086223073333179934123431604289778418898069401231727708813878362112.000000 156005063896350504323722220828676813257953158009822468446572994037026159329280.000000 0.000000
0.000000 0.000000 0.000000
-145625460629162854486458946116243489346930814888094536519628867304290183645495296.000000 1095011565404767651851105110712751212771367373128433285389757118320292321441087488.000000 0.000000
1095011565404767651851105110712751212771367373128433285389757118320292321441087488.000000 628893268747268221623484659549797459481314420523402675272270826045724341330509824.000000 0.000000
0.000000 0.000000 0.000000
15771764346861001801405385254678374801582464468905752755553431318730810251542528.000000 -18352249643453466163184937540937911514100192942231209675494018431747524244013056.000000 0.000000
-18352249643453466163184937540937911514100192942231209675494018431747524244013056.000000 17442120101612365358730539352059676150829866838284433169621715541210545891835904.000000 0.000000
0.000000 0.000000 0.000000
687982428516026538287829739547657567579800378188020448336345533273134687749931008.000000 -333230008760241461130607834843441204921898376461852906897959674543120772858118144.000000 0.000000
-333230008760241461130607834843441204921898376461852906897959674543120772858118144.000000 93254901229447027956528493763082095722703058999306128963988789523436970555998208.000000 0.000000
0.000000 0.000000 0.000000
153709908320971112631822864103126714436129395101943787352900858054002788347674624.000000 74708573914722701935089143123387214816711330870001435485459890118221617979981824.000000 0.000000
74708573914722701935089143123387214816711330870001435485459890118221617979981824.000000 20961437563163106551484047150029822763591872803864686430269925917347432328331264.000000 0.000000
0.000000 0.000000 0.000000
117351206766340812945720369574693888389527186264056114724725167390405336066162688.000000 28504544537280216125010568459766741143308683066049574974493535675926673528717312.000000 0.000000
28504544537280216125010568459766741143308683066049574974493535675926673528717312.000000 4406651821384266353897889305161594915522008870442729098395881426943765169307648.000000 0.000000
0.000000 0.000000 0.000000
47489936702037947029170293184460653240216207093031835649489158885279633198022656.000000 138088228792005894611521768555844476446031048868045533116250505583644197437571072.000000 0.000000
138088228792005894611521768555844476446031048868045533116250505583644197437571072.000000 62622002052860032149238290904386571563284908837204210443974266800378726827687936.000000 0.000000
0.000000 0.000000 0.000000
383588777677962554220657825243435047970674750335311252063975955372040903039385600.000000 341982775907923019636961960012388518372241150253855030112680368285086806494412800.000000 0.000000
341982775907923019636961960012388518372241150253855030112680368285086806494412800.000000 146416529490010647518592462033082669585508211576551562528127233317367030906617856.000000 0.000000
0.000000 0.000000 0.000000
-14988203622987212220703334496455356695125437766299440107828207813077208534089728.000000 -9763583863369664088975626537518411525077478062544166477858941535910343171112960.000000 0.000000
-9763583863369664088975626537518411525077478062544166477858941535910343171112960.000000 5288578965963208706563529368410975647837202239605885133547357447245711825436672.000000 0.000000
0.000000 0.000000 0.000000
592169842763447958021693354128125107609644707872213496851377317690728657534844928.000000 -141386474220499280317398945496646161043629762743240638377982143334615624529739776.000000 0.000000
-141386474220499280317398945496646161043629762743240638377982143334615624529739776.000000 22009165964174013511552264744745921254535997670278084860157516991339365664817152.000000 0.000000
0.000000 0.000000 0.000000
-16522483279917211037576702087309171324273438555427944319165499798714170268975104.000000 -984396465978391733069303884412484953429839235714660247116440429600970412916736.000000 0.000000
-984396465978391733069303884412484953429839235714660247116440429600970412916736.000000 354833092973251735850721036412414808647594989150220715950159430072424200142848.000000 0.000000
0.000000 0.000000 0.000000
1525372449893277858252055099151153214476302056130974982806598681975591458993864704.000000 -557577166159998742395571532035527241890921370021401255413455447168117767244087296.000000 0.000000
-557577166159998742395571532035527241890921370021401255413455447168117767244087296.000000 124535867724267713461256340405992465341218683138348958759136039934926332230631424.000000 0.000000
0.000000 0.000000 0.000000
109431832378597068902807364333390194223519974179319735062983013255894185076064256.000000 -19861653094768286770392264698512649753293357513898080006081417131577010835947520.000000 0.000000
-19861653094768286770392264698512649753293357513898080006081417131577010835947520.000000 2365862545877778877317483393215292082622097964990185917195497268626833669095424.000000 0.000000
0.000000 0.000000 0.000000
113023168073676911402222062548350790081524135791259783793223819811850989718208512.000000 -231338657077257830475365387127383624085642181985763714147794074168999420561981440.000000 0.000000
-231338657077257830475365387127383624085642181985763714147794074168999420561981440.000000 116330145637966866619505426631527781384598745857671398229737660124008303286026240.000000 0.000000
0.000000 0.000000 0.000000
111482322651886664085264619219899927145150259068169700609729881833413266859098112.000000 -424904180191275580867810866715569736270200091961400919527494164776400361457975296.000000 0.000000
-424904180191275580867810866715569736270200091961400919527494164776400361457975296.000000 230234092389755408456266571620925261206440476159978816748314607883731365368168448.000000 0.000000
0.000000 0.000000 0.000000
154729555714972462383361435101503820800498765788333399791396994314248001138196480.000000 757632318437495378366756349841385905439186202614856100862869007016087611640905728.000000 0.000000
757632318437495378366756349841385905439186202614856100862869007016087611640905728.000000 507411570934777141537872952714541507343043748209498724608497989812234614609018880.000000 0.000000
0.000000 0.000000 0.000000
175927199830932013841578153757388840691208298971816071258558965438231130404814848.000000 -560566130459391457503737945096192833108543481985157492115511024609152189985718272.000000 0.000000
-560566130459391457503737945096192833108543481985157492115511024609152189985718272.000000 293376482786922649230216297148725509035471033048947870005221118476492898796830720.000000 0.000000
0.000000 0.000000 0.000000
57742791212299258580170983001881195214986636871730197411335990163929692555444224.000000 26507880741956997423758677358153533211980898317756897097783420100854162393137152.000000 0.000000
26507880741956997423758677358153533211980898317756897097783420100854162393137152.000000 7387041251178713024106937315537561306503377079489815508257837056401565886185472.000000 0.000000
0.000000 0.000000 0.000000
130267716363776387577192006520513356142349616020403559510925075422783629003063296.000000 -134009752153966103704967766945431353749427149118521347507512317611313586843418624.000000 0.000000
-134009752153966103704967766945431353749427149118521347507512317611313586843418624.000000 57032588629054384740687013970365067339449012623807662021521856793619325259874304.000000 0.000000
0.000000 0.000000 0.000000
4982261397053906862620583134308780771369056519981771578957424119221615008365412352.000000 14268895376678831241909346892745612939898954967035883699457226008832039385210814464.000000 0.000000
14268895376678831241909346892745612939898954967035883699457226008832039385210814464.000000 7423400238270971315888300028245335895044181961022432035319638255957834899222691840.000000 0.000000
0.000000 0.000000 0.000000
492601254758844246825020426232875815623368942267062627781868415360823101260562432.000000 556604638677717157679535245558730064819744665223946830889672648370558805158658048.000000 0.000000
556604638677717157679535245558730064819744665223946830889672648370558805158658048.000000 244978124098705477473422951231038196996873183295906976396816903897227124459700224.000000 0.000000
0.000000 0.000000 0.000000
-215399578404569134915054405403518152653902416036477564912741653719074704047575400448.000000 26449896106324776061888550878859152825600905525725619923637584983522886874512228352.000000 0.000000
26449896106324776061888550878859152825600905525725619923637584983522886874512228352.000000 5989958857951772188879475029214283378464121035373675616428335982812755891719241728.000000 0.000000
0.000000 0.000000 0.000000
1592368788327184557316169274293966330446821368373704839946410101453629073324507136.000000 -540967867448585223261897121991565006590891251546143883015740657914841612500860928.000000 0.000000
-540967867448585223261897121991565006590891251546143883015740657914841612500860928.000000 114887639981457713779064996639412600294845769543197597110699774430562566851788800.000000 0.000000
0.000000 0.000000 0.000000
868625953070602424398184835231834466357895781590138470990573815019849216029622272.000000 -1177765023591937062237983389589663645577576741471207012989786487049896616878145536.000000 0.000000
-1177765023591937062237983389589663645577576741471207012989786487049896616878145536.000000 546284669251317588544992732440460970435420630357298270062553788760947570671353856.000000 0.000000
0.000000 0.000000 0.000000
64622774097723705638446081627562060822417011945666579378107549554108647407091712.000000 -476665083347219641863400120928126994374684936764730817856703374107310023549911040.000000 0.000000
-476665083347219641863400120928126994374684936764730817856703374107310023549911040.000000 268416269247517506371526144206588604461445627395859814801534755247959773890478080.000000 0.000000
0.000000 0.000000 0.000000
-86449808799537456573094057010143089757448941094548224053470555773110412873039872.000000 314082868196010140744024364315436491017521548666763213125474810822727772258959360.000000 0.000000
314082868196010140744024364315436491017521548666763213125474810822727772258959360.000000 295907288258036856648568931563495582149227391853384839603877604378959107097362432.000000 0.000000
0.000000 0.000000 0.000000
725634768428459946901786853453720077457835338323169970271446718788067468446269440.000000 696286935968636602904784843696617657231135451568127594160655511294379066700857344.000000 0.000000
696286935968636602904784843696617657231135451568127594160655511294379066700857344.000000 337042751294821638884664606710652000998543641549667055444010198456050768674816000.000000 0.000000
0.000000 0.000000 0.000000
628747635589174592740750603704255603448530383444884095073407060427140226321743872.000000 371384376752803011644680710735132112939865382428580710212227670332767012623745024.000000 0.000000
371384376752803011644680710735132112939865382428580710212227670332767012623745024.000000 179602154600836667285636714056553748924524182348527156650626643451092504886116352.000000 0.000000
0.000000 0.000000 0.000000
352299325900623166313373391572972005096524276020533687436937934606185393733763072.000000 -157538893412518183883153167510579986110197437377586153946293014120252972304695296.000000 0.000000
-157538893412518183883153167510579986110197437377586153946293014120252972304695296.000000 44229782478754409294315286153011029643939015519149317444912444258508261069684736.000000 0.000000
0.000000 0.000000 0.000000
1340537925617044709228788827700802062079377352541020229988647821046470028440895488.000000 -1043775835947935351937602580586178056576698074537705007250819778962418540474269696.000000 0.000000
-1043775835947935351937602580586178056576698074537705007250819778962418540474269696.000000 392354923769832334586195081817372687193879911625573693912591198815777870810447872.000000 0.000000
0.000000 0.000000 0.000000
-174885788245479769060424284899945976454594668542342930927849935925723109578233610240.000000 -19407693188297740381629640095176250959153087016104432748754742841232613323189518336.000000 0.000000
-19407693188297740381629640095176250959153087016104432748754742841232613323189518336.000000 4022979105558168761660062157448328851549448870666492534384475952794436394205315072.000000 0.000000
0.000000 0.000000 0.000000
716717017689207830265127792741270060754087801239207199132473776895167001570312192.000000 244492732934640942604317113751363793927103838177195047525941207666482913818443776.000000 0.000000
244492732934640942604317113751363793927103838177195047525941207666482913818443776.000000 59611320095636579406670202255063013848916125278182598396847584606904503043620864.000000 0.000000
0.000000 0.000000 0.000000
472071408512637833336227595499768496938076227465971527893026451486880518639714304.000000 -995534599969715245065289675876613084654564350563161069843516993790612851216351232.000000 0.000000
-995534599969715245065289675876613084654564350563161069843516993790612851216351232.000000 503709583897931854422685005490874014604470398330269457138946148518672853658238976.000000 0.000000
0.000000 0.000000 0.000000
1377982073529093119696553101229613541489337794982044745733319985044913728786530304.000000 139563981374345585458133478982328164165318227459152617288754600920119509763751936.000000 0.000000
139563981374345585458133478982328164165318227459152617288754600920119509763751936.000000 18108259690449220681988455482813596960686833913619791468714603092407595246288896.000000 0.000000
0.000000 0.000000 0.000000
60090078366667177489705467517876967334717996974613681667423866480962060026904576.000000 40454527283550313487899439528953972875437087711881956470969366109153582206943232.000000 0.000000
40454527283550313487899439528953972875437087711881956470969366109153582206943232.000000 78980370487696685210524547722085491508083256273004918569631360766791983581626368.000000 0.000000
0.000000 0.000000 0.000000
45025165533833510196563596979677498449951890290075287095053625494231445850292224.000000 82442631879983003223699429417297269137575179217696777017426959373498669525368832.000000 0.000000
82442631879983003223699429417297269137575179217696777017426959373498669525368832.000000 55056602950636121972923174583417520418439929264588947886225625584458424800772096.000000 0.000000
0.000000 0.000000 0.000000
202683673082171028106217817663796103885372738613997463313371328132632993331150848.000000 277569090629125552366084829317068909104174173154002007566939726329952474033553408.000000 0.000000
277569090629125552366084829317068909104174173154002007566939726329952474033553408.000000 129072787111666871480961148495912618256266502210821087761152140067110180765040640.000000 0.000000
0.000000 0.000000 0.000000
-5576613046450827505750549458003618047350711996420244017003077274131999607538843648.000000 4823402513277659819576417044834555529626735297846021820546286154089426179070099456.000000 0.000000
4823402513277659819576417044834555529626735297846021820546286154089426179070099456.000000 2812911784743040780569936857510534029390900149674282026264060535550052960806371328.000000 0.000000
0.000000 0.000000 0.000000
-1737720152566964431111076124788775950012836081235624778652113825179054545938939904.000000 -274777260983931359574569677428927827553803686030690163217838025969986530418098176.000000 0.000000
-274777260983931359574569677428927827553803686030690163217838025969986530418098176.000000 76874910237716087663936242862109198621005522125145005606883731834361230085062656.000000 0.000000
0.000000 0.000000 0.000000
347353331855365914253385753082911318783372935729449421598387795349607261667328.000000 -364353961480144366935688935887677338976432955060153820467957327699196176760832.000000 0.000000
-364353961480144366935688935887677338976432955060153820467957327699196176760832.000000 156618767683773758960996279494743260326210567810700495730887716792319025872896.000000 0.000000
0.000000 0.000000 0.000000
-24025094343368365612137732989757536440045956911452547115568619831896279728783360.000000 -362486888086216841208647403365452932348826935698883619379218779210619221820047360.000000 0.000000
-362486888086216841208647403365452932348826935698883619379218779210619221820047360.000000 215889762892850092405055790917870937185143983841825142961490758577790946333687808.000000 0.000000
0.000000 0.000000 0.000000
5819058847271794634157475694248584002324873150751896594601129788681348682432380928.000000 3174590770815630667547216694568653109953619945837353764302885490068165024064471040.000000 0.000000
3174590770815630667547216694568653109953619945837353764302885490068165024064471040.000000 967381200407312451394802031922147479630741645104639906891989264544010986525294592.000000 0.000000
0.000000 0.000000 0.000000
-13632374596522830279325852685314849805198769026909157119261773431201119573377024.000000 -6406385161109701011222439947828202004040807725475072210093627315872807478362112.000000 0.000000
-6406385161109701011222439947828202004040807725475072210093627315872807478362112.000000 3429509194164774003313230670465223146247050716212205272335041724610555441840128.000000 0.000000
0.000000 0.000000 0.000000
29930911804652626192189085710790510282740768362278101469655805272359926702800896.000000 32429556352618748938446686585001026219973177963511130846017283855892039925235712.000000 0.000000
32429556352618748938446686585001026219973177963511130846017283855892039925235712.000000 35650551282995257150729707464125217420312416874841151306398524349673275146633216.000000 0.000000
0.000000 0.000000 0.000000
5158882526595627519313859285183476183925472284801004400229662542171535390539776.000000 -9737391702896961505536870563277006383649385540711979765394272606709762146435072.000000 0.000000
-9737391702896961505536870563277006383649385540711979765394272606709762146435072.000000 4983463282300034771646983898007231969842137395294061156074703805552933853986816.000000 0.000000
0.000000 0.000000 0.000000
707415426653807565742103788943821735232218897079929668706718400048951187210240.000000 -405330953203199133171638903620618549994019282373365918557831023175320907808768.000000 0.000000
-405330953203199133171638903620618549994019282373365918557831023175320907808768.000000 127690221154795854596317748305081442000810811794111842003547698923236812128256.000000 0.000000
0.000000 0.000000 0.000000
100353283153193221850409342270640087986046607338873378719223152359298039019470848.000000 341453371282569703385227924362767765536484865038158071571506583220944361125576704.000000 0.000000
341453371282569703385227924362767765536484865038158071571506583220944361125576704.000000 182096578246425853700146750009987749139715360061566882571832033656928076874907648.000000 0.000000
0.000000 0.000000 0.000000
125301173065187512455385316952020379570947207083950680371108918700135107627319296.000000 34736338640978530916560600623777352002295329229184381371996438771569519501508608.000000 0.000000
34736338640978530916560600623777352002295329229184381371996438771569519501508608.000000 71754787782752352120410937684839049915628729689191837230143772435822026403348480.000000 0.000000
0.000000 0.000000 0.000000
1297474932151021599780469344871802405702466568572168441868040350982642624798654464.000000 -947907764588667664520503014561828389823085981358336342740229760980808505281740800.000000 0.000000
-947907764588667664520503014561828389823085981358336342740229760980808505281740800.000000 344309096174492500551685178526993888754941935546588856343001107014502325159985152.000000 0.000000
0.000000 0.000000 0.000000
393323705390037543383680522121620799604855725108000067306955458572035689881272320.000000 -266301495655409170813173851360072838684288362002774409613033682667961696307380224.000000 0.000000
-266301495655409170813173851360072838684288362002774409613033682667961696307380224.000000 93163549014555864468594599030915022827381648538169480184150044484698294200565760.000000 0.000000
0.000000 0.000000 0.000000
-3060176591651824991388759534966158094602105770793924637721906559299562522294616064.000000 -2255022044257833376686456140419229914486309205769105985539969178282710849487372288.000000 0.000000
-2255022044257833376686456140419229914486309205769105985539969178282710849487372288.000000 1227364249425105668665140843521882929972210181571580169842879460022953027303374848.000000 0.000000
0.000000 0.000000 0.000000
-558802690962555016274276859577898923603362855228742422599659591343075308179816448.000000 6229291179977713629992833861903187116985042792644327246300838253976788389593088.000000 0.000000
6229291179977713629992833861903187116985042792644327246300838253976788389593088.000000 8612314168792820637362021924442231375553765607546700450906180331533020419850240.000000 0.000000
0.000000 0.000000 0.000000
-149649880997402247258534409303515945470374739503834849834870813801808840464793600.000000 -374369824751141067875379136088434364553763154038611053051400038432098738667257856.000000 0.000000
-374369824751141067875379136088434364553763154038611053051400038432098738667257856.000000 216197688252674723796518734730809896732664278912837108142881847720151810639396864.000000 0.000000
0.000000 0.000000 0.000000
26369872450157822047252523558282142740357933135022910167725694977969261027262464.000000 3711252473539150958008143925170476206373790774197603987110037643333056799440896.000000 0.000000
3711252473539150958008143925170476206373790774197603987110037643333056799440896.000000 366100812578226547276650202074259254530019672982796055200236321854933354676224.000000 0.000000
0.000000 0.000000 0.000000
-2285792903716414501213486187090753151078372962869831183444504410625321480486912.000000 1079852277163973378203167626525437396763520260914229507057370160741657650135040.000000 0.000000
1079852277163973378203167626525437396763520260914229507057370160741657650135040.000000 479179433314147289818316479113655959449925293669327468697836448088871269302272.000000 0.000000
0.000000 0.000000 0.000000
178279453194419471203790096843858167840764562928877773559686594700539826444173312.000000 439094675678453117644240637814018324339857809075877408968123177948443821886930944.000000 0.000000
439094675678453117644240637814018324339857809075877408968123177948443821886930944.000000 238535890679305529933265661014930319630630700178724093350016852022487785578430464.000000 0.000000
0.000000 0.000000 0.000000
-25447245415325699391004800506677554806268347984298824992654598437775155040092160.000000 3573960457262503871331503343443323201679053390209356009489418311603085230735360.000000 0.000000
3573960457262503871331503343443323201679053390209356009489418311603085230735360.000000 1282090905024710330521199338476564079461940228977665396875956931938191713239040.000000 0.000000
0.000000 0.000000 0.000000
460890655906309671314999903917791509477376983349843815754025391425255960741937152.000000 -128888269057513933265725615188159556368308436906711729378015796770333511636746240.000000 0.000000
-128888269057513933265725615188159556368308436906711729378015796770333511636746240.000000 22902745239588227786716938703207560934258338586115420570998204591938787380035584.000000 0.000000
0.000000 0.000000 0.000000
-157261080553038824954380065147186608448085463153535692018406383809522150286557184.000000 -37699399322650083532646827376815915832565565278807296654691524706920642279112704.000000 0.000000
-37699399322650083532646827376815915832565565278807296654691524706920642279112704.000000 15198181945176863581439718772758975205183721310964042188053454780971189626994688.000000 0.000000
0.000000 0.000000 0.000000
1280042029269901825069610018714338137855839363734601041733212064389673820304179200.000000 187869165012907213346867573787223851331100813598743697150459890188940671484690432.000000 0.000000
187869165012907213346867573787223851331100813598743697150459890188940671484690432.000000 18627881394138316902572274029375975296915697133979006217091341380771237165268992.000000 0.000000
0.000000 0.000000 0.000000
517272854599761873740725164205528106634542322516084628207623611547773374658772992.000000 429518387505231996757956679334651862095276582875743497264152408321565880139907072.000000 0.000000
429518387505231996757956679334651862095276582875743497264152408321565880139907072.000000 168356194803904184463130532087319857205780178185557282555018171647225091657302016.000000 0.000000
0.000000 0.000000 0.000000
133962124860068621976059186199239991806152543570168685877066739040480071329513472.000000 52509713514468487470259005650585958430887538831972180493532319428640745182986240.000000 0.000000
52509713514468487470259005650585958430887538831972180493532319428640745182986240.000000 12358995331452490622206049980116948054699020111521687531459881515831263030673408.000000 0.000000
0.000000 0.000000 0.000000
-1810597427089944092934148761236550667198709512318669604569857099807223145427894272.000000 744575921441808021926737255098295311262001124136739107278278064524449376270024704.000000 0.000000
744575921441808021926737255098295311262001124136739107278278064524449376270024704.000000 358381045739883458682931633458927236608098865457820719703815911912973861715443712.000000 0.000000
0.000000 0.000000 0.000000
925355186889378596922809076926339496191482215017136675138949597137685569867874304.000000 -348296525421873522343574013768429454624565480610156828150880076169732912735846400.000000 0.000000
-348296525421873522343574013768429454624565480610156828150880076169732912735846400.000000 81330985236012006282296637788976622687254568363839249019773493962737084543270912.000000 0.000000
0.000000 0.000000 0.000000
745728819945159495742291585029521332531655480060680396318142548507022423991779328.000000 -473111209877232537749613882752906230296462784982103754768751373009846001870045184.000000 0.000000
-473111209877232537749613882752906230296462784982103754768751373009846001870045184.000000 138399497829189936962369149356436077537750551063333127385885254432382414286225408.000000 0.000000
0.000000 0.000000 0.000000
-180725068612562362297290876421440233862391715289604071140087091869910387528826880.000000 -15802252364416066539922367905045291889503227411437359095913435159593933481181184.000000 0.000000
-15802252364416066539922367905045291889503227411437359095913435159593933481181184.000000 6205895882423579180529053554060594919441098585726099514601505457171010661908480.000000 0.000000
0.000000 0.000000 0.000000
-254554148600909336857025551112544354043497204391450930907906727594405963281465344.000000 89385864957773699898264605062682229789230397802781500195920443338201278103683072.000000 0.000000
89385864957773699898264605062682229789230397802781500195920443338201278103683072.000000 43543515521321364017746612761906929832233778965432464782767109773418775948820480.000000 0.000000
0.000000 0.000000 0.000000
-19179292532818691986083181751232005101641273515396940038408007738215397215497617408.000000 1288554834408382776565185746645308775086055031678506273812129598848285337901334528.000000 0.000000
1288554834408382776565185746645308775086055031678506273812129598848285337901334528.000000 168754292705366212915342625126263802900823883957775936699961824900174790583648256.000000 0.000000
0.000000 0.000000 0.000000
-6888633624037556777038633267045828950050734306824071978947016055866510856647868416.000000 1139429551082898293223984065938497028016159015979689445903776347775340943136260096.000000 0.000000
1139429551082898293223984065938497028016159015979689445903776347775340943136260096.000000 334287095898867612495725790365409085189204633170875751225262438750671471640576000.000000 0.000000
0.000000 0.000000 0.000000
298209817887418753167445866424743449774342189411037584964232756345720159046991872.000000 96844457910962353118310112744106926873027539691773324520067346952401509997871104.000000 0.000000
96844457910962353118310112744106926873027539691773324520067346952401509997871104.000000 20980668777304292366127838869248699867265770626397508928058857912845489793925120.000000 0.000000
0.000000 0.000000 0.000000
-2272731540839961399477842951101626964795061472340202803480100879791293372301312.000000 2921830740471570682587014137020597077775718130376450286314342826848384165531877376.000000 0.000000
2921830740471570682587014137020597077775718130376450286314342826848384165531877376.000000 1681847826611722638802554127952536572748231901943914685026037953467938417999347712.000000 0.000000
0.000000 0.000000 0.000000
465232165185967475145156511615843970881757029408994283848322310152005605633556480.000000 -69497418108364548745435799086039668884711960222191792976273714678946881454735360.000000 0.000000
-69497418108364548745435799086039668884711960222191792976273714678946881454735360.000000 6832759652513770283699274608552905464528123882966048707908537097470140768845824.000000 0.000000
0.000000 0.000000 0.000000
778822604157873928248931535831475223569211803853931123597202187946309312759988224.000000 252193097726019804224604915344873653023308728001844609378079039928625501233479680.000000 0.000000
252193097726019804224604915344873653023308728001844609378079039928625501233479680.000000 50940713738573432399437735938418028971803360092572962134056535602748990391582720.000000 0.000000
0.000000 0.000000 0.000000
2361361092692625693750984476704066208730705710539907312616691478786240495484928.000000 610975431417911007960666956726890279651065382481400072276911344392044009226240.000000 0.000000
610975431417911007960666956726890279651065382481400072276911344392044009226240.000000 100881417111341435688014468152758973702344019601771961700759632500281380438016.000000 0.000000
0.000000 0.000000 0.000000
131667601134196359901324799879723965270245377660467655784851085272083880225013760.000000 39414965541381485457450900736311936487026987823523028292683786785074818622423040.000000 0.000000
39414965541381485457450900736311936487026987823523028292683786785074818622423040.000000 7405613631207425203171759250210299902573592503278997067231208137863983190245376.000000 0.000000
0.000000 0.000000 0.000000
266307488224837566466545513818702495165069169895939971409077359120223502021427200.000000 112814330361754036761296016261223194245808695740027564498087617857620460523487232.000000 0.000000
112814330361754036761296016261223194245808695740027564498087617857620460523487232.000000 27492082774837699416808027544370623449618754559513803952783476883646323020005376.000000 0.000000
0.000000 0.000000 0.000000
1178711695985853274511906244541509269487246751875522224935826992635786484963606528.000000 -1692781974951702940610889690041162946024817295426770935118081225192398430385733632.000000 0.000000
-1692781974951702940610889690041162946024817295426770935118081225192398430385733632.000000 795993423882079648470504200785264586750714535821552518057083886288898128491839488.000000 0.000000
0.000000 0.000000 0.000000
409644436742668425883947890850352100586721839610611506513747807149681868443484160.000000 26418763100757643337339175861231724610736136794481829062647183047557241584484352.000000 0.000000
26418763100757643337339175861231724610736136794481829062647183047557241584484352.000000 7054483953118718909034576176793735481007752764446755766292238217857427142868992.000000 0.000000
0.000000 0.000000 0.000000
726524939052350498637820040393978799370684983169007807048058479962841259031134208.000000 -120841137780735437728263579396511840793515174915192468175583591678278876472016896.000000 0.000000
-120841137780735437728263579396511840793515174915192468175583591678278876472016896.000000 15197463226212831913817579821584691019146268323649064847597166041246415011708928.000000 0.000000
0.000000 0.000000 0.000000
1692715389469768768128796939351505932408701798913088342415294730895622937763643392.000000 4988343643748704227428333204714948779088905942436056469198097030785279946857119744.000000 0.000000
4988343643748704227428333204714948779088905942436056469198097030785279946857119744.000000 2826456766671480967765528651386504442129169560249889334370687916738449124605558784.000000 0.000000
0.000000 0.000000 0.000000
764067906866383602571877582028628868810997629850870843379310830970841781527117824.000000 -2452643944529866781857009954735615063291439369915707202383412977588194861507411968.000000 0.000000
-2452643944529866781857009954735615063291439369915707202383412977588194861507411968.000000 1283915665939683576567201319806108592941926718969623764995200927145460672696942592.000000 0.000000
0.000000 0.000000 0.000000
831408641524703877043541656310693876112376234751539396129342976650765312840433664.000000 -481990389097387699809377131569095508794544707714148095911028200431276039413432320.000000 0.000000
-481990389097387699809377131569095508794544707714148095911028200431276039413432320.000000 152549786896755888816897156468008175787429820989804995911604138633649521139122176.000000 0.000000
0.000000 0.000000 0.000000
2225386911366904666541355776984631170709721026565657348401615317543524654225817600.000000 669076705057461454352861009004308802846180004396570304014812345220823340367740928.000000 0.000000
669076705057461454352861009004308802846180004396570304014812345220823340367740928.000000 141375224960417549119526279496000028208583826532416363218630571506860634201391104.000000 0.000000
0.000000 0.000000 0.000000
86544589247973216317546657671531350415190525437609791730834470231852475981234176.000000 19347275117687834825568985204039060734045043564435720632016224126581529122963456.000000 0.000000
19347275117687834825568985204039060734045043564435720632016224126581529122963456.000000 3573963817549910086277931236868210026792892230061737969046656487795831810818048.000000 0.000000
0.000000 0.000000 0.000000
914801450764836284522992730710150128244502399991533945403804571333868442458521600.000000 503900674873410099437952198383163032547577227195821545256536308942347127884873728.000000 0.000000
503900674873410099437952198383163032547577227195821545256536308942347127884873728.000000 156249906720409061394256026694271950788996572350304652313689413787537701985058816.000000 0.000000
0.000000 0.000000 0.000000
275530699673578193138107004911861028311516886000362355480562851529548738932506624.000000 483347912321468974114969188633072631983301897194538900937602797135323570148212736.000000 0.000000
483347912321468974114969188633072631983301897194538900937602797135323570148212736.000000 158065578149218946118275474719149034241525723570941705470779254944576840413478912.000000 0.000000
0.000000 0.000000 0.000000
414979127595498017125188949887604894163509714089731777208635260147246928165339136.000000 -59895971396616855578460976758694312319648305909151619117654692265234380298911744.000000 0.000000
-59895971396616855578460976758694312319648305909151619117654692265234380298911744.000000 18036209039391473580888531508303380818219515016505257075119915210655135980060672.000000 0.000000
0.000000 0.000000 0.000000
589671279778078135358895532786126552071557784357539243243944545316817527799545856.000000 -1665820994791258718426738072935265664616439930601253429595502743399729210597572608.000000 0.000000
-1665820994791258718426738072935265664616439930601253429595502743399729210597572608.000000 864972974488491590176679777909059672595725482625604058162327048252783958660481024.000000 0.000000
0.000000 0.000000 0.000000
21164623730023507051413878201273250053826226935623465526039243140636029344546816.000000 -92657592807365293252518219836379449000706824470456779675492268283477880700141568.000000 0.000000
-92657592807365293252518219836379449000706824470456779675492268283477880700141568.000000 49528459373021640593234353397978969497437216414828748421554209914290707535757312.000000 0.000000
0.000000 0.000000 0.000000
8823287641838374046704783522575439739693747172471803891049076988052810659528704.000000 -5273068131330374811724763388014304450976090453084910419514384710201626085818368.000000 0.000000
-5273068131330374811724763388014304450976090453084910419514384710201626085818368.000000 1707721070319161718840734387371571430038109871001830554166697553534938616168448.000000 0.000000
0.000000 0.000000 0.000000
-11298231396114483719748276508478533563562162315982054915116535552180259739362394112.000000 -2001698206535962764578700826150050162465607168161662613731521313455810484543422464.000000 0.000000
-2001698206535962764578700826150050162465607168161662613731521313455810484543422464.000000 606217121302883294898469991244975129540042528893091375069792809982341828789141504.000000 0.000000
0.000000 0.000000 0.000000
16074861138189504527767161629925433910051652500685386214364179886827569273634816.000000 15319013459818106327533179351484162209274928091737187846374286152347781297078272.000000 0.000000
15319013459818106327533179351484162209274928091737187846374286152347781297078272.000000 6813180111932143798806034696300110249956953400917404118601116590894191413821440.000000 0.000000
0.000000 0.000000 0.000000
8934956985301068179977578755816577560426212023411292335693123987466315664195584.000000 -6632621589342308092442947324071552838091760265208598299887161166701280280707072.000000 0.000000
-6632621589342308092442947324071552838091760265208598299887161166701280280707072.000000 3769985413852982717787151213183768196802717100930097860675911959467811254829056.000000 0.000000
0.000000 0.000000 0.000000
-22326841194039087551761246732101751950795066478631803208309720674654127928295555072.000000 -1071013311205809466595370610778997192387281525452780106201003428518491012041015296.000000 0.000000
-1071013311205809466595370610778997192387281525452780106201003428518491012041015296.000000 102250988575817006290253520193362683855278036732059405979754301407010668859621376.000000 0.000000
0.000000 0.000000 0.000000
2842469706182420909842285752062774939597291562117891875576668913359390361264324608.000000 931609246297571484655719648362414734718683544087823383450964921389407172481253376.000000 0.000000
931609246297571484655719648362414734718683544087823383450964921389407172481253376.000000 190413473559264499911968296777492247375731157505148674489303078247288231692337152.000000 0.000000
0.000000 0.000000 0.000000
-2951525190028980500678873019013794422303182107473813874764388107435864894029692928.000000 -1597502615268636526781333719532345780647503893772939764907740917044677707237949440.000000 0.000000
-1597502615268636526781333719532345780647503893772939764907740917044677707237949440.000000 833663511178990752215633581545327441387464999072824604939589912520698107598471168.000000 0.000000
0.000000 0.000000 0.000000
4630764851988915662842833812368358324235171203845602259362889148235515735316627456.000000 -1535928230567289123606392685788709498230853369128886692714713154158017570270085120.000000 0.000000
-1535928230567289123606392685788709498230853369128886692714713154158017570270085120.000000 316396002532548591023740707513083234226323481640848527767925278435303352952684544.000000 0.000000
0.000000 0.000000 0.000000
-5217342343531388898773607794191731939474379550050489895795197278675280981556985856.000000 -2089367843760147164249437013072128823891488836781278126177510383054413305974095872.000000 0.000000
-2089367843760147164249437013072128823891488836781278126177510383054413305974095872.000000 998065805902537621333075938581834394086764605839428786798794429036395238581600256.000000 0.000000
0.000000 0.000000 0.000000
848672614556733343641155001928788982357732432776011544402403062560204521975316480.000000 343305111133447314114196179746228096202288399596786957089671608987531810950873088.000000 0.000000
343305111133447314114196179746228096202288399596786957089671608987531810950873088.000000 83311917150219089895995366201014338255214810969915524717738535233588143679602688.000000 0.000000
0.000000 0.000000 0.000000
-8068025833452062647272636698958056098969156092601066870907759636979764369307992064.000000 -18024585722668006550480648829349966763818205930554450817164389688191586460034400256.000000 0.000000
-18024585722668006550480648829349966763818205930554450817164389688191586460034400256.000000 10387046668494186279046130205767070034195992499555200577356600849305229741992706048.000000 0.000000
0.000000 0.000000 0.000000
2443301123287254570245433817148735034958986567582645278138850846784523208795095040.000000 -327625611539057949263513862763539756296350632289233635215583152105889647074213888.000000 0.000000
-327625611539057949263513862763539756296350632289233635215583152105889647074213888.000000 28969280493246502235978758486627987578320682693449633489168548635872335432253440.000000 0.000000
0.000000 0.000000 0.000000
6026847717124987206682970717514976723307988616009828894729189347034081029724831744.000000 -566288517224563563355873569603196403698585701521449012700515218025659102016831488.000000 0.000000
-566288517224563563355873569603196403698585701521449012700515218025659102016831488.000000 35769960328172420820898164067858943737283509114282181438729404801998714407223296.000000 0.000000
0.000000 0.000000 0.000000
-4964896284139532724904615829983324186340307390764710038859534824372990849910308864.000000 1171144306733725906626481174538819243387552518078481292565311236950607538388205568.000000 0.000000
1171144306733725906626481174538819243387552518078481292565311236950607538388205568.000000 434229947954610177911875453411058750615297750638093215984260698408649184080035840.000000 0.000000
0.000000 0.000000 0.000000
-2206559964945051582316961126390242687870458734368587568910168801925457637218975744.000000 -61905997166901777592605227094223125366473562757279789705003721303489496408391680.000000 0.000000
-61905997166901777592605227094223125366473562757279789705003721303489496408391680.000000 96489918534087000582397036242890474536516718493273534641177733100479756898402304.000000 0.000000
0.000000 0.000000 0.000000
47062477568445795548426928116154159999886083786037892320409200678267298473050112.000000 -17987378091165228441641223847509939294470490019457675681415228240901862777159680.000000 0.000000
-17987378091165228441641223847509939294470490019457675681415228240901862777159680.000000 4179607537559105759192587283128509148657792367955104574599620830985782904750080.000000 0.000000
0.000000 0.000000 0.000000
180075779524167951504333084365172427414047231996490970424403852619663902309875712.000000 61587086179652542625314434927298324200552977019835569438622741802300903243382784.000000 0.000000
61587086179652542625314434927298324200552977019835569438622741802300903243382784.000000 15502325519927637300747465936349107758710051767380152351394554592668484099899392.000000 0.000000
0.000000 0.000000 0.000000
-1130847473379127527476058065218947029186422415609767156074482081713542627397206016.000000 -120744920218607703783397661442148548424842392725900999183316256627249614059208704.000000 0.000000
-120744920218607703783397661442148548424842392725900999183316256627249614059208704.000000 24253842256377901659864412267993336431364252211241205345409731151818745953910784.000000 0.000000
0.000000 0.000000 0.000000
-61397508408588435068152593836483345567230235189094901007077120259868835094462464.000000 39506357413477208215106023451431290012689353679763523722756578803253896909160448.000000 0.000000
39506357413477208215106023451431290012689353679763523722756578803253896909160448.000000 22207083910519990235692191410962498005048744278255293548711561123147144641904640.000000 0.000000
0.000000 0.000000 0.000000
-3278874715870390864949802313717585171829697486747845422960334160093894760346943488.000000 -1740766263805872302069140005507430801539736336296166330719354295475027491132801024.000000 0.000000
-1740766263805872302069140005507430801539736336296166330719354295475027491132801024.000000 913736229430609507736991008701230701750387152670843864845266301785704080087187456.000000 0.000000
0.000000 0.000000 0.000000
487594518888814719869439508356972981920204674521560801539895047833809648149856256.000000 388927724064039174773801189748272321995281357489353628474876779500989081735659520.000000 0.000000
388927724064039174773801189748272321995281357489353628474876779500989081735659520.000000 174758616219702497871664966067705067458690205520064082737056229067781265818648576.000000 0.000000
0.000000 0.000000 0.000000
21509415249495804185276889002769923224475241057178476293542028625101536997933056.000000 9585768826876874830486599786287236085924870276936789935762390828299588269506560.000000 0.000000
9585768826876874830486599786287236085924870276936789935762390828299588269506560.000000 3205096515729726117926580192670422934867371402074896271168747856889099291983872.000000 0.000000
0.000000 0.000000 0.000000
973898912724598420096501310628139517861655804881240414914296298951999394282471424.000000 -1034940333415803314977153364412651992964121651941805700507415171311323993587318784.000000 0.000000
-1034940333415803314977153364412651992964121651941805700507415171311323993587318784.000000 446537750471870881954510589052385183428668990046517346201286913732909802603937792.000000 0.000000
0.000000 0.000000 0.000000
-27737567971423153760813779160376050551411931921231379400923693211754675612680192.000000 -89685764351031307773572842802880457869399657407238658629678157986867899919237120.000000 0.000000
-89685764351031307773572842802880457869399657407238658629678157986867899919237120.000000 25158098474201571639726441488613775477188079299358781974390198791562049781497856.000000 0.000000
0.000000 0.000000 0.000000
-215338822086020128193680592554487161121304823454901812110510366294928243046777618432.000000 12010013931929252794497751664819219864295683636590668201715508141935956357757796352.000000 0.000000
12010013931929252794497751664819219864295683636590668201715508141935956357757796352.000000 1314748870036238307655252850822578204197366852227662634853498180749038189182713856.000000 0.000000
0.000000 0.000000 0.000000
171865742285340819742425943247555313730663576332585046287705914595016715442061312.000000 -187012297206565692383500304624260107026251122575871997440746015002439440272457728.000000 0.000000
-187012297206565692383500304624260107026251122575871997440746015002439440272457728.000000 106478193832973070078654254491985738605025962638851026789797200580294541525909504.000000 0.000000
0.000000 0.000000 0.000000
-177997846890792464024429108525880545078716440406005910023801397655063182599782400.000000 -191114948796302579723331379336893535787266195638937518532118507317416287849676800.000000 0.000000
-191114948796302579723331379336893535787266195638937518532118507317416287849676800.000000 112381085155830207523722577452239002701831246787735977291609055931074096876486656.000000 0.000000
0.000000 0.000000 0.000000
100043476619253609123908420894770040901207860406957127723247851447008370901385216.000000 -288740121443336837294301332915129143785862421085419899433737387942544159165906944.000000 0.000000
-288740121443336837294301332915129143785862421085419899433737387942544159165906944.000000 156564657442653590312149846486554180858503432176804964540871966606117001895084032.000000 0.000000
0.000000 0.000000 0.000000
43883034603667987445105433729291077878982628638858620537513610730036314184351744.000000 -58061360638028336072982633395877802791583920670828935285921552125603735379378176.000000 0.000000
-58061360638028336072982633395877802791583920670828935285921552125603735379378176.000000 26763954404384678892743506528109382858889826939230832125558770871915032180948992.000000 0.000000
0.000000 0.000000 0.000000
-10776371236486493060369492157070593573592034112978096925753278063096187292403892224.000000 1725783150277456540225943307572104049839081175138883979319384282816743033035292672.000000 0.000000
1725783150277456540225943307572104049839081175138883979319384282816743033035292672.000000 484336729140596169781071687824247293165040548409743654788958775036354815663800320.000000 0.000000
0.000000 0.000000 0.000000
20776983351461692096356793352622389728840434482442400092206563296050501234456526848.000000 8410912468326968398818799951457864294641782421282037625880526493109341741809401856.000000 0.000000
8410912468326968398818799951457864294641782421282037625880526493109341741809401856.000000 2048103654837024745839403085317044953081550999958067417391577502415431130134085632.000000 0.000000
0.000000 0.000000 0.000000
-10114046902831696645574598196503748026750969930139787835449709035184292226429616128.000000 -2017251167990057564401297337392004330431389392218563990683229197291166671612936192.000000 0.000000
-2017251167990057564401297337392004330431389392218563990683229197291166671612936192.000000 668136942453117571642739042961507934876097927763813941406597570363379400713437184.000000 0.000000
0.000000 0.000000 0.000000
5094529328322532966918961328329027898864486344673857619034652896694167271098023936.000000 1396370693055609314323101046521398818760548576571710768643885480480527867287961600.000000 0.000000
1396370693055609314323101046521398818760548576571710768643885480480527867287961600.000000 242982093348823241934033262961543035671085348412444395773977055168131959273553920.000000 0.000000
0.000000 0.000000 0.000000
2206627060308771829360144545295528453773124457552342663127348503048257935817834496.000000 3129116811952554287798510597311136509544589873868671015479520330785936780289900544.000000 0.000000
3129116811952554287798510597311136509544589873868671015479520330785936780289900544.000000 1464739974830527882432560803932451326604821976800016799980034424627886022543278080.000000 0.000000
0.000000 0.000000 0.000000
2438451957909630737578039077807302655791853624316954169158217616110383625110814720.000000 2088371713288929811956654321212316558190510404718534118340670584832099075030515712.000000 0.000000
2088371713288929811956654321212316558190510404718534118340670584832099075030515712.000000 825271408812754441283657136752158525685801880094773087350417215894891116143575040.000000 0.000000
0.000000 0.000000 0.000000
4815126858966700009956311891358547471999807551681275841376006202794209492460371968.000000 1398307154170870693490913383189394388949119552477096618467775984472461730732048384.000000 0.000000
1398307154170870693490913383189394388949119552477096618467775984472461730732048384.000000 309325434996333747069503930803862782734588783501869054127547429861702366989910016.000000 0.000000
0.000000 0.000000 0.000000
-437268045052162153476300002333402363286983766750471315374858875897007992656101376.000000 303990117429420665939641752720331912501931860878126885073965787474867715160670208.000000 0.000000
303990117429420665939641752720331912501931860878126885073965787474867715160670208.000000 166516194041497510724489999808947275038661319245503006984274144381307417872302080.000000 0.000000
0.000000 0.000000 0.000000
335614977988331719294284892196055015174940851147880264208326965280752341824307200.000000 -394742300278516026181399965380589319959602151887706290699209076713199521461436416.000000 0.000000
-394742300278516026181399965380589319959602151887706290699209076713199521461436416.000000 176348775444427380187037359046886946953106533743943064548394825348021142155165696.000000 0.000000
0.000000 0.000000 0.000000
190772573833760083120639402771704165089136747596741971661598775119445799104151552.000000 -61711338282270627670429329446556102073217967675856510260940248538415617114374144.000000 0.000000
-61711338282270627670429329446556102073217967675856510260940248538415617114374144.000000 13112764283947650225115076446163245083000204699022377631096246146783224627462144.000000 0.000000
0.000000 0.000000 0.000000
516240445753400409858435283841183188540413072819813459794049590011991205242470400.000000 -318195110877904357819192076387820046936318484447452379575263171346133408907526144.000000 0.000000
-318195110877904357819192076387820046936318484447452379575263171346133408907526144.000000 95825380764407928587639846593254824283101458754817102336184130128096656510418944.000000 0.000000
0.000000 0.000000 0.000000
13860702231977114055652942448240673519349272434023978540198627231500651698895978496.000000 211732745588253472578745142590049631366332023683907548323200088006962550103080960.000000 0.000000
211732745588253472578745142590049631366332023683907548323200088006962550103080960.000000 8396482036650582178050830110626073213144253213088163127017253437375817887776768.000000 0.000000
0.000000 0.000000 0.000000
5632747063950687996589790470289637507668578769824051655717718387654431688622080.000000 2286576269263472272200778723581192977239864270032251159045592279913817563987968.000000 0.000000
2286576269263472272200778723581192977239864270032251159045592279913817563987968.000000 1130004216875877266081073748212923982772790349530186330670954608596285831249920.000000 0.000000
0.000000 0.000000 0.000000
2148312848205906469340078266018641214516520434812478623721148652063136527933243392.000000 33492375924188719715452721018239600171248025162818595655791029661899748634787840.000000 0.000000
33492375924188719715452721018239600171248025162818595655791029661899748634787840.000000 2541237112867304235989198752795503956819125387002446316465045773823436421857280.000000 0.000000
0.000000 0.000000 0.000000
438829310890125563443193207736652306197353996415411022095152480776254335293063168.000000 -327819398948434834349291254399392626631373224321069769350381732223729505480474624.000000 0.000000
-327819398948434834349291254399392626631373224321069769350381732223729505480474624.000000 120286066699984962003224436976445964096070417536077649069555783263515139641442304.000000 0.000000
0.000000 0.000000 0.000000
2975990886661072402450974614529726853271661855518126770703043057344322567011303424.000000 -755529552792513997498653935772210296374017674957580211553947716018811897859014656.000000 0.000000
-755529552792513997498653935772210296374017674957580211553947716018811897859014656.000000 122729728172207185517481186178034460239796089613175878155928439494445143521492992.000000 0.000000
0.000000 0.000000 0.000000
1798618042898123545936876615527718570006309076299182694245449439950948781885751296.000000 494651936174606279791153232457704223548883735451194548707780992785862459587035136.000000 0.000000
494651936174606279791153232457704223548883735451194548707780992785862459587035136.000000 91948141916486418257801781751454538856494464690787396382700988539007767190437888.000000 0.000000
0.000000 0.000000 0.000000
-378331175213439377862365932616034883008809268546962993437490889686687511765581824.000000 77441521690881899849669916676047770633024614170157175065648434867988482129657856.000000 0.000000
77441521690881899849669916676047770633024614170157175065648434867988482129657856.000000 49177415293451194682205314870316223940791362513292639678482380813525405864558592.000000 0.000000
0.000000 0.000000 0.000000
-96335954823638542972488748556386663474986700987587384459702296210624455559348224.000000 -67018784421166062834468123057626786181717269555625772300225383560694062026588160.000000 0.000000
-67018784421166062834468123057626786181717269555625772300225383560694062026588160.000000 45100189630696964440201646687648960025043968503612598129769458413324604555657216.000000 0.000000
0.000000 0.000000 0.000000
-976865052015388076871997976588854790683010266115740367685542772347234458533888.000000 5005139087051609239056492034410912214054980131915699695868338548139359333253120.000000 0.000000
5005139087051609239056492034410912214054980131915699695868338548139359333253120.000000 2843300890059777826511944482584323779217325200548583620551442085242557624745984.000000 0.000000
0.000000 0.000000 0.000000
195724087901560074980229829756042358224071280914083365851368770812959960063803392.000000 -830610238978366783352961743656800934528992827428647859350873430762098757833064448.000000 0.000000
-830610238978366783352961743656800934528992827428647859350873430762098757833064448.000000 443362528266813782428162215940573798133204892286295483715659710027702107545534464.000000 0.000000
0.000000 0.000000 0.000000
917618395299872792660777352064843555487842541594780518738078935945508012930629632.000000 -720749238287245312208244119097740635315276335897625702482640068019668396445532160.000000 0.000000
-720749238287245312208244119097740635315276335897625702482640068019668396445532160.000000 273262582232261608943807684028727288742178149463982610174944537892631802835632128.000000 0.000000
0.000000 0.000000 0.000000
345639173107545849981737927162552444607494069566454377188982526614620182518169600.000000 536398989085633838521660935062373866166548405697841753853046140599676031259901952.000000 0.000000
536398989085633838521660935062373866166548405697841753853046140599676031259901952.000000 256194488890026317034275502622802997590287966742174073717091419515468236598542336.000000 0.000000
0.000000 0.000000 0.000000
3038887028376301625988452445697202334215315696593909621998428870391477358058012672.000000 3018878933247882332679297971279317565413732264752125847211282477792363781805834240.000000 0.000000
3018878933247882332679297971279317565413732264752125847211282477792363781805834240.000000 1284161316553880669525861162014920701004611064576659017232425092241064115566542848.000000 0.000000
0.000000 0.000000 0.000000
-5325456955162949287741038028309490284669542464422378055281640531045874258640109568.000000 789436175179989133223563473179836868717711288949906284857335348323753605183045632.000000 0.000000
789436175179989133223563473179836868717711288949906284857335348323753605183045632.000000 208503021926389290911845676819400142507077077557778683037721680658441110766485504.000000 0.000000
0.000000 0.000000 0.000000
832375729780967189875521778523695023609662772704265152463280264404196020858126336.000000 2440763450595373219293394298158408271232752457522373995815299521263474617536741376.000000 0.000000
2440763450595373219293394298158408271232752457522373995815299521263474617536741376.000000 1271133345393081651517285268909296888888909567598386118766641711855532181507014656.000000 0.000000
0.000000 0.000000 0.000000
5568168285231153886224118353154567679375410738117130614028408446471723400730509312.000000 -1016814052454200668391114371156956231128597322552074314867499818110034583350149120.000000 0.000000
-1016814052454200668391114371156956231128597322552074314867499818110034583350149120.000000 124162821695191801677072839168800893812809233129953216768846975902668770196324352.000000 0.000000
0.000000 0.000000 0.000000
-47616622824079799097821966891071864530111645045938283946364881098823084971917312.000000 56587018654915806364219665287425539662128073511066469488784318510638908938649600.000000 0.000000
56587018654915806364219665287425539662128073511066469488784318510638908938649600.000000 32467505201907279975285971783231617241374590879648476019654832046047095651565568.000000 0.000000
0.000000 0.000000 0.000000
-68640532041065776391793966331802370396445085433201319561912401981032108248281382912.000000 -23289839205829309718916409986203797777685024061112718018131933384677770094496972800.000000 0.000000
-23289839205829309718916409986203797777685024061112718018131933384677770094496972800.000000 10322775253427953116245990215763691476296411013595430216314667353127637745395564544.000000 0.000000
0.000000 0.000000 0.000000
7864398539367430271559631792564198959224396533493962339650347421805480779972608.000000 7329197008474000115511452285868516075051081507451919701827916743685009404067840.000000 0.000000
7329197008474000115511452285868516075051081507451919701827916743685009404067840.000000 2944172581671398155703538672507894502102090732582914474585581773363379617923072.000000 0.000000
0.000000 0.000000 0.000000
-10041758092935006992418512595681708998253606552461911107416344217438429289256058880.000000 2144369216167650958656357888481535574190881336147158461042358268506834984813723648.000000 0.000000
2144369216167650958656357888481535574190881336147158461042358268506834984813723648.000000 812583734090504653297158316392700263578293836005358032620589118774773381970526208.000000 0.000000
0.000000 0.000000 0.000000
-20279208570573645749744425018502539809569024798804720224861583359739216874883252224.000000 3256682712000089738131247468153386115117132447673331536856376683333050724620697600.000000 0.000000
3256682712000089738131247468153386115117132447673331536856376683333050724620697600.000000 865792909125877931596489629490043269823688850720608917833746654101299602774818816.000000 0.000000
0.000000 0.000000 0.000000
-1313864161228709516826099424677693408996977132937330279075790562786373662561796096.000000 -578344368204702927263446433866754687195514161510436574883974201408616973903855616.000000 0.000000
-578344368204702927263446433866754687195514161510436574883974201408616973903855616.000000 228228779678361302561907477984701716193350714437863286964742385073996105160589312.000000 0.000000
0.000000 0.000000 0.000000
-820942909294631544727176227724783578224660150406542190364797737265981553349715034112.000000 -38180622952940448796998996333197516753032306772902698217006285075569946919801192448.000000 0.000000
-38180622952940448796998996333197516753032306772902698217006285075569946919801192448.000000 3511401910585578074506373597907459632909106192047450862947343279084882697207676928.000000 0.000000
0.000000 0.000000 0.000000
-29317200730993302771194084706929376641091564894862889101512694123139954598582681600.000000 7730218105382234621278624579839955669115387002807820977748691833768894071568334848.000000 0.000000
7730218105382234621278624579839955669115387002807820977748691833768894071568334848.000000 3033399774637871603183905227703225857153094636258612278630877576039884958493310976.000000 0.000000
0.000000 0.000000 0.000000
-10016506210817499135957447921776396684771676721907477492908503021202054634799104.000000 -13296076405640974161749341373960020209944250879835108672461148190520437439987712.000000 0.000000
-13296076405640974161749341373960020209944250879835108672461148190520437439987712.000000 3679183696057733877081760498574181297881743803489049946427126180260540539994112.000000 0.000000
0.000000 0.000000 0.000000
-751518565270281070003018800560137900737759156886592060321088985681095704021303296.000000 -2356729956492082036209478627663865302264789511755898676485695527436630712687525888.000000 0.000000
-2356729956492082036209478627663865302264789511755898676485695527436630712687525888.000000 1365991007367182944945931923840183307472482456221477465525276048979212328698380288.000000 0.000000
0.000000 0.000000 0.000000
-1665723044563562082943497531063310557993679364625822325125263964508434003595886592.000000 5758918203111382576679738752802611302964955728477079746998358490095789052788736.000000 0.000000
5758918203111382576679738752802611302964955728477079746998358490095789052788736.000000 163325852470000423009282013858880975275455573154703512670094222710943359434752.000000 0.000000
0.000000 0.000000 0.000000
246859336301190496690651494418083530796993788125269142771902707188604102087016448.000000 -296506298110559779496119944601900812022070340940916503749854518040392027399520256.000000 0.000000
-296506298110559779496119944601900812022070340940916503749854518040392027399520256.000000 141575660604755812881603498495419685310552475084034136866053439488927164790734848.000000 0.000000
0.000000 0.000000 0.000000
-10614522585688577911816833403216563228541223801454606359112127949268530064481320960.000000 2229435410568663134473528640958857435125731485908575026890906154565425952165199872.000000 0.000000
2229435410568663134473528640958857435125731485908575026890906154565425952165199872.000000 761355661810992947823400118986636117088966417933813918629467644442101969080811520.000000 0.000000
0.000000 0.000000 0.000000
2196714541232557658195639009747810514353252030929928717068611469580878132373618688.000000 -591610975185804724313764785602614658266538329169554391249354353699539430626295808.000000 0.000000
-591610975185804724313764785602614658266538329169554391249354353699539430626295808.000000 101420168500428363065177557749004104125819656937508282258501662928779099865350144.000000 0.000000
0.000000 0.000000 0.000000
108642124485898483776525599133162389511710112511221373125978758172662001634902016.000000 -416797767700285527071628476223767026824989545668700975488332687983827764163641344.000000 0.000000
-416797767700285527071628476223767026824989545668700975488332687983827764163641344.000000 197832283479808034248537758913205361723845239189495613551391971444914409174990848.000000 0.000000
0.000000 0.000000 0.000000
558849209336393931516287246620687532168157523681270715620221909556909022021419008.000000 594644092852516441401924370341352651235633531303560213288930486112715512427315200.000000 0.000000
594644092852516441401924370341352651235633531303560213288930486112715512427315200.000000 266117048796627336330277200911977884578886844832479067064409069543312179620478976.000000 0.000000
0.000000 0.000000 0.000000
2825743115964127296351495757548902155455226595558027682433643688370300465971200.000000 5193314316339468392388412625158316515136707850670140399833039423292888955486208.000000 0.000000
5193314316339468392388412625158316515136707850670140399833039423292888955486208.000000 2804306307513339874288901868733456141765392216774077233848204718305579215355904.000000 0.000000
0.000000 0.000000 0.000000
206701369944020978391274652007942810927383902650274873728309193779099953258299392.000000 -155260151926866067662756889686390808177009744803079891913920752942854369924087808.000000 0.000000
-155260151926866067662756889686390808177009744803079891913920752942854369924087808.000000 57550678455282507606757224130821002104088098647889396781049241061192179350765568.000000 0.000000
0.000000 0.000000 0.000000
-426545403092382322526407152863593950700278763719592399073993234326390138155827200.000000 -742049858533327271514683014057288895360773604956286305768914331341297767231258624.000000 0.000000
-742049858533327271514683014057288895360773604956286305768914331341297767231258624.000000 428322362859777554584163669744249406415754661165666723062252712874975765175730176.000000 0.000000
0.000000 0.000000 0.000000
-17537820482047266960373827821144067978949004309335876658265974951154627924459520.000000 28248170415243330508205164671959923475644396880472963220781728848820892401139712.000000 0.000000
28248170415243330508205164671959923475644396880472963220781728848820892401139712.000000 16800710983784324876917691459643881774244341517625124865270116541950456959598592.000000 0.000000
0.000000 0.000000 0.000000
-55367959336314424224680089430369287359950680907752487885298896437689679581502504960.000000 -15462494693208366963137139651862760747117268740421290150689431970115638769708171264.000000 0.000000
-15462494693208366963137139651862760747117268740421290150689431970115638769708171264.000000 6271760090897544171908109308449002639938775103432233384526556243496220693840789504.000000 0.000000
0.000000 0.000000 0.000000
-10817111345878214083356332792025202053972381087800396582600316824360698683427127296.000000 -145823739659433950492540867041548858185934555391020120245716226952615503090155520.000000 0.000000
-145823739659433950492540867041548858185934555391020120245716226952615503090155520.000000 15806499551318428452639288936185619188041520322577789752098418882688601529778176.000000 0.000000
0.000000 0.000000 0.000000
-2289692323444124366104246712462008324562259758315451644089260048677435129190154240.000000 288009228640090066443786391261477909666548179502894799836219995179507941633949696.000000 0.000000
288009228640090066443786391261477909666548179502894799836219995179507941633949696.000000 66471876048359418222049649664846975119555922644087018672172048265824993563115520.000000 0.000000
0.000000 0.000000 0.000000
81781136898250157723220137253231712389724630223478169980701696682641016741691392.000000 -237996023410010374214802852965093314557438152911735876241887142983758344708161536.000000 0.000000
-237996023410010374214802852965093314557438152911735876241887142983758344708161536.000000 92723296164226271413203465027539765191848076171874214808851677879361949394796544.000000 0.000000
0.000000 0.000000 0.000000
211409231288408840777828180586795268007287319413564426273011198038097125338775552.000000 -42820749572227892425947393693667870958428338215477498462167774648124087927308288.000000 0.000000
-42820749572227892425947393693667870958428338215477498462167774648124087927308288.000000 7738473107270124025716251745671423455352739699800627999748851742349167901540352.000000 0.000000
0.000000 0.000000 0.000000
2299887707400010391041485366045595205713671565896855648323578258198778540457984.000000 -352874240402390320889569099902746110112465494730604272926594984913814559916032.000000 0.000000
-352874240402390320889569099902746110112465494730604272926594984913814559916032.000000 553042839418032800233434933035334367810693689332476506940666041000910877884416.000000 0.000000
0.000000 0.000000 0.000000
-301996994289974239133585758590714614572224784834185019496805822293531285182742528.000000 -263563386983962207379289259160367898002145658664618777235511972497016482852503552.000000 0.000000
-263563386983962207379289259160367898002145658664618777235511972497016482852503552.000000 144542242574337005599979023673002057191302673969246557175363723096079802409418752.000000 0.000000
0.000000 0.000000 0.000000
1289363472067957243443900603941194368334295669823850239544637063120470592674856960.000000 702659488339166517194882273805535759771515532828368278825436553738206783133974528.000000 0.000000
702659488339166517194882273805535759771515532828368278825436553738206783133974528.000000 223467688588137947101760394276215560402380066365800011634326500075468944272523264.000000 0.000000
0.000000 0.000000 0.000000
86665561577794418638432519617708076549055841535008709943166923911215496382382080.000000 457943058605704617365911916021884763902432147703172787410930202033985428073218048.000000 0.000000
457943058605704617365911916021884763902432147703172787410930202033985428073218048.000000 259198601627631979696492526761276808536388361883720404318868743310938040988336128.000000 0.000000
0.000000 0.000000 0.000000
-7420982301023082948123557645306797398743779555982354157199814771250092965174968320.000000 5910080811235318083885437198922730565791872660932365398210206780458814248648179712.000000 0.000000
5910080811235318083885437198922730565791872660932365398210206780458814248648179712.000000 3295353267458942731696854317920649160549913470565496339985254981486330996640972800.000000 0.000000
0.000000 0.000000 0.000000
-199678618244799030282776840432427116800184550123842491858330535799452263717535744.000000 -141277201213068224966024455371400944920827341156293459829402922105019328966426624.000000 0.000000
-141277201213068224966024455371400944920827341156293459829402922105019328966426624.000000 77016808325974836220763284409523347733008640380841892601458884259379354640842752.000000 0.000000
0.000000 0.000000 0.000000
-1091625667340741423486612430677725314149710151270582692427706334523363564044943360.000000 -1241862039813543426793286911617749875838201475936309563383178538427643949790265344.000000 0.000000
-1241862039813543426793286911617749875838201475936309563383178538427643949790265344.000000 711136965140420576779781133071917224007601429161574161514376129440517791802195968.000000 0.000000
0.000000 0.000000 0.000000
1579041399002273172959146389370296950859934948023724615437000091364430428875259904.000000 288946559701784294505276248089704948181630477573504532741521934710157054371168256.000000 0.000000
288946559701784294505276248089704948181630477573504532741521934710157054371168256.000000 50539989044473384685087909498388627617758417241933893284492694435065099794251776.000000 0.000000
0.000000 0.000000 0.000000
3783095731998850859786678769160097123389334671534974183574608398985976455190544384.000000 3191946018874746010551132754089835838877075383935046626129500151252085952212893696.000000 0.000000
3191946018874746010551132754089835838877075383935046626129500151252085952212893696.000000 1256602184743217292897104565311450371793600450453088560831813166442920857451888640.000000 0.000000
0.000000 0.000000 0.000000
-95047657136487899929929920864648580415720583187833709448068108820564827781375983616.000000 -10063370108655550642494399544466163788921120012358049124546379461627103875493265408.000000 0.000000
-10063370108655550642494399544466163788921120012358049124546379461627103875493265408.000000 2001521132486075560139753854301479974107891758542057528102536682282738972878700544.000000 0.000000
0.000000 0.000000 0.000000
-362457934615151009621665325718305452038428666484624228638216327585260794451853312.000000 47752225777388875462683612267587212176406423984091682689075866200157666819440640.000000 0.000000
47752225777388875462683612267587212176406423984091682689075866200157666819440640.000000 11478334856498050086098808986840378105862519233699699983509577144586597855920128.000000 0.000000
0.000000 0.000000 0.000000
66296209667274149696731129522222904726939606640595283429235430909854923429511168.000000 53371940947076764667766079154848481436495923357104400915037138811849431303847936.000000 0.000000
53371940947076764667766079154848481436495923357104400915037138811849431303847936.000000 20482601151854569313046053030301132769204279972249771901313070857193474578448384.000000 0.000000
0.000000 0.000000 0.000000
-723367370782598884793314582545187176178436019094950300329079928054455272829091840.000000 350910588611171303301373460969561699324415336397587514109479767597173248479985664.000000 0.000000
350910588611171303301373460969561699324415336397587514109479767597173248479985664.000000 266992491470202652890048935549846335170565017715525495022607351516636801151270912.000000 0.000000
0.000000 0.000000 0.000000
1359248931576883227668820274439820238093152455823847953221907751546785400744837120.000000 626577182997163424603995884323432793919540203748583875917625659426024150427238400.000000 0.000000
626577182997163424603995884323432793919540203748583875917625659426024150427238400.000000 197852276063809135454910881336855704914463951363874969318803195544395598216036352.000000 0.000000
0.000000 0.000000 0.000000
262959988697258283838640046661997021128836196763074228069541055843179389824008192.000000 -619221225582479532759479675293561146811583351606176578263387821572127492847697920.000000 0.000000
-619221225582479532759479675293561146811583351606176578263387821572127492847697920.000000 318168184152840058769422873859417594939412254183608625414843295090647085394952192.000000 0.000000
0.000000 0.000000 0.000000
2878453241894635003959751400093544435789128272162847999810033477309266047495307264.000000 -1842812349847730719839909041631874071299399456602013214364947881209377329065754624.000000 0.000000
-1842812349847730719839909041631874071299399456602013214364947881209377329065754624.000000 624497657922186037935612636283119370191838897829252919493351838282831022109229056.000000 0.000000
0.000000 0.000000 0.000000
-98603427917737107247770493034733291255153115118275206828303186110591901936648192.000000 -169268742740712269151341444937558105207201898918916504717272573738699775161663488.000000 0.000000
-169268742740712269151341444937558105207201898918916504717272573738699775161663488.000000 93950884350962706521782084089951241680730811813564688944736021513413566008393728.000000 0.000000
0.000000 0.000000 0.000000
-6113263085992492212406252141204859647891869723388051161004522304111098684002795520.000000 558253406748827924957273851738324211474022275395089243192305144545008244601389056.000000 0.000000
558253406748827924957273851738324211474022275395089243192305144545008244601389056.000000 73578742433774647211277593966302648167252640074706348821674345231584800144359424.000000 0.000000
0.000000 0.000000 0.000000
1683486353577714502121469162497210724632763640549704230719748323265324163207790592.000000 777564126739873704141838919878765284928385539707541947342004948899417030387564544.000000 0.000000
777564126739873704141838919878765284928385539707541947342004948899417030387564544.000000 210604182277103216653764241876486549804815290882172862252246124909087622650920960.000000 0.000000
0.000000 0.000000 0.000000
-1163017408086441157821084593068259802235321104309244286447412580974756881647009792.000000 -3674269419650141277262888495144462760152564324292113874255626305463403922289852416.000000 0.000000
-3674269419650141277262888495144462760152564324292113874255626305463403922289852416.000000 2107123732439887092535405898142261236155969635101341243145763558616346743288102912.000000 0.000000
0.000000 0.000000 0.000000
-2697032733087728595580211773878799330292904404690170834974762718965941713976164352.000000 2304395134210982079970728680080334736860167237574950479840132547776030250278846464.000000 0.000000
2304395134210982079970728680080334736860167237574950479840132547776030250278846464.000000 1293634316201419956997184993204464201232411859058215027275325462162050095823978496.000000 0.000000
0.000000 0.000000 0.000000
-6757866068656748399138789854161925207832017367473057924916769110595333047451648.000000 42645499364284510509555179784310478856400344427715556795525506357257114767851520.000000 0.000000
42645499364284510509555179784310478856400344427715556795525506357257114767851520.000000 24859191154745848895781449755112822368989910268369681688417920354981635638165504.000000 0.000000
0.000000 0.000000 0.000000
-189973560906844051626525274895971078755637612346918044363364543479888338504122368.000000 100230267113497782073720109013399020613692932495645827415477902514865619922321408.000000 0.000000
100230267113497782073720109013399020613692932495645827415477902514865619922321408.000000 51929868302872012852668813158940782067614434894929711349422506191697099557437440.000000 0.000000
0.000000 0.000000 0.000000
2473831969474487232794106140759939172654478126164949200944980419774854425403719680.000000 -281833386307582006102296178582968667081473471140019672220430707933055027702136832.000000 0.000000
-281833386307582006102296178582968667081473471140019672220430707933055027702136832.000000 23982352473004632318543820375367683970013141137567069330424453958060720674308096.000000 0.000000
0.000000 0.000000 0.000000
-121087808868648525922061281964529558148352422813360189753389547869115546924482560.000000 -36304892791711959707545313412783121371884021190129877889214129116380485816156160.000000 0.000000
-36304892791711959707545313412783121371884021190129877889214129116380485816156160.000000 15211199709027800555543857043660255081980117253907272962582934064960121513967616.000000 0.000000
0.000000 0.000000 0.000000
241273446194113139654416748564032416953720013998625529891189542574708067336716288.000000 -31557883932858783402309130661467595338052581490189192151846145935572362166534144.000000 0.000000
-31557883932858783402309130661467595338052581490189192151846145935572362166534144.000000 3348062651005293042781007012670184020290715756079768725867381837434562480701440.000000 0.000000
0.000000 0.000000 0.000000
446593667303784181569556366721302364261723012437420493908052125481108154234175488.000000 892226699203686874594864303904510716831820565570009032511686726697585732510285824.000000 0.000000
892226699203686874594864303904510716831820565570009032511686726697585732510285824.000000 444926306552541061310018959466636272775354039488323678391047576401829879179378688.000000 0.000000
0.000000 0.000000 0.000000
-1058369940454515481409935339687872552583767318654530511209196190257256804097458176.000000 -1689328119600743958533679770685854938868937538373528059770254594354708176265281536.000000 0.000000
-1689328119600743958533679770685854938868937538373528059770254594354708176265281536.000000 1027043217185956672881514046942228469485632803566267014266917961763858178906259456.000000 0.000000
0.000000 0.000000 0.000000
-86804780382102625038034369054342117005181492085415580886283197445061736163966976.000000 -28688952988855852973828537803040698039898616164960587466246272172588601521995776.000000 0.000000
-28688952988855852973828537803040698039898616164960587466246272172588601521995776.000000 12811207987279806165781360153215975996303267388634765583828832292554199160324096.000000 0.000000
0.000000 0.000000 0.000000
2490732796306457012284295770948718645098158733149134797894541752360130082026553344.000000 1549717370309288302918792559198974929671616014173991648218032386832067981415022592.000000 0.000000
1549717370309288302918792559198974929671616014173991648218032386832067981415022592.000000 515065984303687942385375003031010780269484511561402453393085451866292601478971392.000000 0.000000
0.000000 0.000000 0.000000
1788196998829493597599933703779720458798879293054481264338316359374424620486623232.000000 501042638977838752755267736681427891640674425558617837583979541775703703008837632.000000 0.000000
501042638977838752755267736681427891640674425558617837583979541775703703008837632.000000 89600522223648909414581102582384723420429839025581461886376728716916588558680064.000000 0.000000
0.000000 0.000000 0.000000
-2409843769505098899415395525814635582900543949966316968294554775377726247490551808.000000 -1902700832168742143064126384895885123767022012503084336643607047192408807593476096.000000 0.000000
-1902700832168742143064126384895885123767022012503084336643607047192408807593476096.000000 1111128692865304791828364815168692675689889928077817564378751242174860335958196224.000000 0.000000
0.000000 0.000000 0.000000
-341784800152742877086235093660599181530409288699890203163141620662488882829328384.000000 -139394487891554739541834807182451041405705667206503155501797243717811792691331072.000000 0.000000
-139394487891554739541834807182451041405705667206503155501797243717811792691331072.000000 11459503164618891171299511430092018630357175492436673619871772273115061525938176.000000 0.000000
0.000000 0.000000 0.000000
-24877188369222812325521310547722433701784345290423083621771723994327881071391145984.000000 -1852117645910552274456346617275764445932139994604504055310823060922355605294809088.000000 0.000000
-1852117645910552274456346617275764445932139994604504055310823060922355605294809088.000000 266721440940966335367743239387174576676453072830884087979809954530904082021875712.000000 0.000000
0.000000 0.000000 0.000000
-8952620841518933094401410165762434587953923059561333607621814295403239461363908608.000000 1693407570694983973159389556433449421090555604000574202805500680730753632993017856.000000 0.000000
1693407570694983973159389556433449421090555604000574202805500680730753632993017856.000000 594890368349135509563407481459911685073353441657069480544961931954516654987149312.000000 0.000000
0.000000 0.000000 0.000000
-2040360704165887501925366555902513731642310997658867753196858737904909264640540672.000000 1779845980015474183075185603242239469955312628040113542929807734230151588883726336.000000 0.000000
1779845980015474183075185603242239469955312628040113542929807734230151588883726336.000000 1039389886814380772538217348945761971088030841906528772464430517879938449493983232.000000 0.000000
0.000000 0.000000 0.000000
2000435951068105014080757279568039243925764546854939736435704381641718843310080.000000 -45038479779058297316773295946876562926776158533160572442533039416984496162996224.000000 0.000000
-45038479779058297316773295946876562926776158533160572442533039416984496162996224.000000 24883403890263589988352710161794827051000831502435799237687542304124874466000896.000000 0.000000
0.000000 0.000000 0.000000
18217295918355484296414136558331935163396945930568966026503062132993203822919680.000000 -19422203208703218443401933478118288422397645847227259610713101669618596442013696.000000 0.000000
-19422203208703218443401933478118288422397645847227259610713101669618596442013696.000000 8470830199766103685373601620065086213746173104020250821805516244962328679809024.000000 0.000000
0.000000 0.000000 0.000000
-8358430914184049419423243966117463352448046585495002613678645456419681979835875328.000000 2029938444386561249530352216182890184560432681277553632374330014249594841750044672.000000 0.000000
2029938444386561249530352216182890184560432681277553632374330014249594841750044672.000000 759529023415342375543174850325607232088687898071511827862753244867170386684411904.000000 0.000000
0.000000 0.000000 0.000000
-135330533301766415895591293640451078739366374622737775688003124773043089197498368.000000 180692286597747924019992867367605766621355965723333238499885682815686744224038912.000000 0.000000
180692286597747924019992867367605766621355965723333238499885682815686744224038912.000000 104543915999707849861427545766261802322980983449889990249773244911442561284964352.000000 0.000000
0.000000 0.000000 0.000000
-8914784854052525982889236905657760223888076024408134943864556097988225411317760.000000 -96737920383087585908194035978719988544069430788070963212485986510657261869727744.000000 0.000000
-96737920383087585908194035978719988544069430788070963212485986510657261869727744.000000 54200095166291300634570043509692596837155252172626813873053990394780441353650176.000000 0.000000
0.000000 0.000000 0.000000
40735875676826209108734206721678104386953203490841322065231527256702758911213568.000000 15496514861209806067078120201742767959117759308341899454907462759360588846989312.000000 0.000000
15496514861209806067078120201742767959117759308341899454907462759360588846989312.000000 3712725531606402334331777015020264384616117526471947349733354669747620794073088.000000 0.000000
0.000000 0.000000 0.000000
353071393784732489129719579428576616056456338717493574074715725872671461946163200.000000 -81231351927429250366533097836862010654470531560813707439367211883421935331180544.000000 0.000000
-81231351927429250366533097836862010654470531560813707439367211883421935331180544.000000 14560049279401193369018746293194613860057120058620064994988703741169260606521344.000000 0.000000
0.000000 0.000000 0.000000
-6061267311716454368622624328654026809824026857603729066264992504660292602689486848.000000 -5596735787972288660488092327185034951297332752692641369561326108518641977341771776.000000 0.000000
-5596735787972288660488092327185034951297332752692641369561326108518641977341771776.000000 3205833197317683077840005959367559022301340285159910212573150935114829559286988800.000000 0.000000
0.000000 0.000000 0.000000
2987978374357186191075536930339941713967296780173109488802166798523545526730752.000000 9758018890996722673458263397940317688405782240743129530634559073561056641024000.000000 0.000000
9758018890996722673458263397940317688405782240743129530634559073561056641024000.000000 5224815871243776851991766954147333245740947500273793188647190706836309823979520.000000 0.000000
0.000000 0.000000 0.000000
-13880501331402076840651304342892130403479911961748401832461467639609413153947910144.000000 3248751948443920067964409450618590232267313700730379403884371925885005811016531968.000000 0.000000
3248751948443920067964409450618590232267313700730379403884371925885005811016531968.000000 1196801737655468176406083382781922860565668329948928716046601111553922718010179584.000000 0.000000
0.000000 0.000000 0.000000
885324278632385526936963760463810742996473067493575810244017395914657737186738176.000000 -366631967690604369456270839541099244280247058406739957495365246405179803281915904.000000 0.000000
-366631967690604369456270839541099244280247058406739957495365246405179803281915904.000000 92210926189990365213017363247774487245653743228119586135701594646287283818332160.000000 0.000000
0.000000 0.000000 0.000000
-6452843843929660567098805094055262543756296359605651409915471708901940702108817817600.000000 -109792293051434059486803781536785915603985206946419299759988004233889596858756497408.000000 0.000000
-109792293051434059486803781536785915603985206946419299759988004233889596858756497408.000000 3750128775845853844018776670961290064358176223322331373961360596849534708846952448.000000 0.000000
0.000000 0.000000 0.000000
-6368244281822181025476730944325553849631687428564145167117239222351848315746779136.000000 4175588773926745006820772017555496692007804058031986133801070886278810748420358144.000000 0.000000
4175588773926745006820772017555496692007804058031986133801070886278810748420358144.000000 2270340792860978099340264468350038926707694042128782790353007430261987255414423552.000000 0.000000
0.000000 0.000000 0.000000
318097840513747675779834198390086499793277761875243848347179691354715946045407232.000000 -826830898057329474540425702616838559472441557592639067408963768005013662697783296.000000 0.000000
-826830898057329474540425702616838559472441557592639067408963768005013662697783296.000000 424686382641033837245336865542344724886053405257181501999785600334256162503393280.000000 0.000000
0.000000 0.000000 0.000000
1781316634693226955868222822366269109496368605368082940159545583481215744271712256.000000 -1218133050713443152188491535780559410300768832507423081739440538856785917578838016.000000 0.000000
-1218133050713443152188491535780559410300768832507423081739440538856785917578838016.000000 428820901177744998163330185329642407317555198196574050317382074261397783747493888.000000 0.000000
0.000000 0.000000 0.000000
5215890430576669093775200748669228747416205726014303166524113128091485154050048.000000 4480973373239826237325362864375388685054754142838614172768942917194028754665472.000000 0.000000
4480973373239826237325362864375388685054754142838614172768942917194028754665472.000000 2075430342838337424108753955905392313174810809406921416337229560301029840388096.000000 0.000000
0.000000 0.000000 0.000000
-131524389704084690666450913785085701733485528680654779764398469283106910822727680.000000 -748284304410271839175340338764386691969781848598221067480992201676004621155303424.000000 0.000000
-748284304410271839175340338764386691969781848598221067480992201676004621155303424.000000 428386075223055374727416510289263956227634706099352439722022608174340322065645568.000000 0.000000
0.000000 0.000000 0.000000
677325945123268413400615534384795347346601631651718447707555272655082612320108544.000000 1864854712572601810779642215175257790372576789662042496259476375886390978137817088.000000 0.000000
1864854712572601810779642215175257790372576789662042496259476375886390978137817088.000000 964601062364207409591212005677641431961423306852297696965147871753829706413113344.000000 0.000000
0.000000 0.000000 0.000000
351220641629964222471334144807312940091282107544150818113404714698284411264172032.000000 262115169248691219011581861219529467008495904234800916227824453479678871232053248.000000 0.000000
262115169248691219011581861219529467008495904234800916227824453479678871232053248.000000 131684655560787077891935849763119589168349832147010602023142639593462329503645696.000000 0.000000
0.000000 0.000000 0.000000
406227567797815264051714514611444252491937671758374005398286203396717630313201664.000000 -234240139329287743976771492831394783590806687409601240565257076166567892957003776.000000 0.000000
-234240139329287743976771492831394783590806687409601240565257076166567892957003776.000000 75483254035538797909823459579196522748940106210112149397510201724865660747513856.000000 0.000000
0.000000 0.000000 0.000000
-197401290134471206071757290333712898258749674610340759714418023563873399622074368.000000 -1618927249890726055083578959862737388686408672894929510982430947096132723211763712.000000 0.000000
-1618927249890726055083578959862737388686408672894929510982430947096132723211763712.000000 913285352257466089329566297678221734925811905216460752472135667533554635144953856.000000 0.000000
0.000000 0.000000 0.000000
1333162665363696868309644595634289175880475395857619252956340115187049003036442624.000000 -1189496548367505961322234137658377916894437735248412684551315732101867020851609600.000000 0.000000
-1189496548367505961322234137658377916894437735248412684551315732101867020851609600.000000 472773825882890169328790073547630612507226573945876327353987550672867446663151616.000000 0.000000
0.000000 0.000000 0.000000
48491019129201317904128312614088893637894904784470111931409758536973042384371712.000000 -52396538439781358036271956737185042045762677511143144295101658468794323766870016.000000 0.000000
-52396538439781358036271956737185042045762677511143144295101658468794323766870016.000000 22629064743538910684836384089071609426011337900572139280966718054690126685011968.000000 0.000000
0.000000 0.000000 0.000000
944560497823258288685000179636054162337094420827961521483460268174946789333401600.000000 -187691764779515275019448759251679227381816673744799578891596357163437989753257984.000000 0.000000
-187691764779515275019448759251679227381816673744799578891596357163437989753257984.000000 52331491696180916263457752966391953829608340023504097045824215927852628187283456.000000 0.000000
0.000000 0.000000 0.000000
-303944159025996197415391103098223258082021826472992887753530551094440787772964864.000000 -205471652796542013988225246508291641029937523217207520993046681022747801255149568.000000 0.000000
-205471652796542013988225246508291641029937523217207520993046681022747801255149568.000000 106842485062571154735364361293077832978431528322900084404603287728940924985671680.000000 0.000000
0.000000 0.000000 0.000000
58413058416039340929309748789785817859294768155348258400587955560080153801392128.000000 19623493640305930476097763721501288140223464471986392528861085098989426376179712.000000 0.000000
19623493640305930476097763721501288140223464471986392528861085098989426376179712.000000 4163609140647223944898314938866150012901286823775012613355297214438456873189376.000000 0.000000
0.000000 0.000000 0.000000
96625753464948990634964234845628267826707850500344998808761226572616657119739904.000000 108488142631089021324569582491335052300915026858085431370750864155673874053201920.000000 0.000000
108488142631089021324569582491335052300915026858085431370750864155673874053201920.000000 46910713455284268384059518902482486003114391256707096719374459355481123103703040.000000 0.000000
0.000000 0.000000 0.000000
2361283386120003700821013403001576647220373145228068166241964224621772516431495168.000000 -1415527713167108768441730264177922575350566927749935438069988923369956633934299136.000000 0.000000
-1415527713167108768441730264177922575350566927749935438069988923369956633934299136.000000 461340702042062984874214520379033884335491926324647145885774960278874633661317120.000000 0.000000
0.000000 0.000000 0.000000
4149655165675802030747731343821180054415447998686898566336300400509859471032320.000000 -20294594669557072112657903797889516837579455248690366965225628060378085980110848.000000 0.000000
-20294594669557072112657903797889516837579455248690366965225628060378085980110848.000000 10900429902646958066439340125146795686645952223945344743147089311808276408565760.000000 0.000000
0.000000 0.000000 0.000000
-2606681015195473709886338078619199647781483933781616789327342846858215802670153728.000000 1284230545344767190661559229137898130115833618075059987782291895776502868625850368.000000 0.000000
1284230545344767190661559229137898130115833618075059987782291895776502868625850368.000000 655625391612543610855059557755838333270576566008889727872816670080440883967164416.000000 0.000000
0.000000 0.000000 0.000000
-18948759718033389090802653592178480341949635842552519488629638078737632198656.000000 91783214490348751916877429642300774804960241933423555662947427792252305408.000000 0.000000
91783214490348751916877429642300774804960241933423555662947427792252305408.000000 665919785644741514742880421922540853107951780405775317054930846851530752.000000 0.000000
0.000000 0.000000 0.000000
-1039400629444003477395605326003492086727416728750871409573013952399095101843832832.000000 -47552215155700572750231121298183083547524725497620449932920209392895354323599360.000000 0.000000
-47552215155700572750231121298183083547524725497620449932920209392895354323599360.000000 17342533407444201467177362061264523426896614784314742251224217590902547711787008.000000 0.000000
0.000000 0.000000 0.000000
45027967389094061144682016419667231856081039918413241784308680171045469699440640.000000 89411427425798928301162183111050494574760425025564144469979432006951016752742400.000000 0.000000
89411427425798928301162183111050494574760425025564144469979432006951016752742400.000000 76751780290421470050709041016484633240599581842665491265179086111972383942246400.000000 0.000000
0.000000 0.000000 0.000000
-91737810418097514272264480898104930045605352247432209487925020281144024965321473392640.000000 -249407871674507844553505610382932843069539165057778344787853868344866246317022642176.000000 0.000000
-249407871674507844553505610382932843069539165057778344787853868344866246317022642176.000000 1355817810953938418290467835222566174900189181190032073129567978761211459837886464.000000 0.000000
0.000000 0.000000 0.000000
-18836483351935207486890405961106626901577009583786510783697375921486441799311425536.000000 -2570349128414253017544230116514382825760353327528404811947893146929465653735718912.000000 0.000000
-2570349128414253017544230116514382825760353327528404811947893146929465653735718912.000000 638422651256990665513533433585281745011579400811021372735580210190330052720197632.000000 0.000000
0.000000 0.000000 0.000000
-597752035036978902884897674038598693036517000443659500001562611539680032140034048.000000 -421462637783796698688615640664178134131905065191841116363131750528614730762813440.000000 0.000000
-421462637783796698688615640664178134131905065191841116363131750528614730762813440.000000 232355156819637812281175021354891312225563622508267312332091582640615378946883584.000000 0.000000
0.000000 0.000000 0.000000
3215299568376816779289487141896753020771910783965271362914589677865491025251794944.000000 181639022443279893450471275129001290682825787922962476966437124822134876620718080.000000 0.000000
181639022443279893450471275129001290682825787922962476966437124822134876620718080.000000 7741940966060928495431962535055436512527839721050630866688545864823251381780480.000000 0.000000
0.000000 0.000000 0.000000
-1602877344143005300792249518248475476367383873831396599420167067134210404987699200.000000 -2775079345063940480525901670615828266627394303685305975596255517638753701781831680.000000 0.000000
-2775079345063940480525901670615828266627394303685305975596255517638753701781831680.000000 1604262522670290668823704887221598982539242669543301496331818960076871629652623360.000000 0.000000
0.000000 0.000000 0.000000
38546142380144511495941198046143669789855542585559162755953224972403803198324736.000000 -98139760015088587866550059254112511621491235651345097386025203157924541343203328.000000 0.000000
-98139760015088587866550059254112511621491235651345097386025203157924541343203328.000000 53635938084620392692880846019602676174930580801050878845177557398762919691288576.000000 0.000000
0.000000 0.000000 0.000000
464457297487624414511940896723028140708089215466377288697135604293937030758400000.000000 1030926158416801606010501144715457621271072043094873613822401741487119935071059968.000000 0.000000
1030926158416801606010501144715457621271072043094873613822401741487119935071059968.000000 520980323928861696770575444382152076013901946901729164591499221877382490489880576.000000 0.000000
0.000000 0.000000 0.000000
1403773308467459814693792664429373316626159981643990224095670656904592934412746752.000000 2129301945080472389293192134387153887661177837991662868012045786082610372721770496.000000 0.000000
2129301945080472389293192134387153887661177837991662868012045786082610372721770496.000000 1011999182491731492427874546670998308557047895992487261239721493079024087041310720.000000 0.000000
0.000000 0.000000 0.000000
41190482673023619227226983035463948546391941551493480205682438190339809429422080.000000 -5360345789733102510547916799775616105609722490576405485350816739006448297574400.000000 0.000000
-5360345789733102510547916799775616105609722490576405485350816739006448297574400.000000 623744754468713443480536875650429377912724601587457033770471089701563442135040.000000 0.000000
0.000000 0.000000 0.000000
-938324984156217386063760438446575871666449501139996991330704174284783447464476672.000000 -827064444375836789007457726889737457518540002506770920878990182975362177716715520.000000 0.000000
-827064444375836789007457726889737457518540002506770920878990182975362177716715520.000000 461975198713519138044311425786462039754204721322273479411589561062998868676837376.000000 0.000000
0.000000 0.000000 0.000000
324946945948219257054364541466505119623762195361817021587262584321844546199617536.000000 873366268056009788748620401932099617338932066465796003545303283707027689316548608.000000 0.000000
873366268056009788748620401932099617338932066465796003545303283707027689316548608.000000 455690298021397201071480946670195240044394709458620066024579497780553404626501632.000000 0.000000
0.000000 0.000000 0.000000
-716650648522687031337858736231513277550385326574199331085160070283417998065664.000000 -671344046369175095603520701623532415587580790493649014969787771333367914561536.000000 0.000000
-671344046369175095603520701623532415587580790493649014969787771333367914561536.000000 380142748128970293851615521221185008734637057914183225207825060985802701406208.000000 0.000000
0.000000 0.000000 0.000000
957804687343754314738156296451178248276697528643353391697442890282563663898345472.000000 -604265487990630078863537374234627586850276620514371088109584061438639586255306752.000000 0.000000
-604265487990630078863537374234627586850276620514371088109584061438639586255306752.000000 202879886399574822519060377745645129733897951302891538755636326875065886605049856.000000 0.000000
0.000000 0.000000 0.000000
-97306724861124585903293361770740999693546311797166218342032862764516326521176064.000000 450025244077102667568707578519173280101367542147629265657698805692553778599821312.000000 0.000000
450025244077102667568707578519173280101367542147629265657698805692553778599821312.000000 256102787104964983126792613297362186011951266914059067669296419782618548623376384.000000 0.000000
0.000000 0.000000 0.000000
100582543196210500487756351167043523246506741556969049110190031322761550993817600.000000 946017242084977119435604992404813806060950596765386771280357531839939743137660928.000000 0.000000
946017242084977119435604992404813806060950596765386771280357531839939743137660928.000000 517530921464246859953584831452998135255349471203256721284923207713274135052288000.000000 0.000000
0.000000 0.000000 0.000000
99393779672288355697299477151594655126341718688507517704026885205596775976534016.000000 -47060375713416441217473089373942346297411050222343538305164107177396177924521984.000000 0.000000
-47060375713416441217473089373942346297411050222343538305164107177396177924521984.000000 12951004924381018296861775439203945419079648043925499091203196782627173760499712.000000 0.000000
0.000000 0.000000 0.000000
-244919021842343228311285767129197084360791802274613016488264840938100488335785984.000000 -30954364564665260315610251169698762965562408141006960809507785529536226806202368.000000 0.000000
-30954364564665260315610251169698762965562408141006960809507785529536226806202368.000000 88304199870832929278576201504323270868951404373140952567151195987031819502485504.000000 0.000000
0.000000 0.000000 0.000000
941266402449281558612100775671818686024778859382841745764740915344730246988431360.000000 -1195641454649226466061133065086352376977349723371746222590059212818141484041633792.000000 0.000000
-1195641454649226466061133065086352376977349723371746222590059212818141484041633792.000000 545144588607384089005232370323540888022618684857341366786174984306811066180960256.000000 0.000000
0.000000 0.000000 0.000000
1654841445980367500614078096366944691489402825526478195514645050969184718892826624.000000 611817063612753695475243302918214154320280674883791974477218278252511088303144960.000000 0.000000
611817063612753695475243302918214154320280674883791974477218278252511088303144960.000000 138311239756631112663547256978541503242059729139012432033304516375821904750051328.000000 0.000000
0.000000 0.000000 0.000000
2670232282402714284080735685591655958973331742627797076964207158281503088494772224.000000 34986736355638850906729964273351450006658363665800669088532159683531936645513216.000000 0.000000
34986736355638850906729964273351450006658363665800669088532159683531936645513216.000000 41441591084919165199466452236434828206174838492490109110228253751882579059933184.000000 0.000000
0.000000 0.000000 0.000000
604087381008038731500377589236667669691182323824984335192218541076606433988968448.000000 541052853609367590216774236398838413727264636131783755458205471224227708717236224.000000 0.000000
541052853609367590216774236398838413727264636131783755458205471224227708717236224.000000 218190337823680310609042377213065755604111773867735395951399008855766418250006528.000000 0.000000
0.000000 0.000000 0.000000
337495307176498848550861349458930807718906149187200318454137002548574942016831488.000000 -257111972999796774653454944702696879022155859261638898231121965681619161938132992.000000 0.000000
-257111972999796774653454944702696879022155859261638898231121965681619161938132992.000000 95946430190261627428040674517707478659176522969923688038197088943093961122119680.000000 0.000000
0.000000 0.000000 0.000000
119697541867999011112638676202165183694739592209380799178724115498002897449254912.000000 927020792463680828913347175474980623446103666503785857336566287344266165539045376.000000 0.000000
927020792463680828913347175474980623446103666503785857336566287344266165539045376.000000 505388298808077810578348917935720107701914083499251876022466287312183475897892864.000000 0.000000
0.000000 0.000000 0.000000
-2355402950600351678954724118867924886237956972763338127440962157996380501321973760.000000 -94439317492277406194961517559130488985383508571033820097979613950966766906638336.000000 0.000000
-94439317492277406194961517559130488985383508571033820097979613950966766906638336.000000 30821601783953530002374076940272119912043679108491209306815741603913187400351744.000000 0.000000
0.000000 0.000000 0.000000
606005647336815421581911558232872077079473234769768240510103257866737998807171072.000000 -164983620975650877358792443920610677564745167617122696281313774733476294436061184.000000 0.000000
-164983620975650877358792443920610677564745167617122696281313774733476294436061184.000000 28559356637343052871695890393191559443664675007340355867006801001759686980009984.000000 0.000000
0.000000 0.000000 0.000000
-1661827141667296252778632560650401461481622044919938513997530101302727448259985408.000000 709794498764780602265622811493157101428479061359095454884967833620095048439824384.000000 0.000000
709794498764780602265622811493157101428479061359095454884967833620095048439824384.000000 369434910997033628909312269068771276852356865571854898797024287795521706296082432.000000 0.000000
0.000000 0.000000 0.000000
-5164116266269123324450835523069901550021079506270990144657093804706329809689509888.000000 2884435294818491095482074112451877095149404616403038140642958918010003419111096320.000000 0.000000
2884435294818491095482074112451877095149404616403038140642958918010003419111096320.000000 1516235583253313949472514779997893199224107816550109455787300115734772745926344704.000000 0.000000
0.000000 0.000000 0.000000
585162853851183669700205243101557819527504638281448628526391934206079129354240.000000 11388248321441738809842413813120157490212454719412597270293296788646365168140288.000000 0.000000
11388248321441738809842413813120157490212454719412597270293296788646365168140288.000000 6004531628045598632591029545098524253613989416395970280428665879424386996371456.000000 0.000000
0.000000 0.000000 0.000000
16277679882909586409695495607317578895049050493751840347961534713191009928347648.000000 -21773212400083655739317519999665596841952443661348603527144694595633027118792704.000000 0.000000
-21773212400083655739317519999665596841952443661348603527144694595633027118792704.000000 10485217568205993874428690167539918493130660024456716202813885867507245752778752.000000 0.000000
0.000000 0.000000 0.000000
37071571754904102494374804448946057698163473210985764452327174757722098770116608.000000 -140473882475142682481349950312816739794581645234766530299914725794352342740500480.000000 0.000000
-140473882475142682481349950312816739794581645234766530299914725794352342740500480.000000 77538293298368609224290952143459268145654527538741823370333258060330542001291264.000000 0.000000
0.000000 0.000000 0.000000
-4173921934339418871392383181783796774769447821015497406677651938594287549153280.000000 -1093076500830296000579131946897935848425794128353086997427310455589638447824896.000000 0.000000
-1093076500830296000579131946897935848425794128353086997427310455589638447824896.000000 160507956701675939683815316565458938118247740414514980917971099270146057830400.000000 0.000000
0.000000 0.000000 0.000000
2105984676986444213950248530616473543798092617297030801487976588862921731135766528.000000 3239230275637922574138077629523581423630182981576015699057914945878228995019898880.000000 0.000000
3239230275637922574138077629523581423630182981576015699057914945878228995019898880.000000 1553339791581787548181597500097910937896676483173969250003511767380805838144798720.000000 0.000000
0.000000 0.000000 0.000000
4426836411254145945694599128118241020765912308057245860296566016115492995788177408.000000 -4202171689646831455841382059439360180079985793659282901807239837358948315392114688.000000 0.000000
-4202171689646831455841382059439360180079985793659282901807239837358948315392114688.000000 1735736051209772072701553210473224309901853136289139744623664651859628032408944640.000000 0.000000
0.000000 0.000000 0.000000
-48363948575939810584663532699729032238188902332330705540210856587922565336374706176.000000 4972129256131658762539438011398634121180996907023069390677277462190732009631907840.000000 0.000000
4972129256131658762539438011398634121180996907023069390677277462190732009631907840.000000 958699664319041641026949921248365535765585974462442573212391769485095888872275968.000000 0.000000
0.000000 0.000000 0.000000
1072183673921871870916013620768433899429393861641013787850077298538925478954139648.000000 -1856689509370700786499778989952231260962505916036140598803232075103768760320786432.000000 0.000000
-1856689509370700786499778989952231260962505916036140598803232075103768760320786432.000000 928323481579203454089634502735510072589432833577465189442594143224834938424524800.000000 0.000000
0.000000 0.000000 0.000000
7394075119018728272560653033215647908652789425323798434696292364813495305240576.000000 331745467622426751383711507308597003803011426278703578903968854430205387735040.000000 0.000000
331745467622426751383711507308597003803011426278703578903968854430205387735040.000000 9899042902571343196750340001002022320632350856437651441312384015968147341312.000000 0.000000
0.000000 0.000000 0.000000
-1192603630176339840915955168217632241464505925344314162284356204725885967794176.000000 930657184210978828323816438061323325526079981831891675381518047360379026581487616.000000 0.000000
930657184210978828323816438061323325526079981831891675381518047360379026581487616.000000 624592074042070532820059430075459592613930116452990184832911982038990723152347136.000000 0.000000
0.000000 0.000000 0.000000
-3497893572965851221407492793895034718560688236877849816503986603145926969231671296.000000 1383526057154422906460710641676032685101641607942464699966462290053187335750680576.000000 0.000000
1383526057154422906460710641676032685101641607942464699966462290053187335750680576.000000 672302052565752796125920445550399274001560533569768830908059302457725440759955456.000000 0.000000
0.000000 0.000000 0.000000
144419221772376545367513240919713294332268284329528005007786512127451804844687360.000000 7575933517307441441734377432637996741650569215001686709020259094963253445394432.000000 0.000000
7575933517307441441734377432637996741650569215001686709020259094963253445394432.000000 8659043267173346992037607692899600016336271454686442698567364414338694249447424.000000 0.000000
0.000000 0.000000 0.000000
1325079676606012263399686055959451333231891080043022477271239612232428442091520.000000 1607603181065924407539689532570647414872280928556265259288779757738051017637888.000000 0.000000
1607603181065924407539689532570647414872280928556265259288779757738051017637888.000000 1469618045379720106310127130247771459478808228753241956822648849617638221938688.000000 0.000000
0.000000 0.000000 0.000000
-30319195905567199018130346326130151002788214888575561628740727097121135839965872128.000000 3089293800708095989645865724348066598233920389755369025660047782490862504279801856.000000 0.000000
3089293800708095989645865724348066598233920389755369025660047782490862504279801856.000000 588412463209103980486221842768416604096920997188315465243297773531518086951206912.000000 0.000000
0.000000 0.000000 0.000000
411814640212222587031378118962131359490330798656335330113494546538041138166628352.000000 390636439361623439468772001865034364781714336386023101596490827405531241680732160.000000 0.000000
390636439361623439468772001865034364781714336386023101596490827405531241680732160.000000 161259403540283446966425756025234646214732312994596958941590487490291061797945344.000000 0.000000
0.000000 0.000000 0.000000
698828227156972190956359303057532871007344883481870456658585441372092354256699392.000000 2064109218192752138736826377037752797605140535465995933599987503471591612945006592.000000 0.000000
2064109218192752138736826377037752797605140535465995933599987503471591612945006592.000000 1076533904023521753949684297136390129208934640451458727828051050312312145584324608.000000 0.000000
0.000000 0.000000 0.000000
1924350512694423927861228175742323180180052736428581390884001394232857896255750144.000000 4117000756738259043581167161671226855081358707849080119199407422692036669243129856.000000 0.000000
4117000756738259043581167161671226855081358707849080119199407422692036669243129856.000000 2077028350606751472419996507636860007582703127290213157397705358710514660025565184.000000 0.000000
0.000000 0.000000 0.000000
175620474085324192877875537227807766044674212959460494182957393572468879328804864.000000 -148108062663964510475643106179810511058662604276031470744846390534077970749849600.000000 0.000000
-148108062663964510475643106179810511058662604276031470744846390534077970749849600.000000 59429698390301136185547442948387494430267031770092356243448435492881923628335104.000000 0.000000
0.000000 0.000000 0.000000
2692044153424373070394591397539031380723542201389140697098182855953291593824337920.000000 -3214065139529390544376360237695122285948164989658490706166059757834128239968124928.000000 0.000000
-3214065139529390544376360237695122285948164989658490706166059757834128239968124928.000000 1448741436109999347009138341599867470725655836469002317903605190266901525419786240.000000 0.000000
0.000000 0.000000 0.000000
-2874635834012116973199046388846958638550160245398184749677708580264297562201690996736.000000 -39538701155432747047963203371349401952327516175803027506021007974844669212942663680.000000 0.000000
-39538701155432747047963203371349401952327516175803027506021007974844669212942663680.000000 1100302440641692834740413963945819865086295424575410964258934374393163543251779584.000000 0.000000
0.000000 0.000000 0.000000
-292529947422240428905514412287720086160762687133316017831757136218086764441501696.000000 540692768995760380555231575719393619135997882758571487602878009157205607952941056.000000 0.000000
540692768995760380555231575719393619135997882758571487602878009157205607952941056.000000 382959519683834590620496700973802990642892327166198211868917104936927096515592192.000000 0.000000
0.000000 0.000000 0.000000
-14316389186688003080285009926915835674002947303276725525330281427076603309520322560.000000 -2220906977731832048560122199292652907256719418761643433652457814219348807893647360.000000 0.000000
-2220906977731832048560122199292652907256719418761643433652457814219348807893647360.000000 611350748556875623341641150853030945147278544964698196785513226429787259610857472.000000 0.000000
0.000000 0.000000 0.000000
3833303079473000708029922184759275814781583714191541260106646507582908306393399296.000000 622565409786885005412992182109465321929359095978280063345482529699518234882998272.000000 0.000000
622565409786885005412992182109465321929359095978280063345482529699518234882998272.000000 76433091102699474039154540496031605923524851638127752534891023543164538185580544.000000 0.000000
0.000000 0.000000 0.000000
-909600974714969749153332555449059452306858517314148547907383959283489186382872576.000000 -365399661344926752979842781717428867243832194691665423003706056044132167413923840.000000 0.000000
-365399661344926752979842781717428867243832194691665423003706056044132167413923840.000000 182858375276340275902064512847071446178797082808966898419508253734293567600328704.000000 0.000000
0.000000 0.000000 0.000000
-309566886370143154349827001021236861096435305367729646610492422954150353247928320.000000 118408940370871187483332334519006106612891413962051349415164421041291042809184256.000000 0.000000
118408940370871187483332334519006106612891413962051349415164421041291042809184256.000000 18939540525502381198693093845855893024227889161581226374179996413850416322707456.000000 0.000000
0.000000 0.000000 0.000000
-2765594909444806499222702469866742927064836800749815733101064910264690668738707456.000000 2790754885795992384157054288168917857570706308431186455103097250595889606196985856.000000 0.000000
2790754885795992384157054288168917857570706308431186455103097250595889606196985856.000000 1588273709751741403081943569007922868080308212736660975391269040355164441077088256.000000 0.000000
0.000000 0.000000 0.000000
618843538605847767503381422999325821619650395272303196512476504812999715848192.000000 -2764778269787194501351477822350914557397432590382839004192833097664786050580480.000000 0.000000
-2764778269787194501351477822350914557397432590382839004192833097664786050580480.000000 696652485190163978705139757714184912468966077928507884530247848906853785272320.000000 0.000000
0.000000 0.000000 0.000000
-2378126117334177657927507844256814732644363036624814462605377112175060437067366400.000000 -1260964194071840933902537164553568275301584390978634402130805362088147545166446592.000000 0.000000
-1260964194071840933902537164553568275301584390978634402130805362088147545166446592.000000 659468612954632084916914481023967966146243314228548127989698948836250611143933952.000000 0.000000
0.000000 0.000000 0.000000
1867557430207564929936050400902565693614980069692362912505091682315507860882063360.000000 -4236060132551067678899105379710064831846794659939636260810282490003557582955872256.000000 0.000000
-4236060132551067678899105379710064831846794659939636260810282490003557582955872256.000000 2184252387743578335307531468331922966360915034724609780378274551970621298130812928.000000 0.000000
0.000000 0.000000 0.000000
-67890156598367336491557854047879148399254243047446908093626563418170419445147631616.000000 1245925040349316965975375718110585086758245801706494328680707865669522425066291200.000000 0.000000
1245925040349316965975375718110585086758245801706494328680707865669522425066291200.000000 45747697846394401557347342254452031667904297179650479113149115521639044861657088.000000 0.000000
0.000000 0.000000 0.000000
-232695990901464589316246537475518654157758727546627875313326107132909764302864384.000000 54392353749239641462766079952679447501847468250910201832387600205819227544748032.000000 0.000000
54392353749239641462766079952679447501847468250910201832387600205819227544748032.000000 19886766732372698905477681936324546037457991288728758988349415036301187481600000.000000 0.000000
0.000000 0.000000 0.000000
5388168897608570325714918870516993421547655451356449983190063264381566110077550592.000000 1535890520721713865893715021162896167411980053259527211076108866981432201008119808.000000 0.000000
1535890520721713865893715021162896167411980053259527211076108866981432201008119808.000000 279831711311749028677172495647972312103655384488768766553972979177101424290955264.000000 0.000000
0.000000 0.000000 0.000000
-21391147758436571567736649740485862055218603411409952475244129532229021859840.000000 260486258826195495837738964303374581400319613755447225418374072927872954138624.000000 0.000000
260486258826195495837738964303374581400319613755447225418374072927872954138624.000000 146384482783531109206433202707701853473892600485810256464002655818153812033536.000000 0.000000
0.000000 0.000000 0.000000
-7737928053234715135731381115995547909254856306928670943508688571194513681905876992.000000 -1794166727767094285259548334674946260825285560096599059737235793516133132263227392.000000 0.000000
-1794166727767094285259548334674946260825285560096599059737235793516133132263227392.000000 667274732924449426241596580936851684425173471468069475385500736575762884928208896.000000 0.000000
0.000000 0.000000 0.000000
-100415214177382123036053143689214199083605684396805098375757927994061447493582848.000000 461762639370994485488342953455196307381300806559774692322218536885971483721990144.000000 0.000000
461762639370994485488342953455196307381300806559774692322218536885971483721990144.000000 266148733879417235978745524094095024743438114089027276722238753571822405460951040.000000 0.000000
0.000000 0.000000 0.000000
-2949236914755717483027314916417875785857070787933094939513585288191865319589937152.000000 1365409654787085872610442845963386358033919958752490903171976443547297362544164864.000000 0.000000
1365409654787085872610442845963386358033919958752490903171976443547297362544164864.000000 756111885317212713602345004176701853110574707939062089492379920564594781037002752.000000 0.000000
0.000000 0.000000 0.000000
-315723632288249772224618604091930813125986362416660467204815960883144335277686784.000000 -254534106364337912982280032172492780384568945719972792253314038842978845679681536.000000 0.000000
-254534106364337912982280032172492780384568945719972792253314038842978845679681536.000000 142152521747532558099406401528296245665098655051033488158160492221251612244443136.000000 0.000000
0.000000 0.000000 0.000000
1439792301107989368885970955658422380604369176604808786854995146931639639231954944.000000 2905362303881743656661645741636960998220036761721587686178326667565183778741551104.000000 0.000000
2905362303881743656661645741636960998220036761721587686178326667565183778741551104.000000 1454927379113114631323745918566297425154923267242668343526553470358286850987130880.000000 0.000000
0.000000 0.000000 0.000000
923340229316187164991249788563613240237269958662593282498917533315110106979893248.000000 714683125951356229944089360924777765565604761850655660602280090178717348052074496.000000 0.000000
714683125951356229944089360924777765565604761850655660602280090178717348052074496.000000 284290211882201220933209281805581476797114866281238444039414314084782170192216064.000000 0.000000
0.000000 0.000000 0.000000
-1065631126309786209098477029691118200278124057536756514138738821840217944319066112.000000 23200846790374739269300498266509665667253632615220338645944233084520978221891584.000000 0.000000
23200846790374739269300498266509665667253632615220338645944233084520978221891584.000000 815010588563049518353982843898617912299702283674569727836790413659433099853824.000000 0.000000
0.000000 0.000000 0.000000
-5342795589041382022538642242898690045280729609458400007878446853786245959717486592.000000 1630069378184314910404661713457737784777218399247799264582007841758835264173637632.000000 0.000000
1630069378184314910404661713457737784777218399247799264582007841758835264173637632.000000 719981775669514192765389219038956159429590628823458861441083251314653859221078016.000000 0.000000
0.000000 0.000000 0.000000
673667932934761021848018040899383591165901391359072450671567440432417270463987712.000000 -415844237354804693599061224822388477997204844770626751372111805911172604816785408.000000 0.000000
-415844237354804693599061224822388477997204844770626751372111805911172604816785408.000000 138596140919426911605357037271385559877199133542325963175121066974511705295421440.000000 0.000000
0.000000 0.000000 0.000000
1625673894912737628080115884871594410100117573640243890840312332335721281230995456.000000 -599876682521614556495555122477185801934337859452831865136130448490822921904717824.000000 0.000000
-599876682521614556495555122477185801934337859452831865136130448490822921904717824.000000 135379006081487463575050654034423219782630006120346841122328429631367527752794112.000000 0.000000
0.000000 0.000000 0.000000
-93546982987110248192589028780913404277240243744155822341401531325613751711347769344.000000 -8024340166697083407733017858220236579298895991760308391240449760169415883989450752.000000 0.000000
-8024340166697083407733017858220236579298895991760308391240449760169415883989450752.000000 1328096888366784396807629405548255827595985791572771364163836115767465106200330240.000000 0.000000
0.000000 0.000000 0.000000
184791049187139098472446884633739009601979848705139264543663177259869861868208128.000000 34865584778378138184244627222686786280003083701661840442737563300197694691082240.000000 0.000000
34865584778378138184244627222686786280003083701661840442737563300197694691082240.000000 23875230357865193254798783637051537869381366995824853096918123898913259715035136.000000 0.000000
0.000000 0.000000 0.000000
2361762579120051525740066278159967443717193930058173271159921649096461722211844096.000000 589442765170503675377262745664640203507336269998156323834494414694907950841987072.000000 0.000000
589442765170503675377262745664640203507336269998156323834494414694907950841987072.000000 95710003752745345615772316223448902055973665659777333391586874590395696307765248.000000 0.000000
0.000000 0.000000 0.000000
1159463225800045439336270081468203561496239742733015969562147205346736569992609792.000000 263526620566290141692615177471593579545575155841217847668444122943761434110066688.000000 0.000000
263526620566290141692615177471593579545575155841217847668444122943761434110066688.000000 46888922399018837497731467470711078818834061507486920039872817144392538572980224.000000 0.000000
0.000000 0.000000 0.000000
802096474374008702669513166893235435020064014849778900030464507561648848862445568.000000 1025738737253564293558726719449532656803186301552140484953022670084476100285562880.000000 0.000000
1025738737253564293558726719449532656803186301552140484953022670084476100285562880.000000 468855749135331979990138659092520374374119830372436074863765709439259969077641216.000000 0.000000
0.000000 0.000000 0.000000
231254279610092396639988886557105372528024950616799485545943119027300637899489280.000000 -404398694224884483581567884153103515210054008829725350163807080364113441513799680.000000 0.000000
-404398694224884483581567884153103515210054008829725350163807080364113441513799680.000000 197974849813609481765686277557607173627441616052713974649152754732075477807136768.000000 0.000000
0.000000 0.000000 0.000000
593674189885034525033359021422722063499902310863638712070522970631540302080376832.000000 -137073007629609102482437486165049705300804979023940430137647192181602465620164608.000000 0.000000
-137073007629609102482437486165049705300804979023940430137647192181602465620164608.000000 20085711592317053338030681419493899487092452370643765715008427353409855550390272.000000 0.000000
0.000000 0.000000 0.000000
1553095766373536602260678367717550265187003146145628479388484717786191144314470400.000000 471600517337198516045073352469399387427793053161669147817930517141034085522604032.000000 0.000000
471600517337198516045073352469399387427793053161669147817930517141034085522604032.000000 112223325919362850854916064992616869333355798000750946769157619294619325897375744.000000 0.000000
0.000000 0.000000 0.000000
1034693756872861000214960474901799108500729024115916842177473332662671398320209920.000000 -662634400973699041531876436576605987547773011591227343672368207590114407839956992.000000 0.000000
-662634400973699041531876436576605987547773011591227343672368207590114407839956992.000000 224290362674687595877865343560087665538641160447092936569411561429259929429999616.000000 0.000000
0.000000 0.000000 0.000000
10007454883507247971734228448079823607505377353504052360475990224801115397410521088.000000 -7140995504361129125941943362459630641449334741709625480126307149667432236008341504.000000 0.000000
-7140995504361129125941943362459630641449334741709625480126307149667432236008341504.000000 2572659532212625640084857260449037689633584412688472260466007046975341984953139200.000000 0.000000
0.000000 0.000000 0.000000
95943596529086086840310597646337723444217507220157179583566377716518481167384576.000000 424428773382214024696275725003228450309558471512963903907713580628813453851623424.000000 0.000000
424428773382214024696275725003228450309558471512963903907713580628813453851623424.000000 272252081016902766549255302000021422677358376013187478987467027909864651990499328.000000 0.000000
0.000000 0.000000 0.000000
-1162984194247097129828320519535081834493978660849041349450869910446624967831322624.000000 1163533647350375740181737952378425608389886584696349576236616471747518595202023424.000000 0.000000
1163533647350375740181737952378425608389886584696349576236616471747518595202023424.000000 667561230045160592295894365922577916088128216458110488928641494686679453667426304.000000 0.000000
0.000000 0.000000 0.000000
664143160225586159379001806311064887591817440848519669916113248211905751273177088.000000 789614969570706225858647181017796437327149501007416266846667266757965348295671808.000000 0.000000
789614969570706225858647181017796437327149501007416266846667266757965348295671808.000000 352620196781413844375843958126230032652314289819088864262192782012286466621702144.000000 0.000000
0.000000 0.000000 0.000000
-28274813143479693260673394426626295889174140325351076430880729898579597245546496.000000 -34806152508881785026892983401849293519627657574602516873674514467053167548825600.000000 0.000000
-34806152508881785026892983401849293519627657574602516873674514467053167548825600.000000 19770495197843564672683266548786075273974785776514967356027235126961699123363840.000000 0.000000
0.000000 0.000000 0.000000
44189656081888070628230571526196599759121073954575922174998048523518812083978240.000000 26775781866352954256694450250197911818604739207996421415412270871764332458278912.000000 0.000000
26775781866352954256694450250197911818604739207996421415412270871764332458278912.000000 7151453078901386352337278241092270480730250917384189286387220928713738279714816.000000 0.000000
0.000000 0.000000 0.000000
51333823156859274291071408070110124395209997561921599890452087270711265629044736.000000 2622560070542849477951695143953336447963085914265303921031968635060533668886872064.000000 0.000000
2622560070542849477951695143953336447963085914265303921031968635060533668886872064.000000 1450197204538904796197854181778383271378212490130845097691894825041088351725158400.000000 0.000000
0.000000 0.000000 0.000000
25415939990612973809000735386125059149515743925815754701717401751156096139001856.000000 -10673908200641722112584227621764878053170581664642996335050122479275039516524544.000000 0.000000
-10673908200641722112584227621764878053170581664642996335050122479275039516524544.000000 2938231817733289353210782540240699458877246043929886512919568317365670025101312.000000 0.000000
0.000000 0.000000 0.000000
4756574935509714940350530927013290386077705257635994688343648074330673970449219584.000000 -1581517581665293139598763310117982030230450456195053614159583772182078389124857856.000000 0.000000
-1581517581665293139598763310117982030230450456195053614159583772182078389124857856.000000 326517751166111681680831244891794986800842853377747857280912482409813780247609344.000000 0.000000
0.000000 0.000000 0.000000
-41980535262031881211085172053283571683942418761762064378813539307605026578366464.000000 -240357572576978135961927475890700403444548557386944476254015473899406844699344896.000000 0.000000
-240357572576978135961927475890700403444548557386944476254015473899406844699344896.000000 136756060220496843681366543305973035329369955284941988457800115324729055764283392.000000 0.000000
0.000000 0.000000 0.000000
192538590822568653039792434064694734386140073358312958504537379682067933774741504.000000 -12803292093792170581118069134024735453348927477302959643690157904315956928184320.000000 0.000000
-12803292093792170581118069134024735453348927477302959643690157904315956928184320.000000 8932637483180573183162189664834725842422633639885607602257207848985202750652416.000000 0.000000
0.000000 0.000000 0.000000
5068298162545447818747254221343270315365485421206342709248246943258625366177087488.000000 3397342799752518768008726171532161551431720985816971381364665592949623001435865088.000000 0.000000
3397342799752518768008726171532161551431720985816971381364665592949623001435865088.000000 1180999306819036780608227708035462553745123287611476641367982234587397308008103936.000000 0.000000
0.000000 0.000000 0.000000
1170664968462279790017079926821145888211308395010982325267749256655762604578308096.000000 836753389238535607215824280187432671193487090336488284147196547948537497453068288.000000 0.000000
836753389238535607215824280187432671193487090336488284147196547948537497453068288.000000 301441819760367460040696908605671076656142160845880761586174890979233510534938624.000000 0.000000
0.000000 0.000000 0.000000
-344029716043720140996835807002570654605233883118690418163259691171634940911768567808.000000 -9423754895797919751840800105066471361848356350156740701677097571011743906183249920.000000 0.000000
-9423754895797919751840800105066471361848356350156740701677097571011743906183249920.000000 516877556922876134949102954233690959309870610777213253070675149471153003306156032.000000 0.000000
0.000000 0.000000 0.000000
922921681374965458947963353822739892457067556234115443082829760956625433200164864.000000 488037575267273148351599450573422325564130185068881715318221535306860586130735104.000000 0.000000
488037575267273148351599450573422325564130185068881715318221535306860586130735104.000000 158022357255102318359038155665864578173901225395510868178128228840790672837443584.000000 0.000000
0.000000 0.000000 0.000000
3150651843570471907104580802475480056474079182423437075086193764344761467136901120.000000 3990146038392662748339323778130299624112914307684617638162885507459131327683493888.000000 0.000000
3990146038392662748339323778130299624112914307684617638162885507459131327683493888.000000 1817745208100410584523697684379644905424981441022862759397042654126405138788646912.000000 0.000000
0.000000 0.000000 0.000000
3055101088081007000374142586242255007975457621879944643709137126738174877510926336.000000 2910390951215529725085330573761610370167843020016873298848128297454519844134191104.000000 0.000000
2910390951215529725085330573761610370167843020016873298848128297454519844134191104.000000 1204131088213292159223276482415434804356094457580541586537260571501945958090932224.000000 0.000000
0.000000 0.000000 0.000000
-31665263325974958497493593828029286257920253762103842814640512143707692479706824704.000000 -9364223120544072217764019308612131602509784460723388526488031084083561717724872704.000000 0.000000
-9364223120544072217764019308612131602509784460723388526488031084083561717724872704.000000 3907401234389272574900220456391233569839381425960569645336379825835141241818316800.000000 0.000000
0.000000 0.000000 0.000000
636035249302392314639972160014624805556102880329761509125804100478802199475912704.000000 139667587362860233278140774761151265293733137295298274431695845442386623171919872.000000 0.000000
139667587362860233278140774761151265293733137295298274431695845442386623171919872.000000 70453634922948416227702529409391463260487369948516314060722395337274743221911552.000000 0.000000
0.000000 0.000000 0.000000
-7346444013017913658255585398487699404012770554576783510653138438188145002288250880.000000 1942386486029337804572311725614593893321229303395999285101670144433264243303776256.000000 0.000000
1942386486029337804572311725614593893321229303395999285101670144433264243303776256.000000 776756058396969892792622022085069047957662216080785073973415697000230485231665152.000000 0.000000
0.000000 0.000000 0.000000
-144488519384055592765162381978217359198928541725009389087028750785206723148775424.000000 104944247052427365683024063411909875066644709115524104304203289721374263386046464.000000 0.000000
104944247052427365683024063411909875066644709115524104304203289721374263386046464.000000 57845399912217816007968263415079471380484329634628704396477463217089054968381440.000000 0.000000
0.000000 0.000000 0.000000
-2526061212939436919826627670483361854062437763800879774208248827578181456140173312.000000 -800256529858654185290751274239652714208991434332275785526780985109949649518592000.000000 0.000000
-800256529858654185290751274239652714208991434332275785526780985109949649518592000.000000 346323096343769663156349668122108011562518918545434563089360090796336948969472000.000000 0.000000
0.000000 0.000000 0.000000
2648883649963404007135063131415714814205485359149495965257987568425940541209837568.000000 -1461220161140478783639367841066665496547915294238438804569756099260147508524875776.000000 0.000000
-1461220161140478783639367841066665496547915294238438804569756099260147508524875776.000000 451703231347302124965536082460910421241521590998771067519334579853769641155362816.000000 0.000000
0.000000 0.000000 0.000000
-369502186615746976740750031182174252898859275430300836993332615087800582018170880.000000 1166134016380538479847170578982742910404404582957273250506009272983685148516024320.000000 0.000000
1166134016380538479847170578982742910404404582957273250506009272983685148516024320.000000 721664777187078033552347811562768777160515872476172857161876613784087479241932800.000000 0.000000
0.000000 0.000000 0.000000
-2495550349728787909355245745269689211961410786327766674970624171287788510725013504.000000 -229553646981910077094103223932428858505342948827903205806472782882622650328285184.000000 0.000000
-229553646981910077094103223932428858505342948827903205806472782882622650328285184.000000 85234125188478247588956219678556131271201215448491900704439853233196243007569920.000000 0.000000
0.000000 0.000000 0.000000
-2592251337607473483466786088749223150981875878577805588016194175493734569785425920.000000 -2910256357278174193565716337665452152945969906361810675377477156906579102107959296.000000 0.000000
-2910256357278174193565716337665452152945969906361810675377477156906579102107959296.000000 1694668146184945496920982367392001272048555520857459254856261030687992717005291520.000000 0.000000
0.000000 0.000000 0.000000
187036891188066960007141481307689955137758728045141572873445507260742069387264000.000000 218358793962376102435738966021458807652952551003354564929940691548717354558947328.000000 0.000000
218358793962376102435738966021458807652952551003354564929940691548717354558947328.000000 95439654958934890385843153700893066402899576705577111262567857396394510140833792.000000 0.000000
0.000000 0.000000 0.000000
-402172736949737770334627158339665831769773734829803063863258636634438731374264320.000000 -14361721176867303497739016330149142975535810279751612926380377465795290465304576.000000 0.000000
-14361721176867303497739016330149142975535810279751612926380377465795290465304576.000000 10933010854041436602587047701965749416406821861224917165705700843902225749114880.000000 0.000000
0.000000 0.000000 0.000000
-288491743033301041968073010869335795123084152738076077232991686534270369241497600.000000 -944108844767570270466980949315886779315874765026937768611501523391175059266600960.000000 0.000000
-944108844767570270466980949315886779315874765026937768611501523391175059266600960.000000 541249826845299502361965632925866626076810965070040086878100233146543010975055872.000000 0.000000
0.000000 0.000000 0.000000
-461141446166471566444994630053167162681793962412872967655135585895028221108289536.000000 -212718434546475061757049196858508212507482049724326425094745316638901350766215168.000000 0.000000
-212718434546475061757049196858508212507482049724326425094745316638901350766215168.000000 128397759994774545497974363241883859984064447972436735504968118384380945633378304.000000 0.000000
0.000000 0.000000 0.000000
144061804702228236404258536776681240615887336750060627993191810099247771604221952.000000 193102999289247009948714101836425393953285951076503616588021090849821419498373120.000000 0.000000
193102999289247009948714101836425393953285951076503616588021090849821419498373120.000000 89313344211395316935368279588222799098766426216885885024881815249198153935618048.000000 0.000000
0.000000 0.000000 0.000000
3455566108595750658706712514970002106866447236117873036650814135760717491503890432.000000 -1257461574405907655474334159954338740893359033840882650687941223512425629946478592.000000 0.000000
-1257461574405907655474334159954338740893359033840882650687941223512425629946478592.000000 287825521575159277557906708559635980073674693886324676797421301325595445764816896.000000 0.000000
0.000000 0.000000 0.000000
-2398125859947173382556805259576921397871953975003854238326118964103673015131176960.000000 914647550459546422495811225595188415116727410320497356181241112504539516944515072.000000 0.000000
914647550459546422495811225595188415116727410320497356181241112504539516944515072.000000 442052767395170309641771618993840959940528674619486288699828998890400211185696768.000000 0.000000
0.000000 0.000000 0.000000
889417868631832020849134945064210328285449778855084494241856543991910878517657600.000000 -1834053588772754143565078261798144308011933008505439213809240127273326851150315520.000000 0.000000
-1834053588772754143565078261798144308011933008505439213809240127273326851150315520.000000 925695756644453756520511112471451079291408311187044646759106096037525748902264832.000000 0.000000
0.000000 0.000000 0.000000
-252906240025274882139301610891097252983499628154670058047935961930436030702288896.000000 -465449030190730834478233442958423172826203659994680691291347539711015994177617920.000000 0.000000
-465449030190730834478233442958423172826203659994680691291347539711015994177617920.000000 268361765606495398303587898870642634891815444957177173093533835549240108519522304.000000 0.000000
0.000000 0.000000 0.000000
83269468433663016553133985900063114461046149671636255979161576708631325235478528.000000 -43786691689692693461814111394222767139498747641555308937171147274531625267888128.000000 0.000000
-43786691689692693461814111394222767139498747641555308937171147274531625267888128.000000 19670307755106922235459924734543836781710328076958265719052083557892237163495424.000000 0.000000
0.000000 0.000000 0.000000
-218588682831951070722676178488540803996204555993374095560876335456833562405240832.000000 1267576654223141330007428018867568100941095087794181967212203052794794270368202752.000000 0.000000
1267576654223141330007428018867568100941095087794181967212203052794794270368202752.000000 734787291476062818219326103576785334467823150982075754004083657417987942321750016.000000 0.000000
0.000000 0.000000 0.000000
1288390218591030306598877132910150393192708824251267117755783602430838193252204544.000000 -143876312467062970808856750814662833311529034942813024301100744470099637829632.000000 0.000000
-143876312467062970808856750814662833311529034942813024301100744470099637829632.000000 286093087406372547510099967866265688770177469896962972086369912620153816743936.000000 0.000000
0.000000 0.000000 0.000000
962527252837049502708334267275283753712572785704429500565833652585656043505188864.000000 -254999544506670376609227650929753724711652121365799886765339602415870128802496512.000000 0.000000
-254999544506670376609227650929753724711652121365799886765339602415870128802496512.000000 42822686743055931012073158265175838468361340247303627187909317348952596537147392.000000 0.000000
0.000000 0.000000 0.000000
1006867930355645839020319112327700146409293430452004106344118055315259640495734784.000000 624060806518673242413897462630332811290514314995828470683426444499757935267676160.000000 0.000000
624060806518673242413897462630332811290514314995828470683426444499757935267676160.000000 209371285845709029719272262576857910251755304585731361246485859787928534920462336.000000 0.000000
0.000000 0.000000 0.000000
-29340893945247406112909132110961094659456437608315542723215467464913501836426608640.000000 -2727297818960540998506380041341747218341385743971137364183368952116706318598799360.000000 0.000000
-2727297818960540998506380041341747218341385743971137364183368952116706318598799360.000000 486084275420690263988940770160092902878008989594956823217986416050161843116703744.000000 0.000000
0.000000 0.000000 0.000000
1194085064842863238753702055038763979085157747453727756016400685233510192030679040.000000 314411986098225785105174202269396845372176094570406042465413802264495976429387776.000000 0.000000
314411986098225785105174202269396845372176094570406042465413802264495976429387776.000000 53052756726701148598782372106737247790137815352585390015573661689735787581538304.000000 0.000000
0.000000 0.000000 0.000000
-45008974017060859157377477440659560707794880787952294464668394348332950149918621696.000000 -3354222854741414693179185998290263475370070924342847021118383665938292012117655552.000000 0.000000
-3354222854741414693179185998290263475370070924342847021118383665938292012117655552.000000 484920088255125636441777757226871272426096204966727822438545745998732680207794176.000000 0.000000
0.000000 0.000000 0.000000
-83559905931165839745637899946846512456123710287374047671874647068629397531525120.000000 240268284109937015532895314757531950260358685106246260405993947856934135819927552.000000 0.000000
240268284109937015532895314757531950260358685106246260405993947856934135819927552.000000 139706946619325534278027031292455772875263180329154372393135380970131172597170176.000000 0.000000
0.000000 0.000000 0.000000
-120214037940353720739445729487266272053475206441922412335004125852062070163374080.000000 492430507187294351447068774151268895534248736847341140767558320999671307693981696.000000 0.000000
492430507187294351447068774151268895534248736847341140767558320999671307693981696.000000 281236003308717928265557911560036103097017147835914807484071062015380735223922688.000000 0.000000
0.000000 0.000000 0.000000
-329408046674204911244022911196182860404547584587769649810604489548054990438793216.000000 -898319715625268155594355361299742263020571264887038969051753007410596974528823296.000000 0.000000
-898319715625268155594355361299742263020571264887038969051753007410596974528823296.000000 521201518425966507505423378542213812690664421433658587383298746378359159866261504.000000 0.000000
0.000000 0.000000 0.000000
-285267226884070039175768985058380703289315768842231746119022122899183544563662848.000000 733735854224001475646824970397327576306995998510984183988277829427866479636774912.000000 0.000000
733735854224001475646824970397327576306995998510984183988277829427866479636774912.000000 422349610549157089385700420099913256828841684059435386975412130230488268732891136.000000 0.000000
0.000000 0.000000 0.000000
113088504498545836653222966338655202081640699817551947132024822912948662289039360.000000 160191661410260211492475279365548894861412394486736534537351686753890810036486144.000000 0.000000
160191661410260211492475279365548894861412394486736534537351686753890810036486144.000000 75104800576433485978230803864915040434420222091827114798981002197438567085506560.000000 0.000000
0.000000 0.000000 0.000000
-169765745933101543985263703066442782731553453933015211718301623154741402558005248.000000 -153270739092182247857098703491700490682843397248004461056010165163429382911426560.000000 0.000000
-153270739092182247857098703491700490682843397248004461056010165163429382911426560.000000 93156163814127847435478802561439965059948746105769110441539931866392211379716096.000000 0.000000
0.000000 0.000000 0.000000
-160753098143146126053823902846793078300697145127648632441422638321918213057675264.000000 -231264188076924805254363040102831548958726224111993330589440816765508638683955200.000000 0.000000
-231264188076924805254363040102831548958726224111993330589440816765508638683955200.000000 133262159937748496132046689707658755415450857379543196787323142185150396269330432.000000 0.000000
0.000000 0.000000 0.000000
1901686155701155206787591308487020236871883633240444296230382882626833937749508096.000000 2118701080074810584492223360361323795620952994782007489879791518367562071560683520.000000 0.000000
2118701080074810584492223360361323795620952994782007489879791518367562071560683520.000000 1024926074690565903829212401857267829289741924164035350999380426410712749305757696.000000 0.000000
0.000000 0.000000 0.000000
17720226344154435993523535082247985139828484887166029725311792265469548906414080.000000 -5851451813883764565876527706513585790553670246286118973552497948840741757255680.000000 0.000000
-5851451813883764565876527706513585790553670246286118973552497948840741757255680.000000 1201066794008179879101676847087356514652274427520629891997690032515674502332416.000000 0.000000
0.000000 0.000000 0.000000
-2082902530211101270642007102904687930794540578412839250993989240846397446226444288.000000 -5889167453481689834985683449980921000886787525601524685107410496724795269257887744.000000 0.000000
-5889167453481689834985683449980921000886787525601524685107410496724795269257887744.000000 3356370610523405813905687089930481608197468116223842399651330098540594160872718336.000000 0.000000
0.000000 0.000000 0.000000
50942478019885440405260135120156469823825780023003577054046056380854170961313792.000000 -174948881686950547770791615970502465872589648609230121069287544586277544993488896.000000 0.000000
-174948881686950547770791615970502465872589648609230121069287544586277544993488896.000000 92265566721968857162815091764346776177523813518939903060545739297489191832649728.000000 0.000000
0.000000 0.000000 0.000000
2276364322710358719978980465081198698676293855991772821653590598701800444450045952.000000 -191895858879415352618088046636602450251988435175200074502905262281689406812192768.000000 0.000000
-191895858879415352618088046636602450251988435175200074502905262281689406812192768.000000 11010727168721636511102128045764558075326440859450925774591533395673338081181696.000000 0.000000
0.000000 0.000000 0.000000
1489733681448370122156063485337397236614986746628824143276163168241715262842208256.000000 415109982568190919181425850306624212384287345460059818047928126104852770204942336.000000 0.000000
415109982568190919181425850306624212384287345460059818047928126104852770204942336.000000 85427649640339217947803424022558137487162529755896358080278546286336022759342080.000000 0.000000
0.000000 0.000000 0.000000
1965937447071789722680148247459115157144444200783104227528009193262054561365884928.000000 -185744698771972971746015409481295899547513972596455908489705876267075248282664960.000000 0.000000
-185744698771972971746015409481295899547513972596455908489705876267075248282664960.000000 11780072655827547550286940615572479626202316584461301252344230233686662065422336.000000 0.000000
0.000000 0.000000 0.000000
209930263871659497960180775911555661413340924472083150979859645573031203119824896.000000 383387329715094964770361910439489993893153805383280065828356943617759547949580288.000000 0.000000
383387329715094964770361910439489993893153805383280065828356943617759547949580288.000000 186670286070216294418462688314190948939791752095783022310620296180407192013242368.000000 0.000000
0.000000 0.000000 0.000000
-24619761018019189163861677453716225157068353506330020392880229105455851896664227840.000000 -10788747091903392394023325190280070048926913786997822168991356945282150160641556480.000000 0.000000
-10788747091903392394023325190280070048926913786997822168991356945282150160641556480.000000 5299619927987245950255821815789524657344572026461772501409482662313326714982236160.000000 0.000000
0.000000 0.000000 0.000000
3759579892973569207713877027445808784909653883288472001709914132516894396540518400.000000 -858460453124519183024445719079510277488548788807658239596961276368407386375847936.000000 0.000000
-858460453124519183024445719079510277488548788807658239596961276368407386375847936.000000 127170298878701845983845852870870930964052344129622146364004259806669725631512576.000000 0.000000
0.000000 0.000000 0.000000
-626751122791681192089207970199860163599096411479527218107204719661819069173071872.000000 -1073273402349447427716555630501718026794495187338205327161450486016730061720256512.000000 0.000000
-1073273402349447427716555630501718026794495187338205327161450486016730061720256512.000000 671617408553422408782981604070881908727728114303896942832424080054027682236596224.000000 0.000000
0.000000 0.000000 0.000000
-101820786406110827449201296821831319124262762425093855618126722532219194305413120.000000 -26505405575450228230929505557341428460208092512747555383053260515921347072753664.000000 0.000000
-26505405575450228230929505557341428460208092512747555383053260515921347072753664.000000 5250349650369175704496321807639982824239684077271014224440915810189766259900416.000000 0.000000
0.000000 0.000000 0.000000
-1246294173999551329367293333753068160412378236288129538011022176294859589696880640.000000 525223978787880100451440245413237683799370542990718763377805653449494114103984128.000000 0.000000
525223978787880100451440245413237683799370542990718763377805653449494114103984128.000000 271015116134971933077850210600753293373161033109921018893583376331329853171171328.000000 0.000000
0.000000 0.000000 0.000000
35218984555291739393262563891795475223618469535257773861243599424829653822472192.000000 -246758144616268594773922908964957527840814066376006587962773382879804493546913792.000000 0.000000
-246758144616268594773922908964957527840814066376006587962773382879804493546913792.000000 96586918051310541267936955435636538803785216986521120030020383299840245307015168.000000 0.000000
0.000000 0.000000 0.000000
193548480513358667731836696543662124324741543728999373869469399785387872831406080.000000 395451464344190824653510413790589183573570007336240577026828329840517869534707712.000000 0.000000
395451464344190824653510413790589183573570007336240577026828329840517869534707712.000000 201855579282721697194368476727507842192010413216718792631192858424506136177672192.000000 0.000000
0.000000 0.000000 0.000000
441536145419557047217512869071434796641253813168676729705410497828507332267474944.000000 -1828133140471810169751486909932277595689936196962392398248358620077303117557792768.000000 0.000000
-1828133140471810169751486909932277595689936196962392398248358620077303117557792768.000000 994575123717684041095876431455593334118912364740738770962618726201643537134518272.000000 0.000000
0.000000 0.000000 0.000000
43552967355520115870073528427145052968152258065472803503453224675731428920524800.000000 -36261048491456318473574850803589512473176750268378672829599418381820869952405504.000000 0.000000
-36261048491456318473574850803589512473176750268378672829599418381820869952405504.000000 19442766715167007789316936997861251944504208303201475131214866747645356345917440.000000 0.000000
0.000000 0.000000 0.000000
1096938913289290969892199659269730268429962952293324040969878176207512434645139456.000000 -1126955423964560075961371653543626942794925638171578667087665816290095106879389696.000000 0.000000
-1126955423964560075961371653543626942794925638171578667087665816290095106879389696.000000 430482945730410835695158543782093695879175405727119788482729036170503778499297280.000000 0.000000
0.000000 0.000000 0.000000
-1281151075341940495800358925478422421886411844686686389490196979538507063552376832.000000 1526766110687221159035104729816377806058436672950788830361268425921148717610565632.000000 0.000000
1526766110687221159035104729816377806058436672950788830361268425921148717610565632.000000 880857936946983704849110901307541963349342782139270143091637252660557934013448192.000000 0.000000
0.000000 0.000000 0.000000
103399103105194408359288331643937251124014656567062863352902354336673154040070144.000000 -53393564774373492331005384348722807141963914187115719338230174764862238506352640.000000 0.000000
-53393564774373492331005384348722807141963914187115719338230174764862238506352640.000000 16432493446857658726673145263181651089415332945852482921265511036365476867342336.000000 0.000000
0.000000 0.000000 0.000000
-85660054067156120659248118214776797918184009866691756602064878147128982817996800.000000 -101287944906623068521513562600482723768000218789188424227608418800298955550752768.000000 0.000000
-101287944906623068521513562600482723768000218789188424227608418800298955550752768.000000 50320168141805062417909542772731639234775232208417160789072547233537739748016128.000000 0.000000
0.000000 0.000000 0.000000
163033990743805201301030013792403640744470487072837955012146880886467073767636992.000000 -54876989965004091681038099529993595371214413259741590782618714132129454617526272.000000 0.000000
-54876989965004091681038099529993595371214413259741590782618714132129454617526272.000000 11471207993128583188241563893808369654689871591210848252630646168148159689129984.000000 0.000000
0.000000 0.000000 0.000000
1062077993319344642404746212447716567165427616856471292076668935513318095386050560.000000 -502974152161139772814769174102052046969504609118210082797046238480832134329139200.000000 0.000000
-502974152161139772814769174102052046969504609118210082797046238480832134329139200.000000 142655996160726527763562633211023479534754768933583278675532273406425241827147776.000000 0.000000
0.000000 0.000000 0.000000
1476027554982698731984893365289069437322727497534730181220914110507950922983800832.000000 -73978613627165575240311516913821998908466443249854360392531110079813553441734656.000000 0.000000
-73978613627165575240311516913821998908466443249854360392531110079813553441734656.000000 2494093066207932196787619760409473712882668868417914241618233695637290465886208.000000 0.000000
0.000000 0.000000 0.000000
319367183985144466804631355566735214589973818123952979592906274219920422076416.000000 326256890024167495669330532060466264564789218559837167777465014505444332273664.000000 0.000000
326256890024167495669330532060466264564789218559837167777465014505444332273664.000000 138684133244876305121066854673889284584512845401137426482538881588349005463552.000000 0.000000
0.000000 0.000000 0.000000
1211660269182262576244957886319437043837182398654407176967847523785487787080286208.000000 -399041955679011684191382056997482965981687343901627059983559392418874876590292992.000000 0.000000
-399041955679011684191382056997482965981687343901627059983559392418874876590292992.000000 85513334726311033272786024905914787032134933715440682919128970742250808117559296.000000 0.000000
0.000000 0.000000 0.000000
75340182683500366471522779382639642690737334838401565926892430347431133673684992.000000 -112060175073682054946719158012359383891461742529282944563085879367182647929339904.000000 0.000000
-112060175073682054946719158012359383891461742529282944563085879367182647929339904.000000 88338803082659096764151433600163481150390878043942553894198091357393138235736064.000000 0.000000
0.000000 0.000000 0.000000
2036686418369748591617983463122386249047658813215323046761148985361902337578237952.000000 -2106256174785778983091229863348612337471684616871632652478251044953891725656457216.000000 0.000000
-2106256174785778983091229863348612337471684616871632652478251044953891725656457216.000000 983866702576249095224788684208865983373849811012836210017878334738106120279162880.000000 0.000000
0.000000 0.000000 0.000000
-11915897626062373788972259858788205540224345058929458580111723918405056145498570752.000000 -1140791495743862764722520178479445724348260335922669041594160399860902301532160000.000000 0.000000
-1140791495743862764722520178479445724348260335922669041594160399860902301532160000.000000 208948204108968227494987195939706772567991833627756955553416271406920383395266560.000000 0.000000
0.000000 0.000000 0.000000
-167529478569169621781082826436479103429106270925335187529969773991105815612751872.000000 -254704853055562563591928471895103698476683477344774224536498808996429367559061504.000000 0.000000
-254704853055562563591928471895103698476683477344774224536498808996429367559061504.000000 223962670993145543936998805268392169731559279334432171120990851640288764602875904.000000 0.000000
0.000000 0.000000 0.000000
3397039733623337972170525675656190991296933812244459050841824338753804918849536.000000 36136271893194709483608463327653489984445365885259887205401815389603054099628032.000000 0.000000
36136271893194709483608463327653489984445365885259887205401815389603054099628032.000000 18991248686250306514477314105228108944341763834236271374793362717691564376719360.000000 0.000000
0.000000 0.000000 0.000000
-7097888567892733322436051547146380147292466737851278620670792453817928706978480128.000000 -1792352463595477707070961029257989008412652713308243389772815363107310381094141952.000000 0.000000
-1792352463595477707070961029257989008412652713308243389772815363107310381094141952.000000 686496731306444556718697653987390533347968951697648604076033961174548827095433216.000000 0.000000
0.000000 0.000000 0.000000
1785590222139740639406891687026831356457184464204961316577577486504587725635584.000000 3215395939047755426537791056749379821092654582634187339897937303050930031165440.000000 0.000000
3215395939047755426537791056749379821092654582634187339897937303050930031165440.000000 1581539962007456723330223075137844801851311931195059619427245868703984941793280.000000 0.000000
0.000000 0.000000 0.000000
241802502799995110901783004226238401450523225944303709761395157535157322956931072.000000 -142139155188703210912716045858563928989875623152410303456354178518812876139921408.000000 0.000000
-142139155188703210912716045858563928989875623152410303456354178518812876139921408.000000 45636834703127880496620061783085115991802726942689642974701253172665271688626176.000000 0.000000
0.000000 0.000000 0.000000
993084569237682963648657971174687613249249983498502189048991584782777436461858816.000000 -1119954787760931692982469814242009537982216149866675806012286088348645787072200704.000000 0.000000
-1119954787760931692982469814242009537982216149866675806012286088348645787072200704.000000 493247384813124436807915766379886100730691547532853134403670507728935946903617536.000000 0.000000
0.000000 0.000000 0.000000
4087487378564626965278305217274962676417800418314350920905041811366256757738307584.000000 1073758147113871378602195535988783454785323057398945127679377674576936622098481152.000000 0.000000
1073758147113871378602195535988783454785323057398945127679377674576936622098481152.000000 180630371351933261373533014069434991256241141585226485437012393019455788376129536.000000 0.000000
0.000000 0.000000 0.000000
218205370203591005292477792190460596498057644153855090687897378714630019476357120.000000 197111171221490498564488702059533617442705088446402859813396374134205469348069376.000000 0.000000
197111171221490498564488702059533617442705088446402859813396374134205469348069376.000000 79580566440737902954650154381496468066185379272425873923813553902215658637099008.000000 0.000000
0.000000 0.000000 0.000000
1131563436924552163040590058361182946542783350029231867728213570270088922849607680.000000 -1018316823769637815665849773388079115211944033852812635896209802178321548331450368.000000 0.000000
-1018316823769637815665849773388079115211944033852812635896209802178321548331450368.000000 411465356742448014341290679477947620446676014907182609185836113568915986617204736.000000 0.000000
0.000000 0.000000 0.000000
1698703525407146172602791468108679973541550656505263754046647583568246645182169088.000000 -1522773830503757029527486572272927390118616483857623470330915995141395694080753664.000000 0.000000
-1522773830503757029527486572272927390118616483857623470330915995141395694080753664.000000 626720145857284789258421252208505011289038664966259243426893243205690887147356160.000000 0.000000
0.000000 0.000000 0.000000
235456955775771109504912127179383593511286510476932895624275224596708047848472576.000000 689567911082685784667806110645237781681314821304508860052448807311720886548037632.000000 0.000000
689567911082685784667806110645237781681314821304508860052448807311720886548037632.000000 400287383730863493219377671099966647174514054277860598570491857405582984051949568.000000 0.000000
0.000000 0.000000 0.000000
328039400083804844119349840333763527957650956996748940567157050421452158401511424.000000 1336254492564719995080592500428549168586710151346763112014526587401365426957975552.000000 0.000000
1336254492564719995080592500428549168586710151346763112014526587401365426957975552.000000 710687560227380641145056857241607034124349512161725548663451732446259576035082240.000000 0.000000
0.000000 0.000000 0.000000
-16506599781606843368468119545664316104460627969120322275642042874155799081889300480.000000 -7457509922040146668656579623683303357516888114090673413158452829830956445144711168.000000 0.000000
-7457509922040146668656579623683303357516888114090673413158452829830956445144711168.000000 3702900803011099217622874619107642764999228625742869742462569205193330148425859072.000000 0.000000
0.000000 0.000000 0.000000
-1921245180752497313479516394558997778269681202225179927524468011424699450547765248.000000 219963570782896716033003585997738444248745198658097959025244316010744363723259904.000000 0.000000
219963570782896716033003585997738444248745198658097959025244316010744363723259904.000000 53055610236969423442886731949617007089637539310542762164763136159115873934639104.000000 0.000000
0.000000 0.000000 0.000000
-8558840341320265503391593665774105265810443307665959253330475024009382483460096.000000 -23006809337223826270771515797847123754622076373874967497445543478636676877647872.000000 0.000000
-23006809337223826270771515797847123754622076373874967497445543478636676877647872.000000 6249714286029200909925095223507713186409608713837058841861871279499789998227456.000000 0.000000
0.000000 0.000000 0.000000
49824419247067724296720947506769767938932482474746938246218990708371334753157120.000000 160997903223432296705184305628677845696064843908878638822028393733698830834073600.000000 0.000000
160997903223432296705184305628677845696064843908878638822028393733698830834073600.000000 46168496335858323583714463887838726045694712815284955056540562146552613103992832.000000 0.000000
0.000000 0.000000 0.000000
1002723764470759242468388364848846418510627402579010049622230777550730568925184.000000 -795276145741135204062833822418950992610698352040706922350976418480463997304832.000000 0.000000
-795276145741135204062833822418950992610698352040706922350976418480463997304832.000000 202128577634442894136137014961526709698158905198706576601876272479519899648000.000000 0.000000
0.000000 0.000000 0.000000
-68869632035846724806892584434837100050395896325499478998721822137044119683065708544.000000 -5307249878261183443325498100956721441838377396605974770519195153021819617837842432.000000 0.000000
-5307249878261183443325498100956721441838377396605974770519195153021819617837842432.000000 808413982772368927841259778664415247364589000670657900307869703804563272828452864.000000 0.000000
0.000000 0.000000 0.000000
186766973103359122816378686239623651235034996614464216329506202984237231962587136.000000 -333861539910088379886212581956224621289818183953458419569152703788288883281625088.000000 0.000000
-333861539910088379886212581956224621289818183953458419569152703788288883281625088.000000 222294440730670387351606615237502707321488593348380245199721388614355476872691712.000000 0.000000
0.000000 0.000000 0.000000
-391810243340567685862226493884813807367376796377531290467585735356015475928596480.000000 -739540986901353804668919868943927547284414413945157863031812215766730159046000640.000000 0.000000
-739540986901353804668919868943927547284414413945157863031812215766730159046000640.000000 424173745071678104254681888470233998408052913300485249192144867279128864621592576.000000 0.000000
0.000000 0.000000 0.000000
-4672651767845963278882594700945801950191781653679729086737621108853962917126602752.000000 1584398610421285127728143234213305237179599916551134417620597744769555704578048000.000000 0.000000
1584398610421285127728143234213305237179599916551134417620597744769555704578048000.000000 708560191668349142388324653970276258394690974417090395221995189752244807351140352.000000 0.000000
0.000000 0.000000 0.000000
-61259891005679083335689233476664437690447996122614257218001293918293312029006495744.000000 -3354616287176719494485560129639871369704440683975364839148185285287831435296636928.000000 0.000000
-3354616287176719494485560129639871369704440683975364839148185285287831435296636928.000000 361015210343178020827491262586757451441979762960946439196259773549509204233945088.000000 0.000000
0.000000 0.000000 0.000000
250393317648567939407076326573769826931869463210793863480274597484984812869517312.000000 21821737274837469062876800938841187803735866310315507241241457737999586821144576.000000 0.000000
21821737274837469062876800938841187803735866310315507241241457737999586821144576.000000 2597477792422284876155973922820655576033486586385991564860106055165289072427008.000000 0.000000
0.000000 0.000000 0.000000
227292802464387632398264270725621345227769339887109554310728339858561101914439680.000000 -339557939035135102732765431947445974343822032706210121057971608152455396234100736.000000 0.000000
-339557939035135102732765431947445974343822032706210121057971608152455396234100736.000000 168333868581077943485808031441588402594271455324165526367719756697214993343447040.000000 0.000000
0.000000 0.000000 0.000000
125471387052700580493160149846439486086974342564963606583522002701294024676868096.000000 -290780344686040250910527199730213282635706084115681252064513076936676052983349248.000000 0.000000
-290780344686040250910527199730213282635706084115681252064513076936676052983349248.000000 148460857430483097087894595408041329913552936463943153897315391035057528255807488.000000 0.000000
0.000000 0.000000 0.000000
61494441613078078806947298315009373496620492743989282982032286810475519052611584.000000 56286764826728260742383963587376454500871486858710636697865955314810915576086528.000000 0.000000
56286764826728260742383963587376454500871486858710636697865955314810915576086528.000000 23722307572937609710972263128997816912793109171136643066893456671975422027628544.000000 0.000000
0.000000 0.000000 0.000000
-32035417187442566147075428039172819557803767722944724759158218885047036233562193920.000000 -12066541589470276883795398344807926176276870267824506921178186407027435435139792896.000000 0.000000
-12066541589470276883795398344807926176276870267824506921178186407027435435139792896.000000 5628624270480347810871369832020729270076194203734649294112423031692573761861582848.000000 0.000000
0.000000 0.000000 0.000000
96953327304952618012240162400584426155848735993459777753611471923207855453241344.000000 -674892590530781943785262322187602629708255265415599449370117542916452345601589248.000000 0.000000
-674892590530781943785262322187602629708255265415599449370117542916452345601589248.000000 379275154528099016015374650609924727426596394740944193022451892317933419938971648.000000 0.000000
0.000000 0.000000 0.000000
33632148244585291080868350135351934710692953656041612510343571712806201692520448.000000 5689597588283354924481719546917840150176105155211460276610636197918537435578368.000000 0.000000
5689597588283354924481719546917840150176105155211460276610636197918537435578368.000000 1109882668550909344662124716503995908864245197403672894060805890635430159712256.000000 0.000000
0.000000 0.000000 0.000000
749762091127334451159616507261554162722771541193601006074073875366936296760016896.000000 1254050927264165990761095732170455398099620664860990086034775442069329478944817152.000000 0.000000
1254050927264165990761095732170455398099620664860990086034775442069329478944817152.000000 608098674155277209181416997657515214145257475338230092506596677457768261330403328.000000 0.000000
0.000000 0.000000 0.000000
742454326831530401810356832953776772613434440049379116194057385807833040603316224.000000 -798155419226496447072920904979138804218910122211935525533620113934474271900303360.000000 0.000000
-798155419226496447072920904979138804218910122211935525533620113934474271900303360.000000 345532650029647829688182948205995995909001570024041845757560248944073478839992320.000000 0.000000
0.000000 0.000000 0.000000
-144309443963157635839523230671795829498561474848552045514427470218262903512891392.000000 -381310447357064356313498221370406345216771761768693350008750041784019575929569280.000000 0.000000
-381310447357064356313498221370406345216771761768693350008750041784019575929569280.000000 228778382963681675168254082686221962624677561513163675331723551825750718729420800.000000 0.000000
0.000000 0.000000 0.000000
559319092696783961579341379152591106327856092635745972454777146373228170575872.000000 -6635086288676571755477129419178311875300399418142484411764636826542800023584768.000000 0.000000
-6635086288676571755477129419178311875300399418142484411764636826542800023584768.000000 3709663969292165277220629902347225571885113559141927789921770044779174587006976.000000 0.000000
0.000000 0.000000 0.000000
104600521760897171039141768298039090263449966488232280034233019549224937977806848.000000 -25428903873216063889765124898790440794186352535139153671024164907119106735472640.000000 0.000000
-25428903873216063889765124898790440794186352535139153671024164907119106735472640.000000 4043061622129416111447997942606940551274010488815714320050577066835000449564672.000000 0.000000
0.000000 0.000000 0.000000
-34222446448643690662527142631410671528702386579021698035217129405573813803941888.000000 -370680121733482732564736269991249623558797505925554784777841327294649978585088.000000 0.000000
-370680121733482732564736269991249623558797505925554784777841327294649978585088.000000 24102626483887930054170268404185718185633420074524433429207463846979898966016.000000 0.000000
0.000000 0.000000 0.000000
165609997123661269989327521996287920720140100741124974551291518893502413402013696.000000 -70816218413832576574217095739036392715965468670469579658071654373379364813275136.000000 0.000000
-70816218413832576574217095739036392715965468670469579658071654373379364813275136.000000 18045167248290898352892895045820278393066313540156759549551665360047017790799872.000000 0.000000
0.000000 0.000000 0.000000
733697139979406553327575337653825379610244819361095158153214396864508458371645440.000000 -2547910813202384725385927719728830665476848742415197414246116051887704850116378624.000000 0.000000
-2547910813202384725385927719728830665476848742415197414246116051887704850116378624.000000 1349514985846915065535888466738577566343370936148395487611599550334184795813183488.000000 0.000000
0.000000 0.000000 0.000000
49832696647612162289294502852364713628795726598925930034863403802916916870250496.000000 -17664081745455891017345129891051620487191700944377210283742489428917915970699264.000000 0.000000
-17664081745455891017345129891051620487191700944377210283742489428917915970699264.000000 3915476655686215052246872713894421306676614702893014746672278499371547092844544.000000 0.000000
0.000000 0.000000 0.000000
-80982433641156126926470010292039026446461803899696022261302867038164007304298496.000000 1005128324954807718835295303756520432090497633880067546211506898435898307621421056.000000 0.000000
1005128324954807718835295303756520432090497633880067546211506898435898307621421056.000000 564853334650378205882260121986520149189284258348826476525051126851638874070843392.000000 0.000000
0.000000 0.000000 0.000000
-4348268700063197209912052435239805451360890211446379258920673909491617088797671424.000000 -689838149046670493570901267176172586735061325907028014476095643220561259009146880.000000 0.000000
-689838149046670493570901267176172586735061325907028014476095643220561259009146880.000000 192195395543578229633900094095035431973364109711963238116471244513573800224227328.000000 0.000000
0.000000 0.000000 0.000000
109475822193852141530744011895256524335360314577506973283056771144044041537060864.000000 -76432035823711050772384791261645074218449522100786517297637606947695932641116160.000000 0.000000
-76432035823711050772384791261645074218449522100786517297637606947695932641116160.000000 141893418454434428173691480676670868307234306638848703938874356936900112182935552.000000 0.000000
0.000000 0.000000 0.000000
406368608888888574819364694646841046640299405064446923381625871510064545266663424.000000 -585187483509983455232786184066962656017698505684750436801017715856964071349813248.000000 0.000000
-585187483509983455232786184066962656017698505684750436801017715856964071349813248.000000 275469015488152150197145986540612230264707005694655657234278775058368082313478144.000000 0.000000
0.000000 0.000000 0.000000
9716961423092281014155270095749578633044926413847069271675569733227965849796608.000000 -101084979459584213015190224701198203199160101751696131093133937592815581705273344.000000 0.000000
-101084979459584213015190224701198203199160101751696131093133937592815581705273344.000000 78995444407505368209353476677480788014073532434169571940162572932448129717895168.000000 0.000000
0.000000 0.000000 0.000000
-771119530051559166609333704807212065118775006434275628964141284364260525211648.000000 -6216396010430080473558620750865820520956392876425301437147665251725312262144.000000 0.000000
-6216396010430080473558620750865820520956392876425301437147665251725312262144.000000 120493528446249089485239458326858898164115830464334186035266502971563930812416.000000 0.000000
0.000000 0.000000 0.000000
156317380809735510959957362855383395251357535330897878304522602555184512101253120.000000 -380596049991281916542564828007870772549497095131537444469707328264330786340077568.000000 0.000000
-380596049991281916542564828007870772549497095131537444469707328264330786340077568.000000 194965446769055618774305364293604361069263468624975213076217185456939370509500416.000000 0.000000
0.000000 0.000000 0.000000
1537863933544481168830693200532715985657463831660043693412209226270406174180376576.000000 -4284985895751503912151542261871909004416219224382133076596895663176064269591511040.000000 0.000000
-4284985895751503912151542261871909004416219224382133076596895663176064269591511040.000000 2224802769626378527012749696832613312878154434006860872608806646718687585226457088.000000 0.000000
0.000000 0.000000 0.000000
443238738231217238486491450909536336168022830610589560997055866112565149236723712.000000 -395039371009464961771423923257241948409783816587543626768737387423458924590792704.000000 0.000000
-395039371009464961771423923257241948409783816587543626768737387423458924590792704.000000 159183849193503785672249588803973738094070083938391440558265446557485309733371904.000000 0.000000
0.000000 0.000000 0.000000
-847617119983251917427855524458956300732720322336655139766892080473327336947712.000000 -328272093108525789873738880840369914167150427506738446061149909771267206021120.000000 0.000000
-328272093108525789873738880840369914167150427506738446061149909771267206021120.000000 1174639716767518510628846593505528318281740534445431762535072296999306081075200.000000 0.000000
0.000000 0.000000 0.000000
592106527269574148271199174529447634134426161869578292430698155584994290085920768.000000 -573530676941278049933236107501756094383207809230481551113293609200616880144908288.000000 0.000000
-573530676941278049933236107501756094383207809230481551113293609200616880144908288.000000 243979794621234094269316114899318295151361110594482416189886865911189602102673408.000000 0.000000
0.000000 0.000000 0.000000
2408010062281818512872429639649297978499705405248539375561456033335896096982958080.000000 2291457516274917319253580993507595994835889229264535819612431593378408044590792704.000000 0.000000
2291457516274917319253580993507595994835889229264535819612431593378408044590792704.000000 953609430885818060037892346853573815629429296793017522019753083204822938631012352.000000 0.000000
0.000000 0.000000 0.000000
18311868053909073089209433871206215442108805443459875625460693705863573087977472.000000 -1801588307221820688059387000964191525353264963029104410332649313135923287818240.000000 0.000000
-1801588307221820688059387000964191525353264963029104410332649313135923287818240.000000 4891112152034723634435284887386562839428676565079923830112716225949992640053248.000000 0.000000
0.000000 0.000000 0.000000
473463851166029173425711096075629406342337823786263112563882385807617188924751872.000000 103825501807916516925504192655876852354853601038044449681898413408081888803815424.000000 0.000000
103825501807916516925504192655876852354853601038044449681898413408081888803815424.000000 21640858676068431617900879679873373692033638596770680525008258628530781525377024.000000 0.000000
0.000000 0.000000 0.000000
408418369924800081986679942028786603564084888056453679283238095480686625180090368.000000 -190066720971472732457402818385501404677453231183950131652058343840843503012675584.000000 0.000000
-190066720971472732457402818385501404677453231183950131652058343840843503012675584.000000 52929696056219255664143039453428878918812807404918483694218284047256859619360768.000000 0.000000
0.000000 0.000000 0.000000
2969859704282044150327448290270450558702451127970267869955315536005207857037312.000000 69828205893376822685593784459722517424741512248734488436574470817086525105242112.000000 0.000000
69828205893376822685593784459722517424741512248734488436574470817086525105242112.000000 38667939175288580730066100929417375195992813528416897894462488849878610861883392.000000 0.000000
0.000000 0.000000 0.000000
198565331449042761778896466304944224354902677593902750627056959254479143287390208.000000 -253815185572051651969196350791251975205258987826415599410494631528402827203313664.000000 0.000000
-253815185572051651969196350791251975205258987826415599410494631528402827203313664.000000 141399015430757711389669058134792322608626227969916436599456795269086421786296320.000000 0.000000
0.000000 0.000000 0.000000
507393674743889041829351660943139158302606739740543531411312804904651583700074496.000000 -311257203862870251826418574750017668381862662006393278457751594894364872443691008.000000 0.000000
-311257203862870251826418574750017668381862662006393278457751594894364872443691008.000000 102683329291488795546257705476391423852979449166443823712304507636383159968333824.000000 0.000000
0.000000 0.000000 0.000000
28068334283248737147304438951914129126176380981666572005759472768191276280446976.000000 -27223927979976707003053659269771052539570447608633333888639846959671330744565760.000000 0.000000
-27223927979976707003053659269771052539570447608633333888639846959671330744565760.000000 11369420407958844736201305530720556829518719193589949127292268345329254848790528.000000 0.000000
0.000000 0.000000 0.000000
1550075053885981086807349511767998332325640299571184531550890372777452369812127744.000000 -686127207176088174744552296355119414401584433111803675144587420279052876596117504.000000 0.000000
-686127207176088174744552296355119414401584433111803675144587420279052876596117504.000000 179488181810413312392643919699868392244712015766382639607026535324232326316032000.000000 0.000000
0.000000 0.000000 0.000000
50925475520228603770047774651334800154410458381280921567552828315297192683241472.000000 681531078436965070616691799140668809465038781960853695219442206225599252221919232.000000 0.000000
681531078436965070616691799140668809465038781960853695219442206225599252221919232.000000 374761094638105442708551417449352515257390736695523275000050368077296723675840512.000000 0.000000
0.000000 0.000000 0.000000
-23037332848010306660916522993465647513029365778071402287958953729441676601812058112.000000 1129625077946707048706515053774187937454181311963216680915619498820430014604902400.000000 0.000000
1129625077946707048706515053774187937454181311963216680915619498820430014604902400.000000 123475533495302859777204244994733901492251556468792300481003133332888411212611584.000000 0.000000
0.000000 0.000000 0.000000
-284782655426427953424589684723094861211973059726437952920613031694861163955224576.000000 478411326440526771618907061675135045073601163395217487546391265696596088804343808.000000 0.000000
478411326440526771618907061675135045073601163395217487546391265696596088804343808.000000 500753479086437199000496057076081853197340446103100454608241776253419138813263872.000000 0.000000
0.000000 0.000000 0.000000
-187944960045869922311131852291173963233775338208820051883211583627407644745007104.000000 -118444227972381126321072827473428409640789011637014276837037336415517676650102784.000000 0.000000
-118444227972381126321072827473428409640789011637014276837037336415517676650102784.000000 21649281616629110831960023266572264293627989036100856698586372103058562459107328.000000 0.000000
0.000000 0.000000 0.000000
1998881655229289106821020826472990308176544865092770291346316645161733180994093056.000000 -211560307685748730678485024542912881063403871270131144707980989525797013995651072.000000 0.000000
-211560307685748730678485024542912881063403871270131144707980989525797013995651072.000000 15047099217393554898124606344806393270368510825006024665795308183493972743684096.000000 0.000000
0.000000 0.000000 0.000000
3883542920677781035683658840835784999304044201518567706404862585387668666843136.000000 -55212808966720570419415854620065263717414244412652397286096760592145916717170688.000000 0.000000
-55212808966720570419415854620065263717414244412652397286096760592145916717170688.000000 31920329750994522912148576345179875278423080567572147291973370087975381450620928.000000 0.000000
0.000000 0.000000 0.000000
659636971383603209220818984095857316447922014168408871000596097553698954351214592.000000 -345241925257353068109168907209699282743543531828032456485954145504034681396396032.000000 0.000000
-345241925257353068109168907209699282743543531828032456485954145504034681396396032.000000 101844153184076771596269144451762467796811849745792038782600394120515761651843072.000000 0.000000
0.000000 0.000000 0.000000
74465123897918332647514785405748886914138446173845871401577207823859076613275648.000000 47347084449327389274383110931572963155597998209749085881944732513925208521834496.000000 0.000000
47347084449327389274383110931572963155597998209749085881944732513925208521834496.000000 10742758806225634188198045422476404256724909379953733803392022825802674252808192.000000 0.000000
0.000000 0.000000 0.000000
-2236273899592876833514943137943408698455909760616143737823143220729617097989029888.000000 -616633025971588810903286494448448698256905124015407284431674945964365129332031488.000000 0.000000
-616633025971588810903286494448448698256905124015407284431674945964365129332031488.000000 248492070035875199417021149085872359615847073036765102438174206219757889408466944.000000 0.000000
0.000000 0.000000 0.000000
12799212273785737263015382511605479836226738829141436659344062473331657525952512.000000 -814880295565475860097054784852655087876983703116214245941285593094487648763904.000000 0.000000
-814880295565475860097054784852655087876983703116214245941285593094487648763904.000000 43569034835417462042526400004113861275491495306419477612986656763626406281216.000000 0.000000
0.000000 0.000000 0.000000
2402333978210453350026969478300892887306850080334871979531964917924828380758278144.000000 -853926806637255735979501197089442989400458212758139688206041177813944426865623040.000000 0.000000
-853926806637255735979501197089442989400458212758139688206041177813944426865623040.000000 186808141211285166634326503813708860346715306064107816764467452059249926828195840.000000 0.000000
0.000000 0.000000 0.000000
164073676630193666845673067277924481797421504527194711418404517949543360887783424.000000 -94725385735171464522524660361441760700730294615909276319686832254364268764332032.000000 0.000000
-94725385735171464522524660361441760700730294615909276319686832254364268764332032.000000 35221495423934568474058101791957261090051046119599660466229116904104089381502976.000000 0.000000
0.000000 0.000000 0.000000
-8508834504302177689447267392440003897574226758313607415060090236868618978448113664.000000 2556994516116980087888190758806905305008257158742931798024733680177138847585402880.000000 0.000000
2556994516116980087888190758806905305008257158742931798024733680177138847585402880.000000 1076528854367322585494639516523890286759995676904284641126969138066545514387603456.000000 0.000000
0.000000 0.000000 0.000000
580469666842669434737072641969032247769143935974998952915732072349305677197344768.000000 -614990769934400987552138961622342767282310741537046466708710254827869065590079488.000000 0.000000
-614990769934400987552138961622342767282310741537046466708710254827869065590079488.000000 265075467850295610896245751048639528037082741749340520469563677508440562910363648.000000 0.000000
0.000000 0.000000 0.000000
163011440191628911591593411265045305031859142247884610348730066414086384122855424.000000 2576365898466054534721527311632360855603813399864544087049015503626328292146020352.000000 0.000000
2576365898466054534721527311632360855603813399864544087049015503626328292146020352.000000 1424207871244568393449637195841561493510201853766216104300323594736667176183267328.000000 0.000000
0.000000 0.000000 0.000000
741000532511615051778104011300510280725055114079288960385311268370047820284035072.000000 158802103961656282229369524931699445416360826521974207266395176756795829223686144.000000 0.000000
158802103961656282229369524931699445416360826521974207266395176756795829223686144.000000 22012210444969060280744180727854996351627760359255464125182935687316140971786240.000000 0.000000
0.000000 0.000000 0.000000
263089666381264104288728062617679689649030106505018799206984465143861179790131200.000000 93797703752948331176657159662282992861818154896647093252184004026485340419129344.000000 0.000000
93797703752948331176657159662282992861818154896647093252184004026485340419129344.000000 20657977085952707942558330222651901808300175933058428679479795108928948617084928.000000 0.000000
0.000000 0.000000 0.000000
1669132902841621810898318093721343898269057918988814322141053787168846435800055808.000000 -796484670339225718945636148555779594993344788863451293408094385629242905233195008.000000 0.000000
-796484670339225718945636148555779594993344788863451293408094385629242905233195008.000000 220463231703800409533863975773426822632747362188758495308017946566762234506117120.000000 0.000000
0.000000 0.000000 0.000000
60006089060132214736923423193817332997831004745378053963313502115933104732372992.000000 50195045118873463957295695009638052127355699022499604731037177249777479118225408.000000 0.000000
50195045118873463957295695009638052127355699022499604731037177249777479118225408.000000 78565582937610748254368672246647760417924029237822329038071781874645290815848448.000000 0.000000
0.000000 0.000000 0.000000
-674631086239359260731473191679537382571851935635696887397497493857436254026596352.000000 30248088880966469525702106406636718946134312861720893474383971730294681032982528.000000 0.000000
30248088880966469525702106406636718946134312861720893474383971730294681032982528.000000 5208689970037971299554844005940046686462374636922087549614902721470103797366784.000000 0.000000
0.000000 0.000000 0.000000
636547582361518810291484838894449602671952977907331141138141608431649932036800512.000000 -381637083965043432125397301212758524056910973326259618779959698549907825211998208.000000 0.000000
-381637083965043432125397301212758524056910973326259618779959698549907825211998208.000000 124946797066657553511873787336690791560551011544481879759230987099350051476996096.000000 0.000000
0.000000 0.000000 0.000000
-8053026312681564881432530324602805190752324914382857023428153876729763454779392.000000 -17633937300469043757644418083319817040970308674504570489581149053154885573279744.000000 0.000000
-17633937300469043757644418083319817040970308674504570489581149053154885573279744.000000 10201417193618512446180926701600972089241057329275278276984589772739202481389568.000000 0.000000
0.000000 0.000000 0.000000
-3884363154817435483447072249889459153168932992276448255025039302944971230361419776.000000 937947366185188515652748603032067884452706514676966448816249291662742550023766016.000000 0.000000
937947366185188515652748603032067884452706514676966448816249291662742550023766016.000000 349834359988027687064644624035114600702472742639373540236874120311885339891335168.000000 0.000000
0.000000 0.000000 0.000000
526056254033637365944017766357077873084748220032225457644750622615637896284078080.000000 331481171072757168919335170885487143750443936680906584177535509068659501222068224.000000 0.000000
331481171072757168919335170885487143750443936680906584177535509068659501222068224.000000 110910002142693901057490328888264582694356940398410694322703132309461427688570880.000000 0.000000
0.000000 0.000000 0.000000
1054228674316867229480617815086132851863854421421312700662697397632941984176930816.000000 394298312174346836412267395182773063332068933990870493754242223669260857655689216.000000 0.000000
394298312174346836412267395182773063332068933990870493754242223669260857655689216.000000 111739832227957828174109605278840453167141648978282721483378502617367448347738112.000000 0.000000
0.000000 0.000000 0.000000
-1036948570930099532938790260314427731057183308121488927196409813629515303768555520.000000 -479250828855707860626707579111758804386221637745623881460466985586448158607540224.000000 0.000000
-479250828855707860626707579111758804386221637745623881460466985586448158607540224.000000 239906816755860878871398568794294292079186548540952098565305944339711217236967424.000000 0.000000
0.000000 0.000000 0.000000
-851739469859239092567542600508515419144594963093035254431751443162419085627621376.000000 -633269849285182722025911812545104903728571146454118218585430802583703895461068800.000000 0.000000
-633269849285182722025911812545104903728571146454118218585430802583703895461068800.000000 350342896867497300528598172661871052615643669715129663232855729601284627312410624.000000 0.000000
0.000000 0.000000 0.000000
47063524708483222755925739312694239342392496742565151046949962251141408014467072.000000 -290806954779343764241887024014125734425183815659342135267816970251015744535920640.000000 0.000000
-290806954779343764241887024014125734425183815659342135267816970251015744535920640.000000 143639642699125836144482179268796550444671169040190928787247745600405339373568000.000000 0.000000
0.000000 0.000000 0.000000
417939425672755457536273326749008637059876611860597630513711674615909383399276544.000000 1448127222111109560669884225844885231060137139251993762020515057208978082594029568.000000 0.000000
1448127222111109560669884225844885231060137139251993762020515057208978082594029568.000000 764163412058572554226247316952979076576915212227447089191831851594350224679632896.000000 0.000000
0.000000 0.000000 0.000000
-2929133755258280856125171443127126073652415887104244802406490163849181345074905088.000000 -1309767364159285495912224139661245267703947505986966538788283912600269894598000640.000000 0.000000
-1309767364159285495912224139661245267703947505986966538788283912600269894598000640.000000 637511504760884580175558314653052931310873670946292475120273667072516079747072000.000000 0.000000
0.000000 0.000000 0.000000
-1157702898532838079874560206339435341243507521797246188659760011347447268974459539685376.000000 -1065380854261511891656787963969709759669635436882578439801212709796463348076848873472.000000 0.000000
-1065380854261511891656787963969709759669635436882578439801212709796463348076848873472.000000 1970074449077058730537466453155716250629009796953893817518663180702751118761918464.000000 0.000000
0.000000 0.000000 0.000000
56680734054553659472573873007954513079419083869514577663469014414901823500451840.000000 50373936527255914082396381142655626612949746744476148912743284713912790304161792.000000 0.000000
50373936527255914082396381142655626612949746744476148912743284713912790304161792.000000 21264382981334519950285574260942215348136222192026768788243465824732146676269056.000000 0.000000
0.000000 0.000000 0.000000
62416372833766467757329588992331300348755448127686278397361191327630392050057216.000000 -201554552646964223554313330387851444598743064584192318411498993712115262674698240.000000 0.000000
-201554552646964223554313330387851444598743064584192318411498993712115262674698240.000000 108232840349836390795685162436818835444878039585996099877956628901101545065545728.000000 0.000000
0.000000 0.000000 0.000000
667326188431781168643901851614306110793137284733100016775450322908589826917793792.000000 -705505954533161772457112776485808555489519509618884768702269296242109896479211520.000000 0.000000
-705505954533161772457112776485808555489519509618884768702269296242109896479211520.000000 303635502917621659829965550324322435160394601817273468967461006436873613602717696.000000 0.000000
0.000000 0.000000 0.000000
94546722169695185394916580776369293571979263791784416225483626006498457931481088.000000 -168025742491690474618540256199435627156378076268775208375297514046125369808912384.000000 0.000000
-168025742491690474618540256199435627156378076268775208375297514046125369808912384.000000 82825195067475348787425797702766224271755763030244013232558489210271116159877120.000000 0.000000
0.000000 0.000000 0.000000
279127729750555173417961699388395615575477194208263757097219235121087309059981312.000000 -641973548280134280912952503966760888862993777422571216701734323283764027330658304.000000 0.000000
-641973548280134280912952503966760888862993777422571216701734323283764027330658304.000000 358108086142485777683101492023160758942470548341164614994516586137796894043144192.000000 0.000000
0.000000 0.000000 0.000000
3672809972816502462112315585523651683316814117090003635353654723130762505375186944.000000 -4259996830154324989675355266288493111893745463524479351741277238605875255141466112.000000 0.000000
-4259996830154324989675355266288493111893745463524479351741277238605875255141466112.000000 1890732508460471818608966395168790406001054502071097771989203132604296092599713792.000000 0.000000
0.000000 0.000000 0.000000
84119651358664862462081314463272058941536150995227314231719085864867632575938560.000000 -134695482284764984452199416317002941544822203640767126425664452507062407859798016.000000 0.000000
-134695482284764984452199416317002941544822203640767126425664452507062407859798016.000000 80489853432089216291299679728075841265520954257515055564196872210678565809684480.000000 0.000000
0.000000 0.000000 0.000000
-824071832172142673085381276961788620556401213793375710477062865311041313864417280.000000 -840912445594650515244417705363680578927659520546009528576839473250281531616788480.000000 0.000000
-840912445594650515244417705363680578927659520546009528576839473250281531616788480.000000 480319328108086492948957060296494454499577315571863957326244460684484612827643904.000000 0.000000
0.000000 0.000000 0.000000
41286067619441809904611714994778414665960054452228320110217779029502859411456000.000000 -20947301559149671362005936042388310318951135389778738628734235679223534692859904.000000 0.000000
-20947301559149671362005936042388310318951135389778738628734235679223534692859904.000000 6069568494102182212168305550414264989633774914238662125038436479777142145548288.000000 0.000000
0.000000 0.000000 0.000000
-7475891818604916367744636131234465361970138407901912384681161679794771443411058688.000000 2751041785999848068773981880183912119970900623785449441849347988935027979785863168.000000 0.000000
2751041785999848068773981880183912119970900623785449441849347988935027979785863168.000000 1267417910579194067875798676056116510513890747122292665238725745339538017030766592.000000 0.000000
0.000000 0.000000 0.000000
591905129785257008217592872230976263831901435574196036296851220554185820596076544.000000 -163188199879639246376524797856025552278452271233087571935936268841739993793691648.000000 0.000000
-163188199879639246376524797856025552278452271233087571935936268841739993793691648.000000 29758940587941307896503408324332766531248986527835583271889927348875916677742592.000000 0.000000
0.000000 0.000000 0.000000
1259496195403121561141091541961200682393475747507731587127759608251526744461279232.000000 -2398108851218346175733571650365620393985518342964147187665213624821969768710930432.000000 0.000000
-2398108851218346175733571650365620393985518342964147187665213624821969768710930432.000000 1189675703446676204048488625564265201815543000432358333443968451516597744737189888.000000 0.000000
0.000000 0.000000 0.000000
102944097175862740254297006558325252191419982052507304340873391621747527735312384.000000 -254430457715346862275356840615948233891732331229865905080352068200030296604672000.000000 0.000000
-254430457715346862275356840615948233891732331229865905080352068200030296604672000.000000 137517940687215779630115611308516385042648650755445896362534256481404782267858944.000000 0.000000
0.000000 0.000000 0.000000
-105055487743752977352604410625494385234829239548696459101502789099647227232518144.000000 -155210510448121682961763184446406381228693677000450091932757155710632804321591296.000000 0.000000
-155210510448121682961763184446406381228693677000450091932757155710632804321591296.000000 91124216494541744690903326183233468544246297787604466583585794032159186661408768.000000 0.000000
0.000000 0.000000 0.000000
723850043149944442195775187158883858684223990049929946525402006147208465388404736.000000 847222874154895739874101636156369959777512376861617135523367101706191202812952576.000000 0.000000
847222874154895739874101636156369959777512376861617135523367101706191202812952576.000000 375290671541850773012847355074918766602562437214253235037999399203289150928191488.000000 0.000000
0.000000 0.000000 0.000000
198350731037611207416773692303962997771819652753358062755790917743863643397685248.000000 -214414640529256528903416864768651915956991615137741780502301695099766094367293440.000000 0.000000
-214414640529256528903416864768651915956991615137741780502301695099766094367293440.000000 92844172513584032569501638014858381398948997735621303137684903515915151204155392.000000 0.000000
0.000000 0.000000 0.000000
-33564479141954060250701896246031245771857226922113789200290127700164961730822144.000000 251794360091269978147244162548230359678933425820513916839195363163027123254329344.000000 0.000000
251794360091269978147244162548230359678933425820513916839195363163027123254329344.000000 140148699591080421867991569409610775280689239346773605402321096914015386404388864.000000 0.000000
0.000000 0.000000 0.000000
-46231759039208982799850928600159434272260639636556734018171423225941215525721866240.000000 4159759883400105598509756033395721307020575717682019948770318872856776444974465024.000000 0.000000
4159759883400105598509756033395721307020575717682019948770318872856776444974465024.000000 727848096018311533650640362296792823997905480609092169122717626625376458123509760.000000 0.000000
0.000000 0.000000 0.000000
-113029268231320064535017003492045310345823942983040651885121568761614244771790848.000000 -9563979352395316591697918291265727181756766263100011972723436345942293683896320.000000 0.000000
-9563979352395316591697918291265727181756766263100011972723436345942293683896320.000000 9447666879721287551431536934706054690838220905346275895375544469354556940091392.000000 0.000000
0.000000 0.000000 0.000000
-4492710401787101173902704171616665781988635970536727027604505310859726554539229184.000000 2325267870908167206609108527800180332109917900360190756573195464778522668639977472.000000 0.000000
2325267870908167206609108527800180332109917900360190756573195464778522668639977472.000000 1182882540313571247915074672634615821629527098894708774192071935615558508328517632.000000 0.000000
0.000000 0.000000 0.000000
-977073853468189719702327835760910242757952975189885354776251458172339491672567054336.000000 21706180491738567786917401453860488085057169262281127166448140427915836810678239232.000000 0.000000
21706180491738567786917401453860488085057169262281127166448140427915836810678239232.000000 962444525637831659207218546140454671878187809978345260640145949362290245316378624.000000 0.000000
0.000000 0.000000 0.000000
1550679385834799259273795317637622725668140467313063966234796001187562337519796224.000000 1159512054907294244468718970257168023410257797888986207476832409291861601705525248.000000 0.000000
1159512054907294244468718970257168023410257797888986207476832409291861601705525248.000000 428514280763425524505228203422702936326651559260333526403398257728388513621082112.000000 0.000000
0.000000 0.000000 0.000000
-1239167718649527671761222719738742745225628191956542412068348885334612810544447488.000000 -31754613633939682280096869268854404105819420421362861898255961816012073648259072.000000 0.000000
-31754613633939682280096869268854404105819420421362861898255961816012073648259072.000000 8856558500506255584024781268759027059380324980897091710254290787961865202827264.000000 0.000000
0.000000 0.000000 0.000000
242087350989487549235037570942485066048864601404620637380207067745389757071360.000000 128453081477667189427406916275897345607833028008403293124349107066492992618496.000000 0.000000
128453081477667189427406916275897345607833028008403293124349107066492992618496.000000 39359903655643624956659922617787094552636121049944925536402591681371374092288.000000 0.000000
0.000000 0.000000 0.000000
-19707001291837179937049519026753759207723868825859415670624417267555603933298688.000000 -2467985882257007382909201815012659246537225953321417142169288566816636273688576.000000 0.000000
-2467985882257007382909201815012659246537225953321417142169288566816636273688576.000000 794622591537560846162792498405245294567367508268435637752767573933201368809472.000000 0.000000
0.000000 0.000000 0.000000
371073658835635130187402102374489946102645090037477024155382837035982317022085120.000000 -258457386896992898149288873043376505266091787066805999251775440172173255447150592.000000 0.000000
-258457386896992898149288873043376505266091787066805999251775440172173255447150592.000000 91857765316015454847055111083253260037483474168967012584185493455278691804250112.000000 0.000000
0.000000 0.000000 0.000000
204055870833557473074096984705899810995322445257538083626262002373497637899862016.000000 -303363044608499566728834149128345494188583796166014849467847865817908309804449792.000000 0.000000
-303363044608499566728834149128345494188583796166014849467847865817908309804449792.000000 187915445612725453710358950321864093086576762838253965133468090991435354543751168.000000 0.000000
0.000000 0.000000 0.000000
1992265504245110007926168293194730339612331189471540875793396727015953508155260928.000000 -406515209554477540400264434760580147212978877139247803587696932759764526348369920.000000 0.000000
-406515209554477540400264434760580147212978877139247803587696932759764526348369920.000000 55947324252443552084679907544873806157566898913816284360365854722965588884324352.000000 0.000000
0.000000 0.000000 0.000000
382588975495233789796067679675970543263268950142138131922767992896363446883319808.000000 -947260862158763670997467857824416385662991832733304927057346674868324805902336.000000 0.000000
-947260862158763670997467857824416385662991832733304927057346674868324805902336.000000 1654183802786358490911108760965370105753414632227746567361683062990020722819072.000000 0.000000
0.000000 0.000000 0.000000
6213079862943258871161314447795142061041902749865610499491272948925340435003473920.000000 16371111957828711551117212943928184243607828407039716239336397420866844548717871104.000000 0.000000
16371111957828711551117212943928184243607828407039716239336397420866844548717871104.000000 8453556650549313125375267878777340436180853540340800231604703765148807462341574656.000000 0.000000
0.000000 0.000000 0.000000
-1732769871429151419321347773264994599354486218848193607421168493306660111739758051328.000000 1534399579292097306976813589131824819873973283022620386565003591036174232383913984.000000 0.000000
1534399579292097306976813589131824819873973283022620386565003591036174232383913984.000000 10892658779781911581998648368784258357339058242576012857088505202285501090889728.000000 0.000000
0.000000 0.000000 0.000000
-11962660592207029266536351223729583360379187232723614600970696509349487053562183680.000000 3815060938594646767729599863738716224900553988003600643323099088316197040713367552.000000 0.000000
3815060938594646767729599863738716224900553988003600643323099088316197040713367552.000000 1653193164957157167218359600072210408784652267976491922251803870690285883899248640.000000 0.000000
0.000000 0.000000 0.000000
1500599774719209079868421856137541571188181577245809844332877718852239043028058112.000000 463539602059965208636462977738854249621660143464418493024228669735654827143200768.000000 0.000000
463539602059965208636462977738854249621660143464418493024228669735654827143200768.000000 134535014860535699776387719278283226391155629937578375931514580913100395955355648.000000 0.000000
0.000000 0.000000 0.000000
802057414812021835648985630762052286489829940032106658600543079555010242430369792.000000 1006207550966704283470664607598941879744390596121584981512632127916827080713568256.000000 0.000000
1006207550966704283470664607598941879744390596121584981512632127916827080713568256.000000 456554447423570511601276863318493982756347937844660192685247715547612689133993984.000000 0.000000
0.000000 0.000000 0.000000
-52890306980170520283407356800359964573158278109826067707561516146613837965134135296.000000 3025057504017607858940391247146330155248527006472838153476812229188166372441456640.000000 0.000000
3025057504017607858940391247146330155248527006472838153476812229188166372441456640.000000 340310733960402051829623037385628939446287193816804709571474599769590448573644800.000000 0.000000
0.000000 0.000000 0.000000
181630927165872960557448587947770982196469006140519685092265022818247885170147328.000000 -84027094711860572238391506327821867670452898663440324813649811824322393241812992.000000 0.000000
-84027094711860572238391506327821867670452898663440324813649811824322393241812992.000000 34252456882555541302470383578660107855722862578178641208519513439410952970698752.000000 0.000000
0.000000 0.000000 0.000000
327885793147143913620989015533164363656398522937614700813027440998788767630229504.000000 300919961428672466410464041678524012111025996056397055972260104383122092966543360.000000 0.000000
300919961428672466410464041678524012111025996056397055972260104383122092966543360.000000 122743708394815573410602657428707967109064013177324794425613048496374419923402752.000000 0.000000
0.000000 0.000000 0.000000
-288322049331222613277160995017858740143761009666311649543113863823921164454985728.000000 46402324131515208019299675961665620755104720769317630115284914109710729979363328.000000 0.000000
46402324131515208019299675961665620755104720769317630115284914109710729979363328.000000 13072079376124010972779403221920458050555546149546750263110410944775851719262208.000000 0.000000
0.000000 0.000000 0.000000
-964408670029991503205149009829307417535547851001628891675866036032683495875674112.000000 -315160512437685887669565678064335831084124880548440901108989368893846534089605120.000000 0.000000
-315160512437685887669565678064335831084124880548440901108989368893846534089605120.000000 112998816354274139915376232628677113116082462093215723133683635275836411458093056.000000 0.000000
0.000000 0.000000 0.000000
-20794941153403766775807889101823978860237157520646749615185296690616973742047232.000000 47957911273936681716826614531144979188719292099543026349400429203894693982633984.000000 0.000000
47957911273936681716826614531144979188719292099543026349400429203894693982633984.000000 11894233877121233918173628939463504028174440522864599940048319986150323920044032.000000 0.000000
0.000000 0.000000 0.000000
1051246841189437479683745121056700413838812843997730625464737791247721331903430656.000000 1310289281553363699902510650119506705503787868424613166569296636736396805432934400.000000 0.000000
1310289281553363699902510650119506705503787868424613166569296636736396805432934400.000000 594278299509339669545191096214010456865654078027687456771086216571662728756723712.000000 0.000000
0.000000 0.000000 0.000000
77613851056130935242037698053610643401231936130892881966167619501986376289615872.000000 1528239668047508560466657957622126846586506303960326746085351175267077715105153024.000000 0.000000
1528239668047508560466657957622126846586506303960326746085351175267077715105153024.000000 625057074017896169310296759582325663620400528254423435225681134027825635791994880.000000 0.000000
0.000000 0.000000 0.000000
558200080836637459821614939487694199661730902003107408042855149434483152814866432.000000 -457491042670013395686546827763875133456031538174318605609078844478148222977572864.000000 0.000000
-457491042670013395686546827763875133456031538174318605609078844478148222977572864.000000 213348887082895724506213359847594304986563408798685261723923447603104897914896384.000000 0.000000
0.000000 0.000000 0.000000
61492013696121647227959333942399556104208915407267980465089887326962375353958400.000000 7470162097064284616425372857489756633766922537071866071352509416932850129698816.000000 0.000000
7470162097064284616425372857489756633766922537071866071352509416932850129698816.000000 1012520361787687844548421012997035869241494793012595253503663676230663877427200.000000 0.000000
0.000000 0.000000 0.000000
393060539071170314180362618209815865700760288617202589437116692693434498132475904.000000 -253021496297369956158366884544795400304497965287263002022986972592121309388865536.000000 0.000000
-253021496297369956158366884544795400304497965287263002022986972592121309388865536.000000 91849308840489809510248809719220610750318287603931370191516456481153374681563136.000000 0.000000
0.000000 0.000000 0.000000
495467597966264242544420546355427949198521890207861962238929518316661082540736512.000000 -103356010235679802722433094319573638317836347459058880095429389959552799072059392.000000 0.000000
-103356010235679802722433094319573638317836347459058880095429389959552799072059392.000000 14463068311919962118282298911183116009234861450123838574787709324716599337287680.000000 0.000000
0.000000 0.000000 0.000000
7350550701880268538221335192416959846395351413143890850124322060621162934916087808.000000 1845879230432783697940991163160314958684265728441344912708278575732112495277506560.000000 0.000000
1845879230432783697940991163160314958684265728441344912708278575732112495277506560.000000 297480336735208539418478995987565797241525562522906598808303063988545902304296960.000000 0.000000
0.000000 0.000000 0.000000
70993877108361077370713652537097268640822221769412102083829248947956092967583744.000000 -95667765655623917775681488040188507708721915633226164260873428775448499749650432.000000 0.000000
-95667765655623917775681488040188507708721915633226164260873428775448499749650432.000000 44434946760789203932651439270828281023951892539567250867602391954691555019718656.000000 0.000000
0.000000 0.000000 0.000000
-2135127859873756766754834550045673374404140955217554604671619437915911040492634112.000000 516387673560376593618647745291915830792219060974478377338231954897881908140572672.000000 0.000000
516387673560376593618647745291915830792219060974478377338231954897881908140572672.000000 196267847291069106627597032324671936805163040239796608193181154427989868337430528.000000 0.000000
0.000000 0.000000 0.000000
-145597848635340386060514558355267463980373582385037078028877668906160351973736448.000000 117732012042488367788756443947938452328278110351174653409661819760224914445959168.000000 0.000000
117732012042488367788756443947938452328278110351174653409661819760224914445959168.000000 18162151529076548257177265471382651251700665141726732924191757939214810840301568.000000 0.000000
0.000000 0.000000 0.000000
3095578089837750469825716077694801859113017303730745264137812147775883119366766592.000000 -5050076953376625912975459724167870293877953853705417664171688437070125667975168000.000000 0.000000
-5050076953376625912975459724167870293877953853705417664171688437070125667975168000.000000 2490919643476979098191847621057979978633695299738260872295630994181351551270912000.000000 0.000000
0.000000 0.000000 0.000000
-1957455897506817214628824596402626690361769518042850780065562770168569471436849152.000000 -3758595040610508771204074567236295440015288979812791740259097971773299096937299968.000000 0.000000
-3758595040610508771204074567236295440015288979812791740259097971773299096937299968.000000 2168018959827942537608054073372847175330410143383355857130348381897542715173765120.000000 0.000000
0.000000 0.000000 0.000000
-521030510652633932697068544195279922504803044350565626934577522314182002829426688.000000 1180231549085485414255916482797284193771945967762002931825669597851393771373068288.000000 0.000000
1180231549085485414255916482797284193771945967762002931825669597851393771373068288.000000 693097149633703092898215957378368832298423218566544002030149765217084979632144384.000000 0.000000
0.000000 0.000000 0.000000
18581325711861883988668756399567833274139522225674815651403299211474399366479872.000000 14354670110566356688617368614823761765971218754976624460044756029581641427976192.000000 0.000000
14354670110566356688617368614823761765971218754976624460044756029581641427976192.000000 6733444618657290396706421193655988711338665839779470338609854487418184962932736.000000 0.000000
0.000000 0.000000 0.000000
-3874657173197415704701118954474007125019130299475462690258630331522677185970176.000000 -7985778348397861186897189341562750453813916897863286764926083681526054905708544.000000 0.000000
-7985778348397861186897189341562750453813916897863286764926083681526054905708544.000000 4605435114031261932857681749802675957055788149005907772862218601209896194015232.000000 0.000000
0.000000 0.000000 0.000000
197673573185828144147988224111410435365868093329092416403132799757633172977745920.000000 30456503248377909337896860003119580068550464286059031815307645889912846625538048.000000 0.000000
30456503248377909337896860003119580068550464286059031815307645889912846625538048.000000 8067972169704924378990802685991386062219195562590183967326486881383150446968832.000000 0.000000
0.000000 0.000000 0.000000
849131499187043075587852407523579835300114937572630597737628802214380854904356864.000000 -984613557882558801330068241730160666748684876536608485104012325504458894568587264.000000 0.000000
-984613557882558801330068241730160666748684876536608485104012325504458894568587264.000000 436875732688134896298620436072878271445702900999240341096445195539217081283117056.000000 0.000000
0.000000 0.000000 0.000000
-214543765261634302191587065722085393212398761368584839400775788974101064717434880.000000 -191686986686964889597375413282956773416480627405887685021099719402216519125434368.000000 0.000000
-191686986686964889597375413282956773416480627405887685021099719402216519125434368.000000 128741815949631443495539965204340298853341473521067620031591833692240006407520256.000000 0.000000
0.000000 0.000000 0.000000
319733095608766592442516108343214569139599381320389273081455390933188201957818368.000000 116031057807340631279966421830301204200589745129364199613502746203434870311485440.000000 0.000000
116031057807340631279966421830301204200589745129364199613502746203434870311485440.000000 29409403898854117095629857364299301452896334171419032368897323225125940180811776.000000 0.000000
0.000000 0.000000 0.000000
-271048464693054877049025947865878316137478119304571677461570937501157491975651328.000000 -86733720451401871688434836266201445157004842218631187638754761232008967532576768.000000 0.000000
-86733720451401871688434836266201445157004842218631187638754761232008967532576768.000000 42512734892509993858930538737911942072040676803269522770106802868021054591205376.000000 0.000000
0.000000 0.000000 0.000000
-1229712439551736780187262541291876016833073207685454001814487773799372074881384448.000000 82633858103453325750993789805232241871082665909418783176324051582250304273383424.000000 0.000000
82633858103453325750993789805232241871082665909418783176324051582250304273383424.000000 10370100377655773609236184389528522306675072430799448113377616885105677310099456.000000 0.000000
0.000000 0.000000 0.000000
-21451670522857057411844575879463773796232536581370331156410088944547405248050757632.000000 -12540141260980575983112996416805455704046568982635188194476084874452449607337115648.000000 0.000000
-12540141260980575983112996416805455704046568982635188194476084874452449607337115648.000000 6651188847456569122133570849336139204683429621504056819879258038995286613156691968.000000 0.000000
0.000000 0.000000 0.000000
2658150506184387879885083918119880865367187045995810059035802474996560598732374016.000000 172952759793866723630707931780285489546297986484103867427588971654435023448178688.000000 0.000000
172952759793866723630707931780285489546297986484103867427588971654435023448178688.000000 17879506354888635304672426346312691563305386330531622977782899252449412672126976.000000 0.000000
0.000000 0.000000 0.000000
-3846321908652189751864823924565705338427276952001027845880469056037769395044352.000000 15095471785430085354513212728776375769360021950561107472390102380518580789706752.000000 0.000000
15095471785430085354513212728776375769360021950561107472390102380518580789706752.000000 213442708239518251957067928286437518366576281671801206405714044399009014501867520.000000 0.000000
0.000000 0.000000 0.000000
6446047920709848704648692836633170318180853825031347556864607454373914390787260416.000000 9134660563478497340263651213904974850873045420073695673658908805584197798884016128.000000 0.000000
9134660563478497340263651213904974850873045420073695673658908805584197798884016128.000000 4283455729698512692957253716800984128683109248319939191403532561692962699031347200.000000 0.000000
0.000000 0.000000 0.000000
4021578531584435941364226947078774533867983467059253127238973668304537808812376064.000000 -3321326254628876903640371469320765875901235727185231691757474321056047329716469760.000000 0.000000
-3321326254628876903640371469320765875901235727185231691757474321056047329716469760.000000 1291503849787825087290169195649308537343403143260074321643189632853932255142215680.000000 0.000000
0.000000 0.000000 0.000000
-11385888290428461193403049063979160870690792820554993188313502756048334155983880192.000000 -5113924284046473382757008838491753962667111833927299403138047913694187229181640704.000000 0.000000
-5113924284046473382757008838491753962667111833927299403138047913694187229181640704.000000 2858221943833428208254526589241055985684501556683148217980661441555461131768692736.000000 0.000000
0.000000 0.000000 0.000000
962547240642660889380646585106359741204027491719870830865461714420821430586310656.000000 60879488764835313245365804496398358630078182771132640553894738682026221801308160.000000 0.000000
60879488764835313245365804496398358630078182771132640553894738682026221801308160.000000 14855969768379560729202596688736455795757084725241756013311470684028460242829312.000000 0.000000
0.000000 0.000000 0.000000
-90134081128086497902630494609569656286717690560300628791917414363562351286812672.000000 649748190043695500908860502796597984457323856332431833888385243775035941771542528.000000 0.000000
649748190043695500908860502796597984457323856332431833888385243775035941771542528.000000 344215836012925126989015497698922160658837854054619468064047044848107908535156736.000000 0.000000
0.000000 0.000000 0.000000
1220318700668709870777056921158714910957257835582352777696334981763628388568793088.000000 552284618976417069230543566799718554341552197544094341652764881992540476372156416.000000 0.000000
552284618976417069230543566799718554341552197544094341652764881992540476372156416.000000 144690872522860064781341871941452774536436686440203147549516238424170426462633984.000000 0.000000
0.000000 0.000000 0.000000
794672619728731316515801424751191929401990375052394596979817169417885206852927488.000000 1164042521758322724700062895721853830259679743842642722417007316958890353605214208.000000 0.000000
1164042521758322724700062895721853830259679743842642722417007316958890353605214208.000000 551394473555366980284649041926801346676015807145253232390180433845238227577864192.000000 0.000000
0.000000 0.000000 0.000000
-6186069088119025836623550117965514593894469106375620744890353388836713648537731072.000000 2658533788896443638303081691814805250330060988117451688402172687928149550049525760.000000 0.000000
2658533788896443638303081691814805250330060988117451688402172687928149550049525760.000000 1288735939944542836496437926498808105340744992841947434709087994206945046763143168.000000 0.000000
0.000000 0.000000 0.000000
2183060252597073704982357904767727838152924791352138578355636237552586611262226432.000000 2443035471577781335565891429170906688705860813339883984488899871660279570009948160.000000 0.000000
2443035471577781335565891429170906688705860813339883984488899871660279570009948160.000000 1072317418399034397980241358346576195628667052212255725351864411241448460093751296.000000 0.000000
0.000000 0.000000 0.000000
-1150478938426324875173573198926620109375595154919332221678752469315865375538151424.000000 332024987316123911294088703355699110713373630562256807889616406365409140570849280.000000 0.000000
332024987316123911294088703355699110713373630562256807889616406365409140570849280.000000 137059926430800114266269535242300023102306039623704205248154006806511374349369344.000000 0.000000
0.000000 0.000000 0.000000
1912956549506142498140272871282418881652185490704745110337119626677393056333824.000000 355537345212045566313757685612269834523920458851477482178836216663440925655040.000000 0.000000
355537345212045566313757685612269834523920458851477482178836216663440925655040.000000 43056580946957817082593378204777782460718172425544381202499540283646587961344.000000 0.000000
0.000000 0.000000 0.000000
3452072634225174656613337267274226103236167798497216607005193915522025261474250752.000000 -1669850706454747274805354386974461522391278501603170420147578808274381384903032832.000000 0.000000
-1669850706454747274805354386974461522391278501603170420147578808274381384903032832.000000 466853104408815641177460429713030360907150295011049483155748208983068274310774784.000000 0.000000
0.000000 0.000000 0.000000
-50265913571671777044190371798173891733060862808943812374584418785829318306037760.000000 28866327030873743545472344289082044019152839945735332541553731355030660724031488.000000 0.000000
28866327030873743545472344289082044019152839945735332541553731355030660724031488.000000 15230926986561237550599389401295091690436040170342690765008578736103072563462144.000000 0.000000
0.000000 0.000000 0.000000
-575203211553420845013319890236887662141418783261697794640717870460968464514285568.000000 -328547727669463048839694426615570404682859225701931407312753959761765511242711040.000000 0.000000
-328547727669463048839694426615570404682859225701931407312753959761765511242711040.000000 180156201954517338173697716647403174316646701745333427117690173469829517795131392.000000 0.000000
0.000000 0.000000 0.000000
-923002689105848479511104987381811994842399139333440353246073873606571741826514944.000000 -2757867936836669411376505718985017433239549445157969265877879372092661679154790400.000000 0.000000
-2757867936836669411376505718985017433239549445157969265877879372092661679154790400.000000 1579447973229354218907864321423842155306474403640651797280006787283531793864589312.000000 0.000000
0.000000 0.000000 0.000000
382171833347901075893246874168885659591485222848356540419008932435735473465327616.000000 707865600153896496014486020814423262517384179318798515092953012490055898693107712.000000 0.000000
707865600153896496014486020814423262517384179318798515092953012490055898693107712.000000 349750580083585033421764311580805168800333445539831878442282870841484348491825152.000000 0.000000
0.000000 0.000000 0.000000
607858881130994614738140002852287550922894626524054572445011485315582903590060032.000000 429514672535054436577713640130615720379492299367140780171465232969957652320747520.000000 0.000000
429514672535054436577713640130615720379492299367140780171465232969957652320747520.000000 179615040824320001410755706870469470443453858390300998746146576426081817439764480.000000 0.000000
0.000000 0.000000 0.000000
-40366589857546099850027491772747120431231766263997093847728190279411946980638720.000000 14927457709247663192734541564620028704693546417204164497710151542259694241316864.000000 0.000000
14927457709247663192734541564620028704693546417204164497710151542259694241316864.000000 9656988641974940791227445785482512464915324269350490221262680714894815231213568.000000 0.000000
0.000000 0.000000 0.000000
615617048592910537710658232064164266760757942926555877481675589149122805706522624.000000 -206207542823169470973367361070767803629519761083454324225402815184178827166220288.000000 0.000000
-206207542823169470973367361070767803629519761083454324225402815184178827166220288.000000 44225750598659222676008060868653674435284457776251786540854216952886844907847680.000000 0.000000
0.000000 0.000000 0.000000
41710973296422235649427040141894070115766258943076400056626094200832977549656064.000000 159656979372359090788364470261104923487566014635131809822601147371757278202953728.000000 0.000000
159656979372359090788364470261104923487566014635131809822601147371757278202953728.000000 88743869435477698669927723950200713482677884057965262309146415547778637112541184.000000 0.000000
0.000000 0.000000 0.000000
254803858496538623501019600565102896459952387717157803115616939673455557959745536.000000 -138287961116753370111716512229369861244843216786376179422181187815083151118565376.000000 0.000000
-138287961116753370111716512229369861244843216786376179422181187815083151118565376.000000 42278923192407138380527834650123800568439087856180760215418938720310061290225664.000000 0.000000
0.000000 0.000000 0.000000
333449716425078258773974732884262855031854380067006397428009201869167671044472832.000000 -155268931616148651913655716614528636834452260604867019413651886145115730068111360.000000 0.000000
-155268931616148651913655716614528636834452260604867019413651886145115730068111360.000000 42114037532597128770386292178690483675749822514939165188452896964405737239347200.000000 0.000000
0.000000 0.000000 0.000000
-10706054313625739852180545987135330514323957905742743237544776020889688419803856896.000000 -2856481511657893282215939685023421425116674657780826751340407626941159391126093824.000000 0.000000
-2856481511657893282215939685023421425116674657780826751340407626941159391126093824.000000 1155023505034591124132153040345360845878966386128231402971567510114546445853917184.000000 0.000000
0.000000 0.000000 0.000000
481963715836602098022291564037076323683100669311091501976396578626177271207034880.000000 57923786224117438728041819138141653768055313621890926596623384727314562044395520.000000 0.000000
57923786224117438728041819138141653768055313621890926596623384727314562044395520.000000 5024671693205101910000486034011041582653082998200193572054669295263170181464064.000000 0.000000
0.000000 0.000000 0.000000
6537346103223938085228348889594090112819614787512773592166418193077331982024704.000000 -1015499815038248551558791449203927185247424581930701390587926725745818239762432.000000 0.000000
-1015499815038248551558791449203927185247424581930701390587926725745818239762432.000000 124806344686466327515378506594075018180483544008034207544502220677750475194368.000000 0.000000
0.000000 0.000000 0.000000
-431807322835748389151177016813901422251613953648115032871143709787789307471200256.000000 338744909291054670076256677129536266982277254389084811880413697109174261991342080.000000 0.000000
338744909291054670076256677129536266982277254389084811880413697109174261991342080.000000 190842979220557521642341607431543988635370766788841849154596615100240937778937856.000000 0.000000
0.000000 0.000000 0.000000
-3873650721218754154006530024717855147108340278015434048822058834084164725767143424.000000 -5565227535768267544377323772941569328207979232450295119345720195828329814192816128.000000 0.000000
-5565227535768267544377323772941569328207979232450295119345720195828329814192816128.000000 3217521177700476238265682215757160771783197822067972148848985267834339137435992064.000000 0.000000
0.000000 0.000000 0.000000
-23431081800765272450366311827246305330082789842554108256939267167623815971087581184.000000 83823604971215750084059710845654462892972100302800090149245395558389876661420032.000000 0.000000
83823604971215750084059710845654462892972100302800090149245395558389876661420032.000000 2862679930799806487022384902782530073548224019010459878156597658824482559623168.000000 0.000000
0.000000 0.000000 0.000000
-209090599864251005258318359360766174286564206735711759977207657529769215184076800.000000 -19930244101607174410692690418478694282109792709706625999790306601366806912303104.000000 0.000000
-19930244101607174410692690418478694282109792709706625999790306601366806912303104.000000 4118659721258931323123214771408061266803070538954875412261920233722292884996096.000000 0.000000
0.000000 0.000000 0.000000
219259936933448951403053087707405893299115302980559968206573824696434149795299328.000000 75474259404922896712761961094485292580956861688886851353698619047971200679542784.000000 0.000000
75474259404922896712761961094485292580956861688886851353698619047971200679542784.000000 16057306126241867901863619314843894362196732576124935440677688640797925028397056.000000 0.000000
0.000000 0.000000 0.000000
182221964940478182990006313806872345907291304551827710253979389072194800965386240.000000 10737332436243132072850968985691060709642459058433190423695558809550853469372416.000000 0.000000
10737332436243132072850968985691060709642459058433190423695558809550853469372416.000000 1379439236358625134241435589423355921699155430692012954695007339989135179907072.000000 0.000000
0.000000 0.000000 0.000000
-228874377221036774864138246079844456296633993142822160598246210134648462422048768.000000 2489165050082987271941449974579309623907995556409154795517452683069308970538631168.000000 0.000000
2489165050082987271941449974579309623907995556409154795517452683069308970538631168.000000 1392187615696678449988342867088734461857617821674280934883752520558677952454197248.000000 0.000000
0.000000 0.000000 0.000000
-55815034258755562896573428221443534667500826834574821649337609885188172839649280.000000 967327176570307979946390465247903803305150061300529473845355820253335917690880.000000 0.000000
967327176570307979946390465247903803305150061300529473845355820253335917690880.000000 228233956637314830900598866972441352838083711260398928025617615058796650954752.000000 0.000000
0.000000 0.000000 0.000000
-4445316078653020160862089701623126159593680010664148774668978644569676696256512.000000 10064153354225969469620215791272712779409417829807514620239588164506125988790272.000000 0.000000
10064153354225969469620215791272712779409417829807514620239588164506125988790272.000000 5909775621132641119945536961541415255805410366753248934011888561174132188774400.000000 0.000000
0.000000 0.000000 0.000000
327640668865972587526870274919596773851309288074438056573314671883680826320224256.000000 96373171301371278369537227181511008443954281779613401200603261361195945673359360.000000 0.000000
96373171301371278369537227181511008443954281779613401200603261361195945673359360.000000 20479300837607058915723467923091193296805894195613884467736234011534091180048384.000000 0.000000
0.000000 0.000000 0.000000
487630562509845682679118907284159727960675442959789663927583423373744636719792128.000000 26371825854052365538413474303727693676239539322782102238121063723722467625140224.000000 0.000000
26371825854052365538413474303727693676239539322782102238121063723722467625140224.000000 5493969542215429828747809559963146040306454586432129888039611953572947748192256.000000 0.000000
0.000000 0.000000 0.000000
243289028333702683830209517506539035341089826365862243999580699814652236439486464.000000 -255294169166456019005539166979711257375955424523107988484984919006095520078757888.000000 0.000000
-255294169166456019005539166979711257375955424523107988484984919006095520078757888.000000 135028561339809620643267685537697401533577044058457256211262572708420427853070336.000000 0.000000
0.000000 0.000000 0.000000
-4389643372173647154993599957008225022203735968317886270288982083185180914179112960.000000 -817933930165812304922284496746483474416853250714247379993379402015851667007733760.000000 0.000000
-817933930165812304922284496746483474416853250714247379993379402015851667007733760.000000 268030263751702657281872043718594675031711684993865677468735706162612727806164992.000000 0.000000
0.000000 0.000000 0.000000
-19342066916467587561118947044001176849536428440907366819825798712980040957382623232.000000 -2096904727324712316568066669879966385760110762868116813975054273416626445928628224.000000 0.000000
-2096904727324712316568066669879966385760110762868116813975054273416626445928628224.000000 426670405310819817700214668523161167303924224820783560283499749177822091742806016.000000 0.000000
0.000000 0.000000 0.000000
10306441533220098798015912241355148881329584855653988881032669143150942327144448.000000 4921922752241620428003882717143795935252816726828463503587309694111105876492288.000000 0.000000
4921922752241620428003882717143795935252816726828463503587309694111105876492288.000000 1794221542418291916072899649188548213596444584120250053699284905366876231565312.000000 0.000000
0.000000 0.000000 0.000000
-60803238277673028145438915265214331614129531864041501686615138887278734170363265024.000000 -3782081467186452181789996928688228815490019225243781814901856267038320503231086592.000000 0.000000
-3782081467186452181789996928688228815490019225243781814901856267038320503231086592.000000 460204437330932416504425595376896695084696685185175418820149489901470773449588736.000000 0.000000
0.000000 0.000000 0.000000
987147826057166244585708135495655711749992570544516534906705036810702640698621952.000000 1346786699519033461710278860092026295155501528059095517736450270418737771952734208.000000 0.000000
1346786699519033461710278860092026295155501528059095517736450270418737771952734208.000000 671900744719424847380291350977918654769319090640954376900216625070644168516173824.000000 0.000000
0.000000 0.000000 0.000000
217414793992839394127463795038639594971849365082643026328341316942934726265536512.000000 -49236890462971258312765290080933185620533586976289995634563072421037515022008320.000000 0.000000
-49236890462971258312765290080933185620533586976289995634563072421037515022008320.000000 7492536251270002296306842918137980558978399899844647080158706793149082149847040.000000 0.000000
0.000000 0.000000 0.000000
10679786720529345602226593090209933014694238080930679258232404030580871235257761792.000000 1643700539398225144140039604099888845243255211169992683154314449684876724241694720.000000 0.000000
1643700539398225144140039604099888845243255211169992683154314449684876724241694720.000000 201891634021126899910861681165332231200250553253925218876034441969835644475670528.000000 0.000000
0.000000 0.000000 0.000000
21127223679994824986670968953713597112243313328750089386228420121538255193636864.000000 -162140704863536434653729741338731643882974777628457365531209678072061613884571648.000000 0.000000
-162140704863536434653729741338731643882974777628457365531209678072061613884571648.000000 95828301128092752270747602107785214273400348927203399625397024159486926083063808.000000 0.000000
0.000000 0.000000 0.000000
-78203302681719478225275795996188119486703018136485276925017383626383049852190720.000000 89825183345119843405721876694949836964850179227389876623738917575993836452184064.000000 0.000000
89825183345119843405721876694949836964850179227389876623738917575993836452184064.000000 20791903061047203144000239361170707435007356086748942825092489010041018141114368.000000 0.000000
0.000000 0.000000 0.000000
82583506702685570176546762776480531635592779378073894518220897253400806799966208.000000 -58583489872627926817256984132111847004310233660944191213882560575046766475345920.000000 0.000000
-58583489872627926817256984132111847004310233660944191213882560575046766475345920.000000 22168348438681688761174674450164065291933944733681242284519705683094282679877632.000000 0.000000
0.000000 0.000000 0.000000
-262268321135815124248697316438731078384384285506782700308169653306459774185897984.000000 -204003662349767114727345111929271266420698144612876400125854707917864708803133440.000000 0.000000
-204003662349767114727345111929271266420698144612876400125854707917864708803133440.000000 125480456369187970699725670220791107147167962271004169867756489293044739857186816.000000 0.000000
0.000000 0.000000 0.000000
634170240000982610646673657110025959733210258408059538749732228405868130170044416.000000 -205768139647307063178250948286260871633304575270781245151172728383400345245581312.000000 0.000000
-205768139647307063178250948286260871633304575270781245151172728383400345245581312.000000 43446574393016201601980487897795776746403966930245690167036931065751080315912192.000000 0.000000
0.000000 0.000000 0.000000
-8359217405273917624566044437234422537426922840606255697311729091355819179306385408.000000 -2198568316124831201146256252429342647641858207738317918971456578407005517701447680.000000 0.000000
-2198568316124831201146256252429342647641858207738317918971456578407005517701447680.000000 862966187220877899369651380737246238988294546212075862075435956141648045072711680.000000 0.000000
0.000000 0.000000 0.000000
-28246871221539252482668323389171544453822706243010750830796467703603197017849856.000000 2097296020736942371249804193874073380773331356587378368877299834635967898293633024.000000 0.000000
2097296020736942371249804193874073380773331356587378368877299834635967898293633024.000000 1172229843902931918143226098082204560194229931103775340521972077717584507844952064.000000 0.000000
0.000000 0.000000 0.000000
19433147751655880232870626323687647623589764236420901173909758398156404738236612608.000000 7245563899408043834085923542545205917174419641850475537513828650620296639782322176.000000 0.000000
7245563899408043834085923542545205917174419641850475537513828650620296639782322176.000000 1650189947846680729940193480990757199682768019160259355530316364050928774724714496.000000 0.000000
0.000000 0.000000 0.000000
254832518127815690235443904845933174916059759476624983568893130070556672.000000 113163880932398940175196620785015566965220422784054616927942681280118784.000000 0.000000
113163880932398940175196620785015566965220422784054616927942681280118784.000000 89531064743236024077984459429028334302686392391735804942110029061816320.000000 0.000000
0.000000 0.000000 0.000000
1715990515877849761511026626862198838145932698335248142659852314506033706626449408.000000 4046192370812715433333018696865536899451572469768037794497156555891909023668109312.000000 0.000000
4046192370812715433333018696865536899451572469768037794497156555891909023668109312.000000 2065327697760179647069646642870049993984922190349021678690738310244773845002092544.000000 0.000000
0.000000 0.000000 0.000000
5994493066030168964288005493377073835147107449295941072939118728484768102481920.000000 75964101168655076145647067238848846607694140832375008051505894152873516325666816.000000 0.000000
75964101168655076145647067238848846607694140832375008051505894152873516325666816.000000 41741714999760232580574056664050089709510180126700921421588471593561870083031040.000000 0.000000
0.000000 0.000000 0.000000
1885460453379252628259997986368437258475436898817620221847771576109357086862737408.000000 -2222496801095373124976262053080744741361587748674068334256245248495630924189270016.000000 0.000000
-2222496801095373124976262053080744741361587748674068334256245248495630924189270016.000000 991608652717797969612757244223066481447005574975596471330757445020479947404214272.000000 0.000000
0.000000 0.000000 0.000000
-135917101483899355460007800878351279539738281724528114528897965464460381531406336.000000 510090386715901731800568190976729059032704959900519484847520498986184114358452224.000000 0.000000
510090386715901731800568190976729059032704959900519484847520498986184114358452224.000000 326798415201592558745268516617967494324941428711365909664995307936567154280759296.000000 0.000000
0.000000 0.000000 0.000000
13580035194468605272806697848136125415121877178215676362734380012527995186053120.000000 -9269377976097471236450547163553551711901486107681558367865776057352973012959232.000000 0.000000
-9269377976097471236450547163553551711901486107681558367865776057352973012959232.000000 3314092176298831201739509726630319731464767684595192913707100088018211530866688.000000 0.000000
0.000000 0.000000 0.000000
-874101172978178804432750415085693852452070762361563475825973896158296969965860068261888.000000 1499293777235023886184954234864739943734018893987791099120223038441549374201110986752.000000 0.000000
1499293777235023886184954234864739943734018893987791099120223038441549374201110986752.000000 5141448606414071956963173786150054520859365151025392537980682525664981761925316608.000000 0.000000
0.000000 0.000000 0.000000
-101803960488439609708989353247565702209994129999740883767388432422245104766418944.000000 -270192667827814012337181541569353757055602549807654365256820010338068425397501952.000000 0.000000
-270192667827814012337181541569353757055602549807654365256820010338068425397501952.000000 156591782943051501493475748569267401345309430372533131390507004593930361014059008.000000 0.000000
0.000000 0.000000 0.000000
5252472498965214734682363012489922504244670636409086120722805321192854742106112.000000 -3946859353470108281480157134901154916287648384694029025181902061548415955763200.000000 0.000000
-3946859353470108281480157134901154916287648384694029025181902061548415955763200.000000 1490977198491781454448438641288726797179451227227496738732954034639466397696000.000000 0.000000
0.000000 0.000000 0.000000
-42414841360123932711756095672246713748597565446093220262402246069727885092945133568.000000 -5871632304017167025096541905642056181018181548695411807932297831083902822298681344.000000 0.000000
-5871632304017167025096541905642056181018181548695411807932297831083902822298681344.000000 1471120304724401356486551542917770433722515990025676183663985912271109628385820672.000000 0.000000
0.000000 0.000000 0.000000
497540717505078384970513754005241119799523773450154593867244764996390717499637760.000000 450393338690499354169229488668181898854305027954385203990136623371303627293458432.000000 0.000000
450393338690499354169229488668181898854305027954385203990136623371303627293458432.000000 183093466843181140741997555616340412213998230663225535171842573500581154780086272.000000 0.000000
0.000000 0.000000 0.000000
325682385261816636284129188912432965413963397778500614483556090001908148480245760.000000 -890826169823064896890170044408535985228082063087681841454435412233795382485712896.000000 0.000000
-890826169823064896890170044408535985228082063087681841454435412233795382485712896.000000 460916413794858591270974898148914325756399589338248560140989074872110645820522496.000000 0.000000
0.000000 0.000000 0.000000
-33344462067802042676671458998045963579277164011733612217482001806317585396672757760.000000 -3565107723979615461814927702149969218513043811551348124060591854210617549158088704.000000 0.000000
-3565107723979615461814927702149969218513043811551348124060591854210617549158088704.000000 715016839152807718838450555644887917301184618042871607907327448815550949205475328.000000 0.000000
0.000000 0.000000 0.000000
6878373172838273741484841383369936743901387202732273300897568946906304973111296.000000 -12199758084063224011388715601602779776729778603155488917204063578666706325733376.000000 0.000000
-12199758084063224011388715601602779776729778603155488917204063578666706325733376.000000 5985306124157965306962364436849260592765250324957225704998402051006367384207360.000000 0.000000
0.000000 0.000000 0.000000
-1094330095146347814759919959987838995256831079649895796120841923092122266167672832.000000 546380864061578500574708374561491077677034947161721740028371739100306649103990784.000000 0.000000
546380864061578500574708374561491077677034947161721740028371739100306649103990784.000000 321232021714271842336605739329936979761574013622493488721730386033311125692481536.000000 0.000000
0.000000 0.000000 0.000000
7444977516708929278229071906204894260798529905899692646408047008479940406948134912.000000 -2608057425471890542000252841889321343825600053963017550369471605690048571521368064.000000 0.000000
-2608057425471890542000252841889321343825600053963017550369471605690048571521368064.000000 578977153452019828014141786098282865032303334895979600322350237687307306906157056.000000 0.000000
0.000000 0.000000 0.000000
-3311977136249576398574528415034359779891078362167551613300995023812841620660813824.000000 -997405122497958318468366158312933267060048654574014577378719937456433054774984704.000000 0.000000
-997405122497958318468366158312933267060048654574014577378719937456433054774984704.000000 418636753542753732311132207702637568931994774856424873608932553933728026401439744.000000 0.000000
0.000000 0.000000 0.000000
881212994819683998819057382137119835064226357537595233255299957510092499365920768.000000 -962314453359477420448025168549696344621128306981447224523879526819183699360219136.000000 0.000000
-962314453359477420448025168549696344621128306981447224523879526819183699360219136.000000 419550603116833587210659878896448980796050186953991157614519242457970864887431168.000000 0.000000
0.000000 0.000000 0.000000
32743943770711673495166980867623552067239368243665490426620586920969680239722496.000000 -25831645318485537616670612898059282989288282691170883898278521324811888648781824.000000 0.000000
-25831645318485537616670612898059282989288282691170883898278521324811888648781824.000000 9867853886885689922113792206514540406678731337891804265914626715974281501605888.000000 0.000000
0.000000 0.000000 0.000000
354401341476016746025930822385235711712965616044884828349695049789146835749699584.000000 -437215214155225894595375137471639791924779142195029761763074460154087935087476736.000000 0.000000
-437215214155225894595375137471639791924779142195029761763074460154087935087476736.000000 194751084159582826522869799745488779023644724646463592311126133984096552010907648.000000 0.000000
0.000000 0.000000 0.000000
930244436838925784742093118455228080529117816720964326327289059041664236532006912.000000 202607377429768225870313523455196330841617238176545684368471190150801694553800704.000000 0.000000
202607377429768225870313523455196330841617238176545684368471190150801694553800704.000000 29414167283886660722226725013011470762304396347438279324914684587344061146333184.000000 0.000000
0.000000 0.000000 0.000000
384153813946465758517571017427040396447118590322198516338130423284635555810246656.000000 302346972645141888657221575099326049954697956476451270178634945767376431047770112.000000 0.000000
302346972645141888657221575099326049954697956476451270178634945767376431047770112.000000 100919485805915020733604604023844100960301647227416326300643385730923809292156928.000000 0.000000
0.000000 0.000000 0.000000
2085031783768763313925532266620700886046965372202047953790654515313085280071712768.000000 408972069087810982086310302309934894466452983056796932999946555726552097594802176.000000 0.000000
408972069087810982086310302309934894466452983056796932999946555726552097594802176.000000 52915678913172043136223828167252557369871013264860625358711299043923349055995904.000000 0.000000
0.000000 0.000000 0.000000
126641452557451316774177409185823120916722081395569839691840352433976737752154112.000000 -73236565006708803659707865750873884486636065308532777529550457935972892648931328.000000 0.000000
-73236565006708803659707865750873884486636065308532777529550457935972892648931328.000000 23213675183288546473477523983626421390430199675822933291892637970019350497722368.000000 0.000000
0.000000 0.000000 0.000000
243930580709424484265691334302971928460172071176444513084952906612440900111958016.000000 34703177614943181748088798612020375049031726493446379787623099319533534772723712.000000 0.000000
34703177614943181748088798612020375049031726493446379787623099319533534772723712.000000 3446474249997196296571032278417678962882251349968382690485485168522503544373248.000000 0.000000
0.000000 0.000000 0.000000
-65281034066253776390987384924738296966761701907601688004229918456673020648882176.000000 213812230779025339348957141048488372037457706333459323276070051214714201478004736.000000 0.000000
213812230779025339348957141048488372037457706333459323276070051214714201478004736.000000 122635744658118387718723319739974665840627026536802790306658024881809043631374336.000000 0.000000
0.000000 0.000000 0.000000
9525479897258521249692945779111494782016357008010847397233596468564562656190529536.000000 -5933891601903225913242319541456889971076060484342087445817390750647405385430859776.000000 0.000000
-5933891601903225913242319541456889971076060484342087445817390750647405385430859776.000000 1971946426051842735328878782122437598266009008425731516033684253361998675488800768.000000 0.000000
0.000000 0.000000 0.000000
1128059765254800738961442973654621746578094244886889188585882406149857146952482816.000000 327144457133630091459797600504488515280872592826730285344566397188710890410606592.000000 0.000000
327144457133630091459797600504488515280872592826730285344566397188710890410606592.000000 61849285053019214248636849298544594710204972553696516895607085460612277564604416.000000 0.000000
0.000000 0.000000 0.000000
544826800576043187954736500692652286517264828492957337077417824814921861300224.000000 -871303783058503041630235010397594026983624459373993730929862391325444930535424.000000 0.000000
-871303783058503041630235010397594026983624459373993730929862391325444930535424.000000 419401685976675020166264554697435789198757812691016248882336613947665243176960.000000 0.000000
0.000000 0.000000 0.000000
1516056239609133383950807334217182615869922254523785061324864217265012025417793536.000000 148001730437529380249784394571677490787493884190469798539043987101541671867777024.000000 0.000000
148001730437529380249784394571677490787493884190469798539043987101541671867777024.000000 20836229464581652452919843295388935379084759473629076214531424724771484660137984.000000 0.000000
0.000000 0.000000 0.000000
305638181970765244870422823718759026353289901089640146539665067486845072519987200.000000 1999503250420253563760132455629947758866462011944820603654109293000159106433024.000000 0.000000
1999503250420253563760132455629947758866462011944820603654109293000159106433024.000000 4589039458487409913933058879321841675862000607238267687113643351168297623093248.000000 0.000000
0.000000 0.000000 0.000000
218347244690726840469690335347275311574712311419660115798646270610690072224202752.000000 -300653911936638027143853728984793059049627342448791098200208682031125511318536192.000000 0.000000
-300653911936638027143853728984793059049627342448791098200208682031125511318536192.000000 139990575030440303223155248344558839498131929355108791095472421512806840167038976.000000 0.000000
0.000000 0.000000 0.000000
75784702858333380537701219273479491859471257444968293877697905594171385104564224.000000 -187928187401350654952073855625923392581708299897312819412621041525155047913029632.000000 0.000000
-187928187401350654952073855625923392581708299897312819412621041525155047913029632.000000 96453900113081713631139102896983289699430061187021971657650793942411086311456768.000000 0.000000
0.000000 0.000000 0.000000
-282570889989946250624452735857681836769057445613581707212398319364851626372235264.000000 21585068327517640007172393121417194209890758027567454033425177280269240798019584.000000 0.000000
21585068327517640007172393121417194209890758027567454033425177280269240798019584.000000 9147088439079455212813128658592711146543804406794031033288732997947035322679296.000000 0.000000
0.000000 0.000000 0.000000
-14805858195459636677872317052048534353455366817886858529669183018745846344443756544.000000 -2250770462891895193513251935984300779049843240776111029443322192948472689566154752.000000 0.000000
-2250770462891895193513251935984300779049843240776111029443322192948472689566154752.000000 610721979650581830987411798121354563032827376005972210025268757543830360720146432.000000 0.000000
0.000000 0.000000 0.000000
2544308214212781418648627301533374886384173030060728673239335716453852854720921600.000000 -1519722092526947166505693835896367914552419016764056619837876966508268174440398848.000000 0.000000
-1519722092526947166505693835896367914552419016764056619837876966508268174440398848.000000 498619126890912072780128783564128909635789215123975855824354963500126481785290752.000000 0.000000
0.000000 0.000000 0.000000
96736207442594057944852806480072765724309878137298463935181814126172688290414592.000000 103230563880833901823991028536428409922357165499518710124908586707268140066144256.000000 0.000000
103230563880833901823991028536428409922357165499518710124908586707268140066144256.000000 44566321722339764590440157795746438373224596635144005893382717812346286831042560.000000 0.000000
0.000000 0.000000 0.000000
1335253722818965775683923151618942222522086333899877497012355788421286469384011776.000000 1390592669330597612580893589773405738564241067352290770751517924132691105948893184.000000 0.000000
1390592669330597612580893589773405738564241067352290770751517924132691105948893184.000000 609076293030856218217577464696485086778879418682355717013241357281254452821491712.000000 0.000000
0.000000 0.000000 0.000000
-2201840510720701970813917517378338818511666955170573385709896566571307219634094080.000000 864891238933674388730045703075513714422863370193147273893499736544251946603642880.000000 0.000000
864891238933674388730045703075513714422863370193147273893499736544251946603642880.000000 410198862634948050487003071990066246059538665318301132047893745994535217620058112.000000 0.000000
0.000000 0.000000 0.000000
503975109842418415896841226250162718724885672876502498358817599538655470414725120.000000 648217562995830020013786003891700204840160747524789366757509512383462812957016064.000000 0.000000
648217562995830020013786003891700204840160747524789366757509512383462812957016064.000000 367668024483492987339166274958157875703868272219153479822876678439998807584276480.000000 0.000000
0.000000 0.000000 0.000000
-119101058171692651662337243145164479241855851798685898152304273400323436844154880.000000 -28485195175115011975981302411967855694598781648053809797454666873071395915431936.000000 0.000000
-28485195175115011975981302411967855694598781648053809797454666873071395915431936.000000 13264991529230048468876237858022422136537376398715802448213753077032304731226112.000000 0.000000
0.000000 0.000000 0.000000
93522784752645299071027844256435929084393630313154267026350097334822981892833280.000000 -199639387559115112540988896098930192089203497354353499853202033430354133197520896.000000 0.000000
-199639387559115112540988896098930192089203497354353499853202033430354133197520896.000000 125364885916939047303188273198819218798471667625106759079358626086541986084421632.000000 0.000000
0.000000 0.000000 0.000000
-1911369787462402610611659557030190939353273664099378397586175356010864004743299072.000000 55767295289112470956244217752713250134860028331359626768997744713247993616138240.000000 0.000000
55767295289112470956244217752713250134860028331359626768997744713247993616138240.000000 23390305346453113167141986677854370375501046244209982867674998076612994660302848.000000 0.000000
0.000000 0.000000 0.000000
-174370762839852638300389082022513496587884020132831324850824768697686587810512896.000000 -859201447068016133319738015865895162735117662993543365860414538166424059106033664.000000 0.000000
-859201447068016133319738015865895162735117662993543365860414538166424059106033664.000000 490478940502609801068205022420453422833909294830638066387630718349740531049824256.000000 0.000000
0.000000 0.000000 0.000000
1402843980682407832221424402556953423144459649725429381786883755599333332608876544.000000 -285115410913201027128560712478067134433672869900910417426224147774610240016744448.000000 0.000000
-285115410913201027128560712478067134433672869900910417426224147774610240016744448.000000 37686013945793509401867465784193348566477125029028381908024125256710869879881728.000000 0.000000
0.000000 0.000000 0.000000
105055415624985731360590167228510678458376814575295835319323732757613656944934912.000000 179330367196015119538336893704979308107246013774636010924827074439053436671492096.000000 0.000000
179330367196015119538336893704979308107246013774636010924827074439053436671492096.000000 66432606838209397508010317545973911474147745231760151945864886685821250356379648.000000 0.000000
0.000000 0.000000 0.000000
-750255313286161169152927755140468469321596588772494699589927776647366002564136960.000000 1613434608874856950962325334108902069139935939031171734162436629263332720192258048.000000 0.000000
1613434608874856950962325334108902069139935939031171734162436629263332720192258048.000000 928949948021980121529591171748469780465301214769992666523831765406158812103049216.000000 0.000000
0.000000 0.000000 0.000000
-50543056191613632599294594303399480183342279058269108463282133832999224018468864.000000 447487983728139542692929621955906561463024026723281880994577521511574579728875520.000000 0.000000
447487983728139542692929621955906561463024026723281880994577521511574579728875520.000000 250891524996153974946578674039408869568951789213492855242054742702341819201486848.000000 0.000000
0.000000 0.000000 0.000000
-191210774029204638504658591490180886567079755067101729442037741979977674771723714560.000000 -969041077545756775918890879089141655343909026821142276427759733699325453651673088.000000 0.000000
-969041077545756775918890879089141655343909026821142276427759733699325453651673088.000000 19976334698156433106173839734514470981396083002320511716873839379868265786376192.000000 0.000000
0.000000 0.000000 0.000000
54050967352785130143435857156820718275268888883690392673916383342987025808621568.000000 -240723479301546660908929557239217683333793693583441764394036379021620347664334848.000000 0.000000
-240723479301546660908929557239217683333793693583441764394036379021620347664334848.000000 125825391760628266144811189010696467146277571286527190893279372506750162829312000.000000 0.000000
0.000000 0.000000 0.000000
-55509568086285176589539445275058338547910861439250516420317099289397135495135232.000000 74906203508929995569837220333841792750369087537196161640690882605273539707666432.000000 0.000000
74906203508929995569837220333841792750369087537196161640690882605273539707666432.000000 21373620951179895675877321246596437391765605237720751563389232908972693745827840.000000 0.000000
0.000000 0.000000 0.000000
-487742219941220383784312846648396964272073780929521833998671745767591833002573824.000000 -175192888597412156388913949654748177759209524560674303605664617838938640040853504.000000 0.000000
-175192888597412156388913949654748177759209524560674303605664617838938640040853504.000000 23249131999883560661874714945782178806731859907215808826331977387846369483423744.000000 0.000000
0.000000 0.000000 0.000000
907229322539661613152270442246324038537573873923570716544333507066698374225854464.000000 794889614602587079583356294480148417586318740533858705219976835638216421139283968.000000 0.000000
794889614602587079583356294480148417586318740533858705219976835638216421139283968.000000 293677923235284956809634924753620593838833926660021536079792901443213486911913984.000000 0.000000
0.000000 0.000000 0.000000
1311882415384790178647550124739862507246923243188510137710321594644730190644641792.000000 1954161478695652079319306098270247877602512666495732934367778496936986147697983488.000000 0.000000
1954161478695652079319306098270247877602512666495732934367778496936986147697983488.000000 926785288608447782554225147895322184184891471451697092214234781747218406879264768.000000 0.000000
0.000000 0.000000 0.000000
97246914862151935591514220818892129070303520829447750380842870251915794087673856.000000 -2202968970876376580624954674217735194134342755099910662168208335886208519372800.000000 0.000000
-2202968970876376580624954674217735194134342755099910662168208335886208519372800.000000 37639414360331670846039799183160506110873548289505326196817924991633539989504.000000 0.000000
0.000000 0.000000 0.000000
16313902755469421472701425901186611601664198667889568825780387893255009436958720.000000 -50335727804820009691873742933227900546257565492026608421814364266640506892582912.000000 0.000000
-50335727804820009691873742933227900546257565492026608421814364266640506892582912.000000 25607538146929147846345017266581795397265514299071322475968099092057200189767680.000000 0.000000
0.000000 0.000000 0.000000
1045494537288193983610857091064715381478095556847006217665297865346730634237706240.000000 -745875724478848585032160570028801589869613084066807161078568994604635675030454272.000000 0.000000
-745875724478848585032160570028801589869613084066807161078568994604635675030454272.000000 269006981852161893256775472527854092183681157617922932386176112318156058268794880.000000 0.000000
0.000000 0.000000 0.000000
9344382886834102997247696301997261139762671546383349667304543593855310469512822784.000000 4385007697193773708789610065089739248293261860627167836963789850779255016498659328.000000 0.000000
4385007697193773708789610065089739248293261860627167836963789850779255016498659328.000000 1166226488526454567961958368678517236240804725369295190951109612588850758058770432.000000 0.000000
0.000000 0.000000 0.000000
76497175524274395754038775388855087735601767441511704371747385987464050973343744.000000 -144352867673849539993697178991640489898043604990998694565898789630400058588397568.000000 0.000000
-144352867673849539993697178991640489898043604990998694565898789630400058588397568.000000 70243343216059991450896077942055766050606526378178791949322859023291711282479104.000000 0.000000
0.000000 0.000000 0.000000
-1060486010012713785117589491304388262889702610597662176372377909144998443072094208.000000 -1016650686940559769703875810225280352410622030910450833329449705303048980730478592.000000 0.000000
-1016650686940559769703875810225280352410622030910450833329449705303048980730478592.000000 633389187173883270412304186405685772316764193893529243715831603515178397636493312.000000 0.000000
0.000000 0.000000 0.000000
-2537425692205097646560589310787614715439886778839013333311806504722925733770428416.000000 1805103445810764068516826511266040969141948853416494564765868471957911776350175232.000000 0.000000
1805103445810764068516826511266040969141948853416494564765868471957911776350175232.000000 992417190136461994349491279867400473341791846300651723969034061060680565693349888.000000 0.000000
0.000000 0.000000 0.000000
187214818094507725056872008816287408343236907516148720390718158362869157580505088.000000 131060898058672935497265731347615275317034838966733600372360993776162848892780544.000000 0.000000
131060898058672935497265731347615275317034838966733600372360993776162848892780544.000000 47666543495554845831464141151410978700588232074898895323915873891028029967171584.000000 0.000000
0.000000 0.000000 0.000000
-12551743093259258171838328146904826891497121597735265065142418925551937787002880.000000 -29526669133738091984422881327209102986289983118550592236381467960161787057274880.000000 0.000000
-29526669133738091984422881327209102986289983118550592236381467960161787057274880.000000 17015476834047381862350225320595854897017692101872147153164706053491443875446784.000000 0.000000
0.000000 0.000000 0.000000
1339072816812642954927418875484062128941786472357835415723052005695408058948124672.000000 486676948575613523154128084909348065358605791592222927589615100835445209097568256.000000 0.000000
486676948575613523154128084909348065358605791592222927589615100835445209097568256.000000 108721106675284779333035432471898894740339828478903587863318531812134076601597952.000000 0.000000
0.000000 0.000000 0.000000
-441175921530451425093361765119873895698764333151746957833013740098449614756118528.000000 436769741049954238182946311220360754659896690868560079444455632538839214960148480.000000 0.000000
436769741049954238182946311220360754659896690868560079444455632538839214960148480.000000 248259273122510739902356284066071714478392263193734912065344669310901973185200128.000000 0.000000
0.000000 0.000000 0.000000
98021311542155163705230986269745837422542312867976482008074187673603732175585280.000000 40193233224196634831059855690776527531679766980715476838192570116796246191505408.000000 0.000000
40193233224196634831059855690776527531679766980715476838192570116796246191505408.000000 6579788342021243794948378576282934668934479358944611169951626242581598239195136.000000 0.000000
0.000000 0.000000 0.000000
1999199882019135279592827263333598871352254215375160474679077479949290629345837056.000000 3277119184432075782989211414763076671799024613738681267460809259947364668760129536.000000 0.000000
3277119184432075782989211414763076671799024613738681267460809259947364668760129536.000000 1584984993004101450655449781809776680614225811304389412683873598512031078732005376.000000 0.000000
0.000000 0.000000 0.000000
-78176073009573101375935643577799411016029189372297156423008874005739557678481408.000000 -29757036769184326769737403699838230512168528716487708142370576790841274323173376.000000 0.000000
-29757036769184326769737403699838230512168528716487708142370576790841274323173376.000000 13907401213002298695384959651970430887458179292222269193676213881299407055355904.000000 0.000000
0.000000 0.000000 0.000000
136411141375746325702330352591604864966976056769124520593195459760895032219926528.000000 -50267304607270789622547178577154261242421027203456019267417477259408007401308160.000000 0.000000
-50267304607270789622547178577154261242421027203456019267417477259408007401308160.000000 12300943318052945045278493091446969104474973827531431159851936413092284909748224.000000 0.000000
0.000000 0.000000 0.000000
642915143680860114710255578849497168853577717991979116308113678853807629058179072.000000 370514191855923648208020723304845984210329806078747766112955293651419487423954944.000000 0.000000
370514191855923648208020723304845984210329806078747766112955293651419487423954944.000000 117268954212940739276618222797112220014561136025189740828829469166489759230459904.000000 0.000000
0.000000 0.000000 0.000000
1996070747651539391557085049983910913593557122128046622254263815508590980962975744.000000 1184441527813313579883490252040809928764191033478473247698889157571103893737177088.000000 0.000000
1184441527813313579883490252040809928764191033478473247698889157571103893737177088.000000 382241848885353418326336433926986787689164324397015978295572490678524042656350208.000000 0.000000
0.000000 0.000000 0.000000
2390116609533446743237520307015993265501380442541514122081762374035450745065570304.000000 3475888850102730535080368381911805197806617257653061064884448116784010774911647744.000000 0.000000
3475888850102730535080368381911805197806617257653061064884448116784010774911647744.000000 1639627534983822818547713041597115966739239058827469280704634321741983449008308224.000000 0.000000
0.000000 0.000000 0.000000
-11535808426764601634702252577408687245585743887151218851528688503127940237136152756224.000000 -49189555242949450995427672533278259999079760001060972218428068570364623844580261888.000000 0.000000
-49189555242949450995427672533278259999079760001060972218428068570364623844580261888.000000 419700355538291427939039122061487215845117985711436812964026833294386020241899520.000000 0.000000
0.000000 0.000000 0.000000
-5883900614763363143184626555628320698819636575456695254615500463138124626657280.000000 -33560667814965986178620358971394553536387605043714441481047879334475924190003200.000000 0.000000
-33560667814965986178620358971394553536387605043714441481047879334475924190003200.000000 19028750722312965582997486647853752506286153403829454166741072930896857213698048.000000 0.000000
0.000000 0.000000 0.000000
-243713702261447415357225231593946913281992161019609343554037005706832023757258752.000000 538724522918626050227111294036814707510771902473802611867483685465998976274661376.000000 0.000000
538724522918626050227111294036814707510771902473802611867483685465998976274661376.000000 323806174772666526216608672563810518889111799718909554841213502209648685146439680.000000 0.000000
0.000000 0.000000 0.000000
-387639682900192805950173198061121265012798940046479882461182013332323742067130892288.000000 -11247998903194490823125860711376327163304784252748833394831747029599370144330547200.000000 0.000000
-11247998903194490823125860711376327163304784252748833394831747029599370144330547200.000000 649719243593125787604886456354625291726960926205554408758594623240673406383816704.000000 0.000000
0.000000 0.000000 0.000000
-602530491179765690512397748099989705313489438556621898077311615391499888059482112.000000 1006145501401014954083682493148953448921611080606987344239908174780706104413257728.000000 0.000000
1006145501401014954083682493148953448921611080606987344239908174780706104413257728.000000 591633362370337310705757578290196849988961572620878427759607110851418530181545984.000000 0.000000
0.000000 0.000000 0.000000
-71002885440113391195190270866826056798238884238719315500662843699385277926604800.000000 48739070083298859724758769820354736599121452630513707776862645565536883666059264.000000 0.000000
48739070083298859724758769820354736599121452630513707776862645565536883666059264.000000 26587634127396882827644658938623319154952727203991273551210088167398829218332672.000000 0.000000
0.000000 0.000000 0.000000
475776702722910799178778671331558219506672298419270436391122008243586206080696320.000000 -561229713725246069156109391847592973129719070812825136495831422850176709948342272.000000 0.000000
-561229713725246069156109391847592973129719070812825136495831422850176709948342272.000000 285693339892167980966627655646169185591652228259515934227137263194512411395620864.000000 0.000000
0.000000 0.000000 0.000000
5903708897916536321748540186363793652674769964722485379036486654908207669968896.000000 -5608101924793249710456339833433858814437101203017064724348900754415452157902848.000000 0.000000
-5608101924793249710456339833433858814437101203017064724348900754415452157902848.000000 2099231747914000152134018356574994634892051562140271373499662017317067695325184.000000 0.000000
0.000000 0.000000 0.000000
-18962625948848451141797561319877033988898188529759196212592791728330410621478633472.000000 3595099944005103147784850984695310001322830928622323318353845784086182476986187776.000000 0.000000
3595099944005103147784850984695310001322830928622323318353845784086182476986187776.000000 1142456773304318811386781031400542993127987461728340578119083312544274809245138944.000000 0.000000
0.000000 0.000000 0.000000
291052410876841492405855965937040965174385886010820676887541016882807608046518272.000000 9303967028282676161916896378055871722853694189905709892964694555919487638437888.000000 0.000000
9303967028282676161916896378055871722853694189905709892964694555919487638437888.000000 23127332364618756594102450937751388199587023990233928394844030586720593278664704.000000 0.000000
0.000000 0.000000 0.000000
1917355426458776293898748598856754461747002934967658380455677203717807664298721280.000000 2232797867929607086025392652426753775639736542045815239254624758904954942037950464.000000 0.000000
2232797867929607086025392652426753775639736542045815239254624758904954942037950464.000000 993171600082130050901090349510950451739527169495287900405006557723247094335012864.000000 0.000000
0.000000 0.000000 0.000000
2346858200114469473626583908533476599558413916230056331655352075860898444476416.000000 7441568484370796760224547771845248376956988963755768105128084002108545376976896.000000 0.000000
7441568484370796760224547771845248376956988963755768105128084002108545376976896.000000 4044384842579752312620474920682711644866192666450325146869730949009819534622720.000000 0.000000
0.000000 0.000000 0.000000
102262890593305017151895812096366047019167770540978421543080628980614431542083584.000000 -9616236243774285715084801566882073350023836565681828600507120031459242435149824.000000 0.000000
-9616236243774285715084801566882073350023836565681828600507120031459242435149824.000000 705943409582113440652149246800797005262620087295960948323282910652903922335744.000000 0.000000
0.000000 0.000000 0.000000
1073180459881649984691796247814002308748903483031531062236699734472112725819392.000000 -628948283373187033484231820990647845163655650255475814092557993138544873308160.000000 0.000000
-628948283373187033484231820990647845163655650255475814092557993138544873308160.000000 201114792110177438118206030018631124562668928417480176160956241635598045020160.000000 0.000000
0.000000 0.000000 0.000000
1557251493280761198540050170658238755980996388266910835613043623006640571372535808.000000 -301373635930464386244929711335454898284157053337285522725937305790822417394827264.000000 0.000000
-301373635930464386244929711335454898284157053337285522725937305790822417394827264.000000 38640125431641735772254198619474685045824756147335340987294405168607852859752448.000000 0.000000
0.000000 0.000000 0.000000
631151491108549917210859156250126031230939098778384039159600202332930170121355264.000000 -366804718925124232684142250150108396976306926015700442028754147684283166119428096.000000 0.000000
-366804718925124232684142250150108396976306926015700442028754147684283166119428096.000000 117934618701163302524268569544665625134026357763904440168163199158862300699426816.000000 0.000000
0.000000 0.000000 0.000000
-6379017474142286845749502348250211623096557777087458115951886324841616939983831040.000000 1867384389462885947725394699640505987733722592632461864365574568268902991684173824.000000 0.000000
1867384389462885947725394699640505987733722592632461864365574568268902991684173824.000000 813736306239744295957896889917974292831021920045986646911861884495429865018753024.000000 0.000000
0.000000 0.000000 0.000000
878012092554988086371696944592889231087075787082343644428301489583316129789509632.000000 905209170733801363224876387977208383288398111685309834437225218674695080639463424.000000 0.000000
905209170733801363224876387977208383288398111685309834437225218674695080639463424.000000 405694229726670180519738284099283167413026312387199601583195792821129154215804928.000000 0.000000
0.000000 0.000000 0.000000
91402981892255985778651770169294797637804046324413605688186203019510577402740736.000000 59145134641390554186429553490619219643786867569158494385590660716582415571615744.000000 0.000000
59145134641390554186429553490619219643786867569158494385590660716582415571615744.000000 20466192277808187049248922639411667251638981605681290739219547577459998178934784.000000 0.000000
0.000000 0.000000 0.000000
193778740851988956602796243564865898463425950816912005594996281647709256153038848.000000 -148213185754368767036247564218132886909938625241850977903801665883595365999968256.000000 0.000000
-148213185754368767036247564218132886909938625241850977903801665883595365999968256.000000 45573140327521908755622968571930010044969488254704852959238318447928817336975360.000000 0.000000
0.000000 0.000000 0.000000
-441569299193538711312739090918818246705567468282597617386215474028030996389036032.000000 -100018337140171990075833096350560299716841953728589194105149441155021544435482624.000000 0.000000
-100018337140171990075833096350560299716841953728589194105149441155021544435482624.000000 198711732594521769110546692165583944245209571847993425510396053209854223038021632.000000 0.000000
0.000000 0.000000 0.000000
-2441381431190340841118094452713802393479387895365728712766836529645048644560224256.000000 -784922288303804527117608190979891372855569934682475076875466724679738190599290880.000000 0.000000
-784922288303804527117608190979891372855569934682475076875466724679738190599290880.000000 342204426812416944651909995068236288642890197464683216600042410346415507338428416.000000 0.000000
0.000000 0.000000 0.000000
-1181250888031872711874557635129582060993782266060774409857597049832834053198315520.000000 801578651850329729212292544154092271227917819199718452150494586084343209581871104.000000 0.000000
801578651850329729212292544154092271227917819199718452150494586084343209581871104.000000 454203344057686660007796254064108230465093904084701484434397673750127651334389760.000000 0.000000
0.000000 0.000000 0.000000
-292839301673755850327761667335250030262437258656182465183324669524586673337270272.000000 71526591366722083816646409149120849204481313567684294713109127466885344709836800.000000 0.000000
71526591366722083816646409149120849204481313567684294713109127466885344709836800.000000 49686581013262362910970467296949924188898667189051406785368250817292415396741120.000000 0.000000
0.000000 0.000000 0.000000
474680469238413229184185312936073492551248833359003926417268957556014281295659008.000000 -925542103968072029027613398221516494925584364164160074535474451121301813756690432.000000 0.000000
-925542103968072029027613398221516494925584364164160074535474451121301813756690432.000000 498963689772922052221734362574031819856335800096816674429162715447462229864087552.000000 0.000000
0.000000 0.000000 0.000000
-582341111957247160109930684370814823000623545610434103742820549355285357371850752.000000 -208033199217810634007693659696554278517936057198777345514679802380846509561217024.000000 0.000000
-208033199217810634007693659696554278517936057198777345514679802380846509561217024.000000 100528892591133135380983471582927380399338360919577111454662824263666028605603840.000000 0.000000
0.000000 0.000000 0.000000
-526366184804500242346833106395380638396206079063408458560716711886966255616262144.000000 559090549616095303912505989547203298558968293210447689953501945974473532970631168.000000 0.000000
559090549616095303912505989547203298558968293210447689953501945974473532970631168.000000 319639010998345700265431682922513964588931638523377736472804404278340314420215808.000000 0.000000
0.000000 0.000000 0.000000
1364272773131293926202513345864648062057426722918590506197482053436843830479421440.000000 -950123028570055419361024032401904696656445591782118764089220137763459613667098624.000000 0.000000
-950123028570055419361024032401904696656445591782118764089220137763459613667098624.000000 337759782612006370370491518887733810862454342032821753792944103160231704840372224.000000 0.000000
0.000000 0.000000 0.000000
-2647424904786208217749277015224656549622133531813079775217509664651382636937216.000000 -17113327434246751851314377952427695242825541783888833664984223536371411479166976.000000 0.000000
-17113327434246751851314377952427695242825541783888833664984223536371411479166976.000000 16739187121074035799181981340468971250060959787403914611206243185693437785538560.000000 0.000000
0.000000 0.000000 0.000000
-4059085270760028015353751156916140361782990598086075350509744451714347576590336.000000 -2825677902445977444970430030723413145616069831512016287626300025214144337674240.000000 0.000000
-2825677902445977444970430030723413145616069831512016287626300025214144337674240.000000 2008709501516991116123071723435004582105366766267660461760254638080429907771392.000000 0.000000
0.000000 0.000000 0.000000
349619953887776375075971277917419238609114708222591167235707045258235019746344960.000000 -161439833485002214233142361845925198321039476461586704129033482326952463445262336.000000 0.000000
-161439833485002214233142361845925198321039476461586704129033482326952463445262336.000000 98657062849329841437268398357903694809685803415821347963440989658807865337446400.000000 0.000000
0.000000 0.000000 0.000000
-143879938766681080925567017856894769833734238926644957561929793649295355310768128.000000 38014341810170311802310551768050824862475565042951881475976321755427360003325952.000000 0.000000
38014341810170311802310551768050824862475565042951881475976321755427360003325952.000000 15523933589071086891936654149093989268261507551901392001237839284533462317400064.000000 0.000000
0.000000 0.000000 0.000000
379545572485717571952969843754078536789105914093790853386985295069865456623943680.000000 479772688803581203029495036971292516237644285900433054386866125069291876572463104.000000 0.000000
479772688803581203029495036971292516237644285900433054386866125069291876572463104.000000 218885163185101532564705388776140035796537934637522179791954720403485713607163904.000000 0.000000
0.000000 0.000000 0.000000
-34848058685607678075577906888219592596888027412265090377483353494806978304671744.000000 265941159627968800301902087206186625363623024395132569321894541618563020799082496.000000 0.000000
265941159627968800301902087206186625363623024395132569321894541618563020799082496.000000 151004045034171710363553755605154448387619051984698538724403199472659149594034176.000000 0.000000
0.000000 0.000000 0.000000
-264988487004991303916896869186626427634868416226378178968361890682229151770869760.000000 -433455597219182809394784503901779415788074912025318379687997480997715225322979328.000000 0.000000
-433455597219182809394784503901779415788074912025318379687997480997715225322979328.000000 335198577521859230402876648219745360730879262039409484655254822271970823217610752.000000 0.000000
0.000000 0.000000 0.000000
-2799863833511305538708731473151067898190573092838884173344571441884910953846276096.000000 733392524992399838658044988236502500229895517396250362712850987779985070918467584.000000 0.000000
733392524992399838658044988236502500229895517396250362712850987779985070918467584.000000 286004309529408584494028678988082515343128502928162140194315446248642778071302144.000000 0.000000
0.000000 0.000000 0.000000
653611388139149744537747682165616175950678216356433330705364015018231650649636864.000000 331237679195868085108484030966196469657147749774399843406857341457181576416722944.000000 0.000000
331237679195868085108484030966196469657147749774399843406857341457181576416722944.000000 96051997172715572875507645594057893196680589841360021446661386259582756417699840.000000 0.000000
0.000000 0.000000 0.000000
2227698406565757331758491914840327431321342323733256945800924088595630262472146944.000000 -181361931755266986556897077960618606432297676793774984899481180926689665884356608.000000 0.000000
-181361931755266986556897077960618606432297676793774984899481180926689665884356608.000000 13088400916848654622172963758325644544555660305921565407641311363973172252639232.000000 0.000000
0.000000 0.000000 0.000000
-9057584815292732177986048759238309884462149311884204399677124352870403807077466112.000000 1317793162662030421392205724739306932559699532817038925968468366443862266208059392.000000 0.000000
1317793162662030421392205724739306932559699532817038925968468366443862266208059392.000000 348384166370626809398018580408968664293544785347968219738555114791761077151465472.000000 0.000000
0.000000 0.000000 0.000000
-426708640924124101343014642465114205486612775281800251744760005531010564148428800.000000 -353284510292498721104965557249408893310371529944782799152548715193399129222938624.000000 0.000000
-353284510292498721104965557249408893310371529944782799152548715193399129222938624.000000 199593681839117137543529365481287369360443938873195927073304591975206686193352704.000000 0.000000
0.000000 0.000000 0.000000
218733626059602501934404710424843741825350349136312265324500084484761672979841024.000000 112296998978989315907488157443006020162605903296817396996996490239176180007698432.000000 0.000000
112296998978989315907488157443006020162605903296817396996996490239176180007698432.000000 33729927451194162995276418185705011158957316618036120908882731197624636042903552.000000 0.000000
0.000000 0.000000 0.000000
320533583749728172208816876017200347649576873481774076340955877435523289659211776.000000 592440107266030331348697766321413262658096037266458379662960469128466282261250048.000000 0.000000
592440107266030331348697766321413262658096037266458379662960469128466282261250048.000000 287300828229967537403193529765270299301242220431480166360552209243765256031830016.000000 0.000000
0.000000 0.000000 0.000000
379306991695808918985463030530206346281795335703867103324130473219603356354347008.000000 1060211002563111828780407188070063425673308133915813348035384468403160679117225984.000000 0.000000
1060211002563111828780407188070063425673308133915813348035384468403160679117225984.000000 379632640074477884268040836842588187865663763546559343141308340951819537545691136.000000 0.000000
0.000000 0.000000 0.000000
613437743223440587548145330062510048463989948585182371527873405980072151428890624.000000 -890000094329703825737617710374463419726411680362617975700391721009083454066786304.000000 0.000000
-890000094329703825737617710374463419726411680362617975700391721009083454066786304.000000 417881516113882419303876245623463869060601608262110505296809759674819501440892928.000000 0.000000
0.000000 0.000000 0.000000
373609426617172591780827323569385229956856569802779049868509105968459538302500864.000000 1057885482238642691672455905514188913471832293478347886073940425953241547476566016.000000 0.000000
1057885482238642691672455905514188913471832293478347886073940425953241547476566016.000000 584080769752954373000315849861887992094251985489276880418991604292416297997697024.000000 0.000000
0.000000 0.000000 0.000000
-110925111604263820576823312180085091856929469482078496552763488295831721922789376.000000 -32819317241752541344939815899874682929305831876697455245408244170447726934228992.000000 0.000000
-32819317241752541344939815899874682929305831876697455245408244170447726934228992.000000 19553751533363545902072587169355053591380643161108976708558731747270996086751232.000000 0.000000
0.000000 0.000000 0.000000
81110830904658346710802876590152088122869581880820679704297131250209225277702144.000000 -154501166319725436000995802462499141276755227769152825809010704480502178675425280.000000 0.000000
-154501166319725436000995802462499141276755227769152825809010704480502178675425280.000000 76875905912076867392949464529220638367886896226958382686113131656656531797049344.000000 0.000000
0.000000 0.000000 0.000000
1105654242227754786200714436783661289029651374705219667460238993442019832978472960.000000 229927768015951996122814398241392616916321964102683293516979039202245871061172224.000000 0.000000
229927768015951996122814398241392616916321964102683293516979039202245871061172224.000000 33332992379529718856268155685594038734367708461310496461350954652643318455861248.000000 0.000000
0.000000 0.000000 0.000000
29607305297749500866597423129327917015446153700206870141698797721444456861794304.000000 -661987938843210305928319771625974853917555060396476424240400880213383692867862528.000000 0.000000
-661987938843210305928319771625974853917555060396476424240400880213383692867862528.000000 364247533593463629194029682283962017972090392208867982561590209244699571594985472.000000 0.000000
0.000000 0.000000 0.000000
14650345765675916478566445125340178697205280708905884220523969472145075600359424.000000 6126682748455318047078787695340481817493308177039549195574953332342317845053440.000000 0.000000
6126682748455318047078787695340481817493308177039549195574953332342317845053440.000000 1542899715541173373373157339410052190254900443879189511420629609696553863217152.000000 0.000000
0.000000 0.000000 0.000000
907996031072883441671464584221424339201415862126981266838103253011608358851969024.000000 -1913081020365424335868557199530582138482324646497884092813497010505506636638978048.000000 0.000000
-1913081020365424335868557199530582138482324646497884092813497010505506636638978048.000000 963503793870279319905125353834579637363055865205063182513087224872104974553710592.000000 0.000000
0.000000 0.000000 0.000000
-11225258000899850081144600634208220371826821843264105771993434843905353490366464.000000 68908375950715375288203071829660608768206378383420621217673398182771200465305600.000000 0.000000
68908375950715375288203071829660608768206378383420621217673398182771200465305600.000000 39052603902723321886967609353765439804181465942600824859678447492647708786688000.000000 0.000000
0.000000 0.000000 0.000000
83428594916988326755244455655543108205569596887611004148460534679548640454770688.000000 -44107752859319786215018942618590978639396161079627751197449452708117746710216704.000000 0.000000
-44107752859319786215018942618590978639396161079627751197449452708117746710216704.000000 54506266671243582587251247679194658545201127368657643904272823792728207634989056.000000 0.000000
0.000000 0.000000 0.000000
1310262015818336996290837583878222665512076727121234400530783779200801280544997376.000000 -847596304540766286686839594141855753485828969021196289450422613155660546703360000.000000 0.000000
-847596304540766286686839594141855753485828969021196289450422613155660546703360000.000000 292741170436161753208444237215166952183494006053086184156900400186098868889321472.000000 0.000000
0.000000 0.000000 0.000000
530401858949426865672132188193352603497575743012532913031136267348979833452363776.000000 -1422156033866544714621135632946100722572794205572595931068029668485276688619405312.000000 0.000000
-1422156033866544714621135632946100722572794205572595931068029668485276688619405312.000000 735209697249096251158382422320061286620313174706655566672109454121859320559697920.000000 0.000000
0.000000 0.000000 0.000000
-615701465480685720792078375903860635653619221430078078668488559927364849500160.000000 -5452928522662602768194966634208637584670235126810816946877615474991781686280192.000000 0.000000
-5452928522662602768194966634208637584670235126810816946877615474991781686280192.000000 3471007849723273108201121592143364978852448866145022398764596569684511125667840.000000 0.000000
0.000000 0.000000 0.000000
5722964758418186667859990633645987794088753530382601769733479075865701902893187072.000000 -284890498073370709904489738824267623607135642143759626947487067717822613131624448.000000 0.000000
-284890498073370709904489738824267623607135642143759626947487067717822613131624448.000000 21195233231135355702586282277277158000825154065286367181155906033595246541012992.000000 0.000000
0.000000 0.000000 0.000000
1002766892535925240881272725776066100079680459039062431167393657661874855062011904.000000 632330465670614738391747938855138584078545173452249599476292178692259363703226368.000000 0.000000
632330465670614738391747938855138584078545173452249599476292178692259363703226368.000000 211946521675102803271079869067392748989316114622162751157445270860659771813396480.000000 0.000000
0.000000 0.000000 0.000000
-2115694156172123674328433977356701399442222870574088417589381463602368908133138432.000000 6404765913443580316545490694448599421076729822492645733057929550538964524335104.000000 0.000000
6404765913443580316545490694448599421076729822492645733057929550538964524335104.000000 166991761173872797115380976049081564322870779442936236809846174566158847442944.000000 0.000000
0.000000 0.000000 0.000000
-73450385691952902701325272817529590068594077184064399106786836855213241925632000.000000 2599453232497726621172450651134524479108793622947276845396911182253660192699842560.000000 0.000000
2599453232497726621172450651134524479108793622947276845396911182253660192699842560.000000 1451729846114039122286629563571377627272115397926153156088741555258162571710038016.000000 0.000000
0.000000 0.000000 0.000000
1047603661669303381923824190209241469453239026381642596468019585336020760765923328.000000 92462490651891885945829368937163996004867505917840674161534475579405901416628224.000000 0.000000
92462490651891885945829368937163996004867505917840674161534475579405901416628224.000000 16819127525850891522681223357418974773670336417006042300696627901468458935648256.000000 0.000000
0.000000 0.000000 0.000000
-194122926421456660741156858649779024850955425178015414599609885236465330357796864.000000 -544595757418928595683865174370590812754600601306798781503727877948880947318358016.000000 0.000000
-544595757418928595683865174370590812754600601306798781503727877948880947318358016.000000 311162524110767702591966095361657449480045940788209546420328509051374945974616064.000000 0.000000
0.000000 0.000000 0.000000
1011485736053615023169887644797755468424251724032719735551368457449915333923045376.000000 599108413137722833243529918886521239784911815727480148812267345164644742743457792.000000 0.000000
599108413137722833243529918886521239784911815727480148812267345164644742743457792.000000 192964966722675196919243875090166490725738514696334786212817318849050169426575360.000000 0.000000
0.000000 0.000000 0.000000
24979538993234289890317829683193118426039210923599915554644805598352669669326848.000000 14986940567498013129952040264330710199010617666466675998746741962672371448938496.000000 0.000000
14986940567498013129952040264330710199010617666466675998746741962672371448938496.000000 4865864759427251490312334662604621998404527932141914191868524458153583981887488.000000 0.000000
0.000000 0.000000 0.000000
-50220273138356623284952670721104381496908752585164459464487004348137216055181312.000000 -174626821129024708993946849843349726574010690038619951605389147031664077364527104.000000 0.000000
-174626821129024708993946849843349726574010690038619951605389147031664077364527104.000000 118946685855773567236098953378277680989638598134383484501439182089806674256723968.000000 0.000000
0.000000 0.000000 0.000000
-2196663263589777274945238421461331108071521703800268328856243351876759731342147584.000000 394208074473850294116450425937231365856474912999215177709730095924943382120497152.000000 0.000000
394208074473850294116450425937231365856474912999215177709730095924943382120497152.000000 122528206509682978641505137608489368818256217358920799586433694583854822110265344.000000 0.000000
0.000000 0.000000 0.000000
470266483178231025837679757514469746765761234678359847819249786277892875643518976.000000 513058786454270994901095639622060473029273156543532955926279088685676977444618240.000000 0.000000
513058786454270994901095639622060473029273156543532955926279088685676977444618240.000000 220988762196386000853867187617372470252571675396167923208485715815175419796127744.000000 0.000000
0.000000 0.000000 0.000000
-323636257814567682458840080589659857768673859320898249939367202830126142470488064.000000 668516577519502910116469609626857666545341857005310479322343776847359016479752192.000000 0.000000
668516577519502910116469609626857666545341857005310479322343776847359016479752192.000000 464095984601553748610781811709874181205408204108439058097924498671307728512614400.000000 0.000000
0.000000 0.000000 0.000000
-1073768872538586659893228567391687345581393560268031951385527003602812305196187648.000000 -63914481007507082704204727562380486039450587043367907228908765731891796470923264.000000 0.000000
-63914481007507082704204727562380486039450587043367907228908765731891796470923264.000000 32784599110253957506741654039452165813927667391275056111090878454838081729069056.000000 0.000000
0.000000 0.000000 0.000000
591953706252750694837680444702707682405758046197134702859627637499969692489482240.000000 877773875125445751755305090414400094998039620600289059295319652926188879758753792.000000 0.000000
877773875125445751755305090414400094998039620600289059295319652926188879758753792.000000 417562465594797203108073267340731604460945843933671556980423358867981129704538112.000000 0.000000
0.000000 0.000000 0.000000
-3921938754383812976182648565413030170077004231171853871592940444564804251110342656.000000 -1075934750883824285107613158542972911111866263359933248020792967729021801941958656.000000 0.000000
-1075934750883824285107613158542972911111866263359933248020792967729021801941958656.000000 437971627760608242156106354494419216062627297998982453291365488234734636285034496.000000 0.000000
0.000000 0.000000 0.000000
-69434926271301312482834415144345764034336908242716053302060605433196031241252503552.000000 -4527934888195128214875259816064342304898527516386743923248635284226630661974261760.000000 0.000000
-4527934888195128214875259816064342304898527516386743923248635284226630661974261760.000000 576204235911818745416725318134954513009697772162803073014778140297940378840989696.000000 0.000000
0.000000 0.000000 0.000000
277448496400955799820500297801904653238915482474702085009271158396254734256177152.000000 -139017611641430382191235640779591402499713636042625132422194124395568132670881792.000000 0.000000
-139017611641430382191235640779591402499713636042625132422194124395568132670881792.000000 39887733800379388196226873536196913231950331564784850308787493242741927530463232.000000 0.000000
0.000000 0.000000 0.000000
2303166048470044096468037330664405662199064010516424545738110475480249278870323200.000000 5789197592286347583791128355865656996904192946180506476732771226817232454977323008.000000 0.000000
5789197592286347583791128355865656996904192946180506476732771226817232454977323008.000000 3218550946954680804272964060064302152618298327256172009679977009206089484404260864.000000 0.000000
0.000000 0.000000 0.000000
-11478224068451477698300950219363406294043967214018578346122295715998157748939259904.000000 1189038126833357695194252404720249051176031387269408945597649992538972564519649280.000000 0.000000
1189038126833357695194252404720249051176031387269408945597649992538972564519649280.000000 235288248565820882724323757802549159468459550196387362198452410574873433345097728.000000 0.000000
0.000000 0.000000 0.000000
216692097705355754436368487251078382665574688193244933574009429389005444981194752.000000 320958322738618802660344221486085254837956914409517300698413908065175871139348480.000000 0.000000
320958322738618802660344221486085254837956914409517300698413908065175871139348480.000000 152460396448488929372507378955653877454804130004338447887053195620496115564019712.000000 0.000000
0.000000 0.000000 0.000000
98219315590115574183284507684344520185363122614601805904905924886428874906271744.000000 414105685211947536798329010057805845903371770643814983322962233914575512364122112.000000 0.000000
414105685211947536798329010057805845903371770643814983322962233914575512364122112.000000 225896894764794295330427814827801341282525277695821958691004858230238003247185920.000000 0.000000
0.000000 0.000000 0.000000
328669640876979938657600540838338556336701683935651080686711630166361744607281152.000000 2030664700284665654205764830877783171991970941928948876869239120891350421245788160.000000 0.000000
2030664700284665654205764830877783171991970941928948876869239120891350421245788160.000000 1099946964731967553764175315650679094134331949832446336276373754520584679621394432.000000 0.000000
0.000000 0.000000 0.000000
200737503370609978873686060963884826578369055686863684319286291215697212256288768.000000 210418943175444845455173324870884236827343234630591636144658766327124888018485248.000000 0.000000
210418943175444845455173324870884236827343234630591636144658766327124888018485248.000000 90186132780842999427588199811318876040705878719467797643201364994801767255375872.000000 0.000000
0.000000 0.000000 0.000000
772939010287834864803030853308724915503119706481953912664971362128546840210046976.000000 -1555786960609916960367426938466315371788751161065611925854039507382601547018928128.000000 0.000000
-1555786960609916960367426938466315371788751161065611925854039507382601547018928128.000000 778047885926665798412321815846804348094354180628224075512000225303941572294868992.000000 0.000000
0.000000 0.000000 0.000000
1448804808433566488258355896104949900499569559814758589026967570006053325748830208.000000 -429037296737271184548819790632321782479729480194160598605553541323992618592370688.000000 0.000000
-429037296737271184548819790632321782479729480194160598605553541323992618592370688.000000 84786103477364809719943871210404402798956767940112229069532119275584474681704448.000000 0.000000
0.000000 0.000000 0.000000
914416948086157553728856335045189888722509598871870715953071789705322108635054080.000000 7014669517118666492853767115734532364000542117151293856546610245352935303772372992.000000 0.000000
7014669517118666492853767115734532364000542117151293856546610245352935303772372992.000000 3898355322735674770185085670927777923019418349899675403902649720076500018653036544.000000 0.000000
0.000000 0.000000 0.000000
-456934136761458860531869795211967187746251089703023313681648120378807883449499648.000000 -294678455673318792005739414515506845219507393729440364927625330136233999683551232.000000 0.000000
-294678455673318792005739414515506845219507393729440364927625330136233999683551232.000000 160927921629276435298877820925446781403822180927455236848316612281061749710389248.000000 0.000000
0.000000 0.000000 0.000000
635969415928550171630227058982737966344740630589937897189237794013781264594632704.000000 209439103360223241879991816599913154485783436011447274782754658434126962843713536.000000 0.000000
209439103360223241879991816599913154485783436011447274782754658434126962843713536.000000 44793655364485695295233311959125261018866712600719510893200909206164366522580992.000000 0.000000
0.000000 0.000000 0.000000
1033416859104179996015068391969987951120363743064883202811133817598784769412300800.000000 705283004939530117188667424566958008405623531323272672851747001592668561013211136.000000 0.000000
705283004939530117188667424566958008405623531323272672851747001592668561013211136.000000 248032554955060054222440518248322407511263809334982355472980613257326488209850368.000000 0.000000
0.000000 0.000000 0.000000
340347453282936104342428374745728570928823966015138012700470701591570706247712768.000000 229087032120320174697739288365005844929380811069424838615126188916041707128094720.000000 0.000000
229087032120320174697739288365005844929380811069424838615126188916041707128094720.000000 79919156442026208200806257940268603641972956720028715792523870223395964718153728.000000 0.000000
0.000000 0.000000 0.000000
-66142776842737721840189525715189576778351471242134559842161738705014553896841904128.000000 2037698840258542431518809735018951670703435849401929707117994549648325193345531904.000000 0.000000
2037698840258542431518809735018951670703435849401929707117994549648325193345531904.000000 124760276101015095067812909287623547461947790908555939092410048457235674899152896.000000 0.000000
0.000000 0.000000 0.000000
773025670571816352591866084255452778370414341412145955350561445782001168200761344.000000 679983921420975767911010677306789007999511871381369952546690585754574334814322688.000000 0.000000
679983921420975767911010677306789007999511871381369952546690585754574334814322688.000000 266360519228775573451890933384680909585663577181916879819773418205113919035408384.000000 0.000000
0.000000 0.000000 0.000000
-426918167624645807733660945662732677689492904157542036358964077010684142023992147968.000000 -22711457264640941721493004154659054970577689869188381140701885745601359576471437312.000000 0.000000
-22711457264640941721493004154659054970577689869188381140701885745601359576471437312.000000 2375720980135874347863636793237191330441421807375744331510261645506362593513570304.000000 0.000000
0.000000 0.000000 0.000000
238845547450629248635959370281396765083195650406545827610826469192341712273408.000000 -811283210011369327955049013375474722263701384862828608980637825937810336514048.000000 0.000000
-811283210011369327955049013375474722263701384862828608980637825937810336514048.000000 427547895673463562868560412475616885252463592410223188657737901353450002710528.000000 0.000000
0.000000 0.000000 0.000000
1389866240860672767601714074800352538588120817775910846745693299489092124345892864.000000 631530921026756530945401338711460264331671917061407721000551948072906068305379328.000000 0.000000
631530921026756530945401338711460264331671917061407721000551948072906068305379328.000000 195959961053309968990884151566439719553317345009863246310225381293684329895952384.000000 0.000000
0.000000 0.000000 0.000000
-946341407212943114452767279385736228104780342556796305494940023475865035139448832.000000 39950483707402089364817197699392634927027272248996167766158168790999276437110784.000000 0.000000
39950483707402089364817197699392634927027272248996167766158168790999276437110784.000000 7072409301635982485531608666144251634575513531003723796362822585206710753820672.000000 0.000000
0.000000 0.000000 0.000000
-942740341053170886273878457977829058151342740136353915359738793242638664784788062208.000000 -24095885209772025126903688026834160891222522716091319864885150924372621600346865664.000000 0.000000
-24095885209772025126903688026834160891222522716091319864885150924372621600346865664.000000 1227253768570179594227997496528205998030728753215637339161875995294553649277042688.000000 0.000000
0.000000 0.000000 0.000000
4496543473276323184301147568856994678281994486181304025694818942007781147501658112.000000 165725603381390350359358347983681790608033021316838155330666063839787040301383680.000000 0.000000
165725603381390350359358347983681790608033021316838155330666063839787040301383680.000000 27987516121054808798727113952876413533639229022342034403457993845207922106171392.000000 0.000000
0.000000 0.000000 0.000000
1943468155246289612316355118116507464277276160498171880483561271549419998674944.000000 -1673037297563585159339534560431408075030913799988994091971838979390105297354752.000000 0.000000
-1673037297563585159339534560431408075030913799988994091971838979390105297354752.000000 1305078196078975740922330258361563343618932320742793395175032034704161746452480.000000 0.000000
0.000000 0.000000 0.000000
-43356197478139051016891818705197978929256908267887080654747233413892668802465792.000000 -3798255771743215256219152155685751674557388290994271213031692473999018260692992.000000 0.000000
-3798255771743215256219152155685751674557388290994271213031692473999018260692992.000000 829170621219911319161780271371183136790898568485337700813919364784565562376192.000000 0.000000
0.000000 0.000000 0.000000
-155397112285420272016034033239630327495877047417091802910171165953449795327623168.000000 -132049069619196533076635693637663020258698313190136892146065571330197497686523904.000000 0.000000
-132049069619196533076635693637663020258698313190136892146065571330197497686523904.000000 73918603631287463638223638136504960674583477681838000807965479819225410297659392.000000 0.000000
0.000000 0.000000 0.000000
-2263593622577307872261127487191478285070985735853053823935201489069598550632955904.000000 965104681474609675572909003174060678891933807657222377013526311431729493644935168.000000 0.000000
965104681474609675572909003174060678891933807657222377013526311431729493644935168.000000 483064497518615007241630202194076143684061735497987124986822626853144721411276800.000000 0.000000
0.000000 0.000000 0.000000
306272974293407158220107534324523802433187476763692296096919249999817965192609792.000000 34532894552874759409354327887015661834632112191428362614685704568584219377270784.000000 0.000000
34532894552874759409354327887015661834632112191428362614685704568584219377270784.000000 27412522709728387555205269294158891739883767373394786348858706862057594330021888.000000 0.000000
0.000000 0.000000 0.000000
16884485793366419460205793224533503116530110147975567236561042052286363465678848.000000 5670774147078529929528304283758830765648847222744480573489924024995331891527680.000000 0.000000
5670774147078529929528304283758830765648847222744480573489924024995331891527680.000000 1323792669463483337149040112593330788960894287013128969665525579572012675760128.000000 0.000000
0.000000 0.000000 0.000000
99124720582504704826133364331375179169925378655222821582024346027744223157026816.000000 21720721797097280651790108864510064348937633703654684881489322677999108221829120.000000 0.000000
21720721797097280651790108864510064348937633703654684881489322677999108221829120.000000 7123007984674565654947297871953255676778543550374672865301449982434311741112320.000000 0.000000
0.000000 0.000000 0.000000
399662575835032639795948556747597327683090198749396693671508103151964996090462208.000000 -1032691936500709780373542442508645260771952681103981022408776682546229024890290176.000000 0.000000
-1032691936500709780373542442508645260771952681103981022408776682546229024890290176.000000 523592104280860814919131799737209840527766602064500853781525385948771321640910848.000000 0.000000
0.000000 0.000000 0.000000
15597346224347654804166124925166561528230886836875806488539093901502444319277056.000000 6990039283164730646167663922633327006445348652140810814323523681972302494302208.000000 0.000000
6990039283164730646167663922633327006445348652140810814323523681972302494302208.000000 4411862893862082951125311083127599778242629699776648826755265227694441746137088.000000 0.000000
0.000000 0.000000 0.000000
-47804954468201201746262234730700473864572781566152167940378752724071244545071775744.000000 -5982093254020388544795451478604282281042567253901587773626394604439776035686318080.000000 0.000000
-5982093254020388544795451478604282281042567253901587773626394604439776035686318080.000000 1374994646834072035737243741083520118552476253850746780649428703864556114411520000.000000 0.000000
0.000000 0.000000 0.000000
-112820129216284742764656828473778485340201912863152035866513593494303988418347008.000000 860502647801504697284744420543205689418279332980143720691440825897302484836155392.000000 0.000000
860502647801504697284744420543205689418279332980143720691440825897302484836155392.000000 488060123218490768577730201471904362555597096816162168890266181058829003935186944.000000 0.000000
0.000000 0.000000 0.000000
1371026988647395871037903639181949508337816059746947991317533269291784940004835328.000000 270088083765153150644789433402575937847367185928080741885107201595033635755393024.000000 0.000000
270088083765153150644789433402575937847367185928080741885107201595033635755393024.000000 54178448786544059085320192340072592223501030383672021047068213411353795609231360.000000 0.000000
0.000000 0.000000 0.000000
214486507875668251573951310784833032158621435798592003750865553509328840575418368.000000 131262402581317320792637514561444378121206043771410295676780295116116617594929152.000000 0.000000
131262402581317320792637514561444378121206043771410295676780295116116617594929152.000000 40503021753182145277091140464197798678073162059444581351984186155027468986089472.000000 0.000000
0.000000 0.000000 0.000000
220376355017816954291524999177131323042027049609992174212483182264315667317522432.000000 13236760170983367693458874590305624534823497847218576251757221743001192263319552.000000 0.000000
13236760170983367693458874590305624534823497847218576251757221743001192263319552.000000 6302873925701460904144207392793436623104698159324207414154010782607202033074176.000000 0.000000
0.000000 0.000000 0.000000
165762225060697891847909095322141009428422285844383434017775711261186506329423872.000000 103727184185581676914977213756330866380021435671341896415980659028660688785506304.000000 0.000000
103727184185581676914977213756330866380021435671341896415980659028660688785506304.000000 37917470927497814200675168046764286090774790484503670128130732572063869205217280.000000 0.000000
0.000000 0.000000 0.000000
2740753434849168460444553996907381197828812542885257870975237625722409463456989184.000000 1081458936398062931694771138697414108866518134373564302237224993759249209631965184.000000 0.000000
1081458936398062931694771138697414108866518134373564302237224993759249209631965184.000000 262849723443422403738956162075310958557366237182088759026621419174276784004792320.000000 0.000000
0.000000 0.000000 0.000000
5303904447137152623657831838394627039887313347905813205402877603489970509938950144.000000 -3901170653577282800348512558222302689394660372486944915253074478303411100262072320.000000 0.000000
-3901170653577282800348512558222302689394660372486944915253074478303411100262072320.000000 1430190541663319260305707198376263365400222268566303153246355839846086247396147200.000000 0.000000
0.000000 0.000000 0.000000
-6233031328959301933061533192705128470760387766892284829926503953449067550343168.000000 -1805970220213196581152192887546070509170366451505077265652007759442850642657280.000000 0.000000
-1805970220213196581152192887546070509170366451505077265652007759442850642657280.000000 810479995259592693633048493326929653213709200561757972327076640442001186095104.000000 0.000000
0.000000 0.000000 0.000000
6860489706069469310523606316928282839243070394357000024497257015770610554372096.000000 33323634871853480622301649142599688366426187461180033826350091171532209498619904.000000 0.000000
33323634871853480622301649142599688366426187461180033826350091171532209498619904.000000 22299912169968057914634461651148939331481725010774935223074093233053196504530944.000000 0.000000
0.000000 0.000000 0.000000
273749037329046755625604188942074860621864876589123522770309125756489509785042944.000000 136020527472812951174991272731277945074778042774293031835366729401744062106566656.000000 0.000000
136020527472812951174991272731277945074778042774293031835366729401744062106566656.000000 38914633073489569741612308060878865372539197253478902271031156950310458255998976.000000 0.000000
0.000000 0.000000 0.000000
-4050211360676807480473182110696840093705745988445379417155470150150263588624793600.000000 606185524496002107955212864260195652192000390653426004994485682094126123989336064.000000 0.000000
606185524496002107955212864260195652192000390653426004994485682094126123989336064.000000 166180259611524018134671927512631117724787020315547477903201504870154252641632256.000000 0.000000
0.000000 0.000000 0.000000
18927167951792515382345087412214481191738786799630765729867782932667977221275648.000000 16195554020601157807917045972196661915015267192302906611818685934487353142804480.000000 0.000000
16195554020601157807917045972196661915015267192302906611818685934487353142804480.000000 12694859763413315019470708073904788696943393875862784498535955775867627528781824.000000 0.000000
0.000000 0.000000 0.000000
-18774590867898066175531084771770760925412194159234814377087669793859715876257792.000000 -966643641765579270450830675601220358356691167821611369331247337140219019331108864.000000 0.000000
-966643641765579270450830675601220358356691167821611369331247337140219019331108864.000000 538762633167192555913272693231061729354044823440376720974585064731503811920658432.000000 0.000000
0.000000 0.000000 0.000000
-2324429797885681363329263216994963670168079169964221418146653437966113038122614784.000000 -762198178072285953552984720601119216321169498981631598868525442340608592631037952.000000 0.000000
-762198178072285953552984720601119216321169498981631598868525442340608592631037952.000000 334646421186265052373260986906258150265458566158687018778713158427446571163451392.000000 0.000000
0.000000 0.000000 0.000000
-178039674268140343670469271696644795737138115507029320195993928314312517597790208.000000 293510639007478165710464016611452419989136061862057341980591774124427974300139520.000000 0.000000
293510639007478165710464016611452419989136061862057341980591774124427974300139520.000000 169402959997611163709890974355870915769780040785437907922970138265770382216658944.000000 0.000000
0.000000 0.000000 0.000000
31000416572748428358127310932161858449043557540766250250670436531989136088760320.000000 -212154743104434625032391161107123220231945330256450819645927494268183377837293568.000000 0.000000
-212154743104434625032391161107123220231945330256450819645927494268183377837293568.000000 53740967733125339576877658204423531461924163539865171766455878123054808468291584.000000 0.000000
0.000000 0.000000 0.000000
223449973615900993176865528587792049944159283014546934700860423024989817788170240.000000 -83337167615409698646496683251830404525173316679144249687320131882549672681668608.000000 0.000000
-83337167615409698646496683251830404525173316679144249687320131882549672681668608.000000 19268375965430086252901847437274015246361903301895606884038293119503296658145280.000000 0.000000
0.000000 0.000000 0.000000
-2017566187730455762191819878009274176836029675438077312537721914381609284223549571072.000000 -12158809382954478185344701763188322631206399381706075555681150449721256838571229184.000000 0.000000
-12158809382954478185344701763188322631206399381706075555681150449721256838571229184.000000 151883749602511699766770717941194023009550946116210920151589538770696442598129664.000000 0.000000
0.000000 0.000000 0.000000
1798668590227725436339932274684615658763459803505639444129679932289918817395539968.000000 174179962340101632625343801492573474015959990709806952693006912097236399022931968.000000 0.000000
174179962340101632625343801492573474015959990709806952693006912097236399022931968.000000 12825487282445625130134208338556772702176024245408279780020710513454857544794112.000000 0.000000
0.000000 0.000000 0.000000
-184142157285446839760027083812819650967147285307916000271865502778259722393878528.000000 188709775692081490046090970572506679547372724194725458497604014779087326583717888.000000 0.000000
188709775692081490046090970572506679547372724194725458497604014779087326583717888.000000 65500779708385892793085184356826808849674495049998683044337439159657934893350912.000000 0.000000
0.000000 0.000000 0.000000
17595030751105650994811237084577026796494110034553616466077834281599080396226560.000000 -279291589849226867569886093340893774394614435652862444866109358995997674438656.000000 0.000000
-279291589849226867569886093340893774394614435652862444866109358995997674438656.000000 184011335576284133931426219322884159152536233424630143120622582418503588904960.000000 0.000000
0.000000 0.000000 0.000000
-71276964265119341932267713588734639417284826066155785914972363001064066935422976.000000 -220736281636227018428890568953967017129280035129194735293055034793373553311875072.000000 0.000000
-220736281636227018428890568953967017129280035129194735293055034793373553311875072.000000 177466857745955442474346855597988862534974748754669795916217146008984156878405632.000000 0.000000
0.000000 0.000000 0.000000
1027155921816086439510143683270857710000145440871962735425508319225796617404678144.000000 414279361222642728903938872526304666072593347856567727433814467426060497441521664.000000 0.000000
414279361222642728903938872526304666072593347856567727433814467426060497441521664.000000 101837853133394958654352953575198859237063160836207300112182031713277014523772928.000000 0.000000
0.000000 0.000000 0.000000
997865400046158811212614091717214299276279064528016623903889448998257917526278144.000000 -1324689140916701958608382770794018024491359778191887474923696441850126776624218112.000000 0.000000
-1324689140916701958608382770794018024491359778191887474923696441850126776624218112.000000 611159819925928877074670056618160122309136452793699599533021240331256731493466112.000000 0.000000
0.000000 0.000000 0.000000
2086968395594753352687587446917697123303526190512569462737672913328047335120306176.000000 4465237887755016995638702815827763356171666699758701753329619268113942612879081472.000000 0.000000
4465237887755016995638702815827763356171666699758701753329619268113942612879081472.000000 2311454062672283541097485132758448871211425053373767054121095650132410927964749824.000000 0.000000
0.000000 0.000000 0.000000
2996166608353917268982797535795164720141122361468936602471870554457131882347757568.000000 1307358682405016163739707001825296755317474067020156467829015650130968243181977600.000000 0.000000
1307358682405016163739707001825296755317474067020156467829015650130968243181977600.000000 339387361361448631098078977565704084570405623514810858964038690703863095012360192.000000 0.000000
0.000000 0.000000 0.000000
-1689045803977923714314213244184891189458229838564224996766249445748004778881843200.000000 1510615045563947222459237807207516179458035529924053114030112547931210965630058496.000000 0.000000
1510615045563947222459237807207516179458035529924053114030112547931210965630058496.000000 860195483370228280031418000579078789809452661702981747200835319066379695700312064.000000 0.000000
0.000000 0.000000 0.000000
-62235589985075371254810785657553166924131686260449256305587636898840377349373952.000000 -1261962538235707826450808559536820796384724718043418078317109974379439675139948544.000000 0.000000
-1261962538235707826450808559536820796384724718043418078317109974379439675139948544.000000 717299271485585500602605934321391682698205276518456805602294422849899451197161472.000000 0.000000
0.000000 0.000000 0.000000
209865221078336497918006781227202595821057059640505651813238698452743025804181504.000000 1037691012581555719117908676392196934187687268596638518272276809838300530114297856.000000 0.000000
1037691012581555719117908676392196934187687268596638518272276809838300530114297856.000000 567030361531914597648816158595424773965101652672321887168479307792303813900107776.000000 0.000000
0.000000 0.000000 0.000000
-7856029114466733017733301594392201289638168845861434565733337038094058231445848064.000000 1309854363182182562110910020678801731282380220633747414382923806012273698552152064.000000 0.000000
1309854363182182562110910020678801731282380220633747414382923806012273698552152064.000000 385959067623452438845589050560861201443265050989839028013655123935609309185966080.000000 0.000000
0.000000 0.000000 0.000000
-656296993469623902555952445324845970613884187804606941788397530033185757792829440.000000 19489828158446809962361380195005369627434339769894338601707403636251279268773888.000000 0.000000
19489828158446809962361380195005369627434339769894338601707403636251279268773888.000000 17689528940558876826545319443050482244547853123521796707894963417950975380422656.000000 0.000000
0.000000 0.000000 0.000000
85481678194975257688032747968949975116479990845804682623554958636564318259249152.000000 178233203718180664199640556024761936934091468700990596893798368851435696190128128.000000 0.000000
178233203718180664199640556024761936934091468700990596893798368851435696190128128.000000 89614381827504233653579541671878738098823473006776564696441984234720431918022656.000000 0.000000
0.000000 0.000000 0.000000
-351855411691651429411712468382332414472753338630717027731593638708611757897678848.000000 -1408685822355960694227096665389912920857734640423285280963359169460022581141700608.000000 0.000000
-1408685822355960694227096665389912920857734640423285280963359169460022581141700608.000000 804061362393743333138802757373749818522223522742320204711285921077627663742402560.000000 0.000000
0.000000 0.000000 0.000000
-50717101433652920545325131704244979735455159505579051041212141476456811991054417920.000000 -3693165255663861483464662647638691198097422206002656021022946976891172034019590144.000000 0.000000
-3693165255663861483464662647638691198097422206002656021022946976891172034019590144.000000 521441006352226153960464593817861439706269796458895239852616884644559761382047744.000000 0.000000
0.000000 0.000000 0.000000
-8918950765417458445994194698725887584162311876162380289489797029276876451872768.000000 -5922841125776119427933405395289152738616160086666114808359350276195104608747520.000000 0.000000
-5922841125776119427933405395289152738616160086666114808359350276195104608747520.000000 9374758787924281326379116912081854612493609750985389555064718668243327422300160.000000 0.000000
0.000000 0.000000 0.000000
-69259698715180768021136531375448923128012285222485299541145267402080363625840640.000000 -68346663185137321761897145403352990033188761573774706878548955963028255159615488.000000 0.000000
-68346663185137321761897145403352990033188761573774706878548955963028255159615488.000000 38805456794938500018260752169383931434380811334936194383309499767860546680913920.000000 0.000000
0.000000 0.000000 0.000000
61931857474365215248357532732715646445103880387093569500457484377844867697475584.000000 -84880222621129629270757811097197972751112417801012562867118162749686923265048576.000000 0.000000
-84880222621129629270757811097197972751112417801012562867118162749686923265048576.000000 42179796060504769352740969533352492957165336675008304438520723756408599488757760.000000 0.000000
0.000000 0.000000 0.000000
1262170304472497087488671892730800238947314732024120061804363389723015898619445248.000000 281008617649578467019895190026591511283510664595450290236505462267170201649807360.000000 0.000000
281008617649578467019895190026591511283510664595450290236505462267170201649807360.000000 40462607674715511322935641340842411416904986853305278307967895982792256220299264.000000 0.000000
0.000000 0.000000 0.000000
350207834499200239868563134012897981575593129980561658574899688919019955572178944.000000 162495265518212128851378174288577914651742562883079212533826587527520969128148992.000000 0.000000
162495265518212128851378174288577914651742562883079212533826587527520969128148992.000000 44251746995528190037603156442543600591618830595461129825795582642901659076788224.000000 0.000000
0.000000 0.000000 0.000000
390636918415652097342914634685197450146836585087384196983715711693302522129154048.000000 -432428620048235912629547331237379956482269935859660441750436593194799743922864128.000000 0.000000
-432428620048235912629547331237379956482269935859660441750436593194799743922864128.000000 188664232700929290489816163138930422304605025919291587840085259602715911991066624.000000 0.000000
0.000000 0.000000 0.000000
1194434575015084588390223137154679666689497070750016494837932686230357512342732800.000000 -701329465697906170896014460773255054043296985268089264615456127005116328811954176.000000 0.000000
-701329465697906170896014460773255054043296985268089264615456127005116328811954176.000000 225064223031622606283615608985805929018916963193819593382604096604990843832500224.000000 0.000000
0.000000 0.000000 0.000000
25318560680142517566484112767840308568960581031766889846533035036313821319790592.000000 -1299314138336413790191722524121546890547612354980077100750390150169592475414429696.000000 0.000000
-1299314138336413790191722524121546890547612354980077100750390150169592475414429696.000000 746612441770156925134453425971841754007403120293618746601508423804380944739074048.000000 0.000000
0.000000 0.000000 0.000000
3303917099341980622788399196636971334297905103730969007187485207211569666718695424.000000 1757568696170987878729636077521558068562177776485866107454632788989468398736900096.000000 0.000000
1757568696170987878729636077521558068562177776485866107454632788989468398736900096.000000 527384559370325241395421070401403479692813995295476244246470382071292860766879744.000000 0.000000
0.000000 0.000000 0.000000
748650362320411773589380265679927280826959964988168588738319989379475963803336704.000000 597096976826778719894958104384042679631894427454912442487118160010045537340358656.000000 0.000000
597096976826778719894958104384042679631894427454912442487118160010045537340358656.000000 227589546488627836927715724094825724308613209810891075284097098660733135571910656.000000 0.000000
0.000000 0.000000 0.000000
-132439352202850590276116926599232384504816276467512693496147665266594849605682200576.000000 -26565941652442855886025452403114175135765513983222251987707591281152244570990313472.000000 0.000000
-26565941652442855886025452403114175135765513983222251987707591281152244570990313472.000000 8789054730615669492462184479211494573517602468996434856707118931830746171161182208.000000 0.000000
0.000000 0.000000 0.000000
786229354831301866613398742182506527301102516308926856861557342973667021219168256.000000 -896796166395315670093619430448707816973199310876434441511360261833475017295265792.000000 0.000000
-896796166395315670093619430448707816973199310876434441511360261833475017295265792.000000 395211887798390300743860101873064582975123344870131969347165395020652977720393728.000000 0.000000
0.000000 0.000000 0.000000
224520050584628728461898841031712411701757974052706429470803283318638442996301824.000000 -426012675557440415344404668922847745559764118765490583503422653441193698750627840.000000 0.000000
-426012675557440415344404668922847745559764118765490583503422653441193698750627840.000000 211285613760896790411488489429657746970280747989557001273051945051693276733636608.000000 0.000000
0.000000 0.000000 0.000000
-2465291031874960622675688986426311478944850746261129922151231857742224941958299648.000000 991237729956885986529343440581488563198181284775633374786962194443681507886235648.000000 0.000000
991237729956885986529343440581488563198181284775633374786962194443681507886235648.000000 562157613814008163778475571404653067954391961153240993200802697467371529860808704.000000 0.000000
0.000000 0.000000 0.000000
-359102109940976379885945156309672323806414556406289047608942423505641698001682432.000000 825378354164041147632782791335902992606484459830027634505455230476381550461059072.000000 0.000000
825378354164041147632782791335902992606484459830027634505455230476381550461059072.000000 478800923905434014438451047398758297891190243118276553841464888763988644269654016.000000 0.000000
0.000000 0.000000 0.000000
971309449782229982568202671268175908446475548928055294720524763139976546473738240.000000 629330683563810573907051552545724661525221346679489746961682520684459531222122496.000000 0.000000
629330683563810573907051552545724661525221346679489746961682520684459531222122496.000000 237628127429930357093600716556872019545098821436216269255518893213892667617837056.000000 0.000000
0.000000 0.000000 0.000000
871810585157303978495660347615465500613250358783805278305713713021336812301320192.000000 1061475834636412884690565604149554093710219648111379093989950801083994231929831424.000000 0.000000
1061475834636412884690565604149554093710219648111379093989950801083994231929831424.000000 478323295753953526135247733781425492723921668652297808448438751134764781405208576.000000 0.000000
0.000000 0.000000 0.000000
-4769593507710562790248936957779253983605709170064804671006894713842740600619663360.000000 413186419714302346418373080670847697350750266147300327756487592844375132576153600.000000 0.000000
413186419714302346418373080670847697350750266147300327756487592844375132576153600.000000 73787545497881121204257707863599305712102942410820821372404291797599660831408128.000000 0.000000
0.000000 0.000000 0.000000
-10536517712572995830304342277800339175469816976630127367830971490446034534924288.000000 -2330864276499801631101450866926431058154463558017195251407368051652301535838208.000000 0.000000
-2330864276499801631101450866926431058154463558017195251407368051652301535838208.000000 818016196009070420364525770947938063713381328914440504596726698441520502013952.000000 0.000000
0.000000 0.000000 0.000000
-44574675961337235137123475651790756881325453356632870726260535005445529131810816.000000 9767213331706091924076495310120865631230523087232793929066781266297898116579328.000000 0.000000
9767213331706091924076495310120865631230523087232793929066781266297898116579328.000000 813207729073169753673285585990922435562063063180479849503708266643907466493952.000000 0.000000
0.000000 0.000000 0.000000
6546106834142330617598329390056339217027035635558213885909475185610554211303424.000000 3647823012330055641578444041923162159158455152644877139467025427014209887010816.000000 0.000000
3647823012330055641578444041923162159158455152644877139467025427014209887010816.000000 1157993989242415089645813467051941204288120721584293790386285060400110494547968.000000 0.000000
0.000000 0.000000 0.000000
-34106685395581190617473024708354112051458749057237655022715242739985909807155511296.000000 1576497983265640406098821842246049289836737518569446437002424775461245534754308096.000000 0.000000
1576497983265640406098821842246049289836737518569446437002424775461245534754308096.000000 145531011123743103791595928611155187460305679735176413795781482455180425264365568.000000 0.000000
0.000000 0.000000 0.000000
-2938069284133372336645454383157451708475991016589836345619474532161989012254359552.000000 -973131116123777620086045259358654997545096611184897499147558934234569716673806336.000000 0.000000
-973131116123777620086045259358654997545096611184897499147558934234569716673806336.000000 428912512699788580158784335930918776460721496104949241688094586680064660985610240.000000 0.000000
0.000000 0.000000 0.000000
-46078760431196153562828124043538444619592260712111898551962712348420758757905006592.000000 -4894128968625104884622792430541388076850874048217602834726022309910933834118987776.000000 0.000000
-4894128968625104884622792430541388076850874048217602834726022309910933834118987776.000000 976729736637232739734738291152838488767197498666317626674108821859649969895505920.000000 0.000000
0.000000 0.000000 0.000000
207839365757820956941798381989188970265489203636309943358799757632039687240548352.000000 -634292378372891851279236269397442641036035693301148030221163861702350998677225472.000000 0.000000
-634292378372891851279236269397442641036035693301148030221163861702350998677225472.000000 331513564322786989821760921996858937208689180072443697848027168246845127639695360.000000 0.000000
0.000000 0.000000 0.000000
355361492566387485980474872024465067485008865483178657987249202622462664147730432.000000 125531943317128899773834788912501271747233217415732422628992582744236779429167104.000000 0.000000
125531943317128899773834788912501271747233217415732422628992582744236779429167104.000000 29376507859901175253308587737034192722988102839378671923877605400827108517740544.000000 0.000000
0.000000 0.000000 0.000000
3501388925001357454284297393683534535474345191138534343247598882580947294748672.000000 40422401699423172281197601413837398189090006691171314726532402262518565615697920.000000 0.000000
40422401699423172281197601413837398189090006691171314726532402262518565615697920.000000 22182806891713037966244916426636981650684050471321094926230529972482658340438016.000000 0.000000
0.000000 0.000000 0.000000
-966581572562748382754664549317094977731936084254926100958049710287108133510709248.000000 -703299194800876453827180214462430895777281193699543282450377342477958878005821440.000000 0.000000
-703299194800876453827180214462430895777281193699543282450377342477958878005821440.000000 387932618005471907960720540634268721951599902373684949062095559663373426387582976.000000 0.000000
0.000000 0.000000 0.000000
1018058227362566053073332374198849214157280742130014394756642163782746331160772608.000000 -416815179201658662792758025475505688731801049986191445120562069189152372558921728.000000 0.000000
-416815179201658662792758025475505688731801049986191445120562069189152372558921728.000000 103155271203550662903967264541157646372522827730022843052334128680235793670733824.000000 0.000000
0.000000 0.000000 0.000000
657331079415057100325622001063733803513020296139840328235653388092854037804744704.000000 -2599170518002840439526774555878694896701341811012698751237668374607512280928092160.000000 0.000000
-2599170518002840439526774555878694896701341811012698751237668374607512280928092160.000000 1382395778015945840566607014280902957774241707642094573191808450425193546874093568.000000 0.000000
0.000000 0.000000 0.000000
34136929980753745952874725290002124205357288753827897728625905783559261645701120.000000 -207068509349723785889848181096339747379901590199990088436921594920006013205610496.000000 0.000000
-207068509349723785889848181096339747379901590199990088436921594920006013205610496.000000 113048118506383888808182354936259319150527632647154500169585658227043709887709184.000000 0.000000
0.000000 0.000000 0.000000
12602087080477717595990286067719907015366897517129297753414786378157774585462784.000000 -20792302715060973896512617369414103066823709950268374652467145322166738495733760.000000 0.000000
-20792302715060973896512617369414103066823709950268374652467145322166738495733760.000000 9921142898942198458495718499417195264380916445249664837114367906871635039223808.000000 0.000000
0.000000 0.000000 0.000000
-19082330262101058483679415726706411734103562004633866894251556252502767437873152.000000 -12847265639663304161759502969775888111710513043935676014942769924692696912363520.000000 0.000000
-12847265639663304161759502969775888111710513043935676014942769924692696912363520.000000 7000277542916872451414088074023126866664705049160839356616080890572849478107136.000000 0.000000
0.000000 0.000000 0.000000
607238806638178822797621499888197148549253547757762131683435305778137644067192832.000000 -101105278651121701403642040952597480311356736187544877621309729484391386424803328.000000 0.000000
-101105278651121701403642040952597480311356736187544877621309729484391386424803328.000000 11030939498489911948976806511674367619086407719645985313124438475840234251616256.000000 0.000000
0.000000 0.000000 0.000000
5189496459486473716908367117765581260806889658573865701330827985501337641184919552.000000 -2547936909412489345321136102701050782412713331580579724708170779303598059725783040.000000 0.000000
-2547936909412489345321136102701050782412713331580579724708170779303598059725783040.000000 738900724987723222719976208112492852472025974835842378210649928169656631391420416.000000 0.000000
0.000000 0.000000 0.000000
4845420109208329082385147133903914819790143600526598168605643759903531451023360.000000 1295071873379931873833216736711511426634838882810181426961011780817077149892608.000000 0.000000
1295071873379931873833216736711511426634838882810181426961011780817077149892608.000000 225914415215900501607032535980161141238118755144525323980842777447385991741440.000000 0.000000
0.000000 0.000000 0.000000
-96398091616543156022835541775640261480960044548665794469552488837842124410978304.000000 1172966690454905429961158007156164918317316126023608220688538729084222025496526848.000000 0.000000
1172966690454905429961158007156164918317316126023608220688538729084222025496526848.000000 668710927532377083245087186010336285636444214743080683188112756905977004412633088.000000 0.000000
0.000000 0.000000 0.000000
1061599308895699180337171944718054752595048135698016348361973717729132930924544.000000 67253970475663566283154184028155982422572157183642914806809127913954247509540864.000000 0.000000
67253970475663566283154184028155982422572157183642914806809127913954247509540864.000000 37211140577277985814352530332854900012317262988946888955920810299350439262420992.000000 0.000000
0.000000 0.000000 0.000000
-33534572300594432541638137267100764163334531764314907338597055381625292355172040704.000000 4581944960372568007845600194010509993261085578161928160114455421467150511794814976.000000 0.000000
4581944960372568007845600194010509993261085578161928160114455421467150511794814976.000000 1133428818433095829953920976280484642669941269947819482107561663207118736650665984.000000 0.000000
0.000000 0.000000 0.000000
7656668815219033817169522415720014713886871588411003338890143059770326059581440.000000 -19674423429926229515903879185591612211914912884768464801357543838648986117341184.000000 0.000000
-19674423429926229515903879185591612211914912884768464801357543838648986117341184.000000 9896348936096568438920202090371509879875439846069605454595744136025540023812096.000000 0.000000
0.000000 0.000000 0.000000
77999409108763487807174661766750007811310260507873118517259754005492960017252352.000000 -63940144996396788164716550237555964142227132660343255358752290552561631947128832.000000 0.000000
-63940144996396788164716550237555964142227132660343255358752290552561631947128832.000000 24228933972513793993796853395107634054316358984407342736142423625578807314874368.000000 0.000000
0.000000 0.000000 0.000000
665354505670667632065137613546307291112564934568876584666684378050840055775232.000000 -492022951348086988750943347298238778110888697195111886075704447024039729299456.000000 0.000000
-492022951348086988750943347298238778110888697195111886075704447024039729299456.000000 180743163484216984615090593081567992625707799856684708101438917734273627717632.000000 0.000000
0.000000 0.000000 0.000000
-107967517292462344029476616149323886576347159998887975122221586034245026552217600.000000 453897674704569559708664991219324843639398183617840294465657556547601046934913024.000000 0.000000
453897674704569559708664991219324843639398183617840294465657556547601046934913024.000000 258989762051068954085504737335626670772423819342050023525955203043875789238960128.000000 0.000000
0.000000 0.000000 0.000000
-57139884524278121487688652531367186320977531067508240110566453862716701526720512.000000 -16521100885304328450185439359555553491296280306613273691200594344240406620798976.000000 0.000000
-16521100885304328450185439359555553491296280306613273691200594344240406620798976.000000 7056444391520092588440423839775182068122787372257859811167380693912996177510400.000000 0.000000
0.000000 0.000000 0.000000
303777985842003159427441026174697614964434195814134867455359455142405438567350272.000000 370280100793075605949789919912802277941355979090806912952155719780309367810686976.000000 0.000000
370280100793075605949789919912802277941355979090806912952155719780309367810686976.000000 167593867434071725369950029856442035402645214557324316221736325983824996089200640.000000 0.000000
0.000000 0.000000 0.000000
463620192710332557189858279177687033091589212128268139958506824691850467749134336.000000 -75810181155656456149290800564901075079040815879146957368511190539627719074775040.000000 0.000000
-75810181155656456149290800564901075079040815879146957368511190539627719074775040.000000 10764652618510583834339344262158228329385437011075222539488426642691867386314752.000000 0.000000
0.000000 0.000000 0.000000
2815204388048951300576417646660363124111976750344930352725894544525075318571008.000000 -14395886537229893046826534582829421718433214166753176986532701165064578872115200.000000 0.000000
-14395886537229893046826534582829421718433214166753176986532701165064578872115200.000000 8696028458729242204892073287659861838247372976510356100152984910306461670703104.000000 0.000000
0.000000 0.000000 0.000000
85416346893141302802305610782144863768423038502543391336225715594779781721227264.000000 -423708940093048641403177793705318618644302654548476282740467203271912254336925696.000000 0.000000
-423708940093048641403177793705318618644302654548476282740467203271912254336925696.000000 232064796248583049678162601268133093534667471011904256558007083288878996579680256.000000 0.000000
0.000000 0.000000 0.000000
1721100393108637031480665055528439400836222110248887506134139949282368450224717824.000000 -1335603328775893248463679231585233483647789453492587292081157439704065403636416512.000000 0.000000
-1335603328775893248463679231585233483647789453492587292081157439704065403636416512.000000 503315713170333803094738355576857532790738180940833187959684351689926095228895232.000000 0.000000
0.000000 0.000000 0.000000
252174044006265891499758543250696736426344982115710779295405639194257118701027328.000000 -67143419219312358681518273721153945549332771574593908149207015050840225156694016.000000 0.000000
-67143419219312358681518273721153945549332771574593908149207015050840225156694016.000000 13703192565849251473807803768052195450978705415031363941929536611702655999279104.000000 0.000000
0.000000 0.000000 0.000000
5983894470998556650908632637800900714550545067664342737585639285783773848553914368.000000 4675809516200317497304899893277474170005948151941175682804480549906914389948104704.000000 0.000000
4675809516200317497304899893277474170005948151941175682804480549906914389948104704.000000 1768005160885997543186670286022665499192042863084412487050157410433413665009958912.000000 0.000000
0.000000 0.000000 0.000000
91975233795551021848202475337115079126771454883352987437124130361546914706489344.000000 -122141050010834305641268578031227701452098787502306496880591071092480714089693184.000000 0.000000
-122141050010834305641268578031227701452098787502306496880591071092480714089693184.000000 58841063320938551872630250090827111506616385485605662376767776556424862734745600.000000 0.000000
0.000000 0.000000 0.000000
48539439761314758485386399904441447948113687659724988364810004665147925796487168.000000 -15390537216360454084682959241428556409837613629840983041238358231909943067279360.000000 0.000000
-15390537216360454084682959241428556409837613629840983041238358231909943067279360.000000 16596709780860794458617709454819125832438121594242477682923535275090541398720512.000000 0.000000
0.000000 0.000000 0.000000
-72746596599234280648161556339520456614780056796877126172388118473242534096142336.000000 761235130992520500514764471966375818595313202004831178266623144959852179271712768.000000 0.000000
761235130992520500514764471966375818595313202004831178266623144959852179271712768.000000 458970047681419351786629088422690456221368637555282954570378315001131589760450560.000000 0.000000
0.000000 0.000000 0.000000
46369856292165332634220339430237518183959023770673682858925869583247683102965760.000000 -67833425615383253545584857047522980649402202326926959295697201777578511481962496.000000 0.000000
-67833425615383253545584857047522980649402202326926959295697201777578511481962496.000000 32035583602803957848443027968643006746188192615762393579166463453365521180786688.000000 0.000000
0.000000 0.000000 0.000000
-13779909163814651245694269411611495818557865006995781905020134678270445071892480.000000 1366704896803657034121137172011426751576259247445943105892587314905451962910638080.000000 0.000000
1366704896803657034121137172011426751576259247445943105892587314905451962910638080.000000 778320660814944239732793263516980953183350951022486595760296462850523885975109632.000000 0.000000
0.000000 0.000000 0.000000
-180980403679577936176059045916587446916764511403793729074625456539133955488612352.000000 -416782177937187464427294755298917022316150449495623383825123356807353480696037376.000000 0.000000
-416782177937187464427294755298917022316150449495623383825123356807353480696037376.000000 257956117727902352493540086584481736734963192806794018604829913460837275278508032.000000 0.000000
0.000000 0.000000 0.000000
72411785167773687588727118268238483079448893544912495978000408484270565882855424.000000 84286355687560386892854233256095491862434515743583632502347470428776488104886272.000000 0.000000
84286355687560386892854233256095491862434515743583632502347470428776488104886272.000000 35708998898836331230149184522571688179179770518557020724440576158039790011285504.000000 0.000000
0.000000 0.000000 0.000000
461043364171923227047791741227969139715050002684614236951056419708129571250372608.000000 89790243421557726510957866693358729698376710547169769016443276609457878227484672.000000 0.000000
89790243421557726510957866693358729698376710547169769016443276609457878227484672.000000 19586655538505196816396775429012840301460854945191563141979900760137268568522752.000000 0.000000
0.000000 0.000000 0.000000
587066179579852268440777337509917680170917428690479667503214983906263279075328000.000000 562303027093979820193845767844597373594548230606525130998868664767371560194408448.000000 0.000000
562303027093979820193845767844597373594548230606525130998868664767371560194408448.000000 235579789646757848589956376506645131349484737447250566165780174526154692469194752.000000 0.000000
0.000000 0.000000 0.000000
113163979269481126775106830239772478286326308158903406551843526243907450760593408.000000 9005541067308366080930978403099679101769574107560006146106650783900103019069440.000000 0.000000
9005541067308366080930978403099679101769574107560006146106650783900103019069440.000000 2466696555840125217307489416596250400573085382339338694916575330780303283191808.000000 0.000000
0.000000 0.000000 0.000000
563690705151142967098472621064324929070462943093797055842756870742415106312765440.000000 -366630484976921368563099833631606853528812006748306041372196258544553797795971072.000000 0.000000
-366630484976921368563099833631606853528812006748306041372196258544553797795971072.000000 125227949281431455996349765438596586815800083044094643516715348785636538488717312.000000 0.000000
0.000000 0.000000 0.000000
6257000908300778930616131258921198455575366461802455174008720998545158553206784.000000 2539835304663824146012462126216834566856196548330444510171769303292048427712512.000000 0.000000
2539835304663824146012462126216834566856196548330444510171769303292048427712512.000000 735646359205127935343132336962371439563860543611643315575172301262818428059648.000000 0.000000
0.000000 0.000000 0.000000
86706027838168892730449020574092080384784941948137987791476514349988968398848.000000 75822809089141931852679567251643693591058641142807603083858639691358444453888.000000 0.000000
75822809089141931852679567251643693591058641142807603083858639691358444453888.000000 30247478313368079955691093246402372100245380047323180840289660134505748365312.000000 0.000000
0.000000 0.000000 0.000000
775759614269643422646930877838163009101260553025263201059866129981175956718485504.000000 -38351719606286431320668607512669758345039716150320497388062179334336350219403264.000000 0.000000
-38351719606286431320668607512669758345039716150320497388062179334336350219403264.000000 2334720163191665848286404753443040244926057199638448213345193271577685530771456.000000 0.000000
0.000000 0.000000 0.000000
3074159579317277130289365700759648945486390732813419268619167352450664139587584.000000 1890440710151053254373343750437605739147702061261405312111171540595400949891072.000000 0.000000
1890440710151053254373343750437605739147702061261405312111171540595400949891072.000000 611624961239879854588049061965336260491573412461359793263760363104511088132096.000000 0.000000
0.000000 0.000000 0.000000
57795060562552355090846918058608658767881928021769948253317289927283902508957696.000000 3734014859603368251429065679194714032541167518877115537677312818737358068252672.000000 0.000000
3734014859603368251429065679194714032541167518877115537677312818737358068252672.000000 4903615383175846090366918780471646539174178235818568306098996579050436450844672.000000 0.000000
0.000000 0.000000 0.000000
90862931877051031788312525792172507924602134409830646539638871480743625417031680.000000 -508078244633234280201458877353330658520631350660082641615965857070357909084307456.000000 0.000000
-508078244633234280201458877353330658520631350660082641615965857070357909084307456.000000 315924502356546765789346531759266382494835429498491683658128533904951609158270976.000000 0.000000
0.000000 0.000000 0.000000
-2870368448279019850035400567047650309805333873781600494987536118902413840407855104.000000 1460137801603931911835672866973968371675585006103118902509807558347325511068286976.000000 0.000000
1460137801603931911835672866973968371675585006103118902509807558347325511068286976.000000 746450765596662134418715934131760457950194558458864166215692016370920776351612928.000000 0.000000
0.000000 0.000000 0.000000
7474648046510401445875638882427800466599643240861549569130392742970734366074863616.000000 -3101193422837443736404605394200426128800644507963661115191700981387402709575925760.000000 0.000000
-3101193422837443736404605394200426128800644507963661115191700981387402709575925760.000000 797674459996106525003109581374899360098801806054449317814913035841514427000029184.000000 0.000000
0.000000 0.000000 0.000000
120494210381261215452951347737369708196271390076537518233397322965084717640056832.000000 42379180040450662077428268434067384787384499008940938182866611471295896199626752.000000 0.000000
42379180040450662077428268434067384787384499008940938182866611471295896199626752.000000 3556305325706487292734889551526862959657404732708626473085799438729770495377408.000000 0.000000
0.000000 0.000000 0.000000
736840771273168280144730719007975599714091640544719993648326082953550435681566720.000000 -621905234924251723239904182890089527426533582047638110612308353949936764290334720.000000 0.000000
-621905234924251723239904182890089527426533582047638110612308353949936764290334720.000000 289476192260412792378768384263511926139602526241460671139830278637768974866055168.000000 0.000000
0.000000 0.000000 0.000000
1340377225060441192530022502892663183179555774587120548826406998051768427377328128.000000 -1184786644084528575158045919045356073352830821487974013802180755131843440577347584.000000 0.000000
-1184786644084528575158045919045356073352830821487974013802180755131843440577347584.000000 474896718497683580910127780037510767668986851087355393384419178901338795173478400.000000 0.000000
0.000000 0.000000 0.000000
-4701588861646113891401354614258647593901903561974927990595107582141339115609653248.000000 1370842158079366727250681183990726289255676822945644806836352900229212982309027840.000000 0.000000
1370842158079366727250681183990726289255676822945644806836352900229212982309027840.000000 574875621172813634966067432970392055591703408434647008026451006629476099977904128.000000 0.000000
0.000000 0.000000 0.000000
15519624373988997336081662399930905173138549239203316048905939845473201467424768.000000 62226794473025784252368591192898475693622743686507877620072248520016213818998784.000000 0.000000
62226794473025784252368591192898475693622743686507877620072248520016213818998784.000000 41098743615525814046856613104631892992996853932228984561100203390229925534367744.000000 0.000000
0.000000 0.000000 0.000000
604706653319061401969855674652059690799702246528273148509200690451434956182781952.000000 -108320564690314409485865323449631965454084258670545746913834412068503190048342016.000000 0.000000
-108320564690314409485865323449631965454084258670545746913834412068503190048342016.000000 14000763169286241510070634736804403976714476986328138297605304473689534675025920.000000 0.000000
0.000000 0.000000 0.000000
-2909042350636986926750571129428789813232449679848675975061688852270064257455882240.000000 -71843200545337442191160277531388530745898411786399409031426952146316488316289024.000000 0.000000
-71843200545337442191160277531388530745898411786399409031426952146316488316289024.000000 46857632453820551364201298464000864809539882985163452643740645759642404416126976.000000 0.000000
0.000000 0.000000 0.000000
-1444421585157149446336163515351549951076917850858345348385130168678789689638912.000000 -578059314656833264101576608670498481532771550039578193803161069440019663421440.000000 0.000000
-578059314656833264101576608670498481532771550039578193803161069440019663421440.000000 296887145585124543254708383275891181752748699481041831032222321600734380949504.000000 0.000000
0.000000 0.000000 0.000000
646205744440998739329589720001051478939803120345704184661233239479374071612833792.000000 1344367501266124372892277886697944725095391125126282932600960558699056787689046016.000000 0.000000
1344367501266124372892277886697944725095391125126282932600960558699056787689046016.000000 674065317081916939803371979659387589854048966071267043456548767571822137911017472.000000 0.000000
0.000000 0.000000 0.000000
-700801280156916311391039444886593493355187910425092705210297700903822064537829376.000000 -2073411165620616694717122483362709676686755717081639554601081749300085203262242816.000000 0.000000
-2073411165620616694717122483362709676686755717081639554601081749300085203262242816.000000 1190762241689586759956902586562620732277303205092668522527722835236481245709860864.000000 0.000000
0.000000 0.000000 0.000000
599479852611527754294413422514614880512157638525538007059779234766828072123498496.000000 13340018044303385515856570489025628435172876197784734375630845668622369218887680.000000 0.000000
13340018044303385515856570489025628435172876197784734375630845668622369218887680.000000 289263098898429312212151965736927885203983442530850076214672173621741774438400.000000 0.000000
0.000000 0.000000 0.000000
9484035050043522126225913553454304667923138815310257535657741048579500051267584.000000 4078934593240042881715119234710581990928706910940849644367748988809306699726848.000000 0.000000
4078934593240042881715119234710581990928706910940849644367748988809306699726848.000000 1042314820546208502591352265988914019779457059407530546021681455312339233406976.000000 0.000000
0.000000 0.000000 0.000000
7687709635374593428073574118041034003836129794236283763504895571775463402504192.000000 -223197380753813230034205749044421022814182421541670040424297023711477139243008.000000 0.000000
-223197380753813230034205749044421022814182421541670040424297023711477139243008.000000 5359642585439837774367770191078515106243982578448405663138224683818135060480.000000 0.000000
0.000000 0.000000 0.000000
-487951777880952904553124249355071232075844586852853320417166093257276689991335936.000000 -2411701525570618179144183099501835459306605257613928854818269830690597171625984.000000 0.000000
-2411701525570618179144183099501835459306605257613928854818269830690597171625984.000000 95722221113756819578265335503047707261343012399460563640873175072083598639104.000000 0.000000
0.000000 0.000000 0.000000
-777239489872283293273297307570478295750734576743317528525099177208473156644241408.000000 725018992668813556811280865648972543850266280275115801876751924202483768524537856.000000 0.000000
725018992668813556811280865648972543850266280275115801876751924202483768524537856.000000 411912022497991641808549485542171314005266628809337075145339592700330489732399104.000000 0.000000
0.000000 0.000000 0.000000
1073571097069076202470233790786620124377779446241737069469535395942575420003581952.000000 -1128976587704215995010598667233891840572883276719980830532030899802388458773676032.000000 0.000000
-1128976587704215995010598667233891840572883276719980830532030899802388458773676032.000000 483959260502425003766026094826350905509362130145387535243615597639984965302091776.000000 0.000000
0.000000 0.000000 0.000000
-425494541139029257758811725988445051161167998354628118377066599351982542397898752.000000 -438985059844283244737236855921252016535959863619564798185961233317934148349853696.000000 0.000000
-438985059844283244737236855921252016535959863619564798185961233317934148349853696.000000 283118266926666752499939489333732628988620401713606016721295238883800058135838720.000000 0.000000
0.000000 0.000000 0.000000
149751219217370921006056246796148121884493416193244570716743662680639041569816576.000000 -43286707707285325539190733990869443325989983349177872508697075256142335511101440.000000 0.000000
-43286707707285325539190733990869443325989983349177872508697075256142335511101440.000000 8650523062916347798307215764046700846237320390118311514923804306298152599683072.000000 0.000000
0.000000 0.000000 0.000000
4921844343464126617115477613743744304528920161396070576777860836146098416386048.000000 -7289427047342347256839218082427999823139917225759012663304143091861209521061888.000000 0.000000
-7289427047342347256839218082427999823139917225759012663304143091861209521061888.000000 2843006200634018798177676652951244404726995126112967323614279003487814683721728.000000 0.000000
0.000000 0.000000 0.000000
-662905373883638732044023758786923492828098767999590211659730735842030431785451520.000000 764907538826466264136669639693239807974753188336943929891760216615413867289247744.000000 0.000000
764907538826466264136669639693239807974753188336943929891760216615413867289247744.000000 115059356039060942468842726588253278632023534013203050646911236292604860982886400.000000 0.000000
0.000000 0.000000 0.000000
782282965678116530830786431131676487314321059990740009251285672362982880678248448.000000 168126264296289439507371340672207220235739087397326627145133162065088887203561472.000000 0.000000
168126264296289439507371340672207220235739087397326627145133162065088887203561472.000000 34451983891114808037374773041810777871881602084434595951262475292601268851179520.000000 0.000000
0.000000 0.000000 0.000000
-1841214936174827448157534091375380810436386137149527106073448949467870957412548608.000000 -940043613845563063762852545405119977573016628669550472735836379205650076493938688.000000 0.000000
-940043613845563063762852545405119977573016628669550472735836379205650076493938688.000000 504348160471310596645473609973187080322970337542099804206602471904911085906427904.000000 0.000000
0.000000 0.000000 0.000000
-76223558879107931364213637051321987020492614806984085862529942962875912837148966912.000000 7312373786428757405070281045347407153900483793960978506402449465233249982700584960.000000 0.000000
7312373786428757405070281045347407153900483793960978506402449465233249982700584960.000000 1332072693240783659548557525625462662009623925215001069073214234574867092673134592.000000 0.000000
0.000000 0.000000 0.000000
211753326590328890090328738118919705916860991879163066966983094841177456418750464.000000 -426652583685241919287652926993644384139240508417641204764266571788021524273823744.000000 0.000000
-426652583685241919287652926993644384139240508417641204764266571788021524273823744.000000 261202194582174022467489864642592718327272286133100439652314011136049556691615744.000000 0.000000
0.000000 0.000000 0.000000
-90074468755502047282824356185469341025603138343308480055541240750105318060457984.000000 -49946615906202931185968795748798363245466784588892466411586671240422089547579392.000000 0.000000
-49946615906202931185968795748798363245466784588892466411586671240422089547579392.000000 47519761714143327884747450391879031224717823266678132462861340730074545113792512.000000 0.000000
0.000000 0.000000 0.000000
769914673898921543117307267364789223289062265552208032386105379927527673013731328.000000 887988136710976277275340738693058066934145861965605624111199972075799192696520704.000000 0.000000
887988136710976277275340738693058066934145861965605624111199972075799192696520704.000000 393971902872504296124930798184004082831849923785331153163819647655748175610773504.000000 0.000000
0.000000 0.000000 0.000000
-14474540545998998001240556789534735103510131160022819659644636902763267855778578432.000000 325067625765109532700150213056952179873544680420872146588528878341339401815064576.000000 0.000000
325067625765109532700150213056952179873544680420872146588528878341339401815064576.000000 55112866533707208629685711496950662360737287017709295151370751896367807722422272.000000 0.000000
0.000000 0.000000 0.000000
303166492677834291896521626184595647785885665774847856459366033253785863591034880.000000 545784286424142170425256596804198279043147552801192261331579529747913007307948032.000000 0.000000
545784286424142170425256596804198279043147552801192261331579529747913007307948032.000000 268261667108170541658973562386653872204474783078209769702515416196478546659508224.000000 0.000000
0.000000 0.000000 0.000000
-8516592566603054511213439143427817040723748057159947703519678335898849145520128.000000 -14935282693962610017266368032782759960977211729080100556499142873296344149131264.000000 0.000000
-14935282693962610017266368032782759960977211729080100556499142873296344149131264.000000 9181314291869150450242998207044553485529565217378110762414706667712404552417280.000000 0.000000
0.000000 0.000000 0.000000
-190280973494521864913604813202618424253712603851865095659751479031849149217636352.000000 57411586264543165940600437747488706609938376073224011478977791151659060085915648.000000 0.000000
57411586264543165940600437747488706609938376073224011478977791151659060085915648.000000 22350176035976856878509722979216660472668208456812136013938756246737231986819072.000000 0.000000
0.000000 0.000000 0.000000
425768127636319697480911052900168397437750704099017306993902246920085862902398976.000000 -1427523095430617217938946034325793464184047577908082466633547570849595592714223616.000000 0.000000
-1427523095430617217938946034325793464184047577908082466633547570849595592714223616.000000 751195903296627293302322889073459312598882976618625004687959739199006613371355136.000000 0.000000
0.000000 0.000000 0.000000
-65765669768228213665739196727340558710784026448938685823017793000100067698278400.000000 -166003313761115517177314055144714658971980168538219573247723738970345130631888896.000000 0.000000
-166003313761115517177314055144714658971980168538219573247723738970345130631888896.000000 97559314313585936106676583912535219624194386547721341167051939637015514921828352.000000 0.000000
0.000000 0.000000 0.000000
-157378738612425599784224407027436832283127406423421929903226480087792282094272512.000000 -335102110718785550194632094238073660908880903306514450093660859691012201165881344.000000 0.000000
-335102110718785550194632094238073660908880903306514450093660859691012201165881344.000000 193432104317415596450838031642633139731278930937621520085608815940145699765616640.000000 0.000000
0.000000 0.000000 0.000000
1890312800716679071034612540677903042664564955553052270822661234179719309557760.000000 -1683075456473682458575133948521274153809501872677054594811878111435966797316096.000000 0.000000
-1683075456473682458575133948521274153809501872677054594811878111435966797316096.000000 676911302325936951983145677328569279711325724815944826554174409685203926646784.000000 0.000000
0.000000 0.000000 0.000000
-37471233291329263364543598255915822921866087723878045075478295622241238107815936.000000 18073920077904935152761247024125843246282318732105963163388760301070246005964800.000000 0.000000
18073920077904935152761247024125843246282318732105963163388760301070246005964800.000000 11295677795849066359207209824693456722562378991195543022725998932404420099440640.000000 0.000000
0.000000 0.000000 0.000000
523743366865365820825732651548429909648138675221829067964460128834248374667444224.000000 -773897694705223494868609518070770497093548025697283501157609516402138129287348224.000000 0.000000
-773897694705223494868609518070770497093548025697283501157609516402138129287348224.000000 397646392971284916959240232519821115754865133982058553387243526852139111021543424.000000 0.000000
0.000000 0.000000 0.000000
-274556699184458418483881896239038652943245426417753545330762248776493328586768384.000000 1186306988578788496227940141784092995412698797284100395735516647781080394526359552.000000 0.000000
1186306988578788496227940141784092995412698797284100395735516647781080394526359552.000000 696145023247987041060960628761593417547335615911970670307358221698151088941694976.000000 0.000000
0.000000 0.000000 0.000000
1004962977013352705937466180616682412295040622641119777302840095703762296863981568.000000 431772487603979155721887866253148680080211899767640170730294916073887843758374912.000000 0.000000
431772487603979155721887866253148680080211899767640170730294916073887843758374912.000000 110492844163760813166587374708463205363209338269234608683039483387120461499334656.000000 0.000000
0.000000 0.000000 0.000000
6223116938343479697312938910185255408420668104320740475780085338430609366896869376.000000 -1865211707749596438762433305591006341445467806363965667287395583132847831326392320.000000 0.000000
-1865211707749596438762433305591006341445467806363965667287395583132847831326392320.000000 351986418914177801991071546377560853081339304185896587171939080660731822851751936.000000 0.000000
0.000000 0.000000 0.000000
-2470235647285799449501847106594554107586830127482692809671940827913572982955442176.000000 253271700151112078602180143555615299192995919739350962160125198782979791799713792.000000 0.000000
253271700151112078602180143555615299192995919739350962160125198782979791799713792.000000 51572604075794056168810814681080546762507090874960511633716990296002797320011776.000000 0.000000
0.000000 0.000000 0.000000
693657538099207239279914116422636661936875515730242735857871080525107652320034816.000000 2789506154114392948079060134181976931254714906369193339974929854216606250342285312.000000 0.000000
2789506154114392948079060134181976931254714906369193339974929854216606250342285312.000000 1484933421625111837498462716674086543549190570519083646826050220017407137392099328.000000 0.000000
0.000000 0.000000 0.000000
10678392577094312549701700188907725387451704573553348551530703999182124926107648.000000 -3929284089083792771745171152369958730453460337290150283070734971882120912306176.000000 0.000000
-3929284089083792771745171152369958730453460337290150283070734971882120912306176.000000 954870044703687970651134460052024459781522106409628497689380356866858717020160.000000 0.000000
0.000000 0.000000 0.000000
840086705917518907983415909906517884092291789699729951342000746555733399190896640.000000 -795211722656032099021153105233302054694996969994614703437690717624417479693434880.000000 0.000000
-795211722656032099021153105233302054694996969994614703437690717624417479693434880.000000 328032650289691888579071371801164520044345447967389813828889242753188412597993472.000000 0.000000
0.000000 0.000000 0.000000
-251644670044247911886395909991629494332028018627448373439335459700126301542154240.000000 -317026856335869350552522117495567463817396521606175722440402028586471880061353984.000000 0.000000
-317026856335869350552522117495567463817396521606175722440402028586471880061353984.000000 182206483975565485441530274242656942653818098145117300525799341107190924289507328.000000 0.000000
0.000000 0.000000 0.000000
-387338722739160240029955216285459814883744037488158512578392535142424445326458880.000000 597827381169073372198086452594951788045721713918937752426225211425447626431004672.000000 0.000000
597827381169073372198086452594951788045721713918937752426225211425447626431004672.000000 381339471780356114660016846393278744116626759473253281980833334693885089337573376.000000 0.000000
0.000000 0.000000 0.000000
-159205254317336087540969783732416954011061307192427066136918805758546115108536320.000000 -216166429433689988135671958787101199619734031861111075706632423399721229218742272.000000 0.000000
-216166429433689988135671958787101199619734031861111075706632423399721229218742272.000000 130131439841784920570994487826127585926315039208508712613153591247106097536827392.000000 0.000000
0.000000 0.000000 0.000000
707627515357197159373644075823906119939340381511999118385063548352520350364336128.000000 911090846368152820344618718370825916348474803035849970484989405210340849675665408.000000 0.000000
911090846368152820344618718370825916348474803035849970484989405210340849675665408.000000 417938742289639540356708780156914966885592594959078340009716073327572166322946048.000000 0.000000
0.000000 0.000000 0.000000
169381286742472507154722352288642545803467595926983604515399686673458677908766720.000000 -35419037027316741557293407475356732266616614234748316519577176698494016137723904.000000 0.000000
-35419037027316741557293407475356732266616614234748316519577176698494016137723904.000000 4795131774915526905489950520315546264489483538775726444840360534099185765449728.000000 0.000000
0.000000 0.000000 0.000000
-688129259044129545397559595990141904333953387150931517290375499120620867491580608512.000000 2198205553264192964160790223594363004532994935296965230244285163459777393363779584.000000 0.000000
2198205553264192964160790223594363004532994935296965230244285163459777393363779584.000000 56356129113207522978642558296506857312067944183322614279242385978699950451589120.000000 0.000000
0.000000 0.000000 0.000000
95276893788921594959990065998383884729304341645082161290832247841109409399832576.000000 142713601524873869910345780554071143018479292198244895704978887552634814977802240.000000 0.000000
142713601524873869910345780554071143018479292198244895704978887552634814977802240.000000 67825466459492956893994425123784862675490668951737050927710721152195046187991040.000000 0.000000
0.000000 0.000000 0.000000
380944348916706029022815105356607130722213519622893538263341405491348353589444608.000000 135784760336793838457328562336436746423028947533405482264966941369897321941172224.000000 0.000000
135784760336793838457328562336436746423028947533405482264966941369897321941172224.000000 29760544042483466417773295559958728178476981771705552778749432400732274424807424.000000 0.000000
0.000000 0.000000 0.000000
-198006532209666911416661677318933700303920737419126132146257063790477934854144.000000 -56021805629539952463607784148416807225744268031875309004029702496363630034944.000000 0.000000
-56021805629539952463607784148416807225744268031875309004029702496363630034944.000000 22863025510353657963796087378729819446538222958542855889058676644586385833984.000000 0.000000
0.000000 0.000000 0.000000
434446881012510885304945766573220029403501082986835082085113764480756948051951616.000000 -478499229009487403233905247525617915408688565915437871506884774855372459600773120.000000 0.000000
-478499229009487403233905247525617915408688565915437871506884774855372459600773120.000000 208980129417855457511826466698157927604568454349951946241829502416570837429649408.000000 0.000000
0.000000 0.000000 0.000000
-12881132370321917571553523861993911002765406208637800595789521191027969830372245504.000000 275111743696844262967654502808541182969578255710869582029733083032605984529842176.000000 0.000000
275111743696844262967654502808541182969578255710869582029733083032605984529842176.000000 47434254301293237258089841966706602930580869262779802422922584720916391189807104.000000 0.000000
0.000000 0.000000 0.000000
234305205346035994022769306584149055639735367476848090859797171698623333030428672.000000 -75606754976313131160592963148337749709938108722467039732621600646650190983331840.000000 0.000000
-75606754976313131160592963148337749709938108722467039732621600646650190983331840.000000 15510223372777904046045341682324250528831396690420669811382212161855236345954304.000000 0.000000
0.000000 0.000000 0.000000
4269489797816777831778717495321994581973354803923478846799409735328680859370782720.000000 1393805961356270854170054377083246831323016531455087246733971096609486367069569024.000000 0.000000
1393805961356270854170054377083246831323016531455087246733971096609486367069569024.000000 283370401310047735751648383403014820766753822740625686681686079770759092273938432.000000 0.000000
0.000000 0.000000 0.000000
450702575844334861031578096086743750339987844552460167129573937090923394884435968.000000 840518684762376676202597008452290676864060596239775593555103826656799567843950592.000000 0.000000
840518684762376676202597008452290676864060596239775593555103826656799567843950592.000000 415388094319901947708176924650386023866349030791386746058626950538378795118755840.000000 0.000000
0.000000 0.000000 0.000000
961603718499439301995998109955982839170452362577907325441092512070867705921536.000000 -1243960680962291414856193988729104067419044566201617632690295967551468544720896.000000 0.000000
-1243960680962291414856193988729104067419044566201617632690295967551468544720896.000000 1970826793774588352231629708070100405691676342584801311457066307485805152567296.000000 0.000000
0.000000 0.000000 0.000000
12400197856367626765355829014282309921856985322454174768280380225098676975960064.000000 14689529765573165373498854312826980339384226745279454730577704291690344299364352.000000 0.000000
14689529765573165373498854312826980339384226745279454730577704291690344299364352.000000 6563351281923158703583961951939616727208907518120581850146054563467052982468608.000000 0.000000
0.000000 0.000000 0.000000
792152825803834468367205262039427636730879011171706575831242850301577779642105856.000000 562748950407303113010295243236266003598034025198813864187479301100225070941339648.000000 0.000000
562748950407303113010295243236266003598034025198813864187479301100225070941339648.000000 204730129611584173259045480833189147384626997939092525270708734437172376363859968.000000 0.000000
0.000000 0.000000 0.000000
543508573013834557923331340374224896854762175676837936225229117123567645121052672.000000 -435477120077573732228878406554359087172487270279228416380677661819414614309339136.000000 0.000000
-435477120077573732228878406554359087172487270279228416380677661819414614309339136.000000 199179703713052284752746121497291602383071871205254907386771161472008943032074240.000000 0.000000
0.000000 0.000000 0.000000
9982786210782917716496580566184889925107386226961609213469235212916214951051264.000000 6911554646862648251920916875076854716762792752027747972745770324245157108514816.000000 0.000000
6911554646862648251920916875076854716762792752027747972745770324245157108514816.000000 2448048559764360174183283073189013771439427721549460331513955894459195205877760.000000 0.000000
0.000000 0.000000 0.000000
34107003843626319544471604690444209822317326617791398415526983958957665038630912.000000 34137896300042069696155551347127131939074146337506445067227356262702301289906176.000000 0.000000
34137896300042069696155551347127131939074146337506445067227356262702301289906176.000000 14400333334380329924584266853887146498958749144853141203887337170418772903723008.000000 0.000000
0.000000 0.000000 0.000000
95971059535533892309797994561105706595336296255337951896579687001280457237069824.000000 -106837680584300740419719048944921753638680058323187906432175931153914566398705664.000000 0.000000
-106837680584300740419719048944921753638680058323187906432175931153914566398705664.000000 42418820951798237680998396427511131947332504376222480142011541695427364477992960.000000 0.000000
0.000000 0.000000 0.000000
-719954413756226277988624560098762636839836459205410819685682098811540222322409472.000000 -920291775393848181296486316826979073051798499469758590631381433096467248322707456.000000 0.000000
-920291775393848181296486316826979073051798499469758590631381433096467248322707456.000000 528465792206386744387250183883296586981822118259927498932488678237763535871410176.000000 0.000000
0.000000 0.000000 0.000000
121134043958654681276653405991376322448358430352944392843396235507615727444033536.000000 -187091659642335582256547133382882093215126167536475129148427946838489759379095552.000000 0.000000
-187091659642335582256547133382882093215126167536475129148427946838489759379095552.000000 55842899223000265700815123211217876793401151536657632477510534334955081988833280.000000 0.000000
0.000000 0.000000 0.000000
-62665132188196200484604448399150958090271247394533144911217862797056229622415360.000000 -218566154318008102390631099788848662446766203239374296007147082765138778981924864.000000 0.000000
-218566154318008102390631099788848662446766203239374296007147082765138778981924864.000000 69440311944154473826112459164908365684782989697395312957631232578634968700289024.000000 0.000000
0.000000 0.000000 0.000000
438559698667684445050531394226108264262804683675983439465943991486814334836801536.000000 -53539863076639353078985434403350785369112625109578931242803668804096172870336512.000000 0.000000
-53539863076639353078985434403350785369112625109578931242803668804096172870336512.000000 6041126396280696442525184155399386645045665736024372908763568415559903906627584.000000 0.000000
0.000000 0.000000 0.000000
232907258948602825893842904246786325275853653466615038426052908358137174967713792.000000 -1162468815793880016153063291401673451830987422315334168100612679498649268614332416.000000 0.000000
-1162468815793880016153063291401673451830987422315334168100612679498649268614332416.000000 623025846529160615468147270829495125587254934406266192852834548124387347070451712.000000 0.000000
0.000000 0.000000 0.000000
1338407273333249841409279457615919822319920849582356926797911485488517234804391936.000000 801338162687092099482234611653876466305186789703490993917551977053444949063761920.000000 0.000000
801338162687092099482234611653876466305186789703490993917551977053444949063761920.000000 259825762509794058773657705643058365380073217737338068203793117120294505263661056.000000 0.000000
0.000000 0.000000 0.000000
-35710565035014630387941497842482480271567298120393236850326350086768874724786176.000000 -8839059387559596561383978059278573276697484372314014329496025784699193166659584.000000 0.000000
-8839059387559596561383978059278573276697484372314014329496025784699193166659584.000000 14010720887999870519390465966494845571743521812091609670853658928643195516485632.000000 0.000000
0.000000 0.000000 0.000000
-7179550534756183185576483428647661145050172238110659591630005500870513777660919808.000000 1914453712373468666906250342488176937954001746761579077003765499505742101585330176.000000 0.000000
1914453712373468666906250342488176937954001746761579077003765499505742101585330176.000000 753421673360794937518638465035875014312214226712953020484275789532703213962133504.000000 0.000000
0.000000 0.000000 0.000000
16667150126365453723592915785552806874393681120080479798498997405485337214451712.000000 12260267193708551253933785694021099169825015998832315539205162127328795233878016.000000 0.000000
12260267193708551253933785694021099169825015998832315539205162127328795233878016.000000 4491007551561520232188147526912034504132810253672557501700627480698741642493952.000000 0.000000
0.000000 0.000000 0.000000
106235702230751526959711523822684847542223059529884480862672298610776925267820544.000000 -141858637368430410267080422310985648947024716284839067658777199227184940345982976.000000 0.000000
-141858637368430410267080422310985648947024716284839067658777199227184940345982976.000000 65636947583176371139494801938967503295183556219756625756790466251084850830245888.000000 0.000000
0.000000 0.000000 0.000000
641067933339592259125451358918040202130054744844167656999688710144696064881459200.000000 642965316941160610667558344027187643428473166003155677669408580079462512481796096.000000 0.000000
642965316941160610667558344027187643428473166003155677669408580079462512481796096.000000 271432290240178796792073077677331990842608514629709174777343327111347883154079744.000000 0.000000
0.000000 0.000000 0.000000
-3763768884177736664235972235524564880407388764192842843040587040677681589810888704.000000 8021485005145712826486173741991623490677745543501840319609995731453301275066630144.000000 0.000000
8021485005145712826486173741991623490677745543501840319609995731453301275066630144.000000 4682008093157709772640792075697466935198943770938311013889645462909140098789408768.000000 0.000000
0.000000 0.000000 0.000000
-391870623395126037423981814545836308992586968795110098410937009261725931572035584.000000 421134309363534236912295101839519413228913161933647820409094560263899914658906112.000000 0.000000
421134309363534236912295101839519413228913161933647820409094560263899914658906112.000000 240471378741742961218677508411535620133751717240281627818736134289967387286437888.000000 0.000000
0.000000 0.000000 0.000000
5753415159927426803145152776330371082560709440485313914999094952646239213060096.000000 -9002564198113900586807472106331486635269858450972025279314460289086277386502144.000000 0.000000
-9002564198113900586807472106331486635269858450972025279314460289086277386502144.000000 4335002300531931166982813721011073024099450556026246891684379191065019905212416.000000 0.000000
0.000000 0.000000 0.000000
56592638894128268772836378395862009730194197343781105955951422052261978265616384.000000 150914210206149324050707844067334051930250605655026305023185001730675178421092352.000000 0.000000
150914210206149324050707844067334051930250605655026305023185001730675178421092352.000000 84074762222302548689718590045579309258469964178236488264269754661333303702847488.000000 0.000000
0.000000 0.000000 0.000000
-174811804897511287209012916716789171868040644741405556594868212472874532830445568.000000 -1302297972407053964073232713904241172432505773801669545090188002367644602535510016.000000 0.000000
-1302297972407053964073232713904241172432505773801669545090188002367644602535510016.000000 782606381578123073199387277519719727552092275258999165890992942011009858216656896.000000 0.000000
0.000000 0.000000 0.000000
-65375194456678352004743254766494048453791892822363226964001923992499879543832576.000000 -4953965329851489856581816268728622244630601880776700050439679365990279878279168.000000 0.000000
-4953965329851489856581816268728622244630601880776700050439679365990279878279168.000000 1238176459910340697299113415765838238933310523080381890750738368726843114127360.000000 0.000000
0.000000 0.000000 0.000000
-610809763031305771291128412108611172129730705383855076942589726702284898836676608.000000 1127956811476634441876244134979241755023469310870277637592403864980819110271123456.000000 0.000000
1127956811476634441876244134979241755023469310870277637592403864980819110271123456.000000 650874024894313123677517713340715623181711996012424916967549624571135844469964800.000000 0.000000
0.000000 0.000000 0.000000
-117186256691062765825704996257633070344349501030881058751078319759247750593511424.000000 -347672498613827105187202432654103764627467018052908167298260693799524010609868800.000000 0.000000
-347672498613827105187202432654103764627467018052908167298260693799524010609868800.000000 204743408481913838916225799379167088012326451058992273127231965006887597908164608.000000 0.000000
0.000000 0.000000 0.000000
-125769270017283570957727808792385476631515665360309340367431526220411739045888.000000 5701462979159891186124043000447837235908876886472438901000072560332747837538304.000000 0.000000
5701462979159891186124043000447837235908876886472438901000072560332747837538304.000000 3180213691323821018601442716982086638028720574570618239659047659377983508971520.000000 0.000000
0.000000 0.000000 0.000000
13927891203034539743467521042055984267923725613464800688092780896253476215745150976.000000 15379785243597664884597907734110000086539441377919726556751034429785450417389305856.000000 0.000000
15379785243597664884597907734110000086539441377919726556751034429785450417389305856.000000 6719305606855505828000519691575885253466392529842387304877946853459190947126444032.000000 0.000000
0.000000 0.000000 0.000000
28403582834336538356055782484077144089292686536956359529449591370953417939746816.000000 7677279014323387084203724197201990663243798477266851367664437740086294457876480.000000 0.000000
7677279014323387084203724197201990663243798477266851367664437740086294457876480.000000 1321120718559960200636975438478062086922759623150142470363189858755642436616192.000000 0.000000
0.000000 0.000000 0.000000
3403778445042982672204601449883923872721209660746761810660448273028035963852423168.000000 730522708853313726825766772395934402362211094247880113422691806778356836620828672.000000 0.000000
730522708853313726825766772395934402362211094247880113422691806778356836620828672.000000 103476432491291149879539664550198340341323392279457487761849115919762098055282688.000000 0.000000
0.000000 0.000000 0.000000
-3141308234616590157128191067932594398140412208957003022104338494883192803717808128.000000 -1442937824361294959974878557751381740493358163251247061954020223837220916145684480.000000 0.000000
-1442937824361294959974878557751381740493358163251247061954020223837220916145684480.000000 729132538253136122582976871597963739046149605631179991352921253318971971466166272.000000 0.000000
0.000000 0.000000 0.000000
223317033889717722967090776935539286135536758576627423519110793301014918939541504.000000 237947317540462339797475570938824546612006129442180767356020583299826308605804544.000000 0.000000
237947317540462339797475570938824546612006129442180767356020583299826308605804544.000000 104936166285704897816141855679568369420623013003935575353992258004955210207723520.000000 0.000000
0.000000 0.000000 0.000000
1492736636294116879415334969834451825274779224640400090340906885536703653307482112.000000 -235638609236179124310593218146736676888958807508812274761424506633275058623086592.000000 0.000000
-235638609236179124310593218146736676888958807508812274761424506633275058623086592.000000 30558388268975342860705535885993003341812608231616942487731505128723937115504640.000000 0.000000
0.000000 0.000000 0.000000
1948785175947442357404897987954375520013839110311905131679108372243745664032309248.000000 2997894034136273530193823494004103353527675131498177636122346649917792542433214464.000000 0.000000
2997894034136273530193823494004103353527675131498177636122346649917792542433214464.000000 1526131384533537155608151938852245959510961916924615258234393836359567102338662400.000000 0.000000
0.000000 0.000000 0.000000
1058963695554184760386678128616092232319451319589299295794206184708313530002046976.000000 -441238269400638214874021105023420977182527754158068990120487368831519288750768128.000000 0.000000
-441238269400638214874021105023420977182527754158068990120487368831519288750768128.000000 110360248264821451873866084700262501152874840308743973992928008787870889623420928.000000 0.000000
0.000000 0.000000 0.000000
-1178141948544379030508438099625324244654887794607085101984385736394411190377250816.000000 1071020296570295926012317516471026890074396314203723335236687865945875846692601856.000000 0.000000
1071020296570295926012317516471026890074396314203723335236687865945875846692601856.000000 612145142646660975124793632943424361992405916949485454429514609329407629134397440.000000 0.000000
0.000000 0.000000 0.000000
101614694321101416409298732204550980305172238333577062038527450973296472371494912.000000 22812489660219864523689800373198180828054106159892451017675344260984184493834240.000000 0.000000
22812489660219864523689800373198180828054106159892451017675344260984184493834240.000000 5063663772972900669634426147736987536250191292541400039503552113434515958923264.000000 0.000000
0.000000 0.000000 0.000000
-19511853850546041876875068107530749164925140720917601446325694239702033026261188608.000000 1932131645271651610545082185266056446645238425862921532808936889931319433744089088.000000 0.000000
1932131645271651610545082185266056446645238425862921532808936889931319433744089088.000000 363959723010946446396562957426085660717548490581154211467926187358882919021019136.000000 0.000000
0.000000 0.000000 0.000000
-177677894108388098136070256743522196227211592470360968274621868410459741602447360.000000 -443416427730116389538917255804814536407827566479166256404947216745956030193598464.000000 0.000000
-443416427730116389538917255804814536407827566479166256404947216745956030193598464.000000 254127755011282903552623780841444573450453818954067136697800153873961935223914496.000000 0.000000
0.000000 0.000000 0.000000
-69139138647246065122401335869816124545551898059086919270279695663769374857101312.000000 52870240721958432757287139410891840200920854630802928248053351144155736572952576.000000 0.000000
52870240721958432757287139410891840200920854630802928248053351144155736572952576.000000 8482123935980187971112141792271048385473610509015849875577795977717272847319040.000000 0.000000
0.000000 0.000000 0.000000
16065420900500166151167775785968036532204405938823030538441242773753545241919488.000000 -11524177246762925870974331227004211707614080601025335052474203917116777080815616.000000 0.000000
-11524177246762925870974331227004211707614080601025335052474203917116777080815616.000000 4004557215799497161162174164270917614697931794551570374921159712990287609462784.000000 0.000000
0.000000 0.000000 0.000000
2313855703228750471607843519509517137673973026718641220197714091917748448872366080.000000 1154220703995106988181129952089556628739904864650480679750535373880433265204002816.000000 0.000000
1154220703995106988181129952089556628739904864650480679750535373880433265204002816.000000 330749315984764066783786042486326380712588448968797127234094676988880334297759744.000000 0.000000
0.000000 0.000000 0.000000
-41874133757636172515340316214611334128500826628302229586239784306672651993088.000000 -3265210920818592149739444741706411256344842395664387249760457359144499344834560.000000 0.000000
-3265210920818592149739444741706411256344842395664387249760457359144499344834560.000000 1818832622272397820219433268378438371375991438138954130851329477648621577961472.000000 0.000000
0.000000 0.000000 0.000000
-260170353777512267232018558347463606342283354145153611793946146487828682651992064.000000 -568116316859917672466747581797242115829348667580432277280215998180128593404755968.000000 0.000000
-568116316859917672466747581797242115829348667580432277280215998180128593404755968.000000 327459125749913857984542504623744864923964722584585336817592012094724532049281024.000000 0.000000
0.000000 0.000000 0.000000
-2550835061665162565077985105317344507766811379912541522081065142933331537500630417408.000000 12699065446330649708802350506575077269645223953584494233331658792737347916928122880.000000 0.000000
12699065446330649708802350506575077269645223953584494233331658792737347916928122880.000000 126461093569530082848329418215414108981619779885843871826816035801372061679484928.000000 0.000000
0.000000 0.000000 0.000000
130092002750997724491881484786086869140840406705274215443678218764939005037379584.000000 14960420770661416732041731931916221019932816397034688985721956527040128824115200.000000 0.000000
14960420770661416732041731931916221019932816397034688985721956527040128824115200.000000 5040767057919584170486934847062162577409375576451932638067803887640814014169088.000000 0.000000
0.000000 0.000000 0.000000
-88810132865472955696961479564664700654638747552081887841593625828272003251961856.000000 1012130540782865056883838152901990796405537654785975311529464074835609264173613056.000000 0.000000
1012130540782865056883838152901990796405537654785975311529464074835609264173613056.000000 574661293827285212921060134660828026790094950937660066358360852632887602607816704.000000 0.000000
0.000000 0.000000 0.000000
1883455595345704818383649333502772259669563352835080174052402421672425962847862784.000000 -1754586002165931127609499455089966175664908050057669838325560048238702778413744128.000000 0.000000
-1754586002165931127609499455089966175664908050057669838325560048238702778413744128.000000 717289268698295671215501082871134879590871150626246731359872197831292557060997120.000000 0.000000
0.000000 0.000000 0.000000
-566075146169749728952567398035267312963742729828638408664284347077626555221606924288.000000 -503793968701579304418512810730489017635021014329545383220565224125589342669242368.000000 0.000000
-503793968701579304418512810730489017635021014329545383220565224125589342669242368.000000 3594329801701848822011767765502943129999865896535934299766668001679271434125312.000000 0.000000
0.000000 0.000000 0.000000
-1749427732739691490650244250093654782927773127979078121623313906659078203913535488.000000 1467042278451002206434433374184661266004406524862584644618959107364085682376015872.000000 0.000000
1467042278451002206434433374184661266004406524862584644618959107364085682376015872.000000 848624357595036175061695235556935988213308304785726558230063604701577699896852480.000000 0.000000
0.000000 0.000000 0.000000
6292724032230641969593613553199631339854063537824163958721740817452225945141248.000000 -180359961222359035190994686467878762698216108909210439958634227154650211956031488.000000 0.000000
-180359961222359035190994686467878762698216108909210439958634227154650211956031488.000000 101646661027796118289527645362922313222401147074390141931803721843446564306026496.000000 0.000000
0.000000 0.000000 0.000000
-2231763255234473931291618709605480268706957604611940303942051714338657027808559104.000000 196276855903697003293443930822025390050703114103960360247130394048426901875195904.000000 0.000000
196276855903697003293443930822025390050703114103960360247130394048426901875195904.000000 33437695307255146225820079078609479733454829503137360728115431645520441263521792.000000 0.000000
0.000000 0.000000 0.000000
21262857672506218307510790757665762284195425247149078540941602503224866212151296.000000 -16551727080302280782250096178082908203453317756711449330105872154070515617628160.000000 0.000000
-16551727080302280782250096178082908203453317756711449330105872154070515617628160.000000 6245464261352805932388747319302724732215082546893007010018356249691641847218176.000000 0.000000
0.000000 0.000000 0.000000
81008979083120174628226951726187601945667426703723535949280966811659841996587008.000000 -640327795271942187926549896070366109770929223648512443552881885359428094360813568.000000 0.000000
-640327795271942187926549896070366109770929223648512443552881885359428094360813568.000000 354492587589821199886632500211623966739092121245367714733645716060055072212516864.000000 0.000000
0.000000 0.000000 0.000000
-16868235958660089673768378006383253991466693407341008406809168612071510638592.000000 34972246751837176910317825088720166394311391521628368553286468062556396191744.000000 0.000000
34972246751837176910317825088720166394311391521628368553286468062556396191744.000000 20169248292676784809607950808031042520308832457197738592036118938934719807488.000000 0.000000
0.000000 0.000000 0.000000
-1067613729539787560829037356339033371944342846876915449681716510168666590937088.000000 1202631667544019862245572026249293920623628950593801833122174712917099278237696.000000 0.000000
1202631667544019862245572026249293920623628950593801833122174712917099278237696.000000 491389633358907695359722399247338287268929097384646018786136775009912594890752.000000 0.000000
0.000000 0.000000 0.000000
-404112467767648879340581166369892170224729810483235223700793906639100384576012288.000000 556380225363967323435653859169429722980977207111532181794131251239813319665647616.000000 0.000000
556380225363967323435653859169429722980977207111532181794131251239813319665647616.000000 324765712145026607747081397760138816931127231664739434583422589411953992255143936.000000 0.000000
0.000000 0.000000 0.000000
-9289789441998917924383580072748271426411054751287561132419852441025557225799680.000000 40475155345939430993377670269736306478907080360701947676717517418318208838926336.000000 0.000000
40475155345939430993377670269736306478907080360701947676717517418318208838926336.000000 25736387330682098950331012588811864096764834492387957577440288900449510633766912.000000 0.000000
0.000000 0.000000 0.000000
-6258085159631785172328406596043462659658719972140025812080448759396488336900096.000000 19797515777143806903506472005886536226113266461610364949176277479701274985234432.000000 0.000000
19797515777143806903506472005886536226113266461610364949176277479701274985234432.000000 11340162593114800824435428133915349903343123833186118958302422129778851422666752.000000 0.000000
0.000000 0.000000 0.000000
89444476731732584633445740309246740671053229411567403360252419282163754204135424.000000 40804319111352197713976302963761108300997489684282533358373177615920623519793152.000000 0.000000
40804319111352197713976302963761108300997489684282533358373177615920623519793152.000000 11175580312783790983954509245364531756006539685512178010160900149847117319372800.000000 0.000000
0.000000 0.000000 0.000000
-273469289991426929258574517279296978807939586028459191413648607251849890028847104.000000 -39439413520967215268463113265491993318458975279294786563079316364112865297170432.000000 0.000000
-39439413520967215268463113265491993318458975279294786563079316364112865297170432.000000 10181042852718543544289467364044998181170993424145338310924135498787512865783808.000000 0.000000
0.000000 0.000000 0.000000
-41516156274738243201544395389234231121824276195657006834236011429026608852221558784.000000 -2259541225328395717441256573618890188116558106996632053744403283600268316762963968.000000 0.000000
-2259541225328395717441256573618890188116558106996632053744403283600268316762963968.000000 241667871290790264809882922094595853956163466953804565367076068992700569727533056.000000 0.000000
0.000000 0.000000 0.000000
-321848923892450581505582757570405803762863653712309189994083687607634350565228544.000000 -96272559427208963051967920812940786864450803789819502891243196094574176891830272.000000 0.000000
-96272559427208963051967920812940786864450803789819502891243196094574176891830272.000000 46947201623276602720847701242165263211367096864748290763273697005301751336665088.000000 0.000000
0.000000 0.000000 0.000000
-148090450282907262367417147603500245983125010908191967632648490610415981828981653504.000000 10994089951097555591769191038127358585366673539708027267702753464151503539265339392.000000 0.000000
10994089951097555591769191038127358585366673539708027267702753464151503539265339392.000000 1596941010636139084312331222548899982704823497991751989708220169964297423901687808.000000 0.000000
0.000000 0.000000 0.000000
133783007728965166610406735252699352377636650632031918374360511841499013330239488.000000 383296623869377565614253270727520885147394934827867274025861698500964169633759232.000000 0.000000
383296623869377565614253270727520885147394934827867274025861698500964169633759232.000000 206333997572756897548001464825345025411695315998453377420775374541225010015502336.000000 0.000000
0.000000 0.000000 0.000000
-3562582275050654219691014277630466458735242435636831600967831725997400123051606016.000000 -2036834913639540295208215345820902131537692320002402408383500514393698078298210304.000000 0.000000
-2036834913639540295208215345820902131537692320002402408383500514393698078298210304.000000 1077126000707015440685684561021325407461025829173747938755746528871812963239985152.000000 0.000000
0.000000 0.000000 0.000000
-1794857463402705211010384277421952693873764402592045878080451572486069263727067136.000000 -1243598974514651209705498180993651811404696007314971314585635297412680615643316224.000000 0.000000
-1243598974514651209705498180993651811404696007314971314585635297412680615643316224.000000 690486130729634797916338604476779613468984665514607579841711658324538681347538944.000000 0.000000
0.000000 0.000000 0.000000
-1904892639263672902016293561870971547475930827848549512915305736311867053564755968.000000 -734328690352620192994727859020584971224251607222176861928547826882474781179904000.000000 0.000000
-734328690352620192994727859020584971224251607222176861928547826882474781179904000.000000 345028954611423388085599757079208439565837248309125274772840429784430563165208576.000000 0.000000
0.000000 0.000000 0.000000
-1856500717894295964486401422072775314220238916639352743907341386954672477011181568.000000 -117140069670818100385758879384869940253263578983716068402125236650780310357671936.000000 0.000000
-117140069670818100385758879384869940253263578983716068402125236650780310357671936.000000 65785715958303920290050039087322218180454452346151537523717889818526779254505472.000000 0.000000
0.000000 0.000000 0.000000
-2511506316798789859639418902818707926937553895408729313592296739826458008884346880.000000 -809332299242442120320626828789695937386828378231008989284019244692871760823975936.000000 0.000000
-809332299242442120320626828789695937386828378231008989284019244692871760823975936.000000 355412908023908023589969345893834753903271627248321102486523442590219030799319040.000000 0.000000
0.000000 0.000000 0.000000
690287095178313082498741621770424520555735664135075317439236751453931990788603904.000000 189183201148479020274148672504195984896567297693825398353785573929140912629219328.000000 0.000000
189183201148479020274148672504195984896567297693825398353785573929140912629219328.000000 42770796408803653104805260471391819448323605619419035949196608510701941261598720.000000 0.000000
0.000000 0.000000 0.000000
1475869059001283607559193083354369545618288811471337403410760536657964814611513344.000000 435439648219135579521149691705582965942310706194990686880545807358734110096883712.000000 0.000000
435439648219135579521149691705582965942310706194990686880545807358734110096883712.000000 81337398077037646032647444632213856667469142131562214758093070296478616911872000.000000 0.000000
0.000000 0.000000 0.000000
1018822016139425721957091983862195103852049239034418322706597570837303783325696000.000000 -428489592495107689247168567996338698383755100623563252151430245739652835507699712.000000 0.000000
-428489592495107689247168567996338698383755100623563252151430245739652835507699712.000000 105297359288190389641687819769683478394606742681442514136719366030113933744930816.000000 0.000000
0.000000 0.000000 0.000000
-164408653874213948932509082056588322812556611736306253332886153214997962051026944.000000 -160306071478201001206011282306808708809268400981047022575384306325102668969672704.000000 0.000000
-160306071478201001206011282306808708809268400981047022575384306325102668969672704.000000 90961649897059862673868411194829291986825003369554694321619218115937410196963328.000000 0.000000
0.000000 0.000000 0.000000
4830764377463574457038937084818901813813742650976987887987582252780114730287104.000000 -36057899420480834364665207678409091742010781056123388656925124682446236811264.000000 0.000000
-36057899420480834364665207678409091742010781056123388656925124682446236811264.000000 9512376518526826326773727463778439448543015558725437102896911763553490716065792.000000 0.000000
0.000000 0.000000 0.000000
2775549560252996217296732592362373038172459220422796154571827523750295731840221184.000000 1449840434943016780456262760923962963539885805042571025213055280149484531664027648.000000 0.000000
1449840434943016780456262760923962963539885805042571025213055280149484531664027648.000000 433033510756767201697539729042562725022971239427733603013970457647270597125734400.000000 0.000000
0.000000 0.000000 0.000000
232590820245063507374726934403984513940272169704441889457349018235360700608282624.000000 9631276960429405617272844980635534469113670923000801223893670453946119452884992.000000 0.000000
9631276960429405617272844980635534469113670923000801223893670453946119452884992.000000 354789001592197388637867726234326786141728608855793913631199001403387205910528.000000 0.000000
0.000000 0.000000 0.000000
-4347995316107796733411833707430769603235041334744658036995074112191024213262336.000000 -10500372554331255203973767524758541285577510159853491550438521923954115073802240.000000 0.000000
-10500372554331255203973767524758541285577510159853491550438521923954115073802240.000000 6101701167921641520304599466558100786365011516044088954852082047370082216050688.000000 0.000000
0.000000 0.000000 0.000000
-726492596739322492711980486123912531209540369948943610902351719370625307037925376.000000 -2729723506667797618738966795340414527355237233920129435699078582783001711809134592.000000 0.000000
-2729723506667797618738966795340414527355237233920129435699078582783001711809134592.000000 1559617030933376899767343325684591335551582538356289975819831365762285230039760896.000000 0.000000
0.000000 0.000000 0.000000
24989876577155080428228428710820782278919541498725266335112926775689154519891968.000000 -8463784694225118920516379911361141167333761809860796653985119365306182294044672.000000 0.000000
-8463784694225118920516379911361141167333761809860796653985119365306182294044672.000000 1775686786339268511080443776412249657985571686131460605946877396360171177902080.000000 0.000000
0.000000 0.000000 0.000000
-43382509308641300601352096021102968715600345937637324203851184234038428944207708160.000000 -1278205325793314657084636696805089171008246052688745151022266496257474997658845184.000000 0.000000
-1278205325793314657084636696805089171008246052688745151022266496257474997658845184.000000 79966148993956700495756720711283817925488205088233876091712861483293756874555392.000000 0.000000
0.000000 0.000000 0.000000
-4140752390189777064282002364411722416797864972544319334402629979807721340524298240.000000 -692288480314001390947610727091532314889895831400029921661324299696152991617777664.000000 0.000000
-692288480314001390947610727091532314889895831400029921661324299696152991617777664.000000 200666622975220925160567300121209662936818872676038093871688073742748358593740800.000000 0.000000
0.000000 0.000000 0.000000
363995997301833245692334684854110675517124786735438720097937790211613552338272256.000000 -950642415764103116638603606742118850888688310280800137252138396580144753707843584.000000 0.000000
-950642415764103116638603606742118850888688310280800137252138396580144753707843584.000000 490539813964684684977082989494608149603718234199358811557421829454245491053166592.000000 0.000000
0.000000 0.000000 0.000000
-236456105770017593298055095735383732171383589465768337445358046100722456276762624.000000 180396242515569369031739885521672528138761258020360695432634307009444089281118208.000000 0.000000
180396242515569369031739885521672528138761258020360695432634307009444089281118208.000000 99992545395749837204878785838615217426771677541541875631138791496807026371067904.000000 0.000000
0.000000 0.000000 0.000000
521086378878370081282890899564715768462689172714454672202044942234337780439187456.000000 -54819722031655870868995265675662571648093847779704467486013791988170203913519104.000000 0.000000
-54819722031655870868995265675662571648093847779704467486013791988170203913519104.000000 4289627616259242866634889911373903870192029018590403963652716495631716104273920.000000 0.000000
0.000000 0.000000 0.000000
-2323985325842683760483089899711649521751521605219307322195447953317339190320431104.000000 676059329413982077623906870639728254275242991110469844206818519900855296854065152.000000 0.000000
676059329413982077623906870639728254275242991110469844206818519900855296854065152.000000 279908150155562882364992394528049645655578883297713882678442213430296613094424576.000000 0.000000
0.000000 0.000000 0.000000
145183516138755718632810633500800339652167893303179032523491519667564361575038976.000000 62678944150463800597268267823181653368710907095153725790298264514375952547971072.000000 0.000000
62678944150463800597268267823181653368710907095153725790298264514375952547971072.000000 17095052948936053868510379379294816922612166144418261192648920381777603429662720.000000 0.000000
0.000000 0.000000 0.000000
-33522741161041433574014379847530734011917669970019577936096016116073835046333579264.000000 11305368594691644222694128077777287733106135791141263261165322189951252519305871360.000000 0.000000
11305368594691644222694128077777287733106135791141263261165322189951252519305871360.000000 5022221741392383716952480254394348119832213378552107081696611881084674003443908608.000000 0.000000
0.000000 0.000000 0.000000
3091736443494261561815194378589093434160568107376521136166028229783763881558016.000000 195778503851464326876220087125515864117542015005435752307758026206533163941888.000000 0.000000
195778503851464326876220087125515864117542015005435752307758026206533163941888.000000 40011188803611946615633247539946615493146907145270108799332364343210546298880.000000 0.000000
0.000000 0.000000 0.000000
1163136964198803469382432349579864787502599764497187368327264021004251093278916608.000000 -3392115115907526726159796269193725327215809754888465600580155701492019711329697792.000000 0.000000
-3392115115907526726159796269193725327215809754888465600580155701492019711329697792.000000 1797772813716433389301969264290626151947583278094847986328222689383084427516575744.000000 0.000000
0.000000 0.000000 0.000000
559027601017206426022307857423931554393882291660760864808907405678232387262087168.000000 -920181182189060512076237572538106360662620502456421367000693158029433647927394304.000000 0.000000
-920181182189060512076237572538106360662620502456421367000693158029433647927394304.000000 451757800995640728656846198391148991766545570939003539314606474269197513659514880.000000 0.000000
0.000000 0.000000 0.000000
-10967205327666018339670903974054304667509118665902967957538853732522077013934080.000000 -32164787406895173537672225937377286845807438873395300148357021776652305170432.000000 0.000000
-32164787406895173537672225937377286845807438873395300148357021776652305170432.000000 189181694526756739089204370390050579439696611215253056837160352769510758940672.000000 0.000000
0.000000 0.000000 0.000000
-4230170069081331121598270045156991248752862551555530441652903634945597484564480.000000 -25898612239764071432985398274860938112269822434139941295261299379081602301689856.000000 0.000000
-25898612239764071432985398274860938112269822434139941295261299379081602301689856.000000 15541807656953646720444368021941121171956156488774134474920405877403428858101760.000000 0.000000
0.000000 0.000000 0.000000
-601910760348064154451132711840974151738024316260450795702823595514743939634561024.000000 498399323507888449934616846243024582133541481586659728763195525697154074042957824.000000 0.000000
498399323507888449934616846243024582133541481586659728763195525697154074042957824.000000 283938501085329035532665472868986513529765059488930000903147453134351570172903424.000000 0.000000
0.000000 0.000000 0.000000
1462982884143380669130602665067736318729130761524508362832016946409098002384814080.000000 37442456516589738777791614677558261084099085289974230175695118377330943541116928.000000 0.000000
37442456516589738777791614677558261084099085289974230175695118377330943541116928.000000 638497501869369229130528318413041705859741114438471175157230988113167001845760.000000 0.000000
0.000000 0.000000 0.000000
-947506775200342961586692201214454153728587891112019258105363919560132677444042752.000000 -162651477374589449702895519932490821927916243709167001781462753601156427861196800.000000 0.000000
-162651477374589449702895519932490821927916243709167001781462753601156427861196800.000000 48090506578299450680866514054277927046040897968848238178367595749285400852561920.000000 0.000000
0.000000 0.000000 0.000000
2238712782171881901744408719869570720125303618092381255803452237988822609395974144.000000 3243411190472694399163401385948385182746985229485175352962389100825507341101170688.000000 0.000000
3243411190472694399163401385948385182746985229485175352962389100825507341101170688.000000 1528608913454279490497279860105576845275698805672858774472663426486933735727955968.000000 0.000000
0.000000 0.000000 0.000000
2461793715529176735751194646350690795810113424020586764591654297780718927939108864.000000 1092270438178590898902576059884573996405053363682747756233302016849194437627084800.000000 0.000000
1092270438178590898902576059884573996405053363682747756233302016849194437627084800.000000 385804040841245303863471747819225839209997958940310102813559531936373361396940800.000000 0.000000
0.000000 0.000000 0.000000
-95743581252433700254307255659341556228459926176577837105293752578783988900954112.000000 150788420467916597123388577486184427264157076551696444768335368829428311689003008.000000 0.000000
150788420467916597123388577486184427264157076551696444768335368829428311689003008.000000 85927978796754877908284390255224231320957552391784407867074006230301852785704960.000000 0.000000
0.000000 0.000000 0.000000
90301365171027144396191100207532243078251325431785502369136026844529085133094912.000000 173779777994217642469551495518753120385217385719127809247975069569649680417030144.000000 0.000000
173779777994217642469551495518753120385217385719127809247975069569649680417030144.000000 79798522882094035048556234523238498300303873023745026445044425688143449039044608.000000 0.000000
0.000000 0.000000 0.000000
1807910893468473018366046511972029952686570801270659695176925440073559439344402432.000000 -1724881370814525350418127578184443247159175684897922603637632538413512304564895744.000000 0.000000
-1724881370814525350418127578184443247159175684897922603637632538413512304564895744.000000 730887446640694429956750751280790891313589325757149176501864800581270156664111104.000000 0.000000
0.000000 0.000000 0.000000
51379954724616160879699431234354907879360205304623860892336697052296960387579904.000000 53410987425378523130413231043308219006684540957414835300504109361055277026115584.000000 0.000000
53410987425378523130413231043308219006684540957414835300504109361055277026115584.000000 22830638494840984699604755511556513289457270337242660626843094938442383226830848.000000 0.000000
0.000000 0.000000 0.000000
-3507865393076570406589805141775478153535989879400332502382752808572913562576486400.000000 622662360027726906470741003888758927607602751480366048366717134354877302150529024.000000 0.000000
622662360027726906470741003888758927607602751480366048366717134354877302150529024.000000 189175604881897123715190932990203092677663930564102891616980349516670238506090496.000000 0.000000
0.000000 0.000000 0.000000
-45957936523045835991066903710018161734486741525954122854034828636079720899167649792.000000 16143743107799062541169252089400467381864533060330406558483912891729924062762237952.000000 0.000000
16143743107799062541169252089400467381864533060330406558483912891729924062762237952.000000 7277853589576849462869675895049181427216514940732710308200077895020114961439391744.000000 0.000000
0.000000 0.000000 0.000000
-6881041793034132177563821193944678173012558800227809295813519608629435438202880.000000 -970478024307319947690077960476261433609547736618682236572382661200722524110848.000000 0.000000
-970478024307319947690077960476261433609547736618682236572382661200722524110848.000000 326444783573455177584851731616538883440897649360164520144292569253729265516544.000000 0.000000
0.000000 0.000000 0.000000
15420520164622191381515353856221548569797768556490164668168291171568083844202496.000000 21144249479960258761638105839350311576733098105684789258378807086343206387843072.000000 0.000000
21144249479960258761638105839350311576733098105684789258378807086343206387843072.000000 9827199588443568606389950478520124941997348273215211672609484605728658032689152.000000 0.000000
0.000000 0.000000 0.000000
-15299367193355366027074285163078192126134398105804815282755235593533246177596669952.000000 -5530891977186601726816895617945030885317966334929479640168119058366152370863210496.000000 0.000000
-5530891977186601726816895617945030885317966334929479640168119058366152370863210496.000000 2592310078965573011025861083455155679555193267310589619363632064535717382719537152.000000 0.000000
0.000000 0.000000 0.000000
46563532573259291066529911119890697384317971474021551435627300933067610880212992.000000 -376125261038507497665153639778541116926272637687612801278379577771568941984907264.000000 0.000000
-376125261038507497665153639778541116926272637687612801278379577771568941984907264.000000 205203935021180643179574972630458225413481102942371866505170600899086702660812800.000000 0.000000
0.000000 0.000000 0.000000
-43977375489422991335414451981709001009093844346534057184388765850060470532177920.000000 -317870387681485334669767395138110277033325739220870867746384558873797837035929600.000000 0.000000
-317870387681485334669767395138110277033325739220870867746384558873797837035929600.000000 196490079973608948576369165423774890796061144437233480119704753660847158745628672.000000 0.000000
0.000000 0.000000 0.000000
3552776514862690061715206813357255800847337479857314747170217677346446674596200448.000000 4690717921703409046484503776841912377795537842468410348527651623484288770724855808.000000 0.000000
4690717921703409046484503776841912377795537842468410348527651623484288770724855808.000000 2175619670603903094927264562898931072742577116215306590968421792203459941137121280.000000 0.000000
0.000000 0.000000 0.000000
-449129398177201993708860725472474708139503909852799148508517214608251757122289664.000000 73836431691519375462355775914421480172331143302823068236886933536660495760621568.000000 0.000000
73836431691519375462355775914421480172331143302823068236886933536660495760621568.000000 56889841431271750643127906994980853341247525537023735098682683481927361805418496.000000 0.000000
0.000000 0.000000 0.000000
1811834414033308177044507684742882889451695550686229083157335380453879168731447296.000000 667787034809196471840147151167724262088310189244188994436878392033921806895153152.000000 0.000000
667787034809196471840147151167724262088310189244188994436878392033921806895153152.000000 151201009986018551858157893396565256543762619844687856292622321939240194616066048.000000 0.000000
0.000000 0.000000 0.000000
-378346468224298138302867051817324604957131862499013568636760710409695688476590080.000000 6328235245144444207956438000964329479065258054780528319806705288593300801978368.000000 0.000000
6328235245144444207956438000964329479065258054780528319806705288593300801978368.000000 2696799521902180285437191079326887693282196546511508836297210674728545399341056.000000 0.000000
0.000000 0.000000 0.000000
275319674032835353808021339531289549429127128476736707852015139834152448633602048.000000 286430928102315765173898211321186063090955011516252520473586144663037730321596416.000000 0.000000
286430928102315765173898211321186063090955011516252520473586144663037730321596416.000000 122547697957564006888785948805062235466507509693539260664158291114686610554224640.000000 0.000000
0.000000 0.000000 0.000000
-14538630398103984824821465871019642258501625936961775505854497512709436777431040.000000 14088477897754520497550476688992176845393685642878384053407929223116330259972096.000000 0.000000
14088477897754520497550476688992176845393685642878384053407929223116330259972096.000000 7997371956928873575115313911551457560690333876532704848005511488378941137223680.000000 0.000000
0.000000 0.000000 0.000000
-87827240266247276176078064582992532171115485923113066131275201359357585676828672.000000 572171196728980320848108978228762570793159734994893281584301716770602181344624640.000000 0.000000
572171196728980320848108978228762570793159734994893281584301716770602181344624640.000000 323982221027772490949618234501733264472381120674665845560630006767899101192257536.000000 0.000000
0.000000 0.000000 0.000000
-518150163203273439970081196530301513556975744197070438269415205592957517450706944.000000 1216818428119640663193682216570509998667737246531744093107553138377443509616508928.000000 0.000000
1216818428119640663193682216570509998667737246531744093107553138377443509616508928.000000 701608227732281209410937799128150773359086694948716657781594821311842263939153920.000000 0.000000
0.000000 0.000000 0.000000
461363955707130731899635522577648586670758493333703444532902704742487251052658688.000000 829028189623995191653880288361721001618880447138710345527891905409431685291835392.000000 0.000000
829028189623995191653880288361721001618880447138710345527891905409431685291835392.000000 407916237183667131418464931272752850201909399231167213301748820765814299459321856.000000 0.000000
0.000000 0.000000 0.000000
-78700585899891275369743812790913470338613694525482788055058238563300902610927616.000000 903730670805265532679215929657232975691171475275460676544431716399787660286099456.000000 0.000000
903730670805265532679215929657232975691171475275460676544431716399787660286099456.000000 508133993298089563400143449558931635658551458575058079408470524388372597954314240.000000 0.000000
0.000000 0.000000 0.000000
-109159772605730834844325758441862828373947925824068244454820481984333373665691303936.000000 10106174421064986392041027349243705919461678788047032496073012297323100468110426112.000000 0.000000
10106174421064986392041027349243705919461678788047032496073012297323100468110426112.000000 1824870436700960394011033581627394098669897418584705497890278756851062319054061568.000000 0.000000
0.000000 0.000000 0.000000
199254592379965676321064532167129516724823239278217148332022936269577039728607232.000000 101666463098985565046627568762733784276180596696129052498031390940569785082052608.000000 0.000000
101666463098985565046627568762733784276180596696129052498031390940569785082052608.000000 29603934440011276828840048687075411282890166903590445681661321564026706948259840.000000 0.000000
0.000000 0.000000 0.000000
-1784270305055264215688064721873027067814302085088605412521509188860924932390912.000000 -872834443216878115582051613878432014678354249637420601221936733644512001261568.000000 0.000000
-872834443216878115582051613878432014678354249637420601221936733644512001261568.000000 443726070510650995166459506002497748011755440524510259759485359656720595419136.000000 0.000000
0.000000 0.000000 0.000000
1989910099787402738244291980589725850768510226921239297207558387839616235826315264.000000 3289989585694701189622143522837488052763770741197203666014624302719371480219516928.000000 0.000000
3289989585694701189622143522837488052763770741197203666014624302719371480219516928.000000 1590894175873023440559867311897940106296681020891185681655975596389888236535676928.000000 0.000000
0.000000 0.000000 0.000000
-14907613220836836033440633936098224737736539652930776599122258660097912620751781888.000000 -2511599669849679506098242754933265096146191746773204926658815664417634107560820736.000000 0.000000
-2511599669849679506098242754933265096146191746773204926658815664417634107560820736.000000 746705748810684611394194457278170896110440125876690232136965056556988379514798080.000000 0.000000
0.000000 0.000000 0.000000
2654121865170207527301710670261668286381208001228753653834048916374107262717788160.000000 508777671477582235128267233399384727342713163072998975514481011412225283829268480.000000 0.000000
508777671477582235128267233399384727342713163072998975514481011412225283829268480.000000 64790344196877429853021629719483731250114091874316610073229249909941956067196928.000000 0.000000
0.000000 0.000000 0.000000
-24383419282613411397440925366579447844291374556307951402976147043974287871275171840.000000 -2030440713377212990349458779009609026177007156942195022113775454332995640995348480.000000 0.000000
-2030440713377212990349458779009609026177007156942195022113775454332995640995348480.000000 325912382262145050935150971250022864453305795501203420159707944926167067892121600.000000 0.000000
0.000000 0.000000 0.000000
-401869290592714287076016776098867627295754625502519350802518536313267551870124032.000000 -165007778286750883133674511718424104656653575247436702106672684018573090050015232.000000 0.000000
-165007778286750883133674511718424104656653575247436702106672684018573090050015232.000000 80815360016609342897461585925243534206568578308485667167020340873255536105095168.000000 0.000000
0.000000 0.000000 0.000000
7852745108132663488528897000079149755982715094485099462475592776271544310562816.000000 2489572628967405270959593219153200031978213536105237514971685335020030767661056.000000 0.000000
2489572628967405270959593219153200031978213536105237514971685335020030767661056.000000 1970220569361108437376896579127908020714664772429273050631394410204932817813504.000000 0.000000
0.000000 0.000000 0.000000
-332268319281408059417193574299421125692385397943538610745494578281949354212196352.000000 -524056059881990959572254710073201935679785527444645057207592097171569626908196864.000000 0.000000
-524056059881990959572254710073201935679785527444645057207592097171569626908196864.000000 302404816097662014995093927359549218338661702327673385327921697924425282421260288.000000 0.000000
0.000000 0.000000 0.000000
-679251847091093590579854349645962643406793451113909015755793180137570332311552.000000 -54322563632977836062068760373966925345348866009666472177737643932384348864512.000000 0.000000
-54322563632977836062068760373966925345348866009666472177737643932384348864512.000000 254025251351526736962796998321349464301659598503403340546020152386982879690752.000000 0.000000
0.000000 0.000000 0.000000
97233338974805816714680429029823107698293830142051947562800173565227796900347904.000000 -132083344962490970036823551410071351617869242439770092646972426635110764215533568.000000 0.000000
-132083344962490970036823551410071351617869242439770092646972426635110764215533568.000000 61478244521929244770543674514581840646362780578125261790529727555606117630345216.000000 0.000000
0.000000 0.000000 0.000000
224927208462677482454989824302124580336058287815002009796065731213388974278049792.000000 -870907893991001300889679235707135264987471243095701993046617145074875155041222656.000000 0.000000
-870907893991001300889679235707135264987471243095701993046617145074875155041222656.000000 462264740025392850222634323326603654517990349162357598506308827103345077831860224.000000 0.000000
0.000000 0.000000 0.000000
-877050657315874798079365869620410872551991255054730892527837994785060724813070336.000000 266584594546712368167907353615861228253268428532900049717259333702309589190443008.000000 0.000000
266584594546712368167907353615861228253268428532900049717259333702309589190443008.000000 121083344893770991279452158316126354324212675372072884405153952935522546399313920.000000 0.000000
0.000000 0.000000 0.000000
30737178822926788568710186049719608108596945912475305096803930115423084505726976.000000 -253068176118813695721738802974946404093197889688674108338579579025267915153735680.000000 0.000000
-253068176118813695721738802974946404093197889688674108338579579025267915153735680.000000 138263712172856906374486872999464294414066210884461181343849496401783282911412224.000000 0.000000
0.000000 0.000000 0.000000
633664532890494741195865689202481361505326604344080880150487877699218078240342016.000000 409695327778330963095918041258908520054203752602219310893709915165235478620274688.000000 0.000000
409695327778330963095918041258908520054203752602219310893709915165235478620274688.000000 139446460801211497622111159866489756466595998096458826494832852808821900220301312.000000 0.000000
0.000000 0.000000 0.000000
612548450311096743661529541868199951342338341642582352608573909033224099451633664.000000 -197259733696654654472203596644711172660699163795541292063296789139893927532298240.000000 0.000000
-197259733696654654472203596644711172660699163795541292063296789139893927532298240.000000 40336202769418664303149466161798460975583563631917197256091341800789089387020288.000000 0.000000
0.000000 0.000000 0.000000
729044926839440770872586866718222380554882992299173656486235542988431072602095616.000000 -425809565923001471372218460034128166387708498062356527859837691501897476374265856.000000 0.000000
-425809565923001471372218460034128166387708498062356527859837691501897476374265856.000000 122917985430036397326374306516216913698384461197622640562421153948281091500539904.000000 0.000000
0.000000 0.000000 0.000000
1030112091302525705193765513729928560574183048138059609458773015162158282436509696.000000 1220352473447033652772814869276335190464011046073616950124493506651992624814096384.000000 0.000000
1220352473447033652772814869276335190464011046073616950124493506651992624814096384.000000 574059468462058382680452649235459727746627841314907037866501468194323735401988096.000000 0.000000
0.000000 0.000000 0.000000
132084833776006208540485651348048727984929283418492900374418540765124808203567104.000000 188486837866838781283802404402192009216393468084758037800734848965100227050602496.000000 0.000000
188486837866838781283802404402192009216393468084758037800734848965100227050602496.000000 96307884592311272053903326428038843403064168848276180591338631738617103686565888.000000 0.000000
0.000000 0.000000 0.000000
372589112711568860366187960904896236790044402772923267809053667134987726621769728.000000 331591058861254854730531166282161322811102294125586852025130700645882704835903488.000000 0.000000
331591058861254854730531166282161322811102294125586852025130700645882704835903488.000000 156992828481552663132249048209180358789429125973181047508196079014374351745056768.000000 0.000000
0.000000 0.000000 0.000000
-2091295196706950409835157388706776490078584201919112017277805591727806255393144832.000000 636462723166542625737925476412818325364317881728425047311987739986689369697157120.000000 0.000000
636462723166542625737925476412818325364317881728425047311987739986689369697157120.000000 269655664713703800098733672947587646039483030554465045590920256830766111493455872.000000 0.000000
0.000000 0.000000 0.000000
-973921880676039183866152377599451943248170819738196077123257810364866408480768.000000 826751389597400144222459320886618625228156733967140079813852856667809941291008.000000 0.000000
826751389597400144222459320886618625228156733967140079813852856667809941291008.000000 464122790200037136775724765421558586577586076471966331934279192963345702453248.000000 0.000000
0.000000 0.000000 0.000000
29818173179896193438823667376749003528014649825617925130353579115639727309455360.000000 -15202640902557459715532929487679977663212602074492132487829209196695373932920832.000000 0.000000
-15202640902557459715532929487679977663212602074492132487829209196695373932920832.000000 4633399573520407203939772397206628070603760330579188036843331332785107193823232.000000 0.000000
0.000000 0.000000 0.000000
81422419863922954653318720309992494846761667488215508489376370460958122794024960.000000 -389494308975524739610231729057671122664020367977037731070122619038833051680374784.000000 0.000000
-389494308975524739610231729057671122664020367977037731070122619038833051680374784.000000 209497411781938493128953719561979953986142118755775163671784838780008159378407424.000000 0.000000
0.000000 0.000000 0.000000
-1655583286899843174387869700724489694777777703064959629966024341506896145638490112.000000 526565763358590834058427434838050110228562059621881443912216107610541119862996992.000000 0.000000
526565763358590834058427434838050110228562059621881443912216107610541119862996992.000000 227832200896474213835940231900067321558985501264819220757646572371928186257145856.000000 0.000000
0.000000 0.000000 0.000000
-347400955424181567244213176335399689256287651881391989876777362869698938535936.000000 10484611532042360391357062859523127831084069682373349566442910517827177807872.000000 0.000000
10484611532042360391357062859523127831084069682373349566442910517827177807872.000000 26594003772158137061222590147836752359326093457041833367868117137063980040192.000000 0.000000
0.000000 0.000000 0.000000
-92363614607931164974147908413283491125058824628870965657007163627953789994008576.000000 -81190858813140170711035166740940827848053121948088224281015237962756945340268544.000000 0.000000
-81190858813140170711035166740940827848053121948088224281015237962756945340268544.000000 37762267875940592445966619246072282581791145004153584181424197771938917972443136.000000 0.000000
0.000000 0.000000 0.000000
274180791718784665241819671188408654702648466263781275178389477062334489896681472.000000 -546984851416230256699317637588624605467914841948593936389680159012107648281608192.000000 0.000000
-546984851416230256699317637588624605467914841948593936389680159012107648281608192.000000 273220936210992571343444321951136798563889164816932746589799280018244499641729024.000000 0.000000
0.000000 0.000000 0.000000
49455286300004901435551358689712438063027412201994426541611303066514873173147648.000000 59302003580408481089400295522417616301404010484917758294192049316239717204754432.000000 0.000000
59302003580408481089400295522417616301404010484917758294192049316239717204754432.000000 22841905720538839923113275830488733334963928188769144396234601078529339812741120.000000 0.000000
0.000000 0.000000 0.000000
11252203430722905321341859053159403781344982712726468392800363595574876269707264.000000 -9571112224846941239387203898887271409946660326825347601012680252654798004813824.000000 0.000000
-9571112224846941239387203898887271409946660326825347601012680252654798004813824.000000 3770275193257353770059762357858109276020972903838512004301833869461271831642112.000000 0.000000
0.000000 0.000000 0.000000
-479302237671345133471657380189853512943230713152066149207241128494477218301345792.000000 183279425040998195986882886062700968736733784295177086814499535178192163482632192.000000 0.000000
183279425040998195986882886062700968736733784295177086814499535178192163482632192.000000 87477862758220301596581156147480674240922995791786306602370567822037997557121024.000000 0.000000
0.000000 0.000000 0.000000
589433486593180992621122618520276837971292524431534001397787439996270412824576.000000 -54654117425023330717779189337323927503334523934305857328405366726554536128806912.000000 0.000000
-54654117425023330717779189337323927503334523934305857328405366726554536128806912.000000 30347776174545696969695188634050822949482526082293437780469921789521899768774656.000000 0.000000
0.000000 0.000000 0.000000
-180205129916175235291466730147042438746503215751381529456967336907735629702365184.000000 58179581668520624800169947359182134939051949861962028973713015392442995955466240.000000 0.000000
58179581668520624800169947359182134939051949861962028973713015392442995955466240.000000 25360339032827177851634729609316894769499284651152726388085923485214389454241792.000000 0.000000
0.000000 0.000000 0.000000
411610933035606553785189549181899882437687559336168908509629206689384416067715072.000000 45180921597192254549152981099382636899029245717339583440507940129899944326725632.000000 0.000000
45180921597192254549152981099382636899029245717339583440507940129899944326725632.000000 3279498336393597717986431228321701703176489888350360493599378512859459798171648.000000 0.000000
0.000000 0.000000 0.000000
-244072463100918200888809857049756892881020009029860454460458643649506947041853440.000000 204989737961644209600852527713242857686552074338716081729951699325315202760572928.000000 0.000000
204989737961644209600852527713242857686552074338716081729951699325315202760572928.000000 114363948404588818006068463105859707823064567318979943430275975635905889500659712.000000 0.000000
0.000000 0.000000 0.000000
-100975756803795606057814858689379209041494533447597964153310175745151458723437215744.000000 -1010735705845631695471833591030350949859153571484099203430175061546903469329219584.000000 0.000000
-1010735705845631695471833591030350949859153571484099203430175061546903469329219584.000000 81710716656929374561470633512124099388233784336696962725536193164254864876765184.000000 0.000000
0.000000 0.000000 0.000000
222058063850913562327466983747683625469457414715980840267800083386238290830032896.000000 -255481147323932945545032164569428235449296085255031810292590169860555839289425920.000000 0.000000
-255481147323932945545032164569428235449296085255031810292590169860555839289425920.000000 113129496711568519286707691101110616940727027180128765428814990514398210040004608.000000 0.000000
0.000000 0.000000 0.000000
512725187421210172704568611152446874570069649496693066514354974857136912178610176.000000 -467771624157022820109633141791411866108186095829241689998619467118894238333403136.000000 0.000000
-467771624157022820109633141791411866108186095829241689998619467118894238333403136.000000 189897328396785557105791294863651750620825495750422514115419562505190221820198912.000000 0.000000
0.000000 0.000000 0.000000
-7525208278861015927094112566581687146769161914156565245365771854664631630316961792.000000 -1831908889470815935955915381477715927430620293732464753062089389924001022688100352.000000 0.000000
-1831908889470815935955915381477715927430620293732464753062089389924001022688100352.000000 691492031926185601686185108121372057943704240072980312024302870640847026491752448.000000 0.000000
0.000000 0.000000 0.000000
-80411568607478405799070966368790646609088681432535402904232419202273729702789120.000000 -41221181394974530878535797745940131955477329817678349016417296655385573741035520.000000 0.000000
-41221181394974530878535797745940131955477329817678349016417296655385573741035520.000000 21225174677927013606368649699733987400743634829687756217405977014644286372708352.000000 0.000000
0.000000 0.000000 0.000000
-21805517894555025084043747301093780096977344776247290613589024208209646517747712.000000 164239470345233507272083904663293326593577702443037010991729273507233468593995776.000000 0.000000
164239470345233507272083904663293326593577702443037010991729273507233468593995776.000000 92274411839353149963823396352972222837413287252418366388329700006474435480518656.000000 0.000000
0.000000 0.000000 0.000000
473537455277970094098689603497953159102007443287525672293446935810924426848894976.000000 259272772644585020765467624971958323109667589881907005768385021173068564120207360.000000 0.000000
259272772644585020765467624971958323109667589881907005768385021173068564120207360.000000 76020409831732121756080144923264915907768246684427795628044884071828601601785856.000000 0.000000
0.000000 0.000000 0.000000
384184823576400523299981187779517453145230822891682666382952762079980836146380800.000000 -1310499403322200845905434635821338316566696334935928022537349351713952122978435072.000000 0.000000
-1310499403322200845905434635821338316566696334935928022537349351713952122978435072.000000 725565027821306392106729498446991135128858805241074085269977086541721834606297088.000000 0.000000
0.000000 0.000000 0.000000
-151518346512560771594025378605481899943134161050029849033631234909499409207132160.000000 65815617684690282425971418315013651990067352638011562854175502399058439928020992.000000 0.000000
65815617684690282425971418315013651990067352638011562854175502399058439928020992.000000 18824182420300757885314592949002879897732551043194487592503830993836168114601984.000000 0.000000
0.000000 0.000000 0.000000
-3048797256740085628684967683460880537375747919166326750759963052533367026221056.000000 419873333154972953896969557526903896605820027430833169595648696583699373282557952.000000 0.000000
419873333154972953896969557526903896605820027430833169595648696583699373282557952.000000 233911412277350552663765116025059513501228668029291121867141056216172769648312320.000000 0.000000
0.000000 0.000000 0.000000
-843273193800076046276782319079698025369645976476443999173151312379233233214111744.000000 -6010500509036436687709275073497352046495268805051250737757999123006224822058352640.000000 0.000000
-6010500509036436687709275073497352046495268805051250737757999123006224822058352640.000000 3392862028951337409478220765978296355308703991238650180090920930721527437195214848.000000 0.000000
0.000000 0.000000 0.000000
-291406502227600789404079001377844266788180032885146690050304427765347650876997632.000000 154824957053643709384440075285289999633058602992297071397432787671922831978921984.000000 0.000000
154824957053643709384440075285289999633058602992297071397432787671922831978921984.000000 83462566353788279631034246505533445459153641755216742070487562214619144502902784.000000 0.000000
0.000000 0.000000 0.000000
305442369212677369029391103403646279519569372033453867570161356911785199041249280.000000 100940934653286674464313917472155404518876736666823448113058662147903035197620224.000000 0.000000
100940934653286674464313917472155404518876736666823448113058662147903035197620224.000000 20825895243594404831336182258178585371273334364094097430513834318668576235454464.000000 0.000000
0.000000 0.000000 0.000000
-953413529498252618118010650824295388669788598489726100560933464958253889723826176.000000 -1562128194627792943446496963307329896569508103183571285425804644816701012486127616.000000 0.000000
-1562128194627792943446496963307329896569508103183571285425804644816701012486127616.000000 898645678916003577913221348159815817620091642329756910755260560133581292091473920.000000 0.000000
0.000000 0.000000 0.000000
378190790044428787487769860055693602150141013436157281029000110618680929061699584.000000 -256989016673790637783172774380413220632520988280663723258060968529463723998314496.000000 0.000000
-256989016673790637783172774380413220632520988280663723258060968529463723998314496.000000 90050116108859458679020624098017790131620444825706818118291413650263386684915712.000000 0.000000
0.000000 0.000000 0.000000
13635351347870481742798668457648319067863483678029380989608189878916919437819904.000000 -5313070887730524738283124102438471244014352166671249177828355207846039256039424.000000 0.000000
-5313070887730524738283124102438471244014352166671249177828355207846039256039424.000000 1265210275808216477755289999829303218208744937946409103656876894447829254144000.000000 0.000000
0.000000 0.000000 0.000000
584085146792033954052916690727463951154703266095257310854924645571838076612771840.000000 -124010399164688498996224355731493604949553973885103706063953940834176551568277504.000000 0.000000
-124010399164688498996224355731493604949553973885103706063953940834176551568277504.000000 17399425053135553838110504088814075613223965465261689335451082566703883000741888.000000 0.000000
0.000000 0.000000 0.000000
-104830864174342388487040072988974570175926242921361785148829866112066550530834432.000000 336235820447144568791512694760719643012210503390763039425325501816627718839599104.000000 0.000000
336235820447144568791512694760719643012210503390763039425325501816627718839599104.000000 192691509659887191117258418198036111084429969711633764448221202334994531352576000.000000 0.000000
0.000000 0.000000 0.000000
366308134826896602586374829383287970835340403804554195899341403974353353070084096.000000 2106804883523243853001285627762262495296318710635093224651237810614702344801091584.000000 0.000000
2106804883523243853001285627762262495296318710635093224651237810614702344801091584.000000 1197586513800156060792107450423768521666921566895381305763193440360396568211226624.000000 0.000000
0.000000 0.000000 0.000000
-324570021558253345298277988021432294986751589518911044532310454385386905894125568.000000 -430135635239271675914054991685787172939910920070599989813724012039764586245652480.000000 0.000000
-430135635239271675914054991685787172939910920070599989813724012039764586245652480.000000 247466683394228853865726120930446800745611320696148505839193909933600668169273344.000000 0.000000
0.000000 0.000000 0.000000
522472691074510669370471912489729640512360644305375155071072218240466796352110592.000000 240490646567763390535294757763708686512185923315728215852566868392447291840004096.000000 0.000000
240490646567763390535294757763708686512185923315728215852566868392447291840004096.000000 66819712311431604796502021122032406889000464256414120062788336751244849239293952.000000 0.000000
0.000000 0.000000 0.000000
204480258228641615142820821380774751254520966559326088743035739406649104860708864.000000 -751093840686348327517687102439402496424889670288869510043624078949564530680659968.000000 0.000000
-751093840686348327517687102439402496424889670288869510043624078949564530680659968.000000 397842659537870386242155393980240355947223648637850217064781114634671800727896064.000000 0.000000
0.000000 0.000000 0.000000
22050167225260502768459952898375233802084248796997273996152946985333144334368768.000000 -3568138299964192039222390159098955003923615323574365678204741107875655903608832.000000 0.000000
-3568138299964192039222390159098955003923615323574365678204741107875655903608832.000000 451710993236700116837654244041894817875715925461914060669879459647263309037568.000000 0.000000
0.000000 0.000000 0.000000
387955211283187745441261857288969286588922907149184580987589447504128298197188608.000000 -124693510469947895351137002294376572006662651792784330649769995447481881239486464.000000 0.000000
-124693510469947895351137002294376572006662651792784330649769995447481881239486464.000000 57448383393072186991551092399021881730559143938191231331396179845599480518803456.000000 0.000000
0.000000 0.000000 0.000000
409962122153261915680901632004583766564545798792070087772192566395870069485731840.000000 161851745898426107873554891519975122628932144992157600815534182101621108304248832.000000 0.000000
161851745898426107873554891519975122628932144992157600815534182101621108304248832.000000 38624460485855517773573341930980067538126083633834913751511994313237769366798336.000000 0.000000
0.000000 0.000000 0.000000
29067086420236485069193493416930628883036064593511503530533396169930336576208896.000000 48954826057836293123985873049410752288405520907127069106960163592106968682070016.000000 0.000000
48954826057836293123985873049410752288405520907127069106960163592106968682070016.000000 42160143536955964895528081735118499450032000350875879448545602066246650728284160.000000 0.000000
0.000000 0.000000 0.000000
157651202040711923134388213999479434039237977476634472084751123250557428734885888.000000 100192315189007177096702187767415677706505177602651889006100647106855834839154688.000000 0.000000
100192315189007177096702187767415677706505177602651889006100647106855834839154688.000000 34557094121408548349021213942994539059274965045062279303358926134430703776956416.000000 0.000000
0.000000 0.000000 0.000000
39712813018711547764303154544087465739908722040240138215264100529712013067367219200.000000 -1207103401697742123508947227084775469252059995362022772073847667879037398369173504.000000 0.000000
-1207103401697742123508947227084775469252059995362022772073847667879037398369173504.000000 24444998168322895895438905343160085465895395051871734061669611376501035376836608.000000 0.000000
0.000000 0.000000 0.000000
179088105570662281837056707425789826249019069653497721881445829563643600236969984.000000 385811476987748395346097036967855573388138880393442036196510402232597721645056000.000000 0.000000
385811476987748395346097036967855573388138880393442036196510402232597721645056000.000000 193932344119155030876325574165971274990609912393701631603402893119169967251521536.000000 0.000000
0.000000 0.000000 0.000000
-125145130641974861344728600964253418891108371750123474323938033024178489449775104.000000 -474056998185834551859908596189404784290855986975127662778834605965212566675259392.000000 0.000000
-474056998185834551859908596189404784290855986975127662778834605965212566675259392.000000 293008479853332932438406703837672705276157315302272983904250301522424881425154048.000000 0.000000
0.000000 0.000000 0.000000
178814224068690473707131588361729659806762696543996189383855803759951707734278144.000000 -64063706324933178197847941589171962593910168025015475287676540493980807343374336.000000 0.000000
-64063706324933178197847941589171962593910168025015475287676540493980807343374336.000000 22737036836882658972602968397945728557122789596885884102211688177420156016787456.000000 0.000000
0.000000 0.000000 0.000000
-252954073724054591705322948808953477061159789199330864037482658029815709453778944.000000 -345679810012071364915109646688225604002606402086754343357265746082465836957696000.000000 0.000000
-345679810012071364915109646688225604002606402086754343357265746082465836957696000.000000 204158906350712899755023692057993732037733386202643770360762446181884283286716416.000000 0.000000
0.000000 0.000000 0.000000
534358910291948822198520437941251532863342287062285943842421417408790597088575488.000000 1835827543578003985038448428463038966063367831963744291171232023032467186564202496.000000 0.000000
1835827543578003985038448428463038966063367831963744291171232023032467186564202496.000000 972664341664604158062520145379865651379829990282039177076592940688657146124959744.000000 0.000000
0.000000 0.000000 0.000000
72939797348401852299141503827171768459981508905087127623707125557587745964032.000000 -1153870189379684046579102491248813822463457394984186045104149223113093936054272.000000 0.000000
-1153870189379684046579102491248813822463457394984186045104149223113093936054272.000000 814398491290930863146935773598756606308083914205412067667073230727612226076672.000000 0.000000
0.000000 0.000000 0.000000
146814598123612007597223684690022730282064089200534527327626907724876919798235136.000000 -378016488094666744523493303703529106769354558019938759218368919890210546912329728.000000 0.000000
-378016488094666744523493303703529106769354558019938759218368919890210546912329728.000000 196544529334379201229006740107371172415704262176549248972877007457621547530846208.000000 0.000000
0.000000 0.000000 0.000000
-88194649638372287230597373499606691558545178858904407995407182241114028507136.000000 -898689217322893914727987313657884406605624994320554776321335352464436902232064.000000 0.000000
-898689217322893914727987313657884406605624994320554776321335352464436902232064.000000 505951132077537205504642341149436557159690560824920108877345807045280336445440.000000 0.000000
0.000000 0.000000 0.000000
345981405829434452758123540864147552447050825133062811359087127413809945902055424.000000 -692066833280175864503397232025183130202240485701741937174251999203353295461548032.000000 0.000000
-692066833280175864503397232025183130202240485701741937174251999203353295461548032.000000 347789728733322864595534786506624715028066349223057451983615262388577685741764608.000000 0.000000
0.000000 0.000000 0.000000
609653389841272748510708948972033549018708094384424222303012560637834179903488.000000 278875781144685101794894964055874567413410442557559790457518908175594608507486208.000000 0.000000
278875781144685101794894964055874567413410442557559790457518908175594608507486208.000000 154652896733407057880860670594554011187057351527804115998520371156600431832989696.000000 0.000000
0.000000 0.000000 0.000000
-151873733742329803927747463368960804547236741162675341542876995044985555990347776.000000 -250489784164063027885575062581329414361459931660971045339490289883348853722185728.000000 0.000000
-250489784164063027885575062581329414361459931660971045339490289883348853722185728.000000 143222164876896439699522979234942216389039438504713428120159647131792802700066816.000000 0.000000
0.000000 0.000000 0.000000
3911162033464951657643976975782717685328002968063224313463378769022014420156416.000000 -188087621673648120619789343841581027487641479688758772855151693836779732500217856.000000 0.000000
-188087621673648120619789343841581027487641479688758772855151693836779732500217856.000000 104263483764819963445829016241089820014815135524021433091624699430298322582110208.000000 0.000000
0.000000 0.000000 0.000000
-9547922344235164983479177793220733132314718904420691977932888936090846072143872.000000 -178775018470470031372161109064936195753696082685892025224775024601439641345720320.000000 0.000000
-178775018470470031372161109064936195753696082685892025224775024601439641345720320.000000 105968221764364862401544459364737679278443346316649812562902828963768742373752832.000000 0.000000
0.000000 0.000000 0.000000
31141987191912114006802594039745893023685943138718908140805998353268266900652032.000000 -85251559278676795648507113615622201947522369194882310345528951167770968557879296.000000 0.000000
-85251559278676795648507113615622201947522369194882310345528951167770968557879296.000000 42489937687952592355969496459796967662253908179287855983878806604492808290041856.000000 0.000000
0.000000 0.000000 0.000000
-708527432635732983034279646624388448228215162083608067152280953583850890004575289344.000000 -36644733409073974381328024428596588767146983572813663611956541292877579040675856384.000000 0.000000
-36644733409073974381328024428596588767146983572813663611956541292877579040675856384.000000 3729364907936127753262579315522829180587817601723078412020265301316525952614793216.000000 0.000000
0.000000 0.000000 0.000000
-933596357865432264013431427731676648292335569824069673520200522751920708629037056.000000 -2234345538833438869659912741883990560512546517211030755557669657511518302476697600.000000 0.000000
-2234345538833438869659912741883990560512546517211030755557669657511518302476697600.000000 1286307699484828120834626289448927136881761017002282053648571164225450217037627392.000000 0.000000
0.000000 0.000000 0.000000
315350920710539384965400869791133202435136741505862191917542092765602119235403776.000000 209346716371164979468381724076553296592223527028853429121945159641638217212493824.000000 0.000000
209346716371164979468381724076553296592223527028853429121945159641638217212493824.000000 72432369929962305381951240397174952719836900754837128206442333472102161278042112.000000 0.000000
0.000000 0.000000 0.000000
64224469568922595629841325297210978303522317827788410662444336349485067812208640.000000 7051195693712270528772758202305420660877233562173324835323095554555396807983104.000000 0.000000
7051195693712270528772758202305420660877233562173324835323095554555396807983104.000000 534971539711995589725582423766133313720229766012022751559552869303578425032704.000000 0.000000
0.000000 0.000000 0.000000
662447330659620221360216075641091246101693246207012537255676988577421446638206976.000000 -297117660198648277236727421402065852629193699142005645339585719414027507898253312.000000 0.000000
-297117660198648277236727421402065852629193699142005645339585719414027507898253312.000000 79058780358944270552040801257625415703280815628000692757286848069588153618399232.000000 0.000000
0.000000 0.000000 0.000000
3940194285217024134062547089312494676502576835788659289902010372258448128606208.000000 1053737120256372460353411647377632813139836217710680750070614126883797410512896.000000 0.000000
1053737120256372460353411647377632813139836217710680750070614126883797410512896.000000 179344171391773141887041982025669907612162352586495742977093395291995830747136.000000 0.000000
0.000000 0.000000 0.000000
17273842210130425574115313696878182024291709994695878640245175826493289527246848.000000 42414329093698160265159609881976264497280958091912322504483566573370120026980352.000000 0.000000
42414329093698160265159609881976264497280958091912322504483566573370120026980352.000000 21070776391167531946211410586845059776217803850662707258813620215947571706724352.000000 0.000000
0.000000 0.000000 0.000000
-7949621967392865689705963827043764319375887138568666647360283560620145936171008.000000 18766547244037194972335286375129230926820673629247395279068453795842937900236800.000000 0.000000
18766547244037194972335286375129230926820673629247395279068453795842937900236800.000000 10806241576487970039256580061870472274826192241639787091771034609200227510386688.000000 0.000000
0.000000 0.000000 0.000000
-352709556722368707673361110638707292359168151917709271119094093840194145802518528.000000 -230713924739354365899308601040108440873903745291686808677429705655389046033088512.000000 0.000000
-230713924739354365899308601040108440873903745291686808677429705655389046033088512.000000 125062249775687384057965767439077880000972198384085087457933309967636151972921344.000000 0.000000
0.000000 0.000000 0.000000
8567368951778024258758833447630292959534301363777898545553347699072286326784000.000000 -11759254812825944581999941420198449447051050945463833403923713034157162017849344.000000 0.000000
-11759254812825944581999941420198449447051050945463833403923713034157162017849344.000000 5473832002941291767676842320299291325748640453180379018672696469994907069579264.000000 0.000000
0.000000 0.000000 0.000000
-122119956126418869574781770366259578339399009895407137964725549754251225769967616.000000 -307468076562321512934447623878340279718866108974656246113632206794519706643464192.000000 0.000000
-307468076562321512934447623878340279718866108974656246113632206794519706643464192.000000 182900982930010922928563955582168550239355968191570602170489645232055597068713984.000000 0.000000
0.000000 0.000000 0.000000
244769508395856580148192804319661913843509017458195617861221071367589238467985408.000000 182840846453025832619979223882905254322415237400745267041954876428979575080353792.000000 0.000000
182840846453025832619979223882905254322415237400745267041954876428979575080353792.000000 119176972924404820329612077413126955831628218356264259288778579850844188228714496.000000 0.000000
0.000000 0.000000 0.000000
64889948491100446928869620030984044332249247546658087498966188200240963733422080.000000 -47267360737727563441769609385042042662171741725046526225725482320787081504227328.000000 0.000000
-47267360737727563441769609385042042662171741725046526225725482320787081504227328.000000 16433041348903544631172244580896953218591663684780838530243383393249870607286272.000000 0.000000
0.000000 0.000000 0.000000
156635470245604104833597571627502703327691614717908544260824437874465705948086272.000000 -348459248630003439498967660136626925526324136009921016210837977103231044215111680.000000 0.000000
-348459248630003439498967660136626925526324136009921016210837977103231044215111680.000000 176905457070337104450490804978091096933791490374472430820409026785221215134941184.000000 0.000000
0.000000 0.000000 0.000000
-122717973718706909954868867818009900216537164217445852384206486352738887424540672.000000 522908031149198033854808771140943679464720750831987556772083848571183518250434560.000000 0.000000
522908031149198033854808771140943679464720750831987556772083848571183518250434560.000000 297941125598981465215077134261344179175834763887511255562160420950562247614136320.000000 0.000000
0.000000 0.000000 0.000000
674039373753099700610608011317068193028385483645538761330508002392444730605568.000000 1215328362830949607982322742340221559663421159147961252407487117459253029240832.000000 0.000000
1215328362830949607982322742340221559663421159147961252407487117459253029240832.000000 597904694646735120098028353694005859290155406438223990707350448443046278201344.000000 0.000000
0.000000 0.000000 0.000000
344330503620532288101988456195704152478649561820589705825991641945106235202207744.000000 -202486573144440422855906349101323163225309211719677786831897588898435601092575232.000000 0.000000
-202486573144440422855906349101323163225309211719677786831897588898435601092575232.000000 64903774164954137629943438998374900095801826136223148901622712899498952240398336.000000 0.000000
0.000000 0.000000 0.000000
136412786524278279019272963107043769094320704770497304270952248269586319970140160.000000 -42282361679319902746462067527223501011854339046093112429410694615016364979519488.000000 0.000000
-42282361679319902746462067527223501011854339046093112429410694615016364979519488.000000 21965484268799216103631005033968606819702752183216614359180817870138560204505088.000000 0.000000
0.000000 0.000000 0.000000
-9242208990418429154727086680812106435810469580305727347064256675939902751244288.000000 284829358935869075418504123460422330298088961978221630559176179084171008802816.000000 0.000000
284829358935869075418504123460422330298088961978221630559176179084171008802816.000000 2399499056199828680969106519435108197129989246976048254241319609898733106364416.000000 0.000000
0.000000 0.000000 0.000000
151316182185758057645538717924941430468067890840992126969709176327492161503232.000000 -407709807905462353889206389337750949120277525831740600761748815716305288036352.000000 0.000000
-407709807905462353889206389337750949120277525831740600761748815716305288036352.000000 210683347637717036950868799239891386899826922256452790787738927693761420984320.000000 0.000000
0.000000 0.000000 0.000000
49831202236294403105833213488991876801375807066935387290825995655115120203268096.000000 -168368537253908617791718814455836783705887802848875097350134588815318015025348608.000000 0.000000
-168368537253908617791718814455836783705887802848875097350134588815318015025348608.000000 88756909368829108009482961321156637876877844917146783087837224698695825825464320.000000 0.000000
0.000000 0.000000 0.000000
2863772581836122446543895514026469772161564169939243023048624580273402406689046528.000000 -4567030833277891978559495784545032307615036335922806482326119811123329062014025728.000000 0.000000
-4567030833277891978559495784545032307615036335922806482326119811123329062014025728.000000 2196978130020895845715860072164490766199109571428522974977040869478715342723219456.000000 0.000000
0.000000 0.000000 0.000000
139468154335671244376273168827731477087509830674274168270747831259502810792722432.000000 598843368442669939450218944636387441546493446659036119973329690441443954023989248.000000 0.000000
598843368442669939450218944636387441546493446659036119973329690441443954023989248.000000 369355788450016153780143020044996398939917824132779788582611845018235465795371008.000000 0.000000
0.000000 0.000000 0.000000
12728937411805720172116440371509166714075245332566117105640268250887944633581568.000000 -5119247665607088408557967151772216949240443487287799355218641413394073368133632.000000 0.000000
-5119247665607088408557967151772216949240443487287799355218641413394073368133632.000000 1336230011092016229210855832216059030114381809570583657236327238743079711145984.000000 0.000000
0.000000 0.000000 0.000000
231857363703140539856777761616442484921354594383082506059905882406071926878371840.000000 -238961044411176774534347768683025716506504723120556089267126144767950493497425920.000000 0.000000
-238961044411176774534347768683025716506504723120556089267126144767950493497425920.000000 100710141130282390598789622990623528776334483886433274455651361138035920038002688.000000 0.000000
0.000000 0.000000 0.000000
7276676182107901363939565255936252251026524354205132616527300112341253079695360.000000 5079397845348539919419625374554644872113708821462005098921718562361203295780864.000000 0.000000
5079397845348539919419625374554644872113708821462005098921718562361203295780864.000000 1808403334536328181553388846193268187560265695749855262926760451442135219044352.000000 0.000000
0.000000 0.000000 0.000000
-8772788757129120438968123281126517166563485827128134615848487913323412108345344.000000 4726933635710985881834457247718247810857653256625812872177014239562192136437760.000000 0.000000
4726933635710985881834457247718247810857653256625812872177014239562192136437760.000000 2248903967096785920130598406124241417831177474298535839457593154999016763686912.000000 0.000000
0.000000 0.000000 0.000000
-25408998944665473968170213735540285025454184938443053411910122497847914796825968640.000000 263072681128373931303486669840109283192059362182977502681223251802892748760023040.000000 0.000000
263072681128373931303486669840109283192059362182977502681223251802892748760023040.000000 26449056599266350258030678120539878910277980112096818723938699664035484312535040.000000 0.000000
0.000000 0.000000 0.000000
-438400016140427916755835190367629920161555689196358925340978618646580902924124160.000000 -353170468383269063863421876467561486955594233385225338664145291425661038066925568.000000 0.000000
-353170468383269063863421876467561486955594233385225338664145291425661038066925568.000000 196265772863946352857714849554372046925460932409319463133915392736544083257851904.000000 0.000000
0.000000 0.000000 0.000000
338980535646617253805700846773655917574700720440090261202458202575097467655684096.000000 -924150935769719820636795647807537096914530568456821206109934195708244358156255232.000000 0.000000
-924150935769719820636795647807537096914530568456821206109934195708244358156255232.000000 505518051841060717679714528054081032418074460888407129737882639752249773723222016.000000 0.000000
0.000000 0.000000 0.000000
-4246785972602938165571410245492579117306966295206064937456315626221218405785010176.000000 755742215523549614908524239307822912688949489977313322423393165070929010882510848.000000 0.000000
755742215523549614908524239307822912688949489977313322423393165070929010882510848.000000 229560317926367693769740625672892051046800215604002903651531180017516621544292352.000000 0.000000
0.000000 0.000000 0.000000
-18086276467225572386640608713912958291973978200110533254558932048989818900709376.000000 8332787745064813610925311954622663463821482117249108641944441646157847175626752.000000 0.000000
8332787745064813610925311954622663463821482117249108641944441646157847175626752.000000 6861251291834899801966994198535105208348106097114110662050477369249226605723648.000000 0.000000
0.000000 0.000000 0.000000
164580138421483345119179508130156044843855844430309060656319482017337306517602304.000000 552013898369842184874093829683970463767737168358398910072255360236554164514062336.000000 0.000000
552013898369842184874093829683970463767737168358398910072255360236554164514062336.000000 290609611435646777245704327860787829278023314036462058678424655311362114514321408.000000 0.000000
0.000000 0.000000 0.000000
6199198473700649120780319554213800787435280461877720816098645823148689044013056.000000 -2433211883474515019227958208611286415365444545804283753029501436467054173487104.000000 0.000000
-2433211883474515019227958208611286415365444545804283753029501436467054173487104.000000 579376070767470825436136898606759449025994492245249998453096239923159835344896.000000 0.000000
0.000000 0.000000 0.000000
-424013816832347272465216219918474511536117816577870039316734988112343253794160640.000000 203145181030182866216604724201928877401569199476958304229387137032978424718688256.000000 0.000000
203145181030182866216604724201928877401569199476958304229387137032978424718688256.000000 109759120026318556171834030649782187493727981526343992192364489888152547137421312.000000 0.000000
0.000000 0.000000 0.000000
37387452358103542288728877945114783559916410276350682964748932079340811815223296.000000 -54519961826037750393858891352163365244231201871868082243848490750488459249451008.000000 0.000000
-54519961826037750393858891352163365244231201871868082243848490750488459249451008.000000 25660456645438390891202522255743712823071820467727451457516107715632920193400832.000000 0.000000
0.000000 0.000000 0.000000
-385464364282863705567961336507657828113395706826810008367356159416382433028734976.000000 -103154396957700017798691603515395636472862575824480554024259380403561132095176704.000000 0.000000
-103154396957700017798691603515395636472862575824480554024259380403561132095176704.000000 40842847550421868491229313337791422381616730186439913824111763520511086048575488.000000 0.000000
0.000000 0.000000 0.000000
-90095549177072957061225838679676217515674286689831197454055183246543040068714496.000000 -28818370190854181876490711176147347207422454055789738843247137599913740730368.000000 0.000000
-28818370190854181876490711176147347207422454055789738843247137599913740730368.000000 1066213705201305028022760282382249249823627477521017283631702851669443072753664.000000 0.000000
0.000000 0.000000 0.000000
-123859323392605245556427261111797200082505030750406344779202264427622592898138112.000000 20793632811988986955938173357605294233245670950679401364972258223379616737787904.000000 0.000000
20793632811988986955938173357605294233245670950679401364972258223379616737787904.000000 6646343001649598148864461178887769217148655339361478728178421744664022418980864.000000 0.000000
0.000000 0.000000 0.000000
-1936566121748753579799370135992168257709496490548986768440860264060385849809829888.000000 542875431293030380804213758535770996195523395057563181276837230856606214892027904.000000 0.000000
542875431293030380804213758535770996195523395057563181276837230856606214892027904.000000 232426287488625810218605984875427390403171790475310666528668907510213552816259072.000000 0.000000
0.000000 0.000000 0.000000
85823471008984722295145637766815660514609214224787222414664668232453385978118144.000000 44699187360963038543417658669668230494451009861623289254234225905957934391623680.000000 0.000000
44699187360963038543417658669668230494451009861623289254234225905957934391623680.000000 13229258030280212599188060693823499603296198782289549158011236171410821814943744.000000 0.000000
0.000000 0.000000 0.000000
-84654604879472273960879918179263173678545364546412907534453822338248219979415552.000000 28638255116148850363757889358375131956823363019531363077355445623685511865434112.000000 0.000000
28638255116148850363757889358375131956823363019531363077355445623685511865434112.000000 18375546803209310240646977241572975347512615257253812460158727743615690342400000.000000 0.000000
0.000000 0.000000 0.000000
490396801589342473211698779252909745048764645607251232152192188098006813673259008.000000 -280885337735034680878401970344811716715430592716673915614766591121848723883163648.000000 0.000000
-280885337735034680878401970344811716715430592716673915614766591121848723883163648.000000 188270439490263212891127781856431542656840658252628476588422889602927408315367424.000000 0.000000
0.000000 0.000000 0.000000
415197937999938004418310240139174740934658519610994291625072712048989279793184768.000000 392332547542335523802252352246211126180206309133155923760452475176326369707556864.000000 0.000000
392332547542335523802252352246211126180206309133155923760452475176326369707556864.000000 164152488424702392021141356463260632442161150362143142806510521725856205330448384.000000 0.000000
0.000000 0.000000 0.000000
-772390089003233052897838854684742731467786684167821228276332456654228572644311040.000000 -68170250196180852931822692170952729091793268391411583375011279339750527806210048.000000 0.000000
-68170250196180852931822692170952729091793268391411583375011279339750527806210048.000000 6127971971541052013891137128331818230160433027999737936316979771278053989154816.000000 0.000000
0.000000 0.000000 0.000000
314784383825758669203728820386637669631425290350705919270347705131521795763994624.000000 -77571149175641647008889561346941832452319195635327599362606919848846542445215744.000000 0.000000
-77571149175641647008889561346941832452319195635327599362606919848846542445215744.000000 17126239163728744734943883190799448522545705989543699498011161196014210289500160.000000 0.000000
0.000000 0.000000 0.000000
261053578706534394576673908846288602875516450503877187765256442605537438371676160.000000 -220964998878361729872192531513280717730674961143283592857122009974803300098244608.000000 0.000000
-220964998878361729872192531513280717730674961143283592857122009974803300098244608.000000 86845346898316625005846851850798296673241114172998586976113394797968617088483328.000000 0.000000
0.000000 0.000000 0.000000
-923911246649264192261254544186269373220430085390479230754107549514745781361311744.000000 -790332259670704981002112906367700431146434447416761667076313423897264661666463744.000000 0.000000
-790332259670704981002112906367700431146434447416761667076313423897264661666463744.000000 489436727633770105589032270244206735181400965104979630201642270449482157560692736.000000 0.000000
0.000000 0.000000 0.000000
12717719674626540263338718825863863309328423367842266313965210026182331456290816.000000 -16139773956683670494229146445381489342164097680827759117519330080226659243393024.000000 0.000000
-16139773956683670494229146445381489342164097680827759117519330080226659243393024.000000 7356923979442646000274901562465799134314817302762646242949727940868434619793408.000000 0.000000
0.000000 0.000000 0.000000
18950546613632772931054321736080055096843369175245706631028263277423850944462848.000000 21228719349262312263980326375183612988085196338573246649272003676893920312164352.000000 0.000000
21228719349262312263980326375183612988085196338573246649272003676893920312164352.000000 9319859101104275740529074989291149789045181918800155255345740071911080998207488.000000 0.000000
0.000000 0.000000 0.000000
-3622715958939064885998217132184781409140246504837547882353063768569461385728098304.000000 -1014546861440065537168670805999973928314979585821777934004197085900589126115131392.000000 0.000000
-1014546861440065537168670805999973928314979585821777934004197085900589126115131392.000000 405802092219684235279968798346305991198978177391874959293812987947731214267318272.000000 0.000000
0.000000 0.000000 0.000000
-65647596248637214961563767578032491420872842354494048797692967403737163679924224.000000 -30135776842400630411279411193710509783811053921740984280253850102425015782735872.000000 0.000000
-30135776842400630411279411193710509783811053921740984280253850102425015782735872.000000 15218223366173054636830847478437408411832327912410988639290558858713995136729088.000000 0.000000
0.000000 0.000000 0.000000
37000697588026644510762862152185570671335130438175740840806396069787624324202496.000000 -31191509981317062867671232779857361114646113391922972501341254797064432775069696.000000 0.000000
-31191509981317062867671232779857361114646113391922972501341254797064432775069696.000000 12241213962323723826360260415438048273032776588309520244995262304391712963821568.000000 0.000000
0.000000 0.000000 0.000000
-2683567917726764144354153911925623080009666608887189473557610359786439352254464.000000 -9566105438555646436977576310135457567696677711352829506011314350353928207466496.000000 0.000000
-9566105438555646436977576310135457567696677711352829506011314350353928207466496.000000 6207679912464141785004445656644049020289101405435061139250336101482459836710912.000000 0.000000
0.000000 0.000000 0.000000
810185450821312750188264014117575812016470024033632631911174662308364736354320384.000000 571599189388632775411344950973574055144421777178117205319579507077798935897571328.000000 0.000000
571599189388632775411344950973574055144421777178117205319579507077798935897571328.000000 208516614506859493473112729402518981655556030005556294722065006495922165704032256.000000 0.000000
0.000000 0.000000 0.000000
1152228206330460807220198008215500828928993657692963536177218622679233645605027840.000000 652513814339532767048447323000229598847957473408036796670121118483478820096573440.000000 0.000000
652513814339532767048447323000229598847957473408036796670121118483478820096573440.000000 202204434703094793599311377795518475861970314433279030875789162679062000706781184.000000 0.000000
0.000000 0.000000 0.000000
603228536534135559842846114854326670383904463419111127635582141484761136721035264.000000 544918034313417344804913952919772186816498420621235876102482348852171644612902912.000000 0.000000
544918034313417344804913952919772186816498420621235876102482348852171644612902912.000000 220026339239405111846187697210600707071217742973159082775746956195800187540602880.000000 0.000000
0.000000 0.000000 0.000000
8728883772716103734948477778262790811747411307459404683203206351702151680491520.000000 1299137410351219003223962806331428007658344046396250805979076546733922603499520.000000 0.000000
1299137410351219003223962806331428007658344046396250805979076546733922603499520.000000 138684555795707686620800188687326854315595471742967513905880411527020688703488.000000 0.000000
0.000000 0.000000 0.000000
-190737668129690912826939542200080928067963428359057650472415683318567793271504896.000000 242944656921416598662346872662104811952977611928878237820890961098627080683257856.000000 0.000000
242944656921416598662346872662104811952977611928878237820890961098627080683257856.000000 140147373337160152215496709804908219773294587505027827888430674519858437722996736.000000 0.000000
0.000000 0.000000 0.000000
183093170194101836573818920226856132125874067218184275319977301977443858533842944.000000 40251727814806774107499766561998270285934531716322967161697651142430852663738368.000000 0.000000
40251727814806774107499766561998270285934531716322967161697651142430852663738368.000000 6621123639778465478067193442348791644807860117803371398125415262526923895472128.000000 0.000000
0.000000 0.000000 0.000000
162582137127088870645439743188488296993913733910765556246613142356689325463175168.000000 112894643899530087125790847423691431255821646982931569201319929993831411947143168.000000 0.000000
112894643899530087125790847423691431255821646982931569201319929993831411947143168.000000 33360068606093817264158593657461700095776632664370111917346894279350255307718656.000000 0.000000
0.000000 0.000000 0.000000
2155942732518062974675637614040518033413949689168552678015904295799172102833045504.000000 210019270422679725864838615578642976071913182280102689947741330515127315139133440.000000 0.000000
210019270422679725864838615578642976071913182280102689947741330515127315139133440.000000 17027821447704849831687009274710138503351922071473041027966545272926665474834432.000000 0.000000
0.000000 0.000000 0.000000
-3009496141907431423507071048756619065029595296494788350084936486671262720311951360.000000 -2655505701943142747148664266651705727738064402137192338775546437196351163271741440.000000 0.000000
-2655505701943142747148664266651705727738064402137192338775546437196351163271741440.000000 1496315188759961987270829881525446457005278847826098701825373451479990422869114880.000000 0.000000
0.000000 0.000000 0.000000
-13954690534697685931823130685855178802574239038968017757227199317865504404668416.000000 -27090608977272499358149856708109817827476910958314301116474604836999767582048256.000000 0.000000
-27090608977272499358149856708109817827476910958314301116474604836999767582048256.000000 15543862326397601871198759415449288952859506268441038573181966590908489317482496.000000 0.000000
0.000000 0.000000 0.000000
30174321318193342893851529828919849312459546519220754111719346811938563627679744.000000 6105091448847865511590406736393942061976446247466267809738018915061457747968000.000000 0.000000
6105091448847865511590406736393942061976446247466267809738018915061457747968000.000000 901935837175857344989122965605481135324343242759091046181487649157802608295936.000000 0.000000
0.000000 0.000000 0.000000
377982472427984019493968489521423567767093981392324086541248788207214051165470720.000000 320312607259300468737216611214672657797673080476767647448531107322518398956470272.000000 0.000000
320312607259300468737216611214672657797673080476767647448531107322518398956470272.000000 127467961031797420225247654823603330436648593065248950309830606187547897511280640.000000 0.000000
0.000000 0.000000 0.000000
-110713202967562683326050560879028936595110169069117233527820889750123544880087040.000000 -26994575348604329209759997174746509114095013890521122473779372968962141297049600.000000 0.000000
-26994575348604329209759997174746509114095013890521122473779372968962141297049600.000000 10463189396231283541031506878748874765369124468089156137746746034043760565813248.000000 0.000000
0.000000 0.000000 0.000000
-378272574489681656386230241294994443849823516129060533661905773056446688460275712.000000 2062748029397369186049757382714193752745200917537163599439334052019528318041718784.000000 0.000000
2062748029397369186049757382714193752745200917537163599439334052019528318041718784.000000 1181031028987479684759837227852918886594683080612495196062810779191533511951515648.000000 0.000000
0.000000 0.000000 0.000000
437288136656112922238308711213261578065950936760256294093402158430866382524514304.000000 -94586321749492458200205756817470472389565661569262538872529826906904959276548096.000000 0.000000
-94586321749492458200205756817470472389565661569262538872529826906904959276548096.000000 14155205477623199649751486745002600241345901346479442947991239088104386580185088.000000 0.000000
0.000000 0.000000 0.000000
845657935149866719220834007015512919943026903306267229355307993781371387946991616.000000 -246187772872293781789916989656276915672616891614205650618106827501454435981197312.000000 0.000000
-246187772872293781789916989656276915672616891614205650618106827501454435981197312.000000 63253229985586754410893232358620077522431402823877634752055800683701547298717696.000000 0.000000
0.000000 0.000000 0.000000
-92086981422434241382650757300463432284041626344768938572370038614780294153109504.000000 -254908377910056123110046166035625198488710143299852056120165455629910451133874176.000000 0.000000
-254908377910056123110046166035625198488710143299852056120165455629910451133874176.000000 152370140329931673635276218731573425230159249058153994537170981771795460905762816.000000 0.000000
0.000000 0.000000 0.000000
336090233914253440064732140534392718389493050283761066430733882308205875440910336.000000 4529416242828164209934158273380312587245954858223706074781428745571833405767680.000000 0.000000
4529416242828164209934158273380312587245954858223706074781428745571833405767680.000000 906626204340341715451137414897357378502644320665579867229840843757223237648384.000000 0.000000
0.000000 0.000000 0.000000
59030330415477537503197343579123960090845766846750914819549034589161672633483264.000000 -308694651696983516206691350727210610938104138922620720266985962162297135853207552.000000 0.000000
-308694651696983516206691350727210610938104138922620720266985962162297135853207552.000000 194091287828315465576469051517487973103650585311786721426507703138740644704419840.000000 0.000000
0.000000 0.000000 0.000000
324269887305124022974602804357689367988168834484505134680311028781297307083603968.000000 71616044195000076777573511872996972104349829722101340761586677940634120655732736.000000 0.000000
71616044195000076777573511872996972104349829722101340761586677940634120655732736.000000 11034992962610295575183920133092546485270812520315490105000464856729602368733184.000000 0.000000
0.000000 0.000000 0.000000
205254324360375517644997864521701015155809811908843853028939460025494858213883904.000000 -982902994338962671053383846449894562279038973696177902724261924427799327754158080.000000 0.000000
-982902994338962671053383846449894562279038973696177902724261924427799327754158080.000000 527083944948622161487699596204403526903222250930734387902981796812024753076305920.000000 0.000000
0.000000 0.000000 0.000000
171610920869603435941843793070694769001905827723397202720288702724159976364834816.000000 -203675040674014638311057829628480570835756058168359575527684638488271032298766336.000000 0.000000
-203675040674014638311057829628480570835756058168359575527684638488271032298766336.000000 102655600885139665024459032180627799859901377559112581044555088062547714440691712.000000 0.000000
0.000000 0.000000 0.000000
19434528110097052641712761658965513561806963342832702239485727471931334459635269632.000000 9618934528727166444226761400844846723734503841179661202839900479459750308145528832.000000 0.000000
9618934528727166444226761400844846723734503841179661202839900479459750308145528832.000000 2733663256927402404770367480429600416575103633360740351466496375238088403781156864.000000 0.000000
0.000000 0.000000 0.000000
62465438844207344213498088798119583139489213606543170741315105132861929568600064.000000 -139728410531595130933549779595946738338221848412316037536109489980483446081847296.000000 0.000000
-139728410531595130933549779595946738338221848412316037536109489980483446081847296.000000 90537664174365763124905582355284726637139318648427089813090024768843789306429440.000000 0.000000
0.000000 0.000000 0.000000
79888816209651251085543903454352946935688969273885506010384021325887280294920192.000000 -1489912237912985849356252263535645249022325395689842084673223501820571899844886528.000000 0.000000
-1489912237912985849356252263535645249022325395689842084673223501820571899844886528.000000 820635315162354235345127731631438571646263417932826744523235312229174661567479808.000000 0.000000
0.000000 0.000000 0.000000
-6702380152488419738513463699777623608329172503163174557215882198822335977860628480.000000 2049536279805454950361459058217241148851000297535444443660959305901357586593087488.000000 0.000000
2049536279805454950361459058217241148851000297535444443660959305901357586593087488.000000 878471685246453614118155735797707668414588213096591324221449468696474040605343744.000000 0.000000
0.000000 0.000000 0.000000
378817440416024643216410952172182931627474709490915573871175440493797734264864768.000000 188002244416172519252605654966635760367103753941676058864306022028565709678706688.000000 0.000000
188002244416172519252605654966635760367103753941676058864306022028565709678706688.000000 53607706158327048195472538607694821365714910981888740829087132699867523818979328.000000 0.000000
0.000000 0.000000 0.000000
227902030185409816474171926384239935081774723262346925501390384297182526361829376.000000 142553859149839571427382291456609715618635390129260060749074783243379060215119872.000000 0.000000
142553859149839571427382291456609715618635390129260060749074783243379060215119872.000000 65147488702891510957517351616506549724850242822207633837630974267378518080880640.000000 0.000000
0.000000 0.000000 0.000000
579132174181915554269485651204738353187348753411108979805200132869494552341250048.000000 358483219906861809085496817564549410820518945839188064463668037086870054532808704.000000 0.000000
358483219906861809085496817564549410820518945839188064463668037086870054532808704.000000 118970317217538239151556928472793168288487875808560038765188204550247529960177664.000000 0.000000
0.000000 0.000000 0.000000
-109464913516632735141188301855512445091231436681188201450366824428559880251506688.000000 -159884275723509792890705214320889368431443967433130238074518398552732409041780736.000000 0.000000
-159884275723509792890705214320889368431443967433130238074518398552732409041780736.000000 92187485333107450660518358145579679756844488682207035146457104728504940871286784.000000 0.000000
0.000000 0.000000 0.000000
-635921062434148741178896227188368054745060287796082184206296731483899640693129216.000000 -261911205026825196377071465073736917883703218075768038286884533991247517117841408.000000 0.000000
-261911205026825196377071465073736917883703218075768038286884533991247517117841408.000000 126122275249865952405637473092734023989875348356686449166334748449354054100844544.000000 0.000000
0.000000 0.000000 0.000000
1058014567856231313374131665113434898718312681048321760500489343563415300333371392.000000 -584580255861449983662760210214779750889040880306195742665740067027864722415288320.000000 0.000000
-584580255861449983662760210214779750889040880306195742665740067027864722415288320.000000 179807579108352875703408249549066389305140909198932463580056026468873071119826944.000000 0.000000
0.000000 0.000000 0.000000
-1484489751501107166938820476637578307148898669222606558138378692990126004069466112.000000 -502597577759420533725580491096166918768685845556215731244436015592804229700386816.000000 0.000000
-502597577759420533725580491096166918768685845556215731244436015592804229700386816.000000 241815942127623623209943149294939350413248560469790660649715599034825208722620416.000000 0.000000
0.000000 0.000000 0.000000
1274696294666536903518619708440307023423521153345903191979126965861676700932243456.000000 -1778355538069284522766874726719276531832635428950143968262767740170714729529999360.000000 0.000000
-1778355538069284522766874726719276531832635428950143968262767740170714729529999360.000000 830657737861305552846016078638251997840650476492814844070549111257606974127210496.000000 0.000000
0.000000 0.000000 0.000000
201233282112754539070565021107874850712233686147442709672031016168336097466646528.000000 -193882992638006101133585152713253849111437874055925481139604211721081639292370944.000000 0.000000
-193882992638006101133585152713253849111437874055925481139604211721081639292370944.000000 81019304571757547801605988544150729161360259815283339144249397386785802468458496.000000 0.000000
0.000000 0.000000 0.000000
1642319217048654305181327158997142233171567493857690605237099114653531438755872768.000000 921485416710336421760595598259890091916819177078580602319041874580495185506992128.000000 0.000000
921485416710336421760595598259890091916819177078580602319041874580495185506992128.000000 286749187266486963142186819724036660662672611227699992004356795905704601468272640.000000 0.000000
0.000000 0.000000 0.000000
326611043659504620607240998948450392754030037478674345190864663615417271661363200.000000 106421873336171253226672761013755424738565235637686807701782862791877249120337920.000000 0.000000
106421873336171253226672761013755424738565235637686807701782862791877249120337920.000000 21596320555559680906879267260636314722722966300024610468529647064041577766715392.000000 0.000000
0.000000 0.000000 0.000000
2937512767016446522011964835437305741805568667491361132479353526397410557787373568.000000 -2022594616149754734228721267684999711467661241688688733532537916034412421318705152.000000 0.000000
-2022594616149754734228721267684999711467661241688688733532537916034412421318705152.000000 714873843273339497329818034106610480554390585513402805478639925338475080395522048.000000 0.000000
0.000000 0.000000 0.000000
285901560131437233267981716838979284719453705069555457982660203849998405327650816.000000 451506349735346713699304758701430364853322619790192104665068911717553239966613504.000000 0.000000
451506349735346713699304758701430364853322619790192104665068911717553239966613504.000000 217630780354797116522999526133649629067544260484123781939251933565560312517623808.000000 0.000000
0.000000 0.000000 0.000000
-11554619864182954054598696015317168049420913326909848196994307977543914595811328.000000 -38862442293593820547438604855045701397823580496783130076130773606546659543613440.000000 0.000000
-38862442293593820547438604855045701397823580496783130076130773606546659543613440.000000 22249890014061509013634936119636159187411217186300946275447211555461459102138368.000000 0.000000
0.000000 0.000000 0.000000
-452556236282914470272260366840869085906929323458221346420594094749367678950965248.000000 402511040001077957236250421943435199294580083972838625390867795546511477307342848.000000 0.000000
402511040001077957236250421943435199294580083972838625390867795546511477307342848.000000 233133813918479233617544955227050824187812568208507810074398220013187579764539392.000000 0.000000
0.000000 0.000000 0.000000
-551233570089563130580429156828649165350787151062980733449212859093459640720031744.000000 111151426366341724779826658090975742071615318819582981433360015305790651782660096.000000 0.000000
111151426366341724779826658090975742071615318819582981433360015305790651782660096.000000 36897284046806927108714093323431456807572276817803957528357140515208148826456064.000000 0.000000
0.000000 0.000000 0.000000
-75664131498131748904611579813098080425571212002029550756849438838958644292222976.000000 110975420606090482841705660502875807025851499329054606094823843807126091005427712.000000 0.000000
110975420606090482841705660502875807025851499329054606094823843807126091005427712.000000 64638409278264639729734425152186699301680620513827945686800644443004876850462720.000000 0.000000
0.000000 0.000000 0.000000
267978629682723218022543956532375631021288759348978546091417205073079606324494336.000000 -268380896292543435605932730641055693665381828405295206285682969575162536752316416.000000 0.000000
-268380896292543435605932730641055693665381828405295206285682969575162536752316416.000000 108919624231494557246577174232522192950228985239750581121856576933035043972972544.000000 0.000000
0.000000 0.000000 0.000000
-9162680601324922963373155233017109594148231684235197839291089766323391912472477696.000000 1073655738400653126480930044920574972155314060580522381716690878332054933006712832.000000 0.000000
1073655738400653126480930044920574972155314060580522381716690878332054933006712832.000000 234279755218720682764870130597982482976930566966535736159454500394591472435855360.000000 0.000000
0.000000 0.000000 0.000000
11826997434275853261585882849345206160456964435436995821356572672245164517883904.000000 75862943346574500234439552881599553882279827106567040211696268550686480911040512.000000 0.000000
75862943346574500234439552881599553882279827106567040211696268550686480911040512.000000 41113495672386393993745789588074576205132093381910856520676015403128521094070272.000000 0.000000
0.000000 0.000000 0.000000
308127789238239620274815527392693721610599319760376837518372089568245059682304.000000 24845331007289910151673731497042547267531907551015449108406084668940380798976.000000 0.000000
24845331007289910151673731497042547267531907551015449108406084668940380798976.000000 1329656738338985701710845690459480017819053707349655537139926118283970871296.000000 0.000000
0.000000 0.000000 0.000000
451322393645292802931993713242821991500437315724677348490786767111123942959480832.000000 -257164521735506265769978659863733611658942828516488320580085406702073826192130048.000000 0.000000
-257164521735506265769978659863733611658942828516488320580085406702073826192130048.000000 95394110462762426887837341478911258575942149870106456405589866272856227528572928.000000 0.000000
0.000000 0.000000 0.000000
144773051033227725885396628410262838999694088161532823731579674821116981004992512.000000 1764434118055646936685855277915295861737183248147012496698368463614371916486279168.000000 0.000000
1764434118055646936685855277915295861737183248147012496698368463614371916486279168.000000 968692326923234518329139243320302023047705201219256315773142975933951210046881792.000000 0.000000
0.000000 0.000000 0.000000
395133022648842440617261189810127422311687549707623660314750327280958024187904.000000 -406198750104993958043082662862238112350714755309386533707458315571577166495744.000000 0.000000
-406198750104993958043082662862238112350714755309386533707458315571577166495744.000000 130640322694446171691931266620782514321756731334067969250997072177187642146816.000000 0.000000
0.000000 0.000000 0.000000
42804876358281490366770136050450913216553094069069613635682623102492270953234432.000000 755142442700096677354870677544826683621581033554623796527700288941511812820500480.000000 0.000000
755142442700096677354870677544826683621581033554623796527700288941511812820500480.000000 416354282518081549176251091923663414881807200253357848081191978927644266817650688.000000 0.000000
0.000000 0.000000 0.000000
137476270967989703022357760457524323964014670953441725148234833025276734976557056.000000 12414725317429394831682367799347513925488062034010627801280114810659514263535616.000000 0.000000
12414725317429394831682367799347513925488062034010627801280114810659514263535616.000000 826844077842486710524712344728485728630856169466863799737860404378754395144192.000000 0.000000
0.000000 0.000000 0.000000
-13650495690871555460814302395516058132680402809672424877344316090059654927745024.000000 44254589356146034840095552777717776360337106104521730108150007077832556573360128.000000 0.000000
44254589356146034840095552777717776360337106104521730108150007077832556573360128.000000 28752368817888175277852209874693666025891131787522142832884841052809963985960960.000000 0.000000
0.000000 0.000000 0.000000
148230622447184416220227831220897394927859733116464158874856929805337439087099904.000000 55653759385571042105883677303718991747763595267711609910944388894775713963442176.000000 0.000000
55653759385571042105883677303718991747763595267711609910944388894775713963442176.000000 12765045631775482169185261928399713563297578033033915896142285680514942984257536.000000 0.000000
0.000000 0.000000 0.000000
-27275563595515901502685793707657916904851738805140286930916953768147726455338434560.000000 -1599345191548128913558120153564638632719271733943048186654521464697261116977315840.000000 0.000000
-1599345191548128913558120153564638632719271733943048186654521464697261116977315840.000000 188068997918923083934319762343808527810000349185341564214892888922281875460849664.000000 0.000000
0.000000 0.000000 0.000000
1661501096196785392760552986135194231356363206433465832708702081862418042961526784.000000 -1746271179719721682097307212502282683922770850284138296179995509833496512872579072.000000 0.000000
-1746271179719721682097307212502282683922770850284138296179995509833496512872579072.000000 750011760497049668912044636950571385129333576673193468132914482131972210020057088.000000 0.000000
0.000000 0.000000 0.000000
-5729750429435926982624071696786033811993650084391042423129582086727960774452445184.000000 2086324191908352025786627653231669283542965581745158908644083906651690149729009664.000000 0.000000
2086324191908352025786627653231669283542965581745158908644083906651690149729009664.000000 1005431461555661244438819729463509530401555782861908096249194092883659523117547520.000000 0.000000
0.000000 0.000000 0.000000
-93759177360966641439828511616674701009003661924886896788294251582827153196526338048.000000 -4150822882403948135169268598338756192124766309306591966786749225928469073602019328.000000 0.000000
-4150822882403948135169268598338756192124766309306591966786749225928469073602019328.000000 365432000972657820090602064102754837873148666733400859581238747796311257894617088.000000 0.000000
0.000000 0.000000 0.000000
1010229410221315940856700390648898471329411417704989959335588357208761885620436992.000000 326823012561522121435859838364047298261719530744252360857599491261457288715567104.000000 0.000000
326823012561522121435859838364047298261719530744252360857599491261457288715567104.000000 65969356075888021151906800157906469830909439754423821932835400800484044820185088.000000 0.000000
0.000000 0.000000 0.000000
-6217891619690621219977899944666922800236741374329592240587752822644200009656958976.000000 -1390082942142969116553425480717678654166707347485571044476123629320402729625976832.000000 0.000000
-1390082942142969116553425480717678654166707347485571044476123629320402729625976832.000000 490853939328492231372722911254689611952592534991320833740940750673747894125723648.000000 0.000000
0.000000 0.000000 0.000000
686681227738186861121818829821572540635965426005072931923427393377726991251275776.000000 -206453206841287967877075599756769089522583817869769701495060426707341382772588544.000000 0.000000
-206453206841287967877075599756769089522583817869769701495060426707341382772588544.000000 39501970196458479642178099304625336056683171256725521580802422248944870585532416.000000 0.000000
0.000000 0.000000 0.000000
532897201075142071359221345901130650775296519040753056888440263547111183166210048.000000 575694677563115517013304480507639846520498927733237549381346988480749921634353152.000000 0.000000
575694677563115517013304480507639846520498927733237549381346988480749921634353152.000000 249721756300402838350360869034645769077923010098868926784579108602250268334096384.000000 0.000000
0.000000 0.000000 0.000000
19359478028909017576799898377030715680547233938458114658477098121324860266116022272.000000 -15912320995522601312156691059542674344413468963132079327886760611739529258523951104.000000 0.000000
-15912320995522601312156691059542674344413468963132079327886760611739529258523951104.000000 6167876880033060821681464504787866562557075884013342630049758574594928953819922432.000000 0.000000
0.000000 0.000000 0.000000
356007630528178686406051545349071291123894596833032039201422130934369015373496320.000000 -180221777995456102010217580597764632784289287439018234773295390106212865090256896.000000 0.000000
-180221777995456102010217580597764632784289287439018234773295390106212865090256896.000000 46892653140106581471021859194166435715845344439498774323103322334147754724425728.000000 0.000000
0.000000 0.000000 0.000000
-2452966524970346900171974789871558676096188676683519888821378618636851374156939264.000000 1556660744807697764032365062034814207695681593108751323774693713072080374097510400.000000 0.000000
1556660744807697764032365062034814207695681593108751323774693713072080374097510400.000000 839222854611816634057937819668966072334965435403363489793610929000755963432534016.000000 0.000000
0.000000 0.000000 0.000000
-89423928614792907366524582715998148398952634123757981935154008859918086363414528.000000 288806779640873592710815161311958735009079328325466220716941686507714002322194432.000000 0.000000
288806779640873592710815161311958735009079328325466220716941686507714002322194432.000000 165339876063838768311511234827101608372966069616272273387994177420514875209154560.000000 0.000000
0.000000 0.000000 0.000000
190304349721541030766756249764883928569368019357146680430018677440850653876322304.000000 135991821548023228212059612092876588120671015534352448228400038133130568314912768.000000 0.000000
135991821548023228212059612092876588120671015534352448228400038133130568314912768.000000 49541562684171703018553865496258778209599803444869462371454751517128428548521984.000000 0.000000
0.000000 0.000000 0.000000
-1560466460730306709813601521254441634721463654224974813945505935758334852752998400.000000 1672646872658054529122773838640275402002666871176133508738436806655873486705131520.000000 0.000000
1672646872658054529122773838640275402002666871176133508738436806655873486705131520.000000 955247204572546216975935371904133282320769931032454864703460631857937003579441152.000000 0.000000
0.000000 0.000000 0.000000
-6427074885003127799016918171858352926444773789692923666892847016326925749424488448.000000 -1262872897141588531158851346431457096497356449284763448631892717980170351699558400.000000 0.000000
-1262872897141588531158851346431457096497356449284763448631892717980170351699558400.000000 443845578317129228750830038392844442366119867735356685423523091661729119739052032.000000 0.000000
0.000000 0.000000 0.000000
180102849846705040833776083652161023647951104933795545249816031045162263411425280.000000 394268695358010648272098045130817541199292047902531218840411964473418012889710592.000000 0.000000
394268695358010648272098045130817541199292047902531218840411964473418012889710592.000000 210606475890507241429684413476050666171980033935880552362260492325544056783372288.000000 0.000000
0.000000 0.000000 0.000000
-278963669471489853853390886081552669074104202893458631079989663151510775559880704.000000 -126747532729101116363748841992009207259505734632889095083305923359870532433477632.000000 0.000000
-126747532729101116363748841992009207259505734632889095083305923359870532433477632.000000 78853171587996022347703019636006985558793046161678746542034444754353468806791168.000000 0.000000
0.000000 0.000000 0.000000
102926789136053613035750496349193588909998343942026348128058267855041993094725632.000000 4545154118669905335508904588289417395911619339998161733948999776931245572751360.000000 0.000000
4545154118669905335508904588289417395911619339998161733948999776931245572751360.000000 236832997456095036397033826712941919384586868704987639670901208807324969336832.000000 0.000000
0.000000 0.000000 0.000000
-1688270357988908341215128164682273908295861144378680903937011724441043033030578405376.000000 3680867245236015498244901599200710243438153068335213078991394525633459275748605952.000000 0.000000
3680867245236015498244901599200710243438153068335213078991394525633459275748605952.000000 64277417142018396917316639101225718146244595751611832289732262563283692196724736.000000 0.000000
0.000000 0.000000 0.000000
168145077503094743148436920286570505946959940458298192747454787935322545531650048.000000 90674304568820416220473498270277997546462176918882496737762330252987073082425344.000000 0.000000
90674304568820416220473498270277997546462176918882496737762330252987073082425344.000000 27412123464987097032787367026597698805286611264175251882648810149543094438068224.000000 0.000000
0.000000 0.000000 0.000000
126951463953654404336843464707248483226160321187697842782648891776742850199289856.000000 65270935753902948935022112600067126155790729392891359670606139800551726056996864.000000 0.000000
65270935753902948935022112600067126155790729392891359670606139800551726056996864.000000 19036848856096592577498417298762592607764756487326898743316380931414085936873472.000000 0.000000
0.000000 0.000000 0.000000
-22153169189789262679525572376049296811904813211864275714014102012523174900531200.000000 -12083738670900699576132155454093990294903094024913718527229276037688578608726016.000000 0.000000
-12083738670900699576132155454093990294903094024913718527229276037688578608726016.000000 6217868001751369323237381401851555135984175869898132156332407809309792589053952.000000 0.000000
0.000000 0.000000 0.000000
5048600993648284768888652363729974213600288560767696733606050124820759703453696.000000 5704563036780352735745990164464567249449654704299347276296846637287155550912512.000000 0.000000
5704563036780352735745990164464567249449654704299347276296846637287155550912512.000000 2511241273313600750597690153390299249881589158727954691145609095079657312616448.000000 0.000000
0.000000 0.000000 0.000000
-1467491313499149169418672117087487250837360331390320091921443216383143208416182272.000000 -530209599123117246602084625879849020030308656807759694213982368756429767971962880.000000 0.000000
-530209599123117246602084625879849020030308656807759694213982368756429767971962880.000000 242735046402451496150697833943440665062344091745619300627201021621370663473250304.000000 0.000000
0.000000 0.000000 0.000000
-114717974047211601143314333987703426587185357150445152145216462060270792627464437760.000000 21311431717159584424031784846387471452605167046093226197921724029265279682275704832.000000 0.000000
21311431717159584424031784846387471452605167046093226197921724029265279682275704832.000000 6729740922258606378511861019430475215690953065792447311939250082938139707088830464.000000 0.000000
0.000000 0.000000 0.000000
434682376444029242701078132468992723491570028390245784930259084601651561022619648.000000 -311605240102537621236674457829429204498190447359272920748645195835405152691421184.000000 0.000000
-311605240102537621236674457829429204498190447359272920748645195835405152691421184.000000 130840942309861453778164637504295763771297311646157632957862029522061167064776704.000000 0.000000
0.000000 0.000000 0.000000
108358477798820981850659071671208060811394701529055288237327947890156211242270720.000000 -26048725807252039620762663376978423470881760921507524786822141390726343390396416.000000 0.000000
-26048725807252039620762663376978423470881760921507524786822141390726343390396416.000000 9446871561416327870671758511111274992105480941140393885939999082503828374814720.000000 0.000000
0.000000 0.000000 0.000000
-25445609630462007690524027268021775973886451282659364645625724855689184706163638272.000000 -2040172371374793197012773000673122330422068358256553642040385729957378383725723648.000000 0.000000
-2040172371374793197012773000673122330422068358256553642040385729957378383725723648.000000 315748838923939868923494259388769879382871094711693768271662970781521935914237952.000000 0.000000
0.000000 0.000000 0.000000
-170828145487256406175595746733794679373428574237369650770229093527522110265622528.000000 291464890161683201336870349514372894218880346139885036546504479673508099212181504.000000 0.000000
291464890161683201336870349514372894218880346139885036546504479673508099212181504.000000 168497194275403149455050633151002283221900678378606062063166905116605083226734592.000000 0.000000
0.000000 0.000000 0.000000
533748670930824624258552082438397121068442924982654106626409132726566516753956864.000000 919188257508819754437198917797999871631946972738722505029115993590163911198375936.000000 0.000000
919188257508819754437198917797999871631946972738722505029115993590163911198375936.000000 448664753420910966531722717739324638711226895192256118404641149020941539520544768.000000 0.000000
0.000000 0.000000 0.000000
56613428855781723209138300496723101679284742099981555939622769885667634926583808.000000 -125961228010332789924985961515201678366214849445448519496447298319396149812789248.000000 0.000000
-125961228010332789924985961515201678366214849445448519496447298319396149812789248.000000 30170115762755245745691411625880966658628769150257206509562124484249136490610688.000000 0.000000
0.000000 0.000000 0.000000
-3717519197752474101256589764810399435261028855319669712386371935127791102901354496.000000 -345500764105230545346585560035829950948426729190445750503900993060786486443507712.000000 0.000000
-345500764105230545346585560035829950948426729190445750503900993060786486443507712.000000 62480037330180947584240219232280456621741884057606636514810543028828037028249600.000000 0.000000
0.000000 0.000000 0.000000
-7629868216750556360285019136004161673059941236860253300474701927845027381013118976.000000 2459959471448969360679142203520307134904949376361486701229389443135704243021807616.000000 0.000000
2459959471448969360679142203520307134904949376361486701229389443135704243021807616.000000 1070746270804335388855805682428855697361152445889778745000312591809256404679655424.000000 0.000000
0.000000 0.000000 0.000000
51799127403041978442434018375537698572988507694408957075990703837197861453299712.000000 -34450471643760248881801697170981109198298808197055697659561225381275921283022848.000000 0.000000
-34450471643760248881801697170981109198298808197055697659561225381275921283022848.000000 12233626959949280650809115783993929622459115387994295810225190494255043213000704.000000 0.000000
0.000000 0.000000 0.000000
-8910598103377087219318937205123916858255561637636510213788897049529679108636672.000000 -55437936088558528376589616380955333559372249418851883183028459874733747540590592.000000 0.000000
-55437936088558528376589616380955333559372249418851883183028459874733747540590592.000000 32722653241165208131887372823483532209736139808580819888581779877777677741981696.000000 0.000000
0.000000 0.000000 0.000000
-227859644784411206082454890120573392134967095972160925609263387495943464068055040.000000 -361143914388499242515807509374189377789264247069679927105192911563660046708506624.000000 0.000000
-361143914388499242515807509374189377789264247069679927105192911563660046708506624.000000 208453890089214538630442879673180379002094291504496382570609672148606673024450560.000000 0.000000
0.000000 0.000000 0.000000
-14577489005199005940275647501011868310286898355959883008577618594227586100610727936.000000 708667971517469697423197436845898642940183186405755759183418649446097398607642624.000000 0.000000
708667971517469697423197436845898642940183186405755759183418649446097398607642624.000000 70535862370306320227205777919659787644217341040851902131708648751397171246399488.000000 0.000000
0.000000 0.000000 0.000000
-2357985114945803155143898092680371406525915531451547126080331200049047826994298880.000000 -122291223124387153939800556845455979607759092875294621268888088918819997417996288.000000 0.000000
-122291223124387153939800556845455979607759092875294621268888088918819997417996288.000000 48284406473177009432119132021468228564373795601248101216839687562293844759281664.000000 0.000000
0.000000 0.000000 0.000000
208584951646056358581385654191341844883480951411216236068538974227185742391541760.000000 -180732841983019222094341719579967870155375196794364156917382074531915865497010176.000000 0.000000
-180732841983019222094341719579967870155375196794364156917382074531915865497010176.000000 84478331591017964926173597261156966106279085077576877729515338241049807699312640.000000 0.000000
0.000000 0.000000 0.000000
891063634864487922866270655470130348776986997192153647039419764349952607909838848.000000 -581025420792588596610731425896388254139949830291490600878766147915059671580278784.000000 0.000000
-581025420792588596610731425896388254139949830291490600878766147915059671580278784.000000 198907357674722738632363204759186748124905613438986489287085855441829280958382080.000000 0.000000
0.000000 0.000000 0.000000
212218730546261846962431286351353238935988298404776288734660062518076723041402880.000000 -70702635944328937623354530186612557711050933911535884453293426110478184817360896.000000 0.000000
-70702635944328937623354530186612557711050933911535884453293426110478184817360896.000000 15423376812973940176517012786890328465666284785641667490155837970119265622163456.000000 0.000000
0.000000 0.000000 0.000000
464624231182843884928921336727922515556588941158365394152894665408895750697385984.000000 -262359020381527270639867225714379151526453277302481703967217858473916504471502848.000000 0.000000
-262359020381527270639867225714379151526453277302481703967217858473916504471502848.000000 85447455435401048827481836465993229278349103070895929874373444459824752059482112.000000 0.000000
0.000000 0.000000 0.000000
112057634741686238106919294927563981478176505514199034691171899521103311075803136.000000 -222353800339277802815180835026292198063207154603541681229368641861475522605744128.000000 0.000000
-222353800339277802815180835026292198063207154603541681229368641861475522605744128.000000 133506769414419461215662689485278338183412738382481523647523266123392589922041856.000000 0.000000
0.000000 0.000000 0.000000
343724362556685193745978795697412021140260468420670606004295723052782036400996352.000000 392974863524310961661804268555186932305712173049385151981514200028989522513494016.000000 0.000000
392974863524310961661804268555186932305712173049385151981514200028989522513494016.000000 177881967246826904091323989880237410456627465992032783291916907684284900193599488.000000 0.000000
0.000000 0.000000 0.000000
1377772036309190503148647546795149265426842174289552541254901180218757208866816.000000 1209148772085024936411634138334623070044900242177150766019919092200649812606976.000000 0.000000
1209148772085024936411634138334623070044900242177150766019919092200649812606976.000000 460738253399083319319535557304353862062040356094490024563888302392515871375360.000000 0.000000
0.000000 0.000000 0.000000
147953746389116296996054520421278748074244556510254351287475342256193739264360448.000000 942180350060560022904674201055831500537781425163819018535845027294429633084129280.000000 0.000000
942180350060560022904674201055831500537781425163819018535845027294429633084129280.000000 510681855536398847081905885845140308335654458119750604746408413900386876977577984.000000 0.000000
0.000000 0.000000 0.000000
104791934126803306767957384065221457923374171303107428209732914064071328817741824.000000 34805351620663981154425824615816131895329763454287349827101607769268620835684352.000000 0.000000
34805351620663981154425824615816131895329763454287349827101607769268620835684352.000000 7521467414885879051670006661480638036206068131165301916150986716313008088285184.000000 0.000000
0.000000 0.000000 0.000000
-45715907407477355458769989230902388715293598185901097435171263603600932376412160.000000 5479658458560734984425556971273099934756636140964902430137682835474291535904768.000000 0.000000
5479658458560734984425556971273099934756636140964902430137682835474291535904768.000000 2760410531672403992129420660288374472936456083368840295521249358168559875784704.000000 0.000000
0.000000 0.000000 0.000000
-45531951601431482410346393894830734605091910459950235132202934371563883424907264.000000 334245257337430208826986678189469469984422209432070893707216538380977239800938496.000000 0.000000
334245257337430208826986678189469469984422209432070893707216538380977239800938496.000000 265827603875752562442635703696268881964971799004549204024436039170979414467936256.000000 0.000000
0.000000 0.000000 0.000000
4420122858724470705754866916188147505267172749963242050524758951113142575300608.000000 4050737779846954579968587409413382017163978675015472224069366972379364465836032.000000 0.000000
4050737779846954579968587409413382017163978675015472224069366972379364465836032.000000 2753119018691492501742289673363450132256511485330380595841125772166884963123200.000000 0.000000
0.000000 0.000000 0.000000
254632402200184357669726368315464398570962624327180089055836260479805613148209152.000000 616633188478084400812615101373249642775721649060914617212189021001075154543968256.000000 0.000000
616633188478084400812615101373249642775721649060914617212189021001075154543968256.000000 319036693583400770083951152511779331834283451755962601725176710833267415061626880.000000 0.000000
0.000000 0.000000 0.000000
-300849304920688244212307026178038744596981029621419169079146379659769286452314112.000000 45784007972985202275319126336125436186559736040433278331822953460123847920451584.000000 0.000000
45784007972985202275319126336125436186559736040433278331822953460123847920451584.000000 12954441631086565256186817096044235967032846661256710095833548700084926695866368.000000 0.000000
0.000000 0.000000 0.000000
5880151933855150252335385082572763838526166310424697177533803307623474014453760.000000 3302068477831133345278769239718532492861877958781441962308662858624132293066752.000000 0.000000
3302068477831133345278769239718532492861877958781441962308662858624132293066752.000000 1031756410955276606002318928868370781515035017517307024804467821019728755818496.000000 0.000000
0.000000 0.000000 0.000000
1024048686474836275381109444805081897750943904603369568682246925909475690161373184.000000 493973590424239081105181748636117593588207223330942452190759858663807086940389376.000000 0.000000
493973590424239081105181748636117593588207223330942452190759858663807086940389376.000000 140723066809156053269546742524119519826621700956497236494203067828397361380458496.000000 0.000000
0.000000 0.000000 0.000000
449148535160009698351742222711607518899935682573128050484281628766948170991140864.000000 1341263709145312354754842155058168671079809386846492906502978042886489170960711680.000000 0.000000
1341263709145312354754842155058168671079809386846492906502978042886489170960711680.000000 700142243203479540923531168443720198661883643615137324644947769763127516020604928.000000 0.000000
0.000000 0.000000 0.000000
374796232124890104954310757879697806868999941761798416705256724444585796225204224.000000 157554090217283695404104732155247751186208897491297538721122020204342477550780416.000000 0.000000
157554090217283695404104732155247751186208897491297538721122020204342477550780416.000000 40549481390123561782781485592954728726028313883301974911593714401512786757681152.000000 0.000000
0.000000 0.000000 0.000000
48249622776952599641319813818637466438995724852270245025651756871308755190415360.000000 615655201526563270178083561791745684829190330770707977816153463186939297071628288.000000 0.000000
615655201526563270178083561791745684829190330770707977816153463186939297071628288.000000 338296863756554344570540886638480066652921565438253964517287365896738974981947392.000000 0.000000
0.000000 0.000000 0.000000
-200298175142975292143017748980737344037765764507328148529991241023767553582825472.000000 1427604871886774539193573012588708203608862781798149524875587905522298793876258816.000000 0.000000
1427604871886774539193573012588708203608862781798149524875587905522298793876258816.000000 807212115912979803124356761755401372805895567167827840669476487182926062546845696.000000 0.000000
0.000000 0.000000 0.000000
10731434284630769665679019547014753935483291962800508935113330204456375078277349376.000000 -2025066561008642981715222011822598252610337054098148089904728715672646150644563968.000000 0.000000
-2025066561008642981715222011822598252610337054098148089904728715672646150644563968.000000 253274674784177554128153831314746020492045022306081149672385024922477510791266304.000000 0.000000
0.000000 0.000000 0.000000
178434045018637170081951256100734317754841670359108224033636829810045950757961728.000000 -123016684209089893383686466255379778278713276663366591638920715612288077082394624.000000 0.000000
-123016684209089893383686466255379778278713276663366591638920715612288077082394624.000000 43466767568362450448174614289274750464686974234093796794947387122448140802719744.000000 0.000000
0.000000 0.000000 0.000000
68323878117080860548810448796595911437966603093149955937767044790749693988569088.000000 108727286371661670873440431485921176134770716262635283431779255906556685290831872.000000 0.000000
108727286371661670873440431485921176134770716262635283431779255906556685290831872.000000 33982679417871119379025271095553585925924330896265480446905073722122916780310528.000000 0.000000
0.000000 0.000000 0.000000
-22332044456415976983111753595828621909422591288027981676789182773485165485228032.000000 68941734678815092940227735898522166620381779177261190633380728894921861310185472.000000 0.000000
68941734678815092940227735898522166620381779177261190633380728894921861310185472.000000 47353086894819084763248651467793633122300147681022989151561543905719341885161472.000000 0.000000
0.000000 0.000000 0.000000
2391653443266039886819468508025020231463066011426161890083854806870269888561152.000000 4862024141543712747433031037720565756177734864744441218335022233195904453574656.000000 0.000000
4862024141543712747433031037720565756177734864744441218335022233195904453574656.000000 2895538530965754935321322113766401673530350263049606163222518469484237870333952.000000 0.000000
0.000000 0.000000 0.000000
195152370954561650908667232384050512905601651278322651756533535294254887030751232.000000 351481354086650708993995348317429569155850987702629171957953562282017395375603712.000000 0.000000
351481354086650708993995348317429569155850987702629171957953562282017395375603712.000000 177868648540956080938773106357449241213358840777577922244428111156022473603940352.000000 0.000000
0.000000 0.000000 0.000000
-222391727779919356268178782327250636023229143949553769343369267026051333095424.000000 92094284515656336964826730860592796902226512630676843891722753720395304534016.000000 0.000000
92094284515656336964826730860592796902226512630676843891722753720395304534016.000000 41526418137771990784277292485802019475102421845601829084929823660765727424512.000000 0.000000
0.000000 0.000000 0.000000
-2330284821976763276834074961493288885157242507926937773549856805181801701518082048.000000 275479477402407394242129912155941078344845938504758246083507123288864601239715840.000000 0.000000
275479477402407394242129912155941078344845938504758246083507123288864601239715840.000000 60306674156486699838886195655560558877959063532429606836558659403702498815377408.000000 0.000000
0.000000 0.000000 0.000000
66213125667984700376773188591752724467424292711336577652168201796945958699794432.000000 -34418243304874762846181647522079203583974054786080692004442238344985750594912256.000000 0.000000
-34418243304874762846181647522079203583974054786080692004442238344985750594912256.000000 10147564431361810202128916798407484589430195061819766809985473514290574184677376.000000 0.000000
0.000000 0.000000 0.000000
35775422145208878088388995049461419533852329753242703728204090963997628437626880.000000 -72965812282470140201123010449891167657410999714789405859680833060931444609646592.000000 0.000000
-72965812282470140201123010449891167657410999714789405859680833060931444609646592.000000 36573384944425355729834654387459102847874445736089616507553397875526588572893184.000000 0.000000
0.000000 0.000000 0.000000
501019610347566734947072604218717330554045945055108125452530127463645784825659392.000000 -154758366454944978859347580014962759890950376465086979380305553017666040026365952.000000 0.000000
-154758366454944978859347580014962759890950376465086979380305553017666040026365952.000000 61807145423137085240457510321293259656628755011334240144193048170431046320390144.000000 0.000000
0.000000 0.000000 0.000000
-171111932658785940543898322161141394743225857424905585240728232488288500536311808.000000 31449243393249253971893818262053022730086081971598418881537725088124472160944128.000000 0.000000
31449243393249253971893818262053022730086081971598418881537725088124472160944128.000000 9997058689443101640927173281126830758459143913379196564130016961793653506834432.000000 0.000000
0.000000 0.000000 0.000000
776185349109458261670224367476287783710133304767709752592252183888763995518140416.000000 -634304736255809320843984015362550826676952347309395205688976637468619545933512704.000000 0.000000
-634304736255809320843984015362550826676952347309395205688976637468619545933512704.000000 245154603302653846684060914427630280573996371372147742675239875365630382614511616.000000 0.000000
0.000000 0.000000 0.000000
96460886239299705976161320358628041357814376218504824653131968363265506548908032.000000 -71080292938183922403845343546734726041697706129243259713228728398576713839149056.000000 0.000000
-71080292938183922403845343546734726041697706129243259713228728398576713839149056.000000 26065219716549142997741953580375519701164059911554845563973531068113050077757440.000000 0.000000
0.000000 0.000000 0.000000
-231265241938625014658450670133555298010676036083058323586528068124077484654198784.000000 188874081272755767129625254863045417242516415240747278089454776226746691487793152.000000 0.000000
188874081272755767129625254863045417242516415240747278089454776226746691487793152.000000 105603239346816109310499380260583429451171496750951541704969046239412676078862336.000000 0.000000
0.000000 0.000000 0.000000
151626504187518818237295075808754123833669839050480724982839527414225381021974528.000000 65641606254182418008323150830874745756484574057340245568603770313665176276041728.000000 0.000000
65641606254182418008323150830874745756484574057340245568603770313665176276041728.000000 16862178358153192556029180486448982531274218981135567784143010649684204253609984.000000 0.000000
0.000000 0.000000 0.000000
1289499794514324711530033194584165215863615597650039992557805797757685062392872960.000000 136139469582626799692159807034585445350959295249830088102090288655990146415460352.000000 0.000000
136139469582626799692159807034585445350959295249830088102090288655990146415460352.000000 9711693909608882634182676314253771750101837202571063946406243454475839565987840.000000 0.000000
0.000000 0.000000 0.000000
148546789762725170805161831636579208723378306878533576192063833409307860187217920.000000 178110245926493577792161708017541646523227735941073621574944780780688908367167488.000000 0.000000
178110245926493577792161708017541646523227735941073621574944780780688908367167488.000000 79866308590909490032532596158501220915843634643191157570568745247263334871334912.000000 0.000000
0.000000 0.000000 0.000000
146501288481018836068438344106331661511829850053097994328061175992687077416239104.000000 223874333249760445156554962597036451409536036959576563087171566693370888540127232.000000 0.000000
223874333249760445156554962597036451409536036959576563087171566693370888540127232.000000 108570617007410538061025900064947377591912087053218041913886709572391906735816704.000000 0.000000
0.000000 0.000000 0.000000
339664360941144066788564569842523461941493477920590924440543100479439561987981312.000000 583220483540570728359869718526402009732863519481138048745553067493551630264041472.000000 0.000000
583220483540570728359869718526402009732863519481138048745553067493551630264041472.000000 295718050657234692342812017169125401635414873774562592468454183761953153666252800.000000 0.000000
0.000000 0.000000 0.000000
-119471018205677107726008183985702523778009305960132188243523397466561285464260608.000000 76483958319923287458650701146926918263380080743807866553463959639372964902731776.000000 0.000000
76483958319923287458650701146926918263380080743807866553463959639372964902731776.000000 111791831469258024494449853869840639195980682388156101790039067422727006047961088.000000 0.000000
0.000000 0.000000 0.000000
115234679639254816383966397279704864771559701173404663285483313652291858333696.000000 -217472143540336815254679216975666106489699788130109308637150861355897292062720.000000 0.000000
-217472143540336815254679216975666106489699788130109308637150861355897292062720.000000 107777946333673664754806762287042712848721483249548411831539651801249893842944.000000 0.000000
0.000000 0.000000 0.000000
-425674727875686634357116057744028829243592257832979584358984769471791795045138432.000000 325804917588970224517657580437484879242981754811885936860695969232673933287751680.000000 0.000000
325804917588970224517657580437484879242981754811885936860695969232673933287751680.000000 180805338831367642464168601649200873443890983883274648846730932183570724578918400.000000 0.000000
0.000000 0.000000 0.000000
-3327772510017099014705952224747684130187180137660423553964204164964957175152640.000000 -64966095409039793236711241028553694732883618030407072646433847239381747501105152.000000 0.000000
-64966095409039793236711241028553694732883618030407072646433847239381747501105152.000000 38593019862560717726438210583376089957424945617532860664387626930553683837976576.000000 0.000000
0.000000 0.000000 0.000000
308050355636156774702570588131252671901063217452673959831822028671963163596423168.000000 30897937062947747009103691233320574177171469952493478722229318360822124176736256.000000 0.000000
30897937062947747009103691233320574177171469952493478722229318360822124176736256.000000 2121137922231306954987203601595457779104390064548725033318009655610697941254144.000000 0.000000
0.000000 0.000000 0.000000
1112341179874481734690468505126416813497543729180500223271913998828514695970816.000000 947154552153650159202258093907647779724157444111129138120115456263275044405248.000000 0.000000
947154552153650159202258093907647779724157444111129138120115456263275044405248.000000 372543911954648003939529220785501022320624407783265756716964052659905344045056.000000 0.000000
0.000000 0.000000 0.000000
-17470850170463042062493283748907893370177126954797927615297270725188397491745193984.000000 1203087856700582293974106125560654853576972547038288494010776373922390673872388096.000000 0.000000
1203087856700582293974106125560654853576972547038288494010776373922390673872388096.000000 160089575057434666471102885438631921111724980946909592185983165570298952426717184.000000 0.000000
0.000000 0.000000 0.000000
1387645072205541830105790318671726470056313822155278732735414070255681714174033920.000000 1340856124421968114358638882203967812657766302443186128923049823152247147182686208.000000 0.000000
1340856124421968114358638882203967812657766302443186128923049823152247147182686208.000000 571160794317951205757144384805897151703707252372707192315402246307631102924161024.000000 0.000000
0.000000 0.000000 0.000000
344110914793320918795484110532505076186934793548795279291550324328632584801091584.000000 327222264701524325034913863557496934398255985073927549790021197376014769509629952.000000 0.000000
327222264701524325034913863557496934398255985073927549790021197376014769509629952.000000 135282925742056822371358857842395108288846477212657764520591231431159592112881664.000000 0.000000
0.000000 0.000000 0.000000
-423355205453396851644517641948234704518703374495865439748699223516084085475770368.000000 -329491563792821660557508265058785338451900868208584435369065589805630470783762432.000000 0.000000
-329491563792821660557508265058785338451900868208584435369065589805630470783762432.000000 188557456935941488603779303438621063321985574464689865974617086171908520575762432.000000 0.000000
0.000000 0.000000 0.000000
719272981469252030447002798994201377373525955595315328510158295752020598393405440.000000 605134545618649633486044959272351581702668728991830436944537419067891779524100096.000000 0.000000
605134545618649633486044959272351581702668728991830436944537419067891779524100096.000000 237988446898452639719801552041088965924065977213052132107078896697403438119518208.000000 0.000000
0.000000 0.000000 0.000000
404844736771366426187292850687268971381456494339083332842100785319372048362897408.000000 -268946789102099767758886580669824733991477827499468761320101741778584978759614464.000000 0.000000
-268946789102099767758886580669824733991477827499468761320101741778584978759614464.000000 93066055990424012000580087497143947610931837433008705950981141111921712375529472.000000 0.000000
0.000000 0.000000 0.000000
246843275296265714199425637897431957489250881978511257923096658024325896470528.000000 -334441880665961242817441147908298844846448476528378940087331151930800954408960.000000 0.000000
-334441880665961242817441147908298844846448476528378940087331151930800954408960.000000 164385480303956028173728423320140073255519811786685463130560622142098837078016.000000 0.000000
0.000000 0.000000 0.000000
-929158772841491673038583517659000182735150862002559312273877422468891016653963264.000000 10639825317808958883921338520604632343415819512226253190202862287713491551780864.000000 0.000000
10639825317808958883921338520604632343415819512226253190202862287713491551780864.000000 11472869713465574336417433530717818923540673211717453402621172636326952364408832.000000 0.000000
0.000000 0.000000 0.000000
-1219493587812178396440755051432825711026020040263589078531740235348965126125387776.000000 -857716650481842564462368679457524993115244495645908240734159498024933852750807040.000000 0.000000
-857716650481842564462368679457524993115244495645908240734159498024933852750807040.000000 473003086587489071435174963668366341292832405800280684156963122671898077228433408.000000 0.000000
0.000000 0.000000 0.000000
-17749053728948985051752614404784249899161463246411309119886610378513809300105723904.000000 450818213754087000708510062459233634965305260618283289097586477115768321637089280.000000 0.000000
450818213754087000708510062459233634965305260618283289097586477115768321637089280.000000 23285218159699720030549785449968992506580594009146978444715572366623412689305600.000000 0.000000
0.000000 0.000000 0.000000
-1066649412549852027026063070440256948050922132415117756225809109404576265569042432.000000 969490947186710002524539986720201899773277083864817558785466285694774099459440640.000000 0.000000
969490947186710002524539986720201899773277083864817558785466285694774099459440640.000000 547472996200291413245200901879904022228158201373200328568639130294949989217992704.000000 0.000000
0.000000 0.000000 0.000000
930704417858575864337982348213221710640414957232185440459341601537075987294978048.000000 346404695123683902117869058185474768694105634306953874868968419379497542239649792.000000 0.000000
346404695123683902117869058185474768694105634306953874868968419379497542239649792.000000 79550809456098024459386779288792061714526728163498376981346602406443803043954688.000000 0.000000
0.000000 0.000000 0.000000
2597110453326078474575000901892794213695476849103500883137482320834765751498833920.000000 1874253164460435619081057934600108126779971078845545393225238473947668710506364928.000000 0.000000
1874253164460435619081057934600108126779971078845545393225238473947668710506364928.000000 679659349858275659879377122256223390839958519094549646229046552131760351097126912.000000 0.000000
0.000000 0.000000 0.000000
1020982925288674505915401504027394560687512754123198387437372265244202280591294464.000000 -413542673346916950963659975557294772598765627120611017983729307212788622468055040.000000 0.000000
-413542673346916950963659975557294772598765627120611017983729307212788622468055040.000000 211189534322905244708145598843317827007746610511538619289105361276340912045162496.000000 0.000000
0.000000 0.000000 0.000000
148051545710138274729138848786132993837265925805015682573059640566131545104973824.000000 32959776304305937606365852804467447600400728350133884947418540351749963712036864.000000 0.000000
32959776304305937606365852804467447600400728350133884947418540351749963712036864.000000 27381612133944737250340227676340382686415995153570318055000213306060689993891840.000000 0.000000
0.000000 0.000000 0.000000
874761406501952809668663422170385043729843783805403331865959675716849416047427584.000000 292098089924822103108042612237702376029486379027660112765547345092459780108189696.000000 0.000000
292098089924822103108042612237702376029486379027660112765547345092459780108189696.000000 105047453285527368070860135525367263585525496754815356819379486286939949709131776.000000 0.000000
0.000000 0.000000 0.000000
-2137519020467324329067666007984861528386338872612271717865367478943743810149023744.000000 -2077705076677446239958522833723663581428355125234482846522974873477962324590460928.000000 0.000000
-2077705076677446239958522833723663581428355125234482846522974873477962324590460928.000000 1178227048533105754203162837571946961515777927997406971670661265537830841760088064.000000 0.000000
0.000000 0.000000 0.000000
9137021350031702619653064169528066863758033899621953838580594389518303363072000.000000 -7765299906032579977938155380958233701117868412161316135807803359390840104419328.000000 0.000000
-7765299906032579977938155380958233701117868412161316135807803359390840104419328.000000 4339676735235198736884955664340942250399596827534752613499549126704892011872256.000000 0.000000
0.000000 0.000000 0.000000
365008499753784969607416235726299458257879053062488700732251478260143091513032704.000000 757531501805354611132498154947533554917713300851690883651140158267570199635951616.000000 0.000000
757531501805354611132498154947533554917713300851690883651140158267570199635951616.000000 382149834968468968997266738749836516845770567812950281089894937028492227839524864.000000 0.000000
0.000000 0.000000 0.000000
50385890408477570034683027895056644156195485755331452924012679730539504737452032.000000 50898583582742437950525112451744165593839018960310016474229742328513959252983808.000000 0.000000
50898583582742437950525112451744165593839018960310016474229742328513959252983808.000000 21545412527890128416698982536928408837017572930970586222611372495312427212079104.000000 0.000000
0.000000 0.000000 0.000000
65867208631716001977937913172639793184775799123490624140429552823104312811978752.000000 5022609334108619322887770691816937804149611210895004802848347965065316909711360.000000 0.000000
5022609334108619322887770691816937804149611210895004802848347965065316909711360.000000 309081935903819060167862909469665781295130912290497959573913084814521758908416.000000 0.000000
0.000000 0.000000 0.000000
80227744027915685264271238122682023627392739477129569661944141611219180723372032.000000 -71781670035509709484515099606272069507541397705580457440812590077326025134440448.000000 0.000000
-71781670035509709484515099606272069507541397705580457440812590077326025134440448.000000 28939679850272638173620467612656618097112445574550790063620616785624757623062528.000000 0.000000
0.000000 0.000000 0.000000
19460744040659960406928695799913932850609580968121830455700476517000050074714112.000000 -12452292729929179561725052881237882372792244659294640543542370159708576799522816.000000 0.000000
-12452292729929179561725052881237882372792244659294640543542370159708576799522816.000000 5067842879765651253595776337402692959680709998459431837365859497051033991905280.000000 0.000000
0.000000 0.000000 0.000000
271627267527172483181865293960479049287463565723460749028570593334085638193938432.000000 155456333690282594300562371544762549807991527634901224398943627293476951043342336.000000 0.000000
155456333690282594300562371544762549807991527634901224398943627293476951043342336.000000 48952903928667440875576683875913859244408770883200437692384896246760615610155008.000000 0.000000
0.000000 0.000000 0.000000
243645190716276142924394896313556386187955418251517469410141965377319561062252544.000000 -421868960727948710142246069323474309522097436980616199409067917696449354884186112.000000 0.000000
-421868960727948710142246069323474309522097436980616199409067917696449354884186112.000000 206373997158676771195821838694434356114209619913612152923130220543819932288155648.000000 0.000000
0.000000 0.000000 0.000000
-968322317379093856038828893958075095549168499295396502111040092577246887280640.000000 -8761999725819062236911225820287375996584747379095867224706661527605956684283904.000000 0.000000
-8761999725819062236911225820287375996584747379095867224706661527605956684283904.000000 4930748099555583302812990265112007488204832367106014055722233455333844099006464.000000 0.000000
0.000000 0.000000 0.000000
613701502886463306126875387237179756782633553843473063786706648305603951240151040.000000 -2445497188823652694368982529860196541129461444989988425075395044662864930406400.000000 0.000000
-2445497188823652694368982529860196541129461444989988425075395044662864930406400.000000 340771178169981388892741458920265042079917236742000323625821664634936320065536.000000 0.000000
0.000000 0.000000 0.000000
-20194304435292597113051436996719013417425866892331607962471251715725809664814743552.000000 -1520152261151947183123186010980908993013549116608477485653223242587702495822217216.000000 0.000000
-1520152261151947183123186010980908993013549116608477485653223242587702495822217216.000000 222370033427608127409144225981788971179606668364926360205707637210795375606104064.000000 0.000000
0.000000 0.000000 0.000000
-328237040614694693820714900264520597260513407144326552882254177228450547141443584.000000 -463147183697885549647098737904303377217536250567546911665640594176080266236264448.000000 0.000000
-463147183697885549647098737904303377217536250567546911665640594176080266236264448.000000 267150317563946675136678138802344586616556888743156231511893934839017269920530432.000000 0.000000
0.000000 0.000000 0.000000
138924753555001112390661090855211967821378424362761514336355683890985001193308160.000000 5460943614753562420504667065478180395750173704325343399573943895153832869494784.000000 0.000000
5460943614753562420504667065478180395750173704325343399573943895153832869494784.000000 400118687572047673493758074352449370238988618133723204722770323433018527580160.000000 0.000000
0.000000 0.000000 0.000000
-9615269825952637327492830810438400769357055407630007996912695291663993016418304.000000 -38634306310510275597615328568114962247027461125146153345839640571671218560696320.000000 0.000000
-38634306310510275597615328568114962247027461125146153345839640571671218560696320.000000 22024106637019428832791242009954393055657170429116113275491632943595155531759616.000000 0.000000
0.000000 0.000000 0.000000
30865231964198972750642045913820316124574033512182550954176395220909228036194304.000000 -343402413475063599408016042109600762341463485045508568064873100263859814425165824.000000 0.000000
-343402413475063599408016042109600762341463485045508568064873100263859814425165824.000000 188710386084677613451924246368446250436472085153566968353525359615207657823010816.000000 0.000000
0.000000 0.000000 0.000000
-1054439667032845128914652553201579573293902175932635468606916931390427120109879296.000000 -269934996059005814411697696120761621361936511210223152065378915257236262678953984.000000 0.000000
-269934996059005814411697696120761621361936511210223152065378915257236262678953984.000000 131572149935140386413716086892844419732253112055220486939977707375829013453864960.000000 0.000000
0.000000 0.000000 0.000000
-94980525208442990884298546215189716178049990831530009539677684883416302724579328.000000 -151467359944994083092681337039825411052390878120252106849000667213042991620947968.000000 0.000000
-151467359944994083092681337039825411052390878120252106849000667213042991620947968.000000 108699886541678184020491064538857064524046550306173223017562684566461943826612224.000000 0.000000
0.000000 0.000000 0.000000
-91359362370159668204357444865410293261916534650422858416227713622068484735238144.000000 -256927831316414146184870598402523320480576518123592695061052955768501187467280384.000000 0.000000
-256927831316414146184870598402523320480576518123592695061052955768501187467280384.000000 147207518426392013685852874314256472117316428485396471348492891458584644039999488.000000 0.000000
0.000000 0.000000 0.000000
2431777376239461383348752026030197887884611935534972548001383747648311883988992.000000 -85294184997448326193758070004913166634269516247918776305892251199454998167552.000000 0.000000
-85294184997448326193758070004913166634269516247918776305892251199454998167552.000000 8410167816727827025216369722316446691985892185576010000586765015177976872960.000000 0.000000
0.000000 0.000000 0.000000
-36005508299765452559751157911063930771816154545596667938174580260344373515911168.000000 8069948565894222045536054714408220537533578086945788174379279927960962464743424.000000 0.000000
8069948565894222045536054714408220537533578086945788174379279927960962464743424.000000 2873496574466935658527216379018331049319940700974557874770840815345833395355648.000000 0.000000
0.000000 0.000000 0.000000
-634675318882440924301039859209773121454068053392087293292339074422612751240134656.000000 611773721748696459063417128722887173954600544251975836853464838568428406331932672.000000 0.000000
611773721748696459063417128722887173954600544251975836853464838568428406331932672.000000 372603546056813561536224342670877302888608619340875897163375338189613652311539712.000000 0.000000
0.000000 0.000000 0.000000
-1800240288077614224210640906128215534381687565196968228600542856044215696088891392.000000 -106785432722789058672429775217984082038078946433786763000472649719316931726540800.000000 0.000000
-106785432722789058672429775217984082038078946433786763000472649719316931726540800.000000 12367649727343848672418308097113516250717398781892511311350412960114433580859392.000000 0.000000
0.000000 0.000000 0.000000
-71022613686101778959929258462758917497359866381570467908267625465433160662646784.000000 480078164499378779580716775862606158097899718128401021287659336102005144444469248.000000 0.000000
480078164499378779580716775862606158097899718128401021287659336102005144444469248.000000 332404065502534973213037757929135202940440658643577969860523066543584692190314496.000000 0.000000
0.000000 0.000000 0.000000
110448692394602609078486809131839086555480068668971725333096460573183707411644416.000000 -97906387150546280966308307297169711004229702010643050378631816568594549411151872.000000 0.000000
-97906387150546280966308307297169711004229702010643050378631816568594549411151872.000000 40525856562834971111385369179528700338448527321036980969257567222459146327556096.000000 0.000000
0.000000 0.000000 0.000000
1678151401942520991064090081624123817117585210060408248744635618498946917875056640.000000 -986375668760243572180199871800070984622964622858264267059529728656888906351902720.000000 0.000000
-986375668760243572180199871800070984622964622858264267059529728656888906351902720.000000 316067923987190403351502262996036350798157242294557659028641702471829406770790400.000000 0.000000
0.000000 0.000000 0.000000
16195023333339119135106439531508407580891221829969063965903065959813534328029184.000000 -15970895980155159167710479026043897644299472217107233415648740409543663231696896.000000 0.000000
-15970895980155159167710479026043897644299472217107233415648740409543663231696896.000000 7929566772543840871014263879337342640576836389419438442529861911038358145990656.000000 0.000000
0.000000 0.000000 0.000000
191510113976874360688573339517563602489130323322239923994476026098592235730763776.000000 -15978987571184309712649378379089169894473888615567392080621346056875345964957696.000000 0.000000
-15978987571184309712649378379089169894473888615567392080621346056875345964957696.000000 1037123233687772289880454312108293280031924374374577868408223112408657515511808.000000 0.000000
0.000000 0.000000 0.000000
-490424035013294029473129274661007781604100055274491031472144921828608935853031424.000000 314838275282139569716059616560729070044179613497337284217866636297251568163487744.000000 0.000000
314838275282139569716059616560729070044179613497337284217866636297251568163487744.000000 169625214535780606392359942780265849854415199024855827771688780998571162811236352.000000 0.000000
0.000000 0.000000 0.000000
-18910031909665445990702807684370717599710280155054804672531742706370066778161152.000000 -130512210253555669421363699142663704494497560695497110595429215613350068399112192.000000 0.000000
-130512210253555669421363699142663704494497560695497110595429215613350068399112192.000000 73870268758835147705170237396212567708290024406259849911178927618717080012980224.000000 0.000000
0.000000 0.000000 0.000000
356649399185706060508087728229576944676115893762367090777944099585933407319752704.000000 -386635030375428140151873638205194244939329545870470312555735961302272763827847168.000000 0.000000
-386635030375428140151873638205194244939329545870470312555735961302272763827847168.000000 167866393616180616737580412615864816165147123910710319267719025969980992768704512.000000 0.000000
0.000000 0.000000 0.000000
182728122260862312617628461397710594567178552256515106490477716591902341019467776.000000 2850034052663202885219414529214367409976630806360562801767475531305262910537728.000000 0.000000
2850034052663202885219414529214367409976630806360562801767475531305262910537728.000000 307741392365583063314631576840788046809831632253160697639123207259154234212352.000000 0.000000
0.000000 0.000000 0.000000
119689696653084845997013506288190155236502505858371272981166187296377307033239552.000000 -2091936346186916007766677282049762481811738826654771072185338223066325547455873024.000000 0.000000
-2091936346186916007766677282049762481811738826654771072185338223066325547455873024.000000 1148024412364447881617086763649923245427940225668844034198791806235747008672432128.000000 0.000000
0.000000 0.000000 0.000000
-429986826544211975158912781733446151641160050644710448142065848234562445608222720.000000 -1148661358917630105141593327809135440849430072191150574011155944598482575842869248.000000 0.000000
-1148661358917630105141593327809135440849430072191150574011155944598482575842869248.000000 659008819674841351388540461021894564272800256631410353022701346614524903868596224.000000 0.000000
0.000000 0.000000 0.000000
-328126177077065194656632147056515031598110787626387133411709282759541736022736896.000000 71875714084713259287550898061566794937317953358788095130605670803850554175913984.000000 0.000000
71875714084713259287550898061566794937317953358788095130605670803850554175913984.000000 62679078599562336078860299141426416367734137130274112391774317015313275229831168.000000 0.000000
0.000000 0.000000 0.000000
-1917616088894491447548871949298403742494390007628630542993811748426600720963207168.000000 854831661063436073102707363051611226800314597862847336865329078198936926469226496.000000 0.000000
854831661063436073102707363051611226800314597862847336865329078198936926469226496.000000 422531773450943284041024503415577640408086102427056533584204078109118159373991936.000000 0.000000
0.000000 0.000000 0.000000
-148553750062916124323827173510513007166825030543313041757635837871454935691888164864.000000 -74603107464264766865821559042159033920850038628217764300547925223579145329744805888.000000 0.000000
-74603107464264766865821559042159033920850038628217764300547925223579145329744805888.000000 38198905072733509498108245984297655260898243785817760263077015790726947668798472192.000000 0.000000
0.000000 0.000000 0.000000
585536320525985593614893979969670295193263233784779348981552114077307149347717120.000000 289885558694978571351656891010376694038275096702108503228875663330513587546357760.000000 0.000000
289885558694978571351656891010376694038275096702108503228875663330513587546357760.000000 82463108737621065570988218344203078454567146574696842126990198067464552990113792.000000 0.000000
0.000000 0.000000 0.000000
-857641523352300199378534247713117935041718014372304084011981167368737483638439936.000000 1003771156216844823611615768914465139372219323938804621952487365614213572079910912.000000 0.000000
1003771156216844823611615768914465139372219323938804621952487365614213572079910912.000000 614299081451256427989327365168747492310852705214904519811742325410794603064328192.000000 0.000000
0.000000 0.000000 0.000000
123683765873190000563444612716958432907854405076251049704053222108141529178570752.000000 45508421072604339696546530004164707480515914201239685459277174762610914756657152.000000 0.000000
45508421072604339696546530004164707480515914201239685459277174762610914756657152.000000 10073507453348373921193433074761121311102266723507259503734888561253605611405312.000000 0.000000
0.000000 0.000000 0.000000
-28095805972671002523895250568340959655178993654086321770597798643645454170980352.000000 40955488433885063202798440814981272533682197229781192055857753288469552247603200.000000 0.000000
40955488433885063202798440814981272533682197229781192055857753288469552247603200.000000 23684988898957124058794730828631666942363725676272598778027998833038618490044416.000000 0.000000
0.000000 0.000000 0.000000
858906720625387918758140589425898570108318001139765314942395149382883513221513216.000000 649125245832350854473664685980170966516334301364946531394372548621550825091629056.000000 0.000000
649125245832350854473664685980170966516334301364946531394372548621550825091629056.000000 244393299651224517384994638346663745987955987498539853104934118987583489071644672.000000 0.000000
0.000000 0.000000 0.000000
1344297517555539907575048517242872209255347847307405277154061670440951212933120.000000 849219477270120352559053963424374675216528258899247857649869054690330413105152.000000 0.000000
849219477270120352559053963424374675216528258899247857649869054690330413105152.000000 284839830137338829228284219035084782484347391943680938658064104041494033203200.000000 0.000000
0.000000 0.000000 0.000000
96452002154577305326956592493302780427023691273656205257349834285645449062776832.000000 -93853307001958193590212807854836810164184932077389764100475450409596957138878464.000000 0.000000
-93853307001958193590212807854836810164184932077389764100475450409596957138878464.000000 40995172990745060648206982131938661444105808773041665115543758709087894690070528.000000 0.000000
0.000000 0.000000 0.000000
-2191304246024815259457405707789855417595227631370419817308103119460507148353536.000000 95294915451904060171504234184293588066715901441941344110867030301077925722587136.000000 0.000000
95294915451904060171504234184293588066715901441941344110867030301077925722587136.000000 55820441477760949930624059748024692866896425045094414152455627695706508040863744.000000 0.000000
0.000000 0.000000 0.000000
1052116698301242783580923481721135262078841287674907506185234755185054933057536.000000 -283836719452151183086482362970890117117003583602813230728128782067499481956352.000000 0.000000
-283836719452151183086482362970890117117003583602813230728128782067499481956352.000000 50716445506632220587450734135345097500677273688686487839344966137918768807936.000000 0.000000
0.000000 0.000000 0.000000
-565157161922627017837747586195655561819425489780168062088073608517077453997342720.000000 -225436712427721057585159909882713355283738052241968543803116486139523950658453504.000000 0.000000
-225436712427721057585159909882713355283738052241968543803116486139523950658453504.000000 107244668038320547051323300338917913603754633711792710807360935316950206564532224.000000 0.000000
0.000000 0.000000 0.000000
-8837372678392968203503957043495278868277882957442882680762956506625609737250537472.000000 2774720691422803460191506976217121194165773735621751444018742889699517410784051200.000000 0.000000
2774720691422803460191506976217121194165773735621751444018742889699517410784051200.000000 1205385908869214780818698151413041585137569879421900408459224934682399642837057536.000000 0.000000
0.000000 0.000000 0.000000
-56651061358385451868193578864007323975174453572037759466141268909020460793987072.000000 5435031348154165977064982474879403259916438167841234774660216156177611127521280.000000 0.000000
5435031348154165977064982474879403259916438167841234774660216156177611127521280.000000 3671827474627905011996718634659902981530232078598787015080777872220567849926656.000000 0.000000
0.000000 0.000000 0.000000
-812663594933146276916240688246996876391108248556912504202484541326672706708439040.000000 887830067715076032726571986675220221431725910452228984239239641246025420325781504.000000 0.000000
887830067715076032726571986675220221431725910452228984239239641246025420325781504.000000 507534123565988229239328371627630620156677027045509158456009624584727507528318976.000000 0.000000
0.000000 0.000000 0.000000
304838630152345460479760810219240417524860167025244230482529089507225437976133632.000000 685195821522076042335015468263994708530784444429723991525484205661374781344186368.000000 0.000000
685195821522076042335015468263994708530784444429723991525484205661374781344186368.000000 355991876435249666914345001379006637361118002101079556002822329637545521627267072.000000 0.000000
0.000000 0.000000 0.000000
-10356084459582980732963191784709979017397517339846394335179129143891073715172016128.000000 -910235377171011200080657360391225013061245616844525455914371588453992283057946624.000000 0.000000
-910235377171011200080657360391225013061245616844525455914371588453992283057946624.000000 158643227168219268462759407202251239214611871183840857792886187001263534217625600.000000 0.000000
0.000000 0.000000 0.000000
1937969389706184575808084788596717538342369455656858741182650021366199999191318528.000000 1091649247725384773072159834479463169120156920053160850860615770347170571099308032.000000 0.000000
1091649247725384773072159834479463169120156920053160850860615770347170571099308032.000000 342049289537338020248668994190499118967862702986412125052101081477502172716335104.000000 0.000000
0.000000 0.000000 0.000000
590070605843886177525137339957382541449949228325126515523586004469137996318244864.000000 -1400164698954544146162382840005303304839300518762491742443261783621766800031612928.000000 0.000000
-1400164698954544146162382840005303304839300518762491742443261783621766800031612928.000000 715218687716857180602767202772646281036904273962096465736337442974355364411080704.000000 0.000000
0.000000 0.000000 0.000000
-180189997561338273148794074663316644917439642192661136397864543050396439358210048.000000 164942537219440359731287512390224429472903236868999859257673205396170256634871808.000000 0.000000
164942537219440359731287512390224429472903236868999859257673205396170256634871808.000000 93226202167520931984191781708544843331436631047502143221738014129254154459152384.000000 0.000000
0.000000 0.000000 0.000000
135583761259727959322473096425854392128906582398861591790183614429439532241780736.000000 -749503730569869680213259388896143992443629848912506994232118524513618266310049792.000000 0.000000
-749503730569869680213259388896143992443629848912506994232118524513618266310049792.000000 405823646146653783044833426550986570138268587127055794109649924687168239803826176.000000 0.000000
0.000000 0.000000 0.000000
-1910859606396575633557619267091733663933678524838008727159441454981992718866055168.000000 -819768123236838136711767503937642317825874999770907813632015504085082612384661504.000000 0.000000
-819768123236838136711767503937642317825874999770907813632015504085082612384661504.000000 465573332969118263581312712007224226226473287639519121433183221768024753201741824.000000 0.000000
0.000000 0.000000 0.000000
414539102484127841810671811780399438926985769192458073705745366089267582861312000.000000 250285643883276279154907205887475013784472952644996045669938882187662772261617664.000000 0.000000
250285643883276279154907205887475013784472952644996045669938882187662772261617664.000000 87545600782286500571833497910148584757043321220176913488888934039595375411593216.000000 0.000000
0.000000 0.000000 0.000000
21250783191551356026709475057008967431179027673572800499962669630203292192604160.000000 -9569902300220782529823439148812895275207924406077199927797316140294194872713216.000000 0.000000
-9569902300220782529823439148812895275207924406077199927797316140294194872713216.000000 3692983676024597792863978001086426224730005707726308242074496029871053048119296.000000 0.000000
0.000000 0.000000 0.000000
152011924109664759225039803808447298090009968435730221239749323752947767557750784.000000 -132102016564175468717679079193134447239478335285525925279604168875738733089914880.000000 0.000000
-132102016564175468717679079193134447239478335285525925279604168875738733089914880.000000 52549594359886548734757222661439091598506101138474940500976045212644286048239616.000000 0.000000
0.000000 0.000000 0.000000
-50082929578811797560002369211142305696216208723337691633644960844659068889989120.000000 21404700844274709964536262074587266236530989396156962875876319920295563988303872.000000 0.000000
21404700844274709964536262074587266236530989396156962875876319920295563988303872.000000 9697513032538495134423561325555495412193402045558889669622259708527499882266624.000000 0.000000
0.000000 0.000000 0.000000
129581275677383712778128248907424498853499994979786440492427394241761713529552896.000000 975172009245533272618895816139396467349727817399510199596525273942143185381752832.000000 0.000000
975172009245533272618895816139396467349727817399510199596525273942143185381752832.000000 531922948964320153941952227705168524422656531117980692567980527348137544042676224.000000 0.000000
0.000000 0.000000 0.000000
341188324823166330655973271475790660278430913245998032436063087882087694302445568.000000 915889930099842384757456579229997467285786310718781114739179719297412302750351360.000000 0.000000
915889930099842384757456579229997467285786310718781114739179719297412302750351360.000000 474042078065606799884522230930745261534148903327813288038269343850694833531256832.000000 0.000000
0.000000 0.000000 0.000000
-670686759887731709283952274324957620786804366003458363875812307903006125234061312.000000 359001416825898510100573554446456215126055609482736616785259647540850520338989056.000000 0.000000
359001416825898510100573554446456215126055609482736616785259647540850520338989056.000000 186825634597215505078484595891138692384107797888533646097770845758861374094573568.000000 0.000000
0.000000 0.000000 0.000000
6047547304600633328974186203283885285855480462330132993419108859176744260730880.000000 -96425751282937040954264504846803998856721640966367183395119443823086587017691136.000000 0.000000
-96425751282937040954264504846803998856721640966367183395119443823086587017691136.000000 53112569010262661139164595284017361691582903523430505060240294297768640213155840.000000 0.000000
0.000000 0.000000 0.000000
1804539508245379291100953571648230690869279703420505583966827230653078086816366592.000000 -381968735955409386934676895239163441847645575691404329892203290654709931262869504.000000 0.000000
-381968735955409386934676895239163441847645575691404329892203290654709931262869504.000000 53300855365763895864221454981746152386425895840556424424094790546808554894917632.000000 0.000000
0.000000 0.000000 0.000000
740935441639560982299508408174528530108498348446651554583502698227808168839217152.000000 259265131858788889884351744057744620137898948198725862158713982747804938033692672.000000 0.000000
259265131858788889884351744057744620137898948198725862158713982747804938033692672.000000 56058992060244656866277107116527847982920493031417298091395216882109753658966016.000000 0.000000
0.000000 0.000000 0.000000
1635543611469774700074282075889896527121929809957645675619952554619610616299520.000000 70391902516310656471169338431680600604174705221281394447854685183726988558336.000000 0.000000
70391902516310656471169338431680600604174705221281394447854685183726988558336.000000 14524797624413206301982659494868955012389820165056825331302889057164418088960.000000 0.000000
0.000000 0.000000 0.000000
-642171343872195923895511819621476749789264562962497759242226590218811152141385728.000000 265851664192558634474027117572135592854546201433365421773244158406946152303820800.000000 0.000000
265851664192558634474027117572135592854546201433365421773244158406946152303820800.000000 128275130201557075694465477450334440264523083823439772150695682514433740671811584.000000 0.000000
0.000000 0.000000 0.000000
56269712055285717753542698850306751071906224806797298183512572351904534765764608.000000 -137779408475600226262472389748293031491250675350544055988606470094346835701268480.000000 0.000000
-137779408475600226262472389748293031491250675350544055988606470094346835701268480.000000 69611316909059873554989141675983132674304067333582078904167271591680530932826112.000000 0.000000
0.000000 0.000000 0.000000
214320169915187288608006054325900878816410723298373601256127963014818423040376832.000000 4330043171491761226363141937818704431009927451085687581358745801586730048946176.000000 0.000000
4330043171491761226363141937818704431009927451085687581358745801586730048946176.000000 79512574591645285105529534026814135900426541066004794911308045512737212596224.000000 0.000000
0.000000 0.000000 0.000000
747810178446667357547084758264793041252367354807785322691023822348112957165010944.000000 -385379799561076472630863730953906640181370378518897395538592752311028392839348224.000000 0.000000
-385379799561076472630863730953906640181370378518897395538592752311028392839348224.000000 112878543892746881111708346728931003921489494254330531208853680691262763003019264.000000 0.000000
0.000000 0.000000 0.000000
107175684617976394529706374869350558483228005005325005405802623551799680198246400.000000 -31079911866567603998722582465389839126251099608339474367289556698511344779919360.000000 0.000000
-31079911866567603998722582465389839126251099608339474367289556698511344779919360.000000 5899313618866886487200044668986124584683998923684414648628627068035336455061504.000000 0.000000
0.000000 0.000000 0.000000
-82232445697279685487362660527755176322014222384039053813170415846062694470778880.000000 -30977908747290591704842627388987257782295260862149024132905217385280106057957376.000000 0.000000
-30977908747290591704842627388987257782295260862149024132905217385280106057957376.000000 14428669194573042572006593261097658582571818292155763410764140274829820453453824.000000 0.000000
0.000000 0.000000 0.000000
9946447693108778234088395762656177321259143097956769029451674620250490564247552.000000 -30970549100193184718847442422930627330405499459155085661232654072932238903738368.000000 0.000000
-30970549100193184718847442422930627330405499459155085661232654072932238903738368.000000 16221064469711024823322015120097188685235085879613061904052570586203623669104640.000000 0.000000
0.000000 0.000000 0.000000
-271339631751204781453074010811504108303571583906764278642477641797927671571677184.000000 -84907025038385948424841145320424375069030502382044268034957024008775845749456896.000000 0.000000
-84907025038385948424841145320424375069030502382044268034957024008775845749456896.000000 39026696888143897349064764639792707992833716797747029300030968803538719500926976.000000 0.000000
0.000000 0.000000 0.000000
91240357855933362137479166697794860094787218109073596460132539878130184638955520.000000 111101452364379569875954406337322407066869904668204613748627246934318595369336832.000000 0.000000
111101452364379569875954406337322407066869904668204613748627246934318595369336832.000000 49848444740072947488934316763845591700728309594836664665660599976880636650586112.000000 0.000000
0.000000 0.000000 0.000000
146862552278375248085617962568161682821268579552016355309866731925303875344531456.000000 20936475739287764878853511067981654305276436884638161046638926974110623061770240.000000 0.000000
20936475739287764878853511067981654305276436884638161046638926974110623061770240.000000 1975177055142592030442595867823503854764176008215558957483313302312805147344896.000000 0.000000
0.000000 0.000000 0.000000
-112697572808782472683692337927627170702218366411272102912119161577779501572554752.000000 381419134615597039190703113249828231669731166074581301835406292266331599911518208.000000 0.000000
381419134615597039190703113249828231669731166074581301835406292266331599911518208.000000 218877015603109550317265000856064676312010724751905378594696522459205220402462720.000000 0.000000
0.000000 0.000000 0.000000
-1272451703455395945837085558901764485316289694973356403313468226098602678807429120.000000 -262568897488492983266353694307943374542780992847634654432598454185725510832619520.000000 0.000000
-262568897488492983266353694307943374542780992847634654432598454185725510832619520.000000 89859023332277403137306222893728935494950075297346324503750026215124042638163968.000000 0.000000
0.000000 0.000000 0.000000
626853318747617932303648137318869675021247784939997184897976856433668304207347712.000000 578990308928684799612984035326296241904842090859879425295085208897977621682323456.000000 0.000000
578990308928684799612984035326296241904842090859879425295085208897977621682323456.000000 237773487848191377602624854955461248581773854560139990283998093174550972950642688.000000 0.000000
0.000000 0.000000 0.000000
283587341472019974846727036905071842232642614583295390523245149428838922754981888.000000 -282422710143112151381451160651577650070739415197600412626163424664404317712678912.000000 0.000000
-282422710143112151381451160651577650070739415197600412626163424664404317712678912.000000 124499424814449917124449082124498203882678376383328694373594071298571409695965184.000000 0.000000
0.000000 0.000000 0.000000
2227036274692166563855252273073573515437241815562907640559633442584936965635833856.000000 -2081092351892881223149616410919858669990552957393854216386771850888733344854441984.000000 0.000000
-2081092351892881223149616410919858669990552957393854216386771850888733344854441984.000000 854247660518099615486067014490130071156376702193038266961580109659351505424089088.000000 0.000000
0.000000 0.000000 0.000000
-13642366919067824385504594379669811092461044876742213719434697808777596264442232832.000000 1448689559511848386818637196612105158183101925987848520866380829823035170942353408.000000 0.000000
1448689559511848386818637196612105158183101925987848520866380829823035170942353408.000000 288864036496675161878881552870421762642869996717665301188941229094865410887516160.000000 0.000000
0.000000 0.000000 0.000000
-212340918266583609768531187836392501134502837022714374417081844248256016027746304.000000 26596777460925605433439426659876206274648402501863205073477853394235164041674752.000000 0.000000
26596777460925605433439426659876206274648402501863205073477853394235164041674752.000000 6128775060287993212632062357924048885323494314867141185955616309818530369372160.000000 0.000000
0.000000 0.000000 0.000000
429256257958185271737621608259095839772916905648906230581682524180873188737024.000000 -990354394152780063365036423120073902990289012564555284828685260998799448342528.000000 0.000000
-990354394152780063365036423120073902990289012564555284828685260998799448342528.000000 504260606746038505709619658151456199540159672299729032269190821531797969436672.000000 0.000000
0.000000 0.000000 0.000000
17843724862052349056202270556022883468424016239043104061559827739311089221894144.000000 142593638035267214285263476037363602295269188421053252992407391154160398883618816.000000 0.000000
142593638035267214285263476037363602295269188421053252992407391154160398883618816.000000 33573977716166719979897524189961185139565953472514008683379329527534086866862080.000000 0.000000
0.000000 0.000000 0.000000
278461173557717022077168854602896175991006707651341793869471958561258576281600.000000 407009077357762171584173383389961850098161336181504795322912340353200190128128.000000 0.000000
407009077357762171584173383389961850098161336181504795322912340353200190128128.000000 194029716863175587281105365308731609883364663644982148862059889829137327587328.000000 0.000000
0.000000 0.000000 0.000000
-83324627795490153302814698975257574903096055151127831157045214670213685671670841344.000000 3911816383673477210428725543768306282148563577306895066184403160713117131119525888.000000 0.000000
3911816383673477210428725543768306282148563577306895066184403160713117131119525888.000000 367055849870478326519030496556315767390816769986467163279105377827192959758499840.000000 0.000000
0.000000 0.000000 0.000000
39423840275251756738246360905092291878795391419153990028186351627492474363052032.000000 -23630651428196733447967132411168349444757713308673797678741050575615549906092032.000000 0.000000
-23630651428196733447967132411168349444757713308673797678741050575615549906092032.000000 7631045620355775377151238556691381501785591296754471664944644501405962757734400.000000 0.000000
0.000000 0.000000 0.000000
-2161876345505980596897160633464751840722295459736662755455838457576379287775215616.000000 801240611784500031150211389147906141332417138158264656807261656392953223962427392.000000 0.000000
801240611784500031150211389147906141332417138158264656807261656392953223962427392.000000 371379966166987097501842751846348415591103510142224055166542315697144194177957888.000000 0.000000
0.000000 0.000000 0.000000
-14251998462986076238965593867896775609819510380981753190048846809278834515378176.000000 -7913726557148209964567322062640002995566278433422069754547726086652487234748416.000000 0.000000
-7913726557148209964567322062640002995566278433422069754547726086652487234748416.000000 4201186370437888056775654738940183851493225334719189225790740866992112492609536.000000 0.000000
0.000000 0.000000 0.000000
50202909541096562121485064318736616666159256252070895469080966441324812869566464.000000 -24095835736991089118675249991205179193856838399475009623135645669291390058627072.000000 0.000000
-24095835736991089118675249991205179193856838399475009623135645669291390058627072.000000 6725421216111684260725409893494302153215896609837481620097598646630753543127040.000000 0.000000
0.000000 0.000000 0.000000
-506501222258599873296385978060070391290732781200359850791780979361931181829390336.000000 -1443397458297864465299459683592074016332774267022708909665001852991543301201985536.000000 0.000000
-1443397458297864465299459683592074016332774267022708909665001852991543301201985536.000000 828834273270624510436377755787326649633652752800746336793984566664075703463444480.000000 0.000000
0.000000 0.000000 0.000000
1660637497724560513808622162817255768617393107932035427186817343106420573133078528.000000 1447536459058045887437965353097254131258549546940121587316891231009057962176020480.000000 0.000000
1447536459058045887437965353097254131258549546940121587316891231009057962176020480.000000 572954882438955691739336086691877785127426979888996702636484205368729371431403520.000000 0.000000
0.000000 0.000000 0.000000
490631060833277234915605125226892664439627967195535970333107153784042988519817216.000000 645177300114035792756611782540081539359204189943003771064322654685144094980702208.000000 0.000000
645177300114035792756611782540081539359204189943003771064322654685144094980702208.000000 296808476103008340089252083305885867045412656586217158681974069668922611292176384.000000 0.000000
0.000000 0.000000 0.000000
-3410883382824456809554643665158301940664368485413831554486745605548939783306215424.000000 1238143699863538803877155342359257616453641249684723273293851191054269607439237120.000000 0.000000
1238143699863538803877155342359257616453641249684723273293851191054269607439237120.000000 570914646113827474669718605911405063454211994851943860222629742803142323344506880.000000 0.000000
0.000000 0.000000 0.000000
4115409957465909972187607446685433154112322067654570221004831314254502572326912.000000 1600743591513072965722129951092286857904342662631377183206311445873229475872768.000000 0.000000
1600743591513072965722129951092286857904342662631377183206311445873229475872768.000000 446244819065797291743573737856816942695345382574273100855682380450315049631744.000000 0.000000
0.000000 0.000000 0.000000
-144802702225931498340123355858722021788247250143078403979742196857319157076590592.000000 90496179060370483039381048875417036665256598412480949072833852408435516465217536.000000 0.000000
90496179060370483039381048875417036665256598412480949072833852408435516465217536.000000 49251943832752269228874038916010611476071392573763721928115372782269048066932736.000000 0.000000
0.000000 0.000000 0.000000
-71852998447001304794310809969375546127534135653970003353471198825151684077944832.000000 94302306162765939583499040547025851895973532057088841823553004471841382257917952.000000 0.000000
94302306162765939583499040547025851895973532057088841823553004471841382257917952.000000 53647451125701243820630570828685333098728292092586074920849921606502499408150528.000000 0.000000
0.000000 0.000000 0.000000
-855924696414234311561225097784416063980508610219233272091448481481110124322881536.000000 1030741252408045885354416548788309538381578928459302034566502136147405812688486400.000000 0.000000
1030741252408045885354416548788309538381578928459302034566502136147405812688486400.000000 593761044910781488166654607341661707143295653906283900054536395158287456007094272.000000 0.000000
0.000000 0.000000 0.000000
86613594735803509261950032401867323324392109999919210543568596577660284209987584.000000 105746624786515908526929507730365294000623060090095035032249577975368950675931136.000000 0.000000
105746624786515908526929507730365294000623060090095035032249577975368950675931136.000000 47343179690109135108914378773269058909840994718467518352244620555075065810518016.000000 0.000000
0.000000 0.000000 0.000000
-1039581066671712698906760896121782467230714424066747589471911806111516085664612352.000000 345942940220684243806962949102086992578852246835124369566557100054864169346793472.000000 0.000000
345942940220684243806962949102086992578852246835124369566557100054864169346793472.000000 153007741149885336310725994572441080112334733682380793627683416647843590027870208.000000 0.000000
0.000000 0.000000 0.000000
-459979124560368816292952821502372435062234983028289613645583228927367519626330112.000000 523691790994795712780219361405574828422753204939394210458028199110485695847727104.000000 0.000000
523691790994795712780219361405574828422753204939394210458028199110485695847727104.000000 300579607050982341345684778377785589590251008801407092627125507298036900324966400.000000 0.000000
0.000000 0.000000 0.000000
2113444036484050340291119181894056221982310928649774061784902708504150402924544.000000 6378770007506043393288120239669371721639335980892848889091497029984774269173760.000000 0.000000
6378770007506043393288120239669371721639335980892848889091497029984774269173760.000000 12512063785507516431548145917995370724447221120914416413323707070555122504302592.000000 0.000000
0.000000 0.000000 0.000000
853690644296888107529751421081438959534295409235251489529730110931383404883607552.000000 970123392102352428826375513683584538506944008577954494212577671238027585597210624.000000 0.000000
970123392102352428826375513683584538506944008577954494212577671238027585597210624.000000 426299527074841237234530424280511219657875378424613256834714083061426656867516416.000000 0.000000
0.000000 0.000000 0.000000
-16024501313550773258485219409816183838397584284400184992028693933563801923223552.000000 140749611892131877068400951613965216311814605083172105666075558805531698780962816.000000 0.000000
140749611892131877068400951613965216311814605083172105666075558805531698780962816.000000 79359898301384816108328858009923329612783945277211481893334149565800402303057920.000000 0.000000
0.000000 0.000000 0.000000
424875489343606398056891222299101756472457275575362003470821736227890874453852160.000000 75936014664400818423088244813011118397424208589396614915986559925886450181079040.000000 0.000000
75936014664400818423088244813011118397424208589396614915986559925886450181079040.000000 9282459053820807029315264315125095639383704290245032170265940308216288116736000.000000 0.000000
0.000000 0.000000 0.000000
130224141995319876475819751995235080350152991058761168571777773078803562811621376.000000 -348258366514969161470065326210562439425527277005965310880518232742925920295190528.000000 0.000000
-348258366514969161470065326210562439425527277005965310880518232742925920295190528.000000 181953975982512865211590391170556331986300239740073706135470175249793639572832256.000000 0.000000
0.000000 0.000000 0.000000
-145463951687868840717227596282763390757406818916827824453624693559217316853448704.000000 63876325477155339162846888723831820393869407309173544759933208357038496895991808.000000 0.000000
63876325477155339162846888723831820393869407309173544759933208357038496895991808.000000 31435760854705444290074560840494041427498474766217735773114888804488695294984192.000000 0.000000
0.000000 0.000000 0.000000
-11959633035876800669500272932223541796265193375049951395546767498161517801900240535552.000000 54020559942956206903196462859700889972103326732628664621007284695785288407629955072.000000 0.000000
54020559942956206903196462859700889972103326732628664621007284695785288407629955072.000000 493913935317403268190390547081221490199537439696667857906052362208490970610139136.000000 0.000000
0.000000 0.000000 0.000000
1644930397759889811001645749412273775325855392732865101296796912316310629705056256.000000 100972829754277422663353457571797596195213212624709719887900701848053457178591232.000000 0.000000
100972829754277422663353457571797596195213212624709719887900701848053457178591232.000000 14034873115909281629329921319620683885632242360366098348589830384779415196270592.000000 0.000000
0.000000 0.000000 0.000000
119045260023715286604103384859715938084352629598348197961543315419605776023420928.000000 297484322066804051293798196771061406329401547499330579744951958158997234512822272.000000 0.000000
297484322066804051293798196771061406329401547499330579744951958158997234512822272.000000 152387210220254780410047904366442599796122754814062074155617240589867692293357568.000000 0.000000
0.000000 0.000000 0.000000
-5505447078981937399163835217087613913529852597234626549218243650792650892665421824.000000 15681090423160338859492610563582413320571295485752050432960011552234533847826432.000000 0.000000
15681090423160338859492610563582413320571295485752050432960011552234533847826432.000000 358046498873102815737063316677478719768070235134819331520863241698140475097088.000000 0.000000
0.000000 0.000000 0.000000
694298614871705470839971471895084196824450745130524229962035225615961235396755456.000000 -434182197969220681896973482395795490682017119109686688839633125279282138804387840.000000 0.000000
-434182197969220681896973482395795490682017119109686688839633125279282138804387840.000000 145834629682118605223989391306683983349069461812577088606622232814889815611801600.000000 0.000000
0.000000 0.000000 0.000000
579550984676616078183308551634269792679754813782185810565787068126534192544612352.000000 -2207317552982573227691520069329653209327981572538464002459012694833686344942747648.000000 0.000000
-2207317552982573227691520069329653209327981572538464002459012694833686344942747648.000000 1066860796257224375505253688784651509768514226501933168613845510830096715953995776.000000 0.000000
0.000000 0.000000 0.000000
22195413659798609282802239062995040606082953181040509121115438785712204149686272.000000 123192222858648032674696556495552808626115895580088620025559899815105032880128000.000000 0.000000
123192222858648032674696556495552808626115895580088620025559899815105032880128000.000000 69354641603658087026589368708001266873155282997225415518238007400226206789926912.000000 0.000000
0.000000 0.000000 0.000000
-15744584745381604007604575330209168614942697544734711923994318790518264458903552.000000 3465334992642538060188943696094709625816406019065336598455704479011750379782144.000000 0.000000
3465334992642538060188943696094709625816406019065336598455704479011750379782144.000000 1354637754731411521702550747141832074187926462549449696741606887346928405708800.000000 0.000000
0.000000 0.000000 0.000000
365318289811730590835985887076439582216706618322664599838750193054329836123717632.000000 -209809871346616249383971813402679670601747055248871966743640661965712413264183296.000000 0.000000
-209809871346616249383971813402679670601747055248871966743640661965712413264183296.000000 66201506907515597212015725867270877265207760948958894817951344072159661993754624.000000 0.000000
0.000000 0.000000 0.000000
-5431903473710103278219464670885585916100726861939194068178697584610088237137920.000000 -642852235772643489939060199756025306263725954714429308451424313328390195571064832.000000 0.000000
-642852235772643489939060199756025306263725954714429308451424313328390195571064832.000000 357950112067579425519979421698299053831507730027594677938137203686621020631859200.000000 0.000000
0.000000 0.000000 0.000000
1258308282841037320487483244861318315174811055256874619187236726362134677209219072.000000 -2492426605354812871916636309150312116279555851803172061299451236476773853380476928.000000 0.000000
-2492426605354812871916636309150312116279555851803172061299451236476773853380476928.000000 1231102979443724825766916915647055645559985333725513817407332892360478393622331392.000000 0.000000
0.000000 0.000000 0.000000
-13224889222612257173484767375784755703396237669269701371323872895464427740987392.000000 517487614676074553379557056724902429090399316704207355326094044180375144497152.000000 0.000000
517487614676074553379557056724902429090399316704207355326094044180375144497152.000000 872471865214154088369325016212514981244741406016493055292290860968878190624768.000000 0.000000
0.000000 0.000000 0.000000
51683132779814088456951342159338151712556034813089411824445571874712475651801088.000000 -115843029362211570571769494695165488361815493642614557210351395674573284965351424.000000 0.000000
-115843029362211570571769494695165488361815493642614557210351395674573284965351424.000000 58882183091225666205680533972097879408603300239325058859598700151682487562534912.000000 0.000000
0.000000 0.000000 0.000000
99395756693904072984928880555862247510979977359836597747913866103620827460141056.000000 12674967221385186461110033760073552363092637978096583373126576700189448062631936.000000 0.000000
12674967221385186461110033760073552363092637978096583373126576700189448062631936.000000 1076657876716869470419256335419219980137083235908138641130180193674184603205632.000000 0.000000
0.000000 0.000000 0.000000
-16029814161484190935849667873881877643754209398194140777269598975942734404124672.000000 3009686396985369611544302743599419832574336898345529274090079036487332456824832.000000 0.000000
3009686396985369611544302743599419832574336898345529274090079036487332456824832.000000 7125980733105515721268541425292282767488972916867933788169947178898787999416320.000000 0.000000
0.000000 0.000000 0.000000
-243660900786578250964198233184023213762440923194482925390150416500277461416857829376.000000 4778840392480143909016895667710032569670236027095964761394472815841837732826447872.000000 0.000000
4778840392480143909016895667710032569670236027095964761394472815841837732826447872.000000 187384730985009318797922963838684295616067016898861541029148654897474815236505600.000000 0.000000
0.000000 0.000000 0.000000
170991631017237218702471208401599300074377407096429721689317428489243411911540736.000000 -50983651955262779824733862785111945833137319745168067262876716459367207270350848.000000 0.000000
-50983651955262779824733862785111945833137319745168067262876716459367207270350848.000000 22544127914788719655168651927360758340764925473478698670512556536990938163052544.000000 0.000000
0.000000 0.000000 0.000000
58299059196051421603961367286361786564170159832838050778027831411318121832644608.000000 -19575403903624792040567245268860755381313933523489214859048348774369234494947328.000000 0.000000
-19575403903624792040567245268860755381313933523489214859048348774369234494947328.000000 4077043200251193273494448023482040926784685761700724289259344207798708094369792.000000 0.000000
0.000000 0.000000 0.000000
-225483637400384511155680994279848896795562184322204181989614884019870614687842304.000000 641999225435702453896311133733325508704334984413429730744191105653259674666926080.000000 0.000000
641999225435702453896311133733325508704334984413429730744191105653259674666926080.000000 367994926075179395825749049326410371336649664247853359992269308778868238146600960.000000 0.000000
0.000000 0.000000 0.000000
689491631079226861154126870886796294055864278328083271751278139337482847918227456.000000 61082422727182915456021035805369146787368432769546757980165413448592178265718784.000000 0.000000
61082422727182915456021035805369146787368432769546757980165413448592178265718784.000000 3588481265530013654978046846178843393016172145481662122240436448923155678887936.000000 0.000000
0.000000 0.000000 0.000000
-266700549741297512732993197366553245857524484059395487141502155622214151253786624.000000 55255286959813629835427921249732564717708178160810026078278499851215289941229568.000000 0.000000
55255286959813629835427921249732564717708178160810026078278499851215289941229568.000000 18707993080315523991855653008356450652330599421573669318054659884250614032498688.000000 0.000000
0.000000 0.000000 0.000000
138956769358457441102539975138186958818529988754222633252635839444451236849385472.000000 370901991748648846192192141256741231796213900953650161359305750954256942688632832.000000 0.000000
370901991748648846192192141256741231796213900953650161359305750954256942688632832.000000 218552215205202803871901017688515201240064137394456283507355898315674473210052608.000000 0.000000
0.000000 0.000000 0.000000
712039344591840031975618494397718003328217106949250268809091519403626081474838528.000000 -308715474979723539298997333666636338763712480507585603698889632699212287541510144.000000 0.000000
-308715474979723539298997333666636338763712480507585603698889632699212287541510144.000000 79389496754739909425312365551888274970908732476599660861200164569877574506774528.000000 0.000000
0.000000 0.000000 0.000000
103394304027009604816885069046036754758975299543415826204114458969211205360549888.000000 -59839974465226885425426430050349232897752919937997588579686222688231937596719104.000000 0.000000
-59839974465226885425426430050349232897752919937997588579686222688231937596719104.000000 21033113755403502364584751423351042131212350675104665492944382281447451184332800.000000 0.000000
0.000000 0.000000 0.000000
511614036867216547418625117075278806591394320653546270806517852713211378077270016.000000 236478179908900031242993960815698826542056389942583198660423342679163630595866624.000000 0.000000
236478179908900031242993960815698826542056389942583198660423342679163630595866624.000000 63893861083042897018252452904622620834950779723876877688442256920051460593418240.000000 0.000000
0.000000 0.000000 0.000000
131041584118560518839182711940839023556262661201363028767764406702843698184454144.000000 368225034235344037366950915938476718252140148383918663577596935263274353188405248.000000 0.000000
368225034235344037366950915938476718252140148383918663577596935263274353188405248.000000 191793712380635685471585219824102068328942021735787987101645531420014636439699456.000000 0.000000
0.000000 0.000000 0.000000
118015815611522418885794822471035051715638174203509747515530566054394841255641088.000000 432203455457927687702412288723413228337799658793233493340344326999433679239905280.000000 0.000000
432203455457927687702412288723413228337799658793233493340344326999433679239905280.000000 228833125457763176423613017937350408162373745608618675358187679659214120727609344.000000 0.000000
0.000000 0.000000 0.000000
12086440377984076163251855992082778709400027980794087303404033257609217036941000704.000000 3930206846428570002348270443450161303671900300544788726279417384109098439440072704.000000 0.000000
3930206846428570002348270443450161303671900300544788726279417384109098439440072704.000000 796350334750303549448987914674221354202259641982723641875369183267765340168257536.000000 0.000000
0.000000 0.000000 0.000000
139370140968010464281863373756055570899484516298726163154701705824533104100900864.000000 107053354802348603022721831592308927473049199616262221338535272086145127761838080.000000 0.000000
107053354802348603022721831592308927473049199616262221338535272086145127761838080.000000 41559199438633493717498152420131630743461865513165555471401391867847646732353536.000000 0.000000
0.000000 0.000000 0.000000
15010023791139607258307076506247209954497809302768894895818887773045947809923072.000000 5240275893269788228958540184036162138326540227585580873798603788513418858725376.000000 0.000000
5240275893269788228958540184036162138326540227585580873798603788513418858725376.000000 1128314704077704167515379921240009587220102521108858866823695502017890885828608.000000 0.000000
0.000000 0.000000 0.000000
-149498044737297492985123516348216858764344379074882024293469765602551409095475200.000000 -662872443926223744441341793485155424446910938667860719954873993530557417239085056.000000 0.000000
-662872443926223744441341793485155424446910938667860719954873993530557417239085056.000000 377661860916820197053629275841377422501439586523153669475109307587713893941641216.000000 0.000000
0.000000 0.000000 0.000000
293626354657684300845979320830409936121139784628890416668364112318501694830804992.000000 126964413021993146552209048226311659184481368424772776815172438010795083417255936.000000 0.000000
126964413021993146552209048226311659184481368424772776815172438010795083417255936.000000 34034408252785509113182635748895953252499155443300885994329139277007587266002944.000000 0.000000
0.000000 0.000000 0.000000
47120275838589741144382630668848561569458211780330857572661842522669056.000000 17794947866097765657586804896790181176545958120820918442560880856006656.000000 0.000000
17794947866097765657586804896790181176545958120820918442560880856006656.000000 4093402268922521134643217489405823642668257747617975027349334765076480.000000 0.000000
0.000000 0.000000 0.000000
143772233458065575319333494025517036841411269045832199402908404357496074156376064.000000 -191694602627388756629457244319927441302376476134549973273385227999081003218894848.000000 0.000000
-191694602627388756629457244319927441302376476134549973273385227999081003218894848.000000 92720431576110777062682371393131983132132529482838653301840194155334763978686464.000000 0.000000
0.000000 0.000000 0.000000
-434347220920481308785200463054749890015483693236042535145985543227551914978705408.000000 524815953266105153363258707821306745340178356192147808172660746993178069077852160.000000 0.000000
524815953266105153363258707821306745340178356192147808172660746993178069077852160.000000 304722114786147631118615906597582986189302427704780128203721013369998628519673856.000000 0.000000
0.000000 0.000000 0.000000
2073559992460714071280392277903853359181899618559039908420101673478145838539603968.000000 1802333361834622493038599860772138246148950036979508457859098835840148772252286976.000000 0.000000
1802333361834622493038599860772138246148950036979508457859098835840148772252286976.000000 719322152318026132900703869476697119613208682801134809525122886197202473111781376.000000 0.000000
0.000000 0.000000 0.000000
-193168563124947592871547554345236220615506458663916958663450292959738654147739648.000000 571072675417530781515325462129206660472768607247536582857877072084227649500610560.000000 0.000000
571072675417530781515325462129206660472768607247536582857877072084227649500610560.000000 326862753959472445314636452604220861724916087257215026808368077150226398943641600.000000 0.000000
0.000000 0.000000 0.000000
1855438754354225980084179396166625835124027195077674806756995897626037189607424.000000 1358576614644665770242634946000020768219756848697056891474804174119063938662400.000000 0.000000
1358576614644665770242634946000020768219756848697056891474804174119063938662400.000000 496405484025386514256937961785212361709849532912103432268028662262068171243520.000000 0.000000
0.000000 0.000000 0.000000
192518712551701222509476840761333346326804974905748500965385908233696611433185280.000000 102902476421330884549776644067479256985863333899479183287042237134910671231647744.000000 0.000000
102902476421330884549776644067479256985863333899479183287042237134910671231647744.000000 30937094163162400733771759711619158613310748834288159340043224492490255654453248.000000 0.000000
0.000000 0.000000 0.000000
38885565830290354406539709295602282295025650076158162497519869775280451654516736.000000 46263298299981668594550472536698872340753736954194559102055983084538907188002816.000000 0.000000
46263298299981668594550472536698872340753736954194559102055983084538907188002816.000000 20686113917609139789809563498950984758266510368757173743899812843460134246023168.000000 0.000000
0.000000 0.000000 0.000000
179332779953379336183181304885770660374535428275631993671213418736626112042893312.000000 -583466569637179270231951981322498589321189325551780819124832140418030643202490368.000000 0.000000
-583466569637179270231951981322498589321189325551780819124832140418030643202490368.000000 308439043772651100270750071727240726523287119802739372082666154576619145053339648.000000 0.000000
0.000000 0.000000 0.000000
691878454731589366033343596369775990704820789717080105646981993512652519868727296.000000 422122589392014946369042549514903384907625653866505428718623420260983580007596032.000000 0.000000
422122589392014946369042549514903384907625653866505428718623420260983580007596032.000000 138531825986521640273997087163639488238955113252979803803886348622862691980017664.000000 0.000000
0.000000 0.000000 0.000000
51045444492544003771977738977127123804529935886241988264041955612114539593596928.000000 932426427515066458857969274819934435592274974041686496221124825618587280759324672.000000 0.000000
932426427515066458857969274819934435592274974041686496221124825618587280759324672.000000 508129133956121453637786202952548656256140020099668525245410043470385627741028352.000000 0.000000
0.000000 0.000000 0.000000
-480534812759002271448532651776647469455014123557552692335147376721735161144814862336.000000 1503182051052711241584206156625816696013818567316617246163805044618229796646682624.000000 0.000000
1503182051052711241584206156625816696013818567316617246163805044618229796646682624.000000 9421486932678859309661539725496488626149316700976450805331832775325374780276736.000000 0.000000
0.000000 0.000000 0.000000
25414582674670477343451379682787224533744580465507646343670596257172981186297856.000000 -116511576106690503676460602649605489906243466845201206683526296133781056739344384.000000 0.000000
-116511576106690503676460602649605489906243466845201206683526296133781056739344384.000000 62434800280384695096314293464451143623255508592419839594435708812814147389489152.000000 0.000000
0.000000 0.000000 0.000000
87712519524338156099131233272339147909900460403251357023443137204440990589386752.000000 369883398525704431914305053104285968849567622325253545044953240108843836400205824.000000 0.000000
369883398525704431914305053104285968849567622325253545044953240108843836400205824.000000 197352169851331024181517449937506142311884032238690795453607373782132938005020672.000000 0.000000
0.000000 0.000000 0.000000
-2100004515401865918735489909405478514319209890276821633578833226586134558015488.000000 -2857758557458101917049973562463963576387396679821818253825753277012520793538560.000000 0.000000
-2857758557458101917049973562463963576387396679821818253825753277012520793538560.000000 1840516891764407407511898936122985197130015350945118396423396190871009429028864.000000 0.000000
0.000000 0.000000 0.000000
-1842619651908011941250250209422165649684418610999790666816278928808860080643506176.000000 343485848410725006375355724064725930017169878918699576632394153389786287067627520.000000 0.000000
343485848410725006375355724064725930017169878918699576632394153389786287067627520.000000 107898983895633889996796798334831859112061793272295895640300989887218404110106624.000000 0.000000
0.000000 0.000000 0.000000
2321697114011611632392364773422756044838612219083440066315303359323908673110016.000000 2451580969277849211186208322140702963957132287500415941146579336356152781832192.000000 0.000000
2451580969277849211186208322140702963957132287500415941146579336356152781832192.000000 1054693206395035936809854638292187420822732636809005824709485857922222657634304.000000 0.000000
0.000000 0.000000 0.000000
-1587597163412367362742375016220923700172600712677627061842053559529235606157656064.000000 653034074442810531302360215815347720762011222345773076271337571324072256266567680.000000 0.000000
653034074442810531302360215815347720762011222345773076271337571324072256266567680.000000 314265663973856872540149173715602039483900847528283225216875955048462014931271680.000000 0.000000
0.000000 0.000000 0.000000
1395773154724106210384774429843156387102503874186493765492248530861117903904702464.000000 -786429116230215589127134739011537090738530031942937055591069157490833744078045184.000000 0.000000
-786429116230215589127134739011537090738530031942937055591069157490833744078045184.000000 252271448665496669497005973440228384138670585770255834794439769296175011205218304.000000 0.000000
0.000000 0.000000 0.000000
10974039277423970129580819798981791741167711835031650595289605256105047594369024.000000 -11591467126900093433602694685875123083452840055558873206761482054504319694143488.000000 0.000000
-11591467126900093433602694685875123083452840055558873206761482054504319694143488.000000 9230599657214053259542283734337225217361495119521924388952792879370221182255104.000000 0.000000
0.000000 0.000000 0.000000
-24134674373939100588240446895246304006527330291308282825892134337494322178424832.000000 9362417815909963111442204923927006159320638729473136076631439548503620117856256.000000 0.000000
9362417815909963111442204923927006159320638729473136076631439548503620117856256.000000 17240480676261160925069060531545317223017465636938651695163604763227558734987264.000000 0.000000
0.000000 0.000000 0.000000
-101660617919293962642100511759412399033557677232532948488359498055404211157336064.000000 463163263224369964486678946573358771900573032174292348326979819143969681952473088.000000 0.000000
463163263224369964486678946573358771900573032174292348326979819143969681952473088.000000 265853845681833433229852473604463210638771549676640643435548511846600009043673088.000000 0.000000
0.000000 0.000000 0.000000
24488008257576569951350382187130469976786589031974869274283016242263836908847104.000000 -75265522451747259933138756968268731314826970792939758667645705132222268770877440.000000 0.000000
-75265522451747259933138756968268731314826970792939758667645705132222268770877440.000000 39456079652340077912839694926661939023805698225890421888915699717508847259090944.000000 0.000000
0.000000 0.000000 0.000000
-15354130828240981669512822394501932368066269080149545027963646035196818950717440.000000 293221717467734943355518345159368385404983913712616785076681499870600016894623744.000000 0.000000
293221717467734943355518345159368385404983913712616785076681499870600016894623744.000000 164190576923361569393628800157948696757139978598648757998360306435841560961613824.000000 0.000000
0.000000 0.000000 0.000000
-918331540042496937197148836532915498268757309809595360780413985076723918099709952.000000 -1112700052628483658266972572864432264877694668640710932147175236762564644160143360.000000 0.000000
-1112700052628483658266972572864432264877694668640710932147175236762564644160143360.000000 636645625763217431604010830627362022210620649882760257254780304819379611166048256.000000 0.000000
0.000000 0.000000 0.000000
-134388853116418424091584399558707714358339190323512877654064410989586407336443904.000000 -98427346137232987608769369618651067923200281084820650763634806853710600971747328.000000 0.000000
-98427346137232987608769369618651067923200281084820650763634806853710600971747328.000000 19200894908036587900569861628541495608546268138381355398282126134033701981388800.000000 0.000000
0.000000 0.000000 0.000000
-254430172043127345826990390306197348523038851841047804068574045029109910799908864.000000 384913077016098580443237800479677828411245324143646610717513165896393973225750528.000000 0.000000
384913077016098580443237800479677828411245324143646610717513165896393973225750528.000000 221555184164247347863642812092645994822544027260775873908596937833139800792629248.000000 0.000000
0.000000 0.000000 0.000000
-3622337810718460338728397677099661673046942325199313184732555116549119064145920.000000 -19761582856957812067844370672501266840950741106534167444664742817092287902777344.000000 0.000000
-19761582856957812067844370672501266840950741106534167444664742817092287902777344.000000 13901559463419055153270290738966488537262420821794424400671175152955835969175552.000000 0.000000
0.000000 0.000000 0.000000
-8511608826513135921461758353149425328974148503182951908677147598453203878579011584.000000 -1182188335733992152486279370563393793151321454663791244521052826639049254053609472.000000 0.000000
-1182188335733992152486279370563393793151321454663791244521052826639049254053609472.000000 300772890509608452539863677311074300847831591060399303080387528848549320887107584.000000 0.000000
0.000000 0.000000 0.000000
270016808522165155390414902034106504011437310015196314080999991472521295540781056.000000 73833705846264763579621033758113261999756033317566642043742957818463126829400064.000000 0.000000
73833705846264763579621033758113261999756033317566642043742957818463126829400064.000000 12820280019185709882391709823808329278542423158451427017137948448227093068644352.000000 0.000000
0.000000 0.000000 0.000000
47353453690684706414812227596590765044974722799217178145334820428683690645651456.000000 -375554606516648845240884947044795373668676438148038631497118121779134273343717376.000000 0.000000
-375554606516648845240884947044795373668676438148038631497118121779134273343717376.000000 92322418108686972182443068657539544135773142108645297814148011319420053989883904.000000 0.000000
0.000000 0.000000 0.000000
-158169114346678178012455629748747220713393553480859612825292194183643653275123712.000000 -184293505375965650113729777658376020705248708917044030687089078736016714405773312.000000 0.000000
-184293505375965650113729777658376020705248708917044030687089078736016714405773312.000000 106761483501245981427871755299491750129147109972895485912587309261359697690099712.000000 0.000000
0.000000 0.000000 0.000000
-3537102108515651503918035996059136081143877334660737099935776664090584622674477056.000000 -980269700155647334559221597396284582472203648475231553951646996463711851993104384.000000 0.000000
-980269700155647334559221597396284582472203648475231553951646996463711851993104384.000000 449001239833191450772047362284127863789860567198001782027571194636782505715302400.000000 0.000000
0.000000 0.000000 0.000000
183964247883850039856462914424117749394453449728167503000504213223978747044036608.000000 -4441711069545798626991004308485147108175716225096452437218308800420600344477696.000000 0.000000
-4441711069545798626991004308485147108175716225096452437218308800420600344477696.000000 1110296903561763425352756817783870694035160953866177745690369107362831818293248.000000 0.000000
0.000000 0.000000 0.000000
13455896913778097781217223581118223225798595992159884005217732508011964328312832.000000 16507207494065169314605144347774711644374021071330656818208303518435316997292032.000000 0.000000
16507207494065169314605144347774711644374021071330656818208303518435316997292032.000000 4533167408227743767325629918127126611499585827338872333847230703208831488360448.000000 0.000000
0.000000 0.000000 0.000000
-470694273542238319370737072982230890230565992812141671630718546057235296994459648.000000 79904032181245223840023084000440858401202510909858144149215355736090750381719552.000000 0.000000
79904032181245223840023084000440858401202510909858144149215355736090750381719552.000000 23491080793373697054951812856111696665603090473674549568619063259699317525446656.000000 0.000000
0.000000 0.000000 0.000000
244713818839678842916434597902899793667805476204878516118037125954983859790544896.000000 138534044699156928225904454147260914326154041998060025371223136417225544891891712.000000 0.000000
138534044699156928225904454147260914326154041998060025371223136417225544891891712.000000 43302177850013715478652088129964643536911305265044395207081471865140345248415744.000000 0.000000
0.000000 0.000000 0.000000
155748878793819236447572131972664975979556153014572376827996736469355167477661696.000000 58377899868238754774951462283443023779768491386309783259712969232890244355850240.000000 0.000000
58377899868238754774951462283443023779768491386309783259712969232890244355850240.000000 13346465032557913098230133475857040446009049321046914102841261843791035999715328.000000 0.000000
0.000000 0.000000 0.000000
-1050053003966023839136550711817883754019577927312886372755811721593835788416581632.000000 615516481411324010134218552602524795613297141755298999245982441378274793901522944.000000 0.000000
615516481411324010134218552602524795613297141755298999245982441378274793901522944.000000 327171326770001590432652316692521403349331819035275276614248800694823841372831744.000000 0.000000
0.000000 0.000000 0.000000
292178512563162554964838925487311016660648087830902230333024206963388609627947008.000000 -364674451503570343756427554370177953264533805122757561149719719008607691023056896.000000 0.000000
-364674451503570343756427554370177953264533805122757561149719719008607691023056896.000000 165433204494682356503418910862577829007219305933345056939916300760293413006344192.000000 0.000000
0.000000 0.000000 0.000000
622342579378643344899735632740209613877329895368993431214360532024083452063121408.000000 -340243331156770452081163286324609121639581737926741930086592950306389772134776832.000000 0.000000
-340243331156770452081163286324609121639581737926741930086592950306389772134776832.000000 103920507304210613444839032249970575421279240841387354961251643062390715051933696.000000 0.000000
0.000000 0.000000 0.000000
-59337502217344660746988414106441011616081067420512767769008683793376382199791616.000000 -21223902887197361195785320011998507188032487852600883595438391999151440595517440.000000 0.000000
-21223902887197361195785320011998507188032487852600883595438391999151440595517440.000000 10601955829852525617962553138729844251785348914664104661155248372087169159790592.000000 0.000000
0.000000 0.000000 0.000000
-187058209060556984847376380272968332688241069043653718806254525856899164413100032.000000 -47102864033667207321347716190095995768791046167283962971892543149935384198119424.000000 0.000000
-47102864033667207321347716190095995768791046167283962971892543149935384198119424.000000 17986763650752412646502694653968130142271366630498989955311643822622648439930880.000000 0.000000
0.000000 0.000000 0.000000
-6527774209179480434750697066995154984695489978636956694648720505530007748368924672.000000 751251140550705567566010685655131037755091023392421809765129052717040728304254976.000000 0.000000
751251140550705567566010685655131037755091023392421809765129052717040728304254976.000000 163308435953623008448203434222497723969346553424916825760742716772146308228055040.000000 0.000000
0.000000 0.000000 0.000000
87080846692413593722846397275586977880307868408633879175591286898329604977590272.000000 69115639379825837235222213640066832860412625797559476812772947965244811027415040.000000 0.000000
69115639379825837235222213640066832860412625797559476812772947965244811027415040.000000 26381075257361744467493049737552678973140015053910249765424924102209285937692672.000000 0.000000
0.000000 0.000000 0.000000
633425178361211654213008440046868582546159581788988598711389198418761622732406784.000000 120965197930182166703587111467696513365113378609974180603372205597514083266985984.000000 0.000000
120965197930182166703587111467696513365113378609974180603372205597514083266985984.000000 15038242547305562627878277883414540887460818039521222037947503071252201160572928.000000 0.000000
0.000000 0.000000 0.000000
-529756416908998287386409495745810766767068799058210063542688302294689825570160640.000000 -62019731322124131801749688098303690088877691104798764301094086775814166948085760.000000 0.000000
-62019731322124131801749688098303690088877691104798764301094086775814166948085760.000000 15162954261022650162186898133746139701613970478879744809375246400445924079828992.000000 0.000000
0.000000 0.000000 0.000000
510905311532884523085447978224381886861689205224995901283085335337548561220894720.000000 2536259970169050787115313494010407665146646989744213163136429174322042015085232128.000000 0.000000
2536259970169050787115313494010407665146646989744213163136429174322042015085232128.000000 1391164766321219558949103322757674131946976301887892658949919301869601903230320640.000000 0.000000
0.000000 0.000000 0.000000
93814043905052378407894918858472059111534829140500434681860796750940586245095424.000000 127944512027255477183225141356465878432481819594386941088532878506254721393623040.000000 0.000000
127944512027255477183225141356465878432481819594386941088532878506254721393623040.000000 59427868799930051441153608843138933674042367557718206334653365146283859775586304.000000 0.000000
0.000000 0.000000 0.000000
41634168857694350865782208406713787403541507136476575367077680373309217982906368.000000 529402810199967712188782865181590612840227070142407732693666031764430191864053760.000000 0.000000
529402810199967712188782865181590612840227070142407732693666031764430191864053760.000000 290503493521540276208701046767876436962819343721043763283065968471410964667826176.000000 0.000000
0.000000 0.000000 0.000000
-1718645996876762098675663159293653120022685706473887943465060901002639488904593408.000000 797771067898701463252019136063864879891862865526607162331227473767415992926863360.000000 0.000000
797771067898701463252019136063864879891862865526607162331227473767415992926863360.000000 399497582992786045024787879083375249206419835313684610927858291246516231167016960.000000 0.000000
0.000000 0.000000 0.000000
-18694008698672781003416928950237039098196293403942462898145897164220843637235253248.000000 5365209904253727404144488449067047361832654815422504080602764469974534448199237632.000000 0.000000
5365209904253727404144488449067047361832654815422504080602764469974534448199237632.000000 2504298456581354543260152690239704255809180717469889355763795782326074937144508416.000000 0.000000
0.000000 0.000000 0.000000
374841062489761977915175151405771776020954929718419801860241668821872379493875712.000000 892661367210115882468068472024488455258034681122996972506265916092501584689233920.000000 0.000000
892661367210115882468068472024488455258034681122996972506265916092501584689233920.000000 456054796636507819126345155422533666729600300542542072476698929601505103653634048.000000 0.000000
0.000000 0.000000 0.000000
330453690293089599774889479760420758137391270714742646547479449756830145489928192.000000 -237237715457760823014567401241674611294585796277043856978041226279153710097498112.000000 0.000000
-237237715457760823014567401241674611294585796277043856978041226279153710097498112.000000 83141946969455929865531242496214140126869113828019579502852486586384266148446208.000000 0.000000
0.000000 0.000000 0.000000
69492563608817790832507574917442396140099852235369823777378214865510297252134912.000000 95394815215072707470231034878830869731177771929317125697421427846088683660771328.000000 0.000000
95394815215072707470231034878830869731177771929317125697421427846088683660771328.000000 44387206850595209547534226040329232436281215106405290576587766081226865391960064.000000 0.000000
0.000000 0.000000 0.000000
9399903577027751491841424878362060719378366713788295626661155386724936088289280.000000 22752853381005636409123380108471114784589381483950165687313634716512944966860800.000000 0.000000
22752853381005636409123380108471114784589381483950165687313634716512944966860800.000000 9133968695178635764231859264119550537687835182767370303133143325459763481804800.000000 0.000000
0.000000 0.000000 0.000000
-972417116704377816295224807802602612395189685843132292996064353054836804605181952.000000 -595677925017677145609591875830692909504333126952652790509686759164430349441695744.000000 0.000000
-595677925017677145609591875830692909504333126952652790509686759164430349441695744.000000 319256585400538074544597645518421887568723488579492449853952004961877992604172288.000000 0.000000
0.000000 0.000000 0.000000
-225539329603867435718139544669220617782619786365903601226164754602908593221009408.000000 -60227689937588450286203871277244233843621934710618575516355710572184175734947840.000000 0.000000
-60227689937588450286203871277244233843621934710618575516355710572184175734947840.000000 23934414248502345557483271338533944478855521897155848627250965378731032352653312.000000 0.000000
0.000000 0.000000 0.000000
-145202963954815392858610890746755954259060260200743931812662102715104119670158917632.000000 6348019061880816381648245436410137016371582455788745812498583552937458602203938816.000000 0.000000
6348019061880816381648245436410137016371582455788745812498583552937458602203938816.000000 579465037485306381784349939439855612561108395683137575694789567789513701586894848.000000 0.000000
0.000000 0.000000 0.000000
-56663399421145114487542198137836094970612473727625634764473514205815186212782080.000000 -67768935483057284817715563613461188856099865078186104773030084185891996054847488.000000 0.000000
-67768935483057284817715563613461188856099865078186104773030084185891996054847488.000000 23484300072293084037155267735548940846383514951944480436936676143404529079025664.000000 0.000000
0.000000 0.000000 0.000000
-2399664636576916296438157410043434792582306063810775605516957623646114220605440.000000 -52268055168362537931660643066089651679349451870347842414920778214888685896204288.000000 0.000000
-52268055168362537931660643066089651679349451870347842414920778214888685896204288.000000 37660473704774622378291848619816227993293125501844973514804784135778244862410752.000000 0.000000
0.000000 0.000000 0.000000
103837648327548426632826018082613551024650787809740023559163196217490206164516864.000000 37435563420542805131881711576948245425099230149354399258024196791070985023389696.000000 0.000000
37435563420542805131881711576948245425099230149354399258024196791070985023389696.000000 7806813913124246797425330368563727075639197722735179314774662461564598687367168.000000 0.000000
0.000000 0.000000 0.000000
-67339613148947387797726369548883918876549165952483608837166850520649141390934016.000000 29563659116926584186276402760499371471175312845971170802556588239966440580448256.000000 0.000000
29563659116926584186276402760499371471175312845971170802556588239966440580448256.000000 15095421299377313357701942654602215479836996054152469462208695123358195644366848.000000 0.000000
0.000000 0.000000 0.000000
-7340240691840607611418539887315379349989376772407110093515150008870316752454549504.000000 1150805977079601474638333808010952740255745247362540298952272105285044317972332544.000000 0.000000
1150805977079601474638333808010952740255745247362540298952272105285044317972332544.000000 319210813451740638785727779340381523395862902529106699031768649341857768589492224.000000 0.000000
0.000000 0.000000 0.000000
420152112124500718988821990296762958721923084133106880568195362182681320788852736.000000 -69558023861273607878776753841292530526195993801221370006814426087101340783214592.000000 0.000000
-69558023861273607878776753841292530526195993801221370006814426087101340783214592.000000 7603429278952008462275563109976479502606688887141636565662271959313673856483328.000000 0.000000
0.000000 0.000000 0.000000
202744839111549851323437680548430656267166222862192376549157531479023918388346880.000000 157242854094271808747972288274364171691283249708732920412498917212556172548112384.000000 0.000000
157242854094271808747972288274364171691283249708732920412498917212556172548112384.000000 81910227416087676683097389000968694604506582396898640316994890338580305295704064.000000 0.000000
0.000000 0.000000 0.000000
5356102838211875143089586717765811516408374015427909002428598879018559515656192.000000 -27639806891612605923580870863053118330922667826141284892038991874326854769836032.000000 0.000000
-27639806891612605923580870863053118330922667826141284892038991874326854769836032.000000 16610988795964694738590795472641920146670878061811801524630664297072381348806656.000000 0.000000
0.000000 0.000000 0.000000
74597310629087277057718164334214469792320804068841881348578577669352157045850112.000000 -122290634966642426784627989581492235046752342044391879359253346712461981037625344.000000 0.000000
-122290634966642426784627989581492235046752342044391879359253346712461981037625344.000000 60753748764813733397695904251187162368383386007693685650490162234898818627796992.000000 0.000000
0.000000 0.000000 0.000000
-2315932353221009587856920546679860537706224307751163082084892253416647664796172288.000000 746489110535494105814808957324006623502368655618760044023348333729807445549645824.000000 0.000000
746489110535494105814808957324006623502368655618760044023348333729807445549645824.000000 328190574498293120498786255679742651728569095350788768620750671003845022699225088.000000 0.000000
0.000000 0.000000 0.000000
-130959772751543823427695060961917163818655585258704430819698703193442898495406080.000000 -105205097809064093350520680990932594005473492819392317477675054698016437490941952.000000 0.000000
-105205097809064093350520680990932594005473492819392317477675054698016437490941952.000000 59045436731078458661211522393770007229227105748565508905484970901256474525171712.000000 0.000000
0.000000 0.000000 0.000000
28817567766566094685446088783837059891873920057213534976112133831199959763910656.000000 -22478845012538407250848188145970062255504871919022776208218745084865275530051584.000000 0.000000
-22478845012538407250848188145970062255504871919022776208218745084865275530051584.000000 9013947760059852933218927395546935722348105882428934777077680526053832036188160.000000 0.000000
0.000000 0.000000 0.000000
-40907118323487860505077593483261946696144205764085011845568686389705640179346530369536.000000 -101120749766371109912391665510920044523274675215153866095666176816396498375358283776.000000 0.000000
-101120749766371109912391665510920044523274675215153866095666176816396498375358283776.000000 510530659843552350339656390923647482620578572053183412663090013866225604921131008.000000 0.000000
0.000000 0.000000 0.000000
779160820578002056521014308935123032685484249241285307451503341559709114988232704.000000 980855861201869288038767117133767760781967144596064455618207772626472026631045120.000000 0.000000
980855861201869288038767117133767760781967144596064455618207772626472026631045120.000000 503019263035008086711416270445420137451509135232641498313516225241718516332101632.000000 0.000000
0.000000 0.000000 0.000000
259979013560616566495499681763722927456404235292898185041147250025861684962263040.000000 -538127325061883757055629792392565268317264893766622000316501856355700624580411392.000000 0.000000
-538127325061883757055629792392565268317264893766622000316501856355700624580411392.000000 274080677727394734558455631463381884137702185766450728037753708980660282199113728.000000 0.000000
0.000000 0.000000 0.000000
-7940442581860240487591760241782484861307100359035200647486647933487259896365711360.000000 -597966570621038810629986679415985263146366855327513534570552306045533891288104960.000000 0.000000
-597966570621038810629986679415985263146366855327513534570552306045533891288104960.000000 87236504282433581680719484904585546567957057940869576799167577186563315126501376.000000 0.000000
0.000000 0.000000 0.000000
2078696780019174821353956772055435229602170462762216153536811395010801304600576.000000 2319595342483124427478512568604150871136303412007725297643584284879680618627072.000000 0.000000
2319595342483124427478512568604150871136303412007725297643584284879680618627072.000000 1016953750040451098125049346969945408151238029677404574484456761888966950518784.000000 0.000000
0.000000 0.000000 0.000000
1200337036032976647896202258001655352916682100389385916349099692178224493625344.000000 1115667336193683023398642599779598334319713426086355772217582085028957929865216.000000 0.000000
1115667336193683023398642599779598334319713426086355772217582085028957929865216.000000 456940556525764606296666234030821299887328026684557537174575213578051519512576.000000 0.000000
0.000000 0.000000 0.000000
2950279280843439488722103441808540020845544379784876978003486458291503174254592.000000 4162565215958943403350834456996446997399192919740044073419185388355817152970752.000000 0.000000
4162565215958943403350834456996446997399192919740044073419185388355817152970752.000000 1949754370706861678285719692799109433063668975534819997992281489375895991877632.000000 0.000000
0.000000 0.000000 0.000000
958205507398349726655209208745592261642904358617161167319225694612241524981760.000000 119527134560761252538109074648239693373339144270939682376214745725472316850176.000000 0.000000
119527134560761252538109074648239693373339144270939682376214745725472316850176.000000 1306894236491136389368578539923538121721379151485003982168026078602743435493376.000000 0.000000
0.000000 0.000000 0.000000
411819153045099919228772941184890788068803494215146371127725567581873867885379584.000000 -141212956199109958827735416349688208991769745730146290510083401528417443827941376.000000 0.000000
-141212956199109958827735416349688208991769745730146290510083401528417443827941376.000000 29960501907121008663531974129508037086170807690093889118917568844423929555582976.000000 0.000000
0.000000 0.000000 0.000000
-19200430945873734495312018459287852636595329610340914723670344439881786170802176.000000 -27075396547103193787615870963303857038256087158605220274495238394944018211405824.000000 0.000000
-27075396547103193787615870963303857038256087158605220274495238394944018211405824.000000 15600961700632444262602798714398576056903154963347537815733069379192408244224000.000000 0.000000
0.000000 0.000000 0.000000
197421298953848550983122426931668321847920536894580275748053498220746375285440512.000000 -21564574634452546176105418764751167173507622218266449393609943096018813845504.000000 0.000000
-21564574634452546176105418764751167173507622218266449393609943096018813845504.000000 34849063062856308385964576671168242289366514126510264970261629098725075845120.000000 0.000000
0.000000 0.000000 0.000000
48313423175370531421047615824444237385145741576063812351474048682704349155033088.000000 -42059430447586211963409676737999612407760639472434296399601459082409567066259456.000000 0.000000
-42059430447586211963409676737999612407760639472434296399601459082409567066259456.000000 21324675909275564907663096460849024034748396635161530552996836726878476303335424.000000 0.000000
0.000000 0.000000 0.000000
719885854385916092425695824781110082260846742165806906973764796184124000871383040.000000 543628717426213105429124409822862613784767552648854690527217870522042220346867712.000000 0.000000
543628717426213105429124409822862613784767552648854690527217870522042220346867712.000000 202014081307988178020231991818383759056758475975037316459779817337148383145492480.000000 0.000000
0.000000 0.000000 0.000000
702772542784010185031239908935544448189659152715152778653276809513653002829824.000000 13931999683196582493120807966752308734180618608894199923650129152582020606459904.000000 0.000000
13931999683196582493120807966752308734180618608894199923650129152582020606459904.000000 7027503933229625215650425248706604184134244490634189629512873138907087361802240.000000 0.000000
0.000000 0.000000 0.000000
87998925883944791584906760994550643278033425298364971190216372215172039528415232.000000 -315190726389787657807275001364374207119215350528505928162077726364648350681137152.000000 0.000000
-315190726389787657807275001364374207119215350528505928162077726364648350681137152.000000 183718776563804974852454651596247157880229831829301867640913630649892304756670464.000000 0.000000
0.000000 0.000000 0.000000
66720975045915815508714451307501011708888384800279249828341622419175131234435072.000000 -26687432755391991784391906931989448200706333387823219019166827099396489913303040.000000 0.000000
-26687432755391991784391906931989448200706333387823219019166827099396489913303040.000000 6469481115095588319605904437022110962777746654882722739029296019130822263046144.000000 0.000000
0.000000 0.000000 0.000000
464621038805045513017527287099669538952523776405390853586904494246275236256284672.000000 -228543465952598836503379800183828861828532859335071247110650994887049061842550784.000000 0.000000
-228543465952598836503379800183828861828532859335071247110650994887049061842550784.000000 65234349074196539606826132729120759149181659099163649099741546667545487076229120.000000 0.000000
0.000000 0.000000 0.000000
-65942143271996896499023994726955984394064831125166447233491750804576229920866304.000000 -36266053985781628753553390920612425324589845767344935892414883330082029034274816.000000 0.000000
-36266053985781628753553390920612425324589845767344935892414883330082029034274816.000000 9391417085088634022140910748700627642745684342498217702364283715078935266983936.000000 0.000000
0.000000 0.000000 0.000000
-64102846658942520387343743818070584258059376897203813099943412955427100409462784.000000 65639396856514754240587118658899519262770249789016170998155695526543598957887488.000000 0.000000
65639396856514754240587118658899519262770249789016170998155695526543598957887488.000000 37356944392382543413810395812342531546430591866724648871945603884074963929399296.000000 0.000000
0.000000 0.000000 0.000000
-64102846658983881789896569653146191563432138459497059148661978618872231045890048.000000 65639396856519717082331999416322658649824842758139198929526446403411458362703872.000000 0.000000
65639396856519717082331999416322658649824842758139198929526446403411458362703872.000000 37356944392384188918367717018384686515613149217229631607811237463938312538423296.000000 0.000000
0.000000 0.000000 0.000000
-2112122688808024698741575475485829995256522743916121899236474086200272075190435840.000000 306635495655856092728012412241550214583450741372653246655307573809383173443813376.000000 0.000000
306635495655856092728012412241550214583450741372653246655307573809383173443813376.000000 121352319039436636654827294163540113010416548623256804120744677914779746729721856.000000 0.000000
0.000000 0.000000 0.000000
-13284324149170035319508118823319715432737819664516607949490982748332041357492224.000000 19910932062823578566090449712748992454516901728422809504840507082378423534878720.000000 0.000000
19910932062823578566090449712748992454516901728422809504840507082378423534878720.000000 11434211293930712850232742304360825811921225029304551616446894897440231908179968.000000 0.000000
0.000000 0.000000 0.000000
-13284324149155408429498090622810999911674067375877816410381365856926735571877888.000000 19910932062793028128479224201370343296673541958947300030759154038635493259739136.000000 0.000000
19910932062793028128479224201370343296673541958947300030759154038635493259739136.000000 11434211293912428003591789062820399794364647750493183455507974557998702164705280.000000 0.000000
0.000000 0.000000 0.000000
1242717174747333908986132914810842894274932723121968091374856733177689315213312.000000 357572378213700135159975331761818958350104787612400173883166787651661295779840.000000 0.000000
357572378213700135159975331761818958350104787612400173883166787651661295779840.000000 72095463135536967411195664150296867827762459237854326357733900221803950768128.000000 0.000000
0.000000 0.000000 0.000000
-60998872777493360886461759386216195412954269871270182048480556796800745340928.000000 -9127188857398179741912571893553303631120316205358833596756283894421163868160.000000 0.000000
-9127188857398179741912571893553303631120316205358833596756283894421163868160.000000 2428755192992342401230387258767126528286111052906066111569582763470133133312.000000 0.000000
0.000000 0.000000 0.000000
-16841792613227335999303722130603948347975917323426581043643920762785088797671424.000000 -431294307601591665048140981981088343854584014862722281990846008061426937043615744.000000 0.000000
-431294307601591665048140981981088343854584014862722281990846008061426937043615744.000000 246150421482132053186448558056658098439444139060508929806583397800314420349370368.000000 0.000000
0.000000 0.000000 0.000000
972511663028035703464740919506689842183479701886043407784368401350960057646317568.000000 814126011290913292971907219668997856848489791359111149820473321860751579534065664.000000 0.000000
814126011290913292971907219668997856848489791359111149820473321860751579534065664.000000 352770123875005348796423169250941868706854675580384630276851282577919847350403072.000000 0.000000
0.000000 0.000000 0.000000
-9557915170982593050272838169698648750585441717547103838183963329356268834914304.000000 -87153682405075268226728138444615268879270620184556649661409518228128522605428736.000000 0.000000
-87153682405075268226728138444615268879270620184556649661409518228128522605428736.000000 49036105145092464792877167173734696102859178593151115154047113964800676124950528.000000 0.000000
0.000000 0.000000 0.000000
-16637766362415883085996978459192670616879153852352441326201811840576133644943360.000000 -141713058474400057652429343517886196128200845967234885973543540265811232033865728.000000 0.000000
-141713058474400057652429343517886196128200845967234885973543540265811232033865728.000000 78898392117809747192871554153484469700156374598447945942618006209144850076401664.000000 0.000000
0.000000 0.000000 0.000000
-3029580423377371480060818430390406567217882124509693059769072070462257358306279424.000000 -1049158406816655148469975246739655883349399533085400378936908744527593124132814848.000000 0.000000
-1049158406816655148469975246739655883349399533085400378936908744527593124132814848.000000 529579656002168729794285901490286627327824120246936823301127326384063007548243968.000000 0.000000
0.000000 0.000000 0.000000
338640461641053186062163915912022076688560789934470490740340188842611760062005248.000000 -19372428646141876557076434581140192412149321692931543103376216922705215220613120.000000 0.000000
-19372428646141876557076434581140192412149321692931543103376216922705215220613120.000000 1060200874477962469741887768328229187333113505332576045156692415217267118178304.000000 0.000000
0.000000 0.000000 0.000000
963961177077399230860182733303636216284382534231914146510132004679696411757903872.000000 -1600499766487855464411866052722966056431426008791054585907845003246831418862469120.000000 0.000000
-1600499766487855464411866052722966056431426008791054585907845003246831418862469120.000000 776004252630724287546775458123467685354675394375065786342966523248955396963958784.000000 0.000000
0.000000 0.000000 0.000000
4480223731458715004453667094611954829987149085808017835239710103672295834779648.000000 3491132852843770728097376759794181132352025495543269748761474517574291055181824.000000 0.000000
3491132852843770728097376759794181132352025495543269748761474517574291055181824.000000 1324013614705233155022311292721671367025750116323966437231425217875123332186112.000000 0.000000
0.000000 0.000000 0.000000
1286672456315606211209552312110634006472297306716511971455836776538445922533638144.000000 -968128459807202313719608822706962622749083975801446110801073332334724395672010752.000000 0.000000
-968128459807202313719608822706962622749083975801446110801073332334724395672010752.000000 361173888743825662813214030373118002284562783087165757921889384338939918180941824.000000 0.000000
0.000000 0.000000 0.000000
-2368774698069974114155522360032051436735330226020705374623571856424208803374825472.000000 -367594499992343760518109435668104201071332385998300620407855838863624824160256000.000000 0.000000
-367594499992343760518109435668104201071332385998300620407855838863624824160256000.000000 101004657204652344141318213841984070618747984492263919377692476803913013107097600.000000 0.000000
0.000000 0.000000 0.000000
-8274466181241764492248673360362177420766839946199716472071385298046873859755343872.000000 -106340319536424123359284252681373641273025350640928915142876263260907858865160192.000000 0.000000
-106340319536424123359284252681373641273025350640928915142876263260907858865160192.000000 11147224924712789905370815178396298029128042611417937639199816719567035849244672.000000 0.000000
0.000000 0.000000 0.000000
7813383092863933270533827960355711566532783525918474719237107142757401543835648.000000 16787377610004512059700777838275623872938969629069992885019136698015171750133760.000000 0.000000
16787377610004512059700777838275623872938969629069992885019136698015171750133760.000000 8889958594607482574463824185109236997649438210492933835785599281207310077132800.000000 0.000000
0.000000 0.000000 0.000000
137793277797407214445532606233888524091917131561159239565450297016188491054186496.000000 -38670741075247933410132766970064785231192883285402846323074308582028013171900416.000000 0.000000
-38670741075247933410132766970064785231192883285402846323074308582028013171900416.000000 7084418098714611390202858255272279362797332405251889690232509964312096343588864.000000 0.000000
0.000000 0.000000 0.000000
2732593541390442036164744431911579163904791645973134856452623747763579585036288.000000 -576830858486005778415508292274507662641673929870914929563430600473378308489216.000000 0.000000
-576830858486005778415508292274507662641673929870914929563430600473378308489216.000000 88097926692128569076705449346581477530402924428127243673497093212643782557696.000000 0.000000
0.000000 0.000000 0.000000
-6199899559570104431410038690185593569406542937058906896417216351065601948516352.000000 2278136846584192048870763861799019539184014006315729390022101188008040783151104.000000 0.000000
2278136846584192048870763861799019539184014006315729390022101188008040783151104.000000 1274644512933605675949964532745875735285575078268432923312967627960749104562176.000000 0.000000
0.000000 0.000000 0.000000
-95126844788020754885255184486542569025058802345020243115510727748190344918859776.000000 38410255002491632095557127722222158909911515266095609775706769302437570298249216.000000 0.000000
38410255002491632095557127722222158909911515266095609775706769302437570298249216.000000 7948682001535864140809196663765977719379774180760001757065771630185576304476160.000000 0.000000
0.000000 0.000000 0.000000
18766814321288092630486772646524044004298670366531303032722571263827137766883328.000000 -9540245269634890703793708289971854730237773333234256942759701751262385029513216.000000 0.000000
-9540245269634890703793708289971854730237773333234256942759701751262385029513216.000000 3615502818222638930367450231315268995037926212860408529766345432572204660293632.000000 0.000000
0.000000 0.000000 0.000000
206722019489787692364730755167023226538149530265651347897846895808060961308278784.000000 134687787614897679577374093099132603006941158659825862501762183028676857394364416.000000 0.000000
134687787614897679577374093099132603006941158659825862501762183028676857394364416.000000 46063464500032085745347653386364889087811173849624973216951778918575460218568704.000000 0.000000
0.000000 0.000000 0.000000
280439161184889706306789568452677556271601408945430332232169589220895526530056192.000000 -482857737941315513778626137464352082560026344773825559481058526311602648774606848.000000 0.000000
-482857737941315513778626137464352082560026344773825559481058526311602648774606848.000000 235673068579391368207252246881249770055943080311065305896504736582936378875052032.000000 0.000000
0.000000 0.000000 0.000000
121688176857082885847146998187572926642729680620399697012201311031579188987428864.000000 44749414616439288099067595959329726379635581166828635403378533641463531200053248.000000 0.000000
44749414616439288099067595959329726379635581166828635403378533641463531200053248.000000 18699067380482623345803062504584798549219499060793838132050816204122298989412352.000000 0.000000
0.000000 0.000000 0.000000
2284285050677523688145027894693358056532374438182186676741482401393479698612224.000000 -283600323569507074056753232815728149924433637610971958860698787682496939032576.000000 0.000000
-283600323569507074056753232815728149924433637610971958860698787682496939032576.000000 36694232228539564650079631378510735502907671763865812582445961739816811888640.000000 0.000000
0.000000 0.000000 0.000000
-86836287966810050615629823402148664597719616161658397056111151729591296794296320.000000 -92317310719527563430090070430969151328658365306548666654933411571811690846617600.000000 0.000000
-92317310719527563430090070430969151328658365306548666654933411571811690846617600.000000 55287732048591932344625025356673513224030332880480104948406438253963830339043328.000000 0.000000
0.000000 0.000000 0.000000
-2911383678328505709354186750436639812717291570227212896551261619818484434710036480.000000 391402892594979119118372515344308561525241099284082518063148339938532319651954688.000000 0.000000
391402892594979119118372515344308561525241099284082518063148339938532319651954688.000000 97542793831185062797108703754454273418637497035098699587553852848380839230177280.000000 0.000000
0.000000 0.000000 0.000000
165065262928489945703145728965417651191682470403983184740191548623293929064759296.000000 776667889306530845091897250252413190371713985499817866072514786516467123220381696.000000 0.000000
776667889306530845091897250252413190371713985499817866072514786516467123220381696.000000 422048972031046756507389987128885198299433343486444121708742410918570036016709632.000000 0.000000
0.000000 0.000000 0.000000
355218098029248616985939845196876808090025405295403054095238903543024840572141568.000000 -253827814300706244355318710161667725921297881272582068980971125898852045930102784.000000 0.000000
-253827814300706244355318710161667725921297881272582068980971125898852045930102784.000000 97528977672375776928563535137497284997936626693904280327190691123171336445231104.000000 0.000000
0.000000 0.000000 0.000000
-390933851262457182276244635622397625471185699316698839282252520722773531890286592.000000 329296154031307339655998297052396983430183970153981385516064328777594445307576320.000000 0.000000
329296154031307339655998297052396983430183970153981385516064328777594445307576320.000000 184274608987178589488376109148781586492141419581770810008404159012804973022937088.000000 0.000000
0.000000 0.000000 0.000000
202373848605408912630349598053108963385131912448028139951320916655588638678056960.000000 -19613412733502537116742884279376981393617439864393883506108586152902726455918592.000000 0.000000
-19613412733502537116742884279376981393617439864393883506108586152902726455918592.000000 1646323319234012249455022629513591438963366470534402778538011207477040338960384.000000 0.000000
0.000000 0.000000 0.000000
-4267171789652518162195352024485326088360815815315440102855438286667578908447080448.000000 -1262829960584403305489374554941760891425843849176578149955798608424683374125252608.000000 0.000000
-1262829960584403305489374554941760891425843849176578149955798608424683374125252608.000000 526698602573614945176578311836088457172864082287894809511184779020612452558569472.000000 0.000000
0.000000 0.000000 0.000000
-240700051549651642479628250504198709900814848874623778068003684418334751979470848.000000 -185760376738849857831609232494169064380421828387544544640492219460931090345099264.000000 0.000000
-185760376738849857831609232494169064380421828387544544640492219460931090345099264.000000 106920765993006441440499045069868716379501129590925844687087530123852613020549120.000000 0.000000
0.000000 0.000000 0.000000
1094305143029409066995469869849877339123920624500415728275475417871632872840888320.000000 117844659749942263734076856976463555705573904869885812444325337181867163156217856.000000 0.000000
117844659749942263734076856976463555705573904869885812444325337181867163156217856.000000 8396187549580725106108769469623291587787023882685551376487287222773011978387456.000000 0.000000
0.000000 0.000000 0.000000
35173467323650682450788959802591337444337828517164914657570996578940862070784.000000 12116824737883803022528449339502603261282629156587796055442325415123168002048.000000 0.000000
12116824737883803022528449339502603261282629156587796055442325415123168002048.000000 2579383968283171930605016085609389987330654245999847158536311558687932022784.000000 0.000000
0.000000 0.000000 0.000000
416352230955070617150617491284938681575250014686196661579142861196050934905438208.000000 -264163657270571901341099707007051885596051376756301774108151393264719669793652736.000000 0.000000
-264163657270571901341099707007051885596051376756301774108151393264719669793652736.000000 89179028207250564570349456131259146479081528420010533268127603525785400385732608.000000 0.000000
0.000000 0.000000 0.000000
-1793110387952625256442982262691891999995391798306353829183827991560203258317242368.000000 216321473566795396006348304158538819261247583414881242629699735154306807844831232.000000 0.000000
216321473566795396006348304158538819261247583414881242629699735154306807844831232.000000 47869838793906576877636057610889024404300235038045311331339747664698941963763712.000000 0.000000
0.000000 0.000000 0.000000
-599323370832655868067834691915569430951134422234384463022391900448792853994274816.000000 -563447609365122297080466712813841347933488079516464986486992555874276001754120192.000000 0.000000
-563447609365122297080466712813841347933488079516464986486992555874276001754120192.000000 319099261446602241142057688628531641249770097440112536985228302613703702360358912.000000 0.000000
0.000000 0.000000 0.000000
473061855297052982572126440555989943798891412004816012998973114392751737277513728.000000 -294324455607064509156319908729773734238454899600857512131753666913858406764773376.000000 0.000000
-294324455607064509156319908729773734238454899600857512131753666913858406764773376.000000 99112918568156137525771241820723345797362117395940540260996474426284867263135744.000000 0.000000
0.000000 0.000000 0.000000
249027897819733149105206262091392875808389723593503808711313723329923156593868800.000000 159139614826222607290941069236686556723428414064063832998716066465452867763306496.000000 0.000000
159139614826222607290941069236686556723428414064063832998716066465452867763306496.000000 54024304717766907569182734572205127474332927440221552564696420847313449870426112.000000 0.000000
0.000000 0.000000 0.000000
-8676803264510172871980645430451438597989174908848387942939449224475034137919488.000000 2287929656683749341471819708634021151608016330057582244920924260894827553488896.000000 0.000000
2287929656683749341471819708634021151608016330057582244920924260894827553488896.000000 897228975831247728439982607448142098649031950028344668526642932039324918611968.000000 0.000000
0.000000 0.000000 0.000000
435823948250642227396411343203926633144830617531950217684325884785833381510250496.000000 -14270126394169894916001661229366261394370962671332377286010636239414967224238080.000000 0.000000
-14270126394169894916001661229366261394370962671332377286010636239414967224238080.000000 773362699341910216693682382204784590659524105185003564232057143513541771264000.000000 0.000000
0.000000 0.000000 0.000000
-57519425900502309801110094095322174659060772190252371665734512920365511630389248.000000 25155191771851100678898723794869288789781327299649181189870927744119817830924288.000000 0.000000
25155191771851100678898723794869288789781327299649181189870927744119817830924288.000000 12435038764677381133445529642575343122616503081957021725821683208988410802864128.000000 0.000000
0.000000 0.000000 0.000000
343663061867172454788326403652684746645615812060697185322551552751106580044316672.000000 -107603422627494790124715762614712713042279464248727475926543307580307808058343424.000000 0.000000
-107603422627494790124715762614712713042279464248727475926543307580307808058343424.000000 21569192826155685207707195162198091098817453489460448902345515676868415980568576.000000 0.000000
0.000000 0.000000 0.000000
-2679427019146680281717729895367584175437334731089450259728125084836319469177405440.000000 -5821957204235074224977726307589534659307985024322457891410174725731182285059784704.000000 0.000000
-5821957204235074224977726307589534659307985024322457891410174725731182285059784704.000000 3355560813648873724792670838960661354884091334733314080527478328164714334044291072.000000 0.000000
0.000000 0.000000 0.000000
1837572988290487347274064951664190736982217634481288556637479406628002376292761600.000000 -350256859840104934831316639601971833029177629283251460382743234033056739749789696.000000 0.000000
-350256859840104934831316639601971833029177629283251460382743234033056739749789696.000000 43469160442187335354776372301534090972383918819711519092209359377043632133505024.000000 0.000000
0.000000 0.000000 0.000000
6475636766730739488083796279652997292067348009400830507811251404406211695607808.000000 52375986220175253330493199046699251350843550822586613771787640193001520342499328.000000 0.000000
52375986220175253330493199046699251350843550822586613771787640193001520342499328.000000 28566903956066099568961852321111355642228695960130830840303444392241024559218688.000000 0.000000
0.000000 0.000000 0.000000
-5271126515769872660262406999120611338963152134863709361579875967410458562240970752.000000 -605510818560890340788773748235125936478789220552165817273145406626385645791084544.000000 0.000000
-605510818560890340788773748235125936478789220552165817273145406626385645791084544.000000 129608239631796136679086949794017586535362571845358294101973325121432138152935424.000000 0.000000
0.000000 0.000000 0.000000
-53789089626778497811017168290867554601161184670569179395208738073166179534372864.000000 -79519955440008009490279706969899173555161132416498600251111008576985400317313024.000000 0.000000
-79519955440008009490279706969899173555161132416498600251111008576985400317313024.000000 61423620646780798146715172147389134815269421781545139766356470470845939400572928.000000 0.000000
0.000000 0.000000 0.000000
13441077936092749746315089497487392981744452532792933482013113678957802386620416.000000 8568710197724957266292177809874875738825033393633927737116520988358287602745344.000000 0.000000
8568710197724957266292177809874875738825033393633927737116520988358287602745344.000000 3053641684984280707300336624839273415895038028808148063798102934727393181433856.000000 0.000000
0.000000 0.000000 0.000000
27072274421431901548014720279223125229208373676115915546909375685257191453884416.000000 -13818324209139512813166351340278878861199278515645465263947493396243224677318656.000000 0.000000
-13818324209139512813166351340278878861199278515645465263947493396243224677318656.000000 6615824741075560645502856309065664269746780369386340488768826414888053314158592.000000 0.000000
0.000000 0.000000 0.000000
71151598375147009671915528228635292281321806852553185427265441990214836520222720.000000 -57384187354484826944204225736549345098807262948148075632178385289320447564840960.000000 0.000000
-57384187354484826944204225736549345098807262948148075632178385289320447564840960.000000 22074090065816060929633377797772434252006871445550524889542583116414066280628224.000000 0.000000
0.000000 0.000000 0.000000
101463945590181987715036466452205511764396679421007634521910616509832112382148608.000000 19164760894911994535659193797370448899949036996799303274697495757458720946126848.000000 0.000000
19164760894911994535659193797370448899949036996799303274697495757458720946126848.000000 4856266138971961795288353782431369959694394177154383515415469775566347817713664.000000 0.000000
0.000000 0.000000 0.000000
282667254533883142134694488085627779512066120128257046929081153068402904689278976.000000 505145877936078881047769928616564781765075663206819862705033174020300825262292992.000000 0.000000
505145877936078881047769928616564781765075663206819862705033174020300825262292992.000000 248089659882462224185863308912775020935317353395629208630388176671260385185103872.000000 0.000000
0.000000 0.000000 0.000000
-268976301812150690183206430348694267808340181370704542557267712525667750794756096.000000 -98638655476671142228408228498134611975198077264207536311915993564222272659521536.000000 0.000000
-98638655476671142228408228498134611975198077264207536311915993564222272659521536.000000 46022066175867888220036590328794693525614070631558887495494558476038463633227776.000000 0.000000
0.000000 0.000000 0.000000
80987353871987360031929482726859892706832049892834025723676526630025940906803200.000000 395725633943469396940909001564940125791962354610110611203746932289954341508349952.000000 0.000000
395725633943469396940909001564940125791962354610110611203746932289954341508349952.000000 213771506575628267191976067452112754816711561219552940243505167623447342085046272.000000 0.000000
0.000000 0.000000 0.000000
11174804885749757326794302566634298379915395672861234495264370344165671698432.000000 20512439388167994517938554054248255175081863146209532393802926937781733163008.000000 0.000000
20512439388167994517938554054248255175081863146209532393802926937781733163008.000000 10121343266180622166126516150108694456919631471629614015441762428045911654400.000000 0.000000
0.000000 0.000000 0.000000
-2136950302850183902982818909953672488013312392731079220189408286328902209754890240.000000 -469004809035844305224915049936219345327825910802032174310479930455379214851899392.000000 0.000000
-469004809035844305224915049936219345327825910802032174310479930455379214851899392.000000 187203226503360513171695244539914290246320150313694478795774514937588453669339136.000000 0.000000
0.000000 0.000000 0.000000
185845914479200606972836049089073758916283162238829802874755560181986622858854400.000000 -42078912534673248751712123293942331750800808341614246816513823285103700608024576.000000 0.000000
-42078912534673248751712123293942331750800808341614246816513823285103700608024576.000000 27561426387883947981028259028700609268095549850331375844738063848982210964094976.000000 0.000000
0.000000 0.000000 0.000000
22045707939031099632343601087766873351106513593089405566163209403591068919791616.000000 10813429471742644581751619616859795863701775542339328824008219640264220754313216.000000 0.000000
10813429471742644581751619616859795863701775542339328824008219640264220754313216.000000 3130757254570739584759224459836237216934297722708838812766792545681482885103616.000000 0.000000
0.000000 0.000000 0.000000
404487378058831067481596313737961128042813500183471113649395511927028923966160896.000000 26788755224018479669582251347652534718980050930173461215550826090409784688771072.000000 0.000000
26788755224018479669582251347652534718980050930173461215550826090409784688771072.000000 24047872740845167090333882552879832067655868207047855169854444908107763745292288.000000 0.000000
0.000000 0.000000 0.000000
5317225436510026252075021994105073808774924070728129555405325231902826432561152.000000 -436833557114100680182043739731787421863603198983265086904866304461648603119616.000000 0.000000
-436833557114100680182043739731787421863603198983265086904866304461648603119616.000000 162052535663356566558503212189871043218258229806052953758990558408740693868544.000000 0.000000
0.000000 0.000000 0.000000
37747220488217463257375355901905371051028058093637402286810558688700090311245824.000000 -8421678480322419940676087181716759821780041691278076251480481590589957053874176.000000 0.000000
-8421678480322419940676087181716759821780041691278076251480481590589957053874176.000000 1268102830400222641747330029372857236581180127453832526310990376349872397746176.000000 0.000000
0.000000 0.000000 0.000000
-340615485043701700334065128893920557055222406556494747947691135742846856654225408.000000 -456049410788339621171025557822496790403884454628074482733061200471213084996796416.000000 0.000000
-456049410788339621171025557822496790403884454628074482733061200471213084996796416.000000 262559507321696341096430515433119960881677565009258870271285603582097688579014656.000000 0.000000
0.000000 0.000000 0.000000
985490369045096802892915610891669164331924743753117524874219840804187621411520512.000000 -679848855778827966321684073940789309218219219713399316172543184248089621177565184.000000 0.000000
-679848855778827966321684073940789309218219219713399316172543184248089621177565184.000000 240255975526254518941583294214202936525222157630934635068846152728325483751538688.000000 0.000000
0.000000 0.000000 0.000000
-299921182657251502877496115055033768542899871641712723574281698339776211502235648.000000 -458174264832652643821001661190747462471925239227656608589170625874775892350205952.000000 0.000000
-458174264832652643821001661190747462471925239227656608589170625874775892350205952.000000 275354110384504480391998362121178990189825536620760350904613783360129267792871424.000000 0.000000
0.000000 0.000000 0.000000
12355344868226036172050069045875646197411888618998893800930937895139043522379776.000000 1572938240817791313622382780613485650797497672547369930294766766168080912482304.000000 0.000000
1572938240817791313622382780613485650797497672547369930294766766168080912482304.000000 13091604733459263932733163977031552050930988349477849925020689074838867527335936.000000 0.000000
0.000000 0.000000 0.000000
-784517999540559879032158803224684186744684535815343495100280447234159873177419776.000000 -268678695663558900085766646113835641961573751554066603580705893884866167264247808.000000 0.000000
-268678695663558900085766646113835641961573751554066603580705893884866167264247808.000000 118734931181555758360495201435521824038108861220579617598123476750801286541082624.000000 0.000000
0.000000 0.000000 0.000000
-255071981102561195854303863076745141332008479976271115820172528137733586118770688.000000 -270726445286110418452259702156301922903591598782243981639003923176946198191800320.000000 0.000000
-270726445286110418452259702156301922903591598782243981639003923176946198191800320.000000 154601220137142777720445184084478040005567385260415789149569921148494970148093952.000000 0.000000
0.000000 0.000000 0.000000
-114384067022466017290831821002705806194439838953956925396208096405329824874233856.000000 68734345295583163735937578737647327441691687589324907460574832906619649523712000.000000 0.000000
68734345295583163735937578737647327441691687589324907460574832906619649523712000.000000 37234979079288471711426270229357297282672284642810696032934376560980635911454720.000000 0.000000
0.000000 0.000000 0.000000
68417833067911171658979903920072106543450944235614162214542713080538687946620928.000000 -133808864704714656553328741286114372912398239313420069656363608207620701981507584.000000 0.000000
-133808864704714656553328741286114372912398239313420069656363608207620701981507584.000000 66753144309553240364323350770633407104802713992045407426383530499414980556750848.000000 0.000000
0.000000 0.000000 0.000000
250984678058895482713011412606253268197505843529972537514552241303715977237626880.000000 48817398527211613479371002497270628802774002048236603923132534108205194548346880.000000 0.000000
48817398527211613479371002497270628802774002048236603923132534108205194548346880.000000 17151581672481975402731769702271440334489886842664322805457062823626645308440576.000000 0.000000
0.000000 0.000000 0.000000
-3816624968126949462319068589785983146799195632220554907929704881197548098813952.000000 -82354691719003120374594982349011318277886151812163488986675333687224377553190912.000000 0.000000
-82354691719003120374594982349011318277886151812163488986675333687224377553190912.000000 45048369285806484753896319601122992067406964165259326307054536250104691506020352.000000 0.000000
0.000000 0.000000 0.000000
-426085583234207583186722150263532625273209062390287473936813805693467142599055769600.000000 5167341151865258233176434025566682835594453815101447135738074309861917491726385152.000000 0.000000
5167341151865258233176434025566682835594453815101447135738074309861917491726385152.000000 125620235943146035874351447022824409936923789800770081154274756496847110943014912.000000 0.000000
0.000000 0.000000 0.000000
-14507243248729623249117852741244594135250070714048665319751234827315974095805349888.000000 1709397461948788608161035357120215811335944424166438924300461381482845284734074880.000000 0.000000
1709397461948788608161035357120215811335944424166438924300461381482845284734074880.000000 374580043674345672522792345363994416799880162501388734258788786525113002424795136.000000 0.000000
0.000000 0.000000 0.000000
-3439519735476467943736994746967911678615814437417652068265301452236330985234366464.000000 -699198982056762261475362265209154278949122160898291894545245136029596930262695936.000000 0.000000
-699198982056762261475362265209154278949122160898291894545245136029596930262695936.000000 233434087930713017347093398999033003316188613524281856063664122758791795618873344.000000 0.000000
0.000000 0.000000 0.000000
60387696795650501002441199855104605095131212573054200060509308480698359658577920.000000 77457452529183332637669300552098412920038771716041257244845867981812351079809024.000000 0.000000
77457452529183332637669300552098412920038771716041257244845867981812351079809024.000000 35410623607210471493086594761774624627888536051844762365057497126579383547461632.000000 0.000000
0.000000 0.000000 0.000000
1995861464751424625342584704385102921114090225996467357290832752817684558643200.000000 -149195992567265964669681702818091761995950075107153854270495946025413948473344.000000 0.000000
-149195992567265964669681702818091761995950075107153854270495946025413948473344.000000 13340910736676265651623279376457056292216205966041170047673396917527918936064.000000 0.000000
0.000000 0.000000 0.000000
147354147271946718491637405926900606471185102176429304295163513456666261233598464.000000 74414445165384697360128668984030250344182948860995877531558876659769758250434560.000000 0.000000
74414445165384697360128668984030250344182948860995877531558876659769758250434560.000000 20978677743597967393235577409393073805240677591017230543849486484045716458045440.000000 0.000000
0.000000 0.000000 0.000000
10198912988903300424554307753330187746627597859292350771198801945052607923879936.000000 30187438998652786364739763761016320634757386216245255456071324108938024134377472.000000 0.000000
30187438998652786364739763761016320634757386216245255456071324108938024134377472.000000 16210971510227817915610530912374689839930765342015551215748027723358080841285632.000000 0.000000
0.000000 0.000000 0.000000
-20974157943347663522497304890005620362454365406987891988291462475910372162273280.000000 -53229250004332526092442518930655707265950717798538685861976786548596454172131328.000000 0.000000
-53229250004332526092442518930655707265950717798538685861976786548596454172131328.000000 30683306200521266185806773341194396165533109458468107032545190321205626328317952.000000 0.000000
0.000000 0.000000 0.000000
263635974048497635896658361665595014544332703312757377791297836199286502781353984.000000 230769575428776145879024949128606774529704068808513556957588150415766490485620736.000000 0.000000
230769575428776145879024949128606774529704068808513556957588150415766490485620736.000000 92045779437065769896576006062878644554872659029993301494958408891467639948312576.000000 0.000000
0.000000 0.000000 0.000000
-3905586285344727344920480390151351588777661039278039667886612377121020834742272.000000 5404393686731236529234967658630678269109732562640954668362064948670094316142592.000000 0.000000
5404393686731236529234967658630678269109732562640954668362064948670094316142592.000000 3109924984454321218243898095830200976793864059921651891826029531793874753683456.000000 0.000000
0.000000 0.000000 0.000000
321209490917983907356557755666610302969666059796187759813167455693999079463845888.000000 740473040743569621187019682640777930126976513796603324294197988563805890523693056.000000 0.000000
740473040743569621187019682640777930126976513796603324294197988563805890523693056.000000 376951812165396697431382782623605234387675355756630375770997942408645223584366592.000000 0.000000
0.000000 0.000000 0.000000
-157748374032281545582752508240701918576542506795325608368580673145746970162233344.000000 -538801712658265188711558428787869433998261230694201923492092799495663116334661632.000000 0.000000
-538801712658265188711558428787869433998261230694201923492092799495663116334661632.000000 308657442686096434315819824230185017317541925590915225291224799531818248449294336.000000 0.000000
0.000000 0.000000 0.000000
638249313065893562466166870503557931093514359107353381597765251865895242397908992.000000 457746917581101093535733805466115309854047844929222994079919264249924396892815360.000000 0.000000
457746917581101093535733805466115309854047844929222994079919264249924396892815360.000000 165385217524619852930574202164114661313652602151072268617625816137747237695389696.000000 0.000000
0.000000 0.000000 0.000000
-1603412871222028958181375945999752122919195586371622996160721856887757506019852288.000000 -665295313206327659592303169632078686534664174118946219306896458575425879616258048.000000 0.000000
-665295313206327659592303169632078686534664174118946219306896458575425879616258048.000000 320581068589869020582906067065179333298499631138637354532470080687473305971589120.000000 0.000000
0.000000 0.000000 0.000000
9427326298288415090080419901910548793325719670740453938741982942117547833556992.000000 -9755727578001394866099643919316137981412592539251969599693830818534296102371328.000000 0.000000
-9755727578001394866099643919316137981412592539251969599693830818534296102371328.000000 4157403545729094197327978511300639108473502655939040905138846848131803264319488.000000 0.000000
0.000000 0.000000 0.000000
19769398942626944177005943492680269100580092695641621123583707411783456976273408.000000 107825065093777473291622233566146227875044975790884733569547377353993694222483456.000000 0.000000
107825065093777473291622233566146227875044975790884733569547377353993694222483456.000000 58419870690842111191904237985962186501117593679592291948728509749241433305382912.000000 0.000000
0.000000 0.000000 0.000000
392097588711111000894662077288028750089749272737879408702521650797989091986112512.000000 597665198426790617439481780317331993160958954306903059922619177194858323554336768.000000 0.000000
597665198426790617439481780317331993160958954306903059922619177194858323554336768.000000 284897294727798858151088182159004450398090959903889749881971828021168635757199360.000000 0.000000
0.000000 0.000000 0.000000
1007183328131688387928994927915928855125025208964404125657692223212487455065243648.000000 1521077370068866937393618846796809132602649969409591046469848295370038900019953664.000000 0.000000
1521077370068866937393618846796809132602649969409591046469848295370038900019953664.000000 724026729690514403006241666914477249495579335415685490562945748898159117144686592.000000 0.000000
0.000000 0.000000 0.000000
18043307805031635770764835600670484379042544493556603595122942257843833878507159552.000000 9053051942715690927137334157209862158424036829504284776797925033012114511573811200.000000 0.000000
9053051942715690927137334157209862158424036829504284776797925033012114511573811200.000000 2600799330725037329096099230439119076686606359490840414340964025673579563472388096.000000 0.000000
0.000000 0.000000 0.000000
54107357546449864489605672333307711260190419852699000654284645131247269454020608.000000 -23197176780531074409941678645958003019166276070038284833024948966718796006948864.000000 0.000000
-23197176780531074409941678645958003019166276070038284833024948966718796006948864.000000 14438091259822367864101063119564100522214223560306563944780887854840192757137408.000000 0.000000
0.000000 0.000000 0.000000
-3406291508833267380560375633221747453860930062244027179628741985864118702178304.000000 16420375740681946483147316459275409524692538574904972175879948716944669200613376.000000 0.000000
16420375740681946483147316459275409524692538574904972175879948716944669200613376.000000 9779311462036890049062953562435734074284501461390427788090915618091657255190528.000000 0.000000
0.000000 0.000000 0.000000
551227840698525265175166267469366452751106668250831058986675812144263049387180032.000000 -388384652354616719929802531485046612710466920536805484707055331216273654694281216.000000 0.000000
-388384652354616719929802531485046612710466920536805484707055331216273654694281216.000000 134567439659417102910268771707324959049415509966116914613171336386390791819362304.000000 0.000000
0.000000 0.000000 0.000000
130004322124793642750581405298513986978348347794267554562561266799384780414648320.000000 -251881209632229786425412590445535953300436126630154066891183232203313531884404736.000000 0.000000
-251881209632229786425412590445535953300436126630154066891183232203313531884404736.000000 123316603821928074599129197021815060209614737386841127811266537709452010146758656.000000 0.000000
0.000000 0.000000 0.000000
-30729538433560823928148345459486325328285580885064376508734227383544273331814400.000000 -214102687687712168079974192796992614747059052852416944129541774792731007870042112.000000 0.000000
-214102687687712168079974192796992614747059052852416944129541774792731007870042112.000000 136116345419993153999582570995759058928811580450157157871552429323740693936472064.000000 0.000000
0.000000 0.000000 0.000000
-87805644393493975053383430984016720675587636476882125652438767363461594935990419456.000000 -2422353838572761463407938157311779550896301461071884335581083686767155037991862272.000000 0.000000
-2422353838572761463407938157311779550896301461071884335581083686767155037991862272.000000 134572401609928096807265788247763083521454466958855260920717242580617169412816896.000000 0.000000
0.000000 0.000000 0.000000
-149647073703437317832235881281188865671984283216262650711040209908056884280033280.000000 59856648261677637435762500253391563445992626494462793220126440844908475625504768.000000 0.000000
59856648261677637435762500253391563445992626494462793220126440844908475625504768.000000 28735360704507297623257968836386834038541361411635956088650627202232388990009344.000000 0.000000
0.000000 0.000000 0.000000
41445315485691901217154437969206244572208914889555604023515488400569379525230592.000000 34390488584782084807114367633454224069080362663662219802638420290779371381194752.000000 0.000000
34390488584782084807114367633454224069080362663662219802638420290779371381194752.000000 13391036180360045573324859366873487083004274380815711551341062889907965051011072.000000 0.000000
0.000000 0.000000 0.000000
47842629382919626057497116030403370024656758440653075865656755249465189451431936.000000 58882008648421865487961978377281114573068989968058408879079194562020983735058432.000000 0.000000
58882008648421865487961978377281114573068989968058408879079194562020983735058432.000000 25040482470079007138199116774383632499876657732528796747906202751110915307864064.000000 0.000000
0.000000 0.000000 0.000000
460470423511851596922835891864744522103966128207939501488615362728845503868436480.000000 37905346037182385249615108326490448066419153079402652736556406292436045774454784.000000 0.000000
37905346037182385249615108326490448066419153079402652736556406292436045774454784.000000 2428251823752525291947481655395412862717259932315304362276696426228495603990528.000000 0.000000
0.000000 0.000000 0.000000
375489259588396757931305877717286478954206294546993136272986010744219509620473856.000000 -7747438877763571921054177717767762366189245330945241103636196575988522040688640.000000 0.000000
-7747438877763571921054177717767762366189245330945241103636196575988522040688640.000000 2121447073812965927134895455189277078425378181726367479509194268136780402262016.000000 0.000000
0.000000 0.000000 0.000000
-23087621269244854197761417988398421535789121910652358168254190119409169467441152.000000 304914616856600421845136489571594508754680371652136523608622198412421740428787712.000000 0.000000
304914616856600421845136489571594508754680371652136523608622198412421740428787712.000000 180552961073049649052249672313508331732418769811782308029882406554792520545468416.000000 0.000000
0.000000 0.000000 0.000000
-333370617181246640942300713671961430518403917447434934258994439129826520557682688.000000 -42852821216487906812781915052660393679959928592216854094053130474267850309632000.000000 0.000000
-42852821216487906812781915052660393679959928592216854094053130474267850309632000.000000 10074161768517523106927985243555864611730119908669639698031421068184660717076480.000000 0.000000
0.000000 0.000000 0.000000
-16549677250487465607986477660510619838588509795475877395478763808646425225428205568.000000 -274377020742490388425364868923173600472813607282498878012780667746965167877914624.000000 0.000000
-274377020742490388425364868923173600472813607282498878012780667746965167877914624.000000 34840391181000658999479119959782704111123718510396360824767470604904195585736704.000000 0.000000
0.000000 0.000000 0.000000
-1354857267900111553029047047513296911067641283327875375112155009004196923034304512.000000 1815811695539286424003284896565606667971048486627505696793891233628335891661455360.000000 0.000000
1815811695539286424003284896565606667971048486627505696793891233628335891661455360.000000 1044531174411404772931295630223563042209943076180145758569842806658095198783930368.000000 0.000000
0.000000 0.000000 0.000000
-50207780624807528680093674434644927936472045045386367471321490202478069057323008.000000 93975592578540964584079101139154347578687115341875500941480374636367022097694720.000000 0.000000
93975592578540964584079101139154347578687115341875500941480374636367022097694720.000000 54445066551545210594254849499294366244698633281867616167528747280158003879215104.000000 0.000000
0.000000 0.000000 0.000000
55147212520047731437740064194593308510839849620598657930914221730515421835034624.000000 -111375487922529696382808621091041805354970997654168402971359428157866354659033088.000000 0.000000
-111375487922529696382808621091041805354970997654168402971359428157866354659033088.000000 55776052883781113488322734039467301820233647393355617514830940639047996739158016.000000 0.000000
0.000000 0.000000 0.000000
55091405353030426588381609984779935188254002806444467299563729122198306974334976.000000 1341077463232556088005805783692758019940725413702320208876020016057952117091991552.000000 0.000000
1341077463232556088005805783692758019940725413702320208876020016057952117091991552.000000 744020236473405346257446041082590681845988739974902485840372308595724873740845056.000000 0.000000
0.000000 0.000000 0.000000
171806831592119654194406594353681050945295660082799554009007403593503783530790912.000000 30062801707174317402266345920096795788632890041696943982976389200906783459115008.000000 0.000000
30062801707174317402266345920096795788632890041696943982976389200906783459115008.000000 2561685295930556352239614432997316262795875311506160683041667223002760102281216.000000 0.000000
0.000000 0.000000 0.000000
-13335430560943871351715415515198398484228673265650434252964007413818380139888640.000000 102952056734575790891087485735090787034722191913264758640143789680041552167043072.000000 0.000000
102952056734575790891087485735090787034722191913264758640143789680041552167043072.000000 58153665733732409921796888465350990146830102217613356550997594856593817197346816.000000 0.000000
0.000000 0.000000 0.000000
132540779848138867812612013384054247378888993727085946644293313781861382602358784.000000 -319721906651818184230772570578618013824449746350086906504113130487964970652794880.000000 0.000000
-319721906651818184230772570578618013824449746350086906504113130487964970652794880.000000 206694661386528884710632899608326948560007050713978277183170004142243423832768512.000000 0.000000
0.000000 0.000000 0.000000
391718797060546751818437097810671105471955506938325512280641172839841039348924416.000000 644154816146620517582642034566804638747207728706907771372640162718783058202329088.000000 0.000000
644154816146620517582642034566804638747207728706907771372640162718783058202329088.000000 311748874084345716596698411265976478836499391316748692156790679555980929957625856.000000 0.000000
0.000000 0.000000 0.000000
74886936834732887179339705958069957161478453923298232928933072105140448003096576.000000 2584817785834261245258123206703518663509168131375635973040872233016891782725632.000000 0.000000
2584817785834261245258123206703518663509168131375635973040872233016891782725632.000000 2275519321129786088288755184672386165205842978995177020909762064831812030431232.000000 0.000000
0.000000 0.000000 0.000000
-91459179707900175674330600096658270249131550080605414006882906017252223794282496.000000 157150522531904171024951565272132369980555210976609700010195557209121130014572544.000000 0.000000
157150522531904171024951565272132369980555210976609700010195557209121130014572544.000000 117194697660255120480658825846447042884564193962520203495936375889363222552117248.000000 0.000000
0.000000 0.000000 0.000000
560730080196081944481608903366303973034183789290616782688460444747405545707667456.000000 -309838745046646645728804352932284606846765951472582898000698766252581309313449984.000000 0.000000
-309838745046646645728804352932284606846765951472582898000698766252581309313449984.000000 95350466779056725561835660704233287582912562638228381176239020885493386424877056.000000 0.000000
0.000000 0.000000 0.000000
1008314563725579091997966287110163707528643083077862679056012743815485039671508992.000000 279120805491310605313782606183924077707777067281939357003310651903301503948947456.000000 0.000000
279120805491310605313782606183924077707777067281939357003310651903301503948947456.000000 49046363895867484187361040671776999158359627216476493667813526277445669439406080.000000 0.000000
0.000000 0.000000 0.000000
-151613640652775272089685154765288104090263042684593167843316262180303625256960.000000 410517849961918738518096449613235448580045292338387125713859381737342429367894016.000000 0.000000
410517849961918738518096449613235448580045292338387125713859381737342429367894016.000000 228304914955743197804402713125884411419160713232496867708230869432919989424226304.000000 0.000000
0.000000 0.000000 0.000000
1128858569146796042692845631045510916030785316921731737188237425724358909403070464.000000 1057202016603220730532388720381277246042687758877835619653193080273858751824396288.000000 0.000000
1057202016603220730532388720381277246042687758877835619653193080273858751824396288.000000 439189116749834283783480746926740604401974877511855784593799297258751261562372096.000000 0.000000
0.000000 0.000000 0.000000
462185457587469622989319554651329254791506153505552540825622016722711575957340160.000000 127352294316531453095378415601600715699459808739881976274479370667779099029667840.000000 0.000000
127352294316531453095378415601600715699459808739881976274479370667779099029667840.000000 22522264009866457912890366336358003224374566751374558194719723827835622360350720.000000 0.000000
0.000000 0.000000 0.000000
324950006211469864279200390419489910347226651625220977455178338121299242214490112.000000 199925755963336835846187265097453392700515752579426292174418468621551259999010816.000000 0.000000
199925755963336835846187265097453392700515752579426292174418468621551259999010816.000000 67218177576820443490996108719698643627194970147399357630625107501476958502387712.000000 0.000000
0.000000 0.000000 0.000000
152382988174515687839871558083553198961617656072735279406645708664204525628817408.000000 457419597683537422080740878925251492520405888536814692568089890021323901946036224.000000 0.000000
457419597683537422080740878925251492520405888536814692568089890021323901946036224.000000 251161512115565639375163834817789862799940680618889292872597291960198381818609664.000000 0.000000
0.000000 0.000000 0.000000
380504328406043222628700346370478898946610166745887729467679066072245414079234048.000000 39091254568033903142044318078566325339990390730041864206198176421001094999572480.000000 0.000000
39091254568033903142044318078566325339990390730041864206198176421001094999572480.000000 2714522214573568270232872846020326119950257483072003519440103680258330295533568.000000 0.000000
0.000000 0.000000 0.000000
217007359790180226852664703438900747044126524611506827498155130574584238315667456.000000 -85529036098761348524249552808853190722624365857371746788284980379246900050657280.000000 0.000000
-85529036098761348524249552808853190722624365857371746788284980379246900050657280.000000 20551361366512820095187850048513702500596257028541035654770237552606779442987008.000000 0.000000
0.000000 0.000000 0.000000
-70023120243879374370629822365405939768223066944639744980858273820436172086706176.000000 650664514495399549894013223446591599042088246429915027904130760071746682460569600.000000 0.000000
650664514495399549894013223446591599042088246429915027904130760071746682460569600.000000 368101963665506721005917804396049578495917772230710769673681637181244083447791616.000000 0.000000
0.000000 0.000000 0.000000
20356349161706456252954409234211968386244421523724693645205184613730463034376192.000000 21955127071694518456653971409893412159646565709877556073553041118722251579981824.000000 0.000000
21955127071694518456653971409893412159646565709877556073553041118722251579981824.000000 9515389380841132468979791084377454943833565281519534352570338535138632465907712.000000 0.000000
0.000000 0.000000 0.000000
173783193994752364001051911416689109097810119128830074747436219432535115259969536.000000 143018327320847770333705483906526954002771138466765160537187043819484073470984192.000000 0.000000
143018327320847770333705483906526954002771138466765160537187043819484073470984192.000000 54324662797369699482845642182478271219011688119077519326408360578341265857314816.000000 0.000000
0.000000 0.000000 0.000000
473242417545250529292907437027617183356004746152108456022517286163869444805230592.000000 455334896880692373562671265641530933268940167350145249584998355760421545122463744.000000 0.000000
455334896880692373562671265641530933268940167350145249584998355760421545122463744.000000 188927643858650156240144524314035442965976665563257007655155051743606338133950464.000000 0.000000
0.000000 0.000000 0.000000
26048576876148923090647865880777679777104225586895144623705240298312012690096128.000000 14558175503153505842552264124400489736028074010925620958951345331580433611096064.000000 0.000000
14558175503153505842552264124400489736028074010925620958951345331580433611096064.000000 4671028185118206814029209417883051997625915869961567259935072962334894246068224.000000 0.000000
0.000000 0.000000 0.000000
-858750256295247423446668825312473965231145086238892497248277048742338992151724032.000000 -57432665690714682226106905612059728041962889876151797187098023661560710752632832.000000 0.000000
-57432665690714682226106905612059728041962889876151797187098023661560710752632832.000000 19464765255997721623187918943082420324608087959122239264576320612095678188879872.000000 0.000000
0.000000 0.000000 0.000000
21652317832368119609584666771878706186582561453459845277032739812349685830516736.000000 -15278183714589648151679707423255917618368283325550485309650762403414089551314944.000000 0.000000
-15278183714589648151679707423255917618368283325550485309650762403414089551314944.000000 5469906072002061772736744444115704307938178686801369356493679468546249052913664.000000 0.000000
0.000000 0.000000 0.000000
-1595833289158167115548446879432584344516339700154362459293030196354389726023647232.000000 1458959830476330949307582436734479979560980886748861113140468414650978454682468352.000000 0.000000
1458959830476330949307582436734479979560980886748861113140468414650978454682468352.000000 830252494398406842672634250937306981605873429184680819113354499427554693931335680.000000 0.000000
0.000000 0.000000 0.000000
63089572965571054064670609781034474872214118452152878652519710775109929039560704.000000 -508265570089428439590610160164105709965728997819692935473590877351900344272027648.000000 0.000000
-508265570089428439590610160164105709965728997819692935473590877351900344272027648.000000 277178715157632942504691476830019383524739194746179731806938782668743393916485632.000000 0.000000
0.000000 0.000000 0.000000
371585808020363459424436467113021194725801879852279591563327295203147977343369216.000000 -109600361948518938429089298024115011134211732303118968123280024223124116698300416.000000 0.000000
-109600361948518938429089298024115011134211732303118968123280024223124116698300416.000000 20514860101815941100428793431028170943725699896252010538276320002636140674809856.000000 0.000000
0.000000 0.000000 0.000000
154969754628132340762664882461398650729017121058760096126461863733196678454312960.000000 98122332645924416977183474133379465163548289220443555050284055927870625224327168.000000 0.000000
98122332645924416977183474133379465163548289220443555050284055927870625224327168.000000 32961127922766137749141715673019073244898280111020928239784446705640463377891328.000000 0.000000
0.000000 0.000000 0.000000
-15966370319465770482960832854445200130364760582735419038075649353653534865735286784.000000 791775526915239858190262885982032237986413930841270702015816463832132272108077056.000000 0.000000
791775526915239858190262885982032237986413930841270702015816463832132272108077056.000000 78888394810562029899220138133461961281123212729054493180645720439852118310912000.000000 0.000000
0.000000 0.000000 0.000000
105908653673032400401525710230614684069792628877373208354212679917226602679762944.000000 -120018684565538656350633784546927973760140564672046508560410406811131623203930112.000000 0.000000
-120018684565538656350633784546927973760140564672046508560410406811131623203930112.000000 45904897648001860342070657462459710324880468246372578162401217677248175838068736.000000 0.000000
0.000000 0.000000 0.000000
-208522061376139831746929462463911896684816497099978257219569776956472159964758016.000000 765420018821770496294666080939889491262208593680241383648063045373457872854188032.000000 0.000000
765420018821770496294666080939889491262208593680241383648063045373457872854188032.000000 437684649624112734022449359794700046031580429798119609561097410176521966532427776.000000 0.000000
0.000000 0.000000 0.000000
9585346340365160175211126853981333657934702536466066340407147957537995441045504.000000 13530527440293802142550290899536876079863366117376895856051436489975478888693760.000000 0.000000
13530527440293802142550290899536876079863366117376895856051436489975478888693760.000000 6350814618351443088992654689525958386801184765570489137305348750044034838298624.000000 0.000000
0.000000 0.000000 0.000000
-2885787663045060203311163712818234629657890727725312261399429427372511289325649920.000000 -799346019757737076245813230344924373431343000957603325948019307279424307014402048.000000 0.000000
-799346019757737076245813230344924373431343000957603325948019307279424307014402048.000000 321238770304757768297360557115253703278832743886457664925483534184481683297796096.000000 0.000000
0.000000 0.000000 0.000000
-118575448319281726412024200039573701648190623769856390098369254454551889273946112.000000 531725509865617479579630202886968632716550177697335151773919923851271217742872576.000000 0.000000
531725509865617479579630202886968632716550177697335151773919923851271217742872576.000000 302502710683916964600108732928859016853013353947684327491702549554489350642728960.000000 0.000000
0.000000 0.000000 0.000000
-142166014801074192117290971639127187259586295782547745640619809217761569169997824.000000 -110653468261014708648335893365339760576278953687051658876021319143398474724147200.000000 0.000000
-110653468261014708648335893365339760576278953687051658876021319143398474724147200.000000 57170129100952143227136020335156150262771119223149710371462801405821497494208512.000000 0.000000
0.000000 0.000000 0.000000
-58862313510240586243275956541191501244356720023236293280164907636375634971721728.000000 -74210052407301230847151294535388908583326541754639962279550910067258718223859712.000000 0.000000
-74210052407301230847151294535388908583326541754639962279550910067258718223859712.000000 44806355338716584537916128277664981241385117680583838650376322306716286895259648.000000 0.000000
0.000000 0.000000 0.000000
183293996526931281560718599622983928447548336598044342558984762697113179013513216.000000 29112527305971314853395575544017693459058501769802911857197390694381822213619712.000000 0.000000
29112527305971314853395575544017693459058501769802911857197390694381822213619712.000000 3917589619216028575309320313164026234922919667298576132929950082992814518435840.000000 0.000000
0.000000 0.000000 0.000000
-260149906133744762953539349708996815004781866328366323879887425557166576879271936.000000 -43389418070702728896837247775535765094714977163396786844271710120990323832258560.000000 0.000000
-43389418070702728896837247775535765094714977163396786844271710120990323832258560.000000 13679291397061563777005218496666739070692731072870797438399300657754573073547264.000000 0.000000
0.000000 0.000000 0.000000
68134900156797700588849907549528033394796144319190270359132605974749612385239040.000000 -39916246942218921852309888025720447641479683978565233182328397699533612725043200.000000 0.000000
-39916246942218921852309888025720447641479683978565233182328397699533612725043200.000000 17716168220103060707123672319968215703325129193262671500243940110406261789425664.000000 0.000000
0.000000 0.000000 0.000000
-8112658010643360072708786689168018662612162237067352443107225563813219417649577984.000000 909841901060903890499835679610558327608851728376903689480655771791249490776686592.000000 0.000000
909841901060903890499835679610558327608851728376903689480655771791249490776686592.000000 195282064287514509449730359505492404384931028594262980390568431075867566473740288.000000 0.000000
0.000000 0.000000 0.000000
146617385733474806983424309329297173504077369279968968917759475894163857211392000.000000 11923621043609973625196809987984317216162186757705410200428551183112687633563648.000000 0.000000
11923621043609973625196809987984317216162186757705410200428551183112687633563648.000000 987489160339923423697328640057185208502968780631779518752659119791536926097408.000000 0.000000
0.000000 0.000000 0.000000
72902560559538702000937628201356913901071704504417950044365115657186408669380608.000000 -149534512433715764591055612490666994722289995114566879803569720725945264923213824.000000 0.000000
-149534512433715764591055612490666994722289995114566879803569720725945264923213824.000000 76520905011974998785750061453588059387470346363363842355339769193745494956834816.000000 0.000000
0.000000 0.000000 0.000000
-11683788523674557398881453491702153732058366523263809373617536060228114480537534464.000000 1533932517159325052527848309290143124298103833567147427380543636374048831633883136.000000 0.000000
1533932517159325052527848309290143124298103833567147427380543636374048831633883136.000000 366825632743469078762328668589801954634640022751231319324564208083590779158659072.000000 0.000000
0.000000 0.000000 0.000000
-16640875027380113383345445627502280432303124774623538909289878210724863452119040.000000 70432022065517680412548297241817627436100779535028311261122678723760601048285184.000000 0.000000
70432022065517680412548297241817627436100779535028311261122678723760601048285184.000000 39241559887942303280175819828970863235838456593348813855563571215662568102166528.000000 0.000000
0.000000 0.000000 0.000000
36032515094885781383322128883964556735071125541500957362845224001560214522298368.000000 -72216106224427478184800774887657135687236116863240923337889310595933471697272832.000000 0.000000
-72216106224427478184800774887657135687236116863240923337889310595933471697272832.000000 38629595998447184618025434086245883300351309750815029776141882278466685438525440.000000 0.000000
0.000000 0.000000 0.000000
-49711343455151033573881798996645466745546998944006469240187805540956901415583744.000000 -260838388238583970981230107684863514553551325854338799960822316743679137252638720.000000 0.000000
-260838388238583970981230107684863514553551325854338799960822316743679137252638720.000000 148214118161158761620029960956622997742320997278823064478116862428145692318892032.000000 0.000000
0.000000 0.000000 0.000000
105749455618949230199478204349935781964732159446147568258529904011161392115613696.000000 322801626063458012729354571658059952606308584293397018787211404437872121269452800.000000 0.000000
322801626063458012729354571658059952606308584293397018787211404437872121269452800.000000 171738815943638824805570962862223652531400221171916199942831359688474980398399488.000000 0.000000
0.000000 0.000000 0.000000
-416588401503416861181671629688828902896546733281726679933633139107748282743390208.000000 -1045716395637892844329562049874913169565515839129285318423018545615032232336949248.000000 0.000000
-1045716395637892844329562049874913169565515839129285318423018545615032232336949248.000000 601709177569577449267040149153099566635420578594769925546194047829810426213826560.000000 0.000000
0.000000 0.000000 0.000000
-59203701340183514416698909140102080562393300019152017066155684588997160745304064.000000 45716904548480223936911205032173177982935582496616690879309828342669506502459392.000000 0.000000
45716904548480223936911205032173177982935582496616690879309828342669506502459392.000000 6730769565703264759283505127256103261079096185502370541903042021154922455629824.000000 0.000000
0.000000 0.000000 0.000000
68924767852807407116819315375505037775960678666630156040728949472609917791633408.000000 -2919495603686588541190518642362030631791617112789720496844548380220982237855744.000000 0.000000
-2919495603686588541190518642362030631791617112789720496844548380220982237855744.000000 96202373110837491551287926955913620523382372812702603821119112199942396968960.000000 0.000000
0.000000 0.000000 0.000000
17596006321373185720606893548452209895547664248423637810904641803599252845232128.000000 -18613893949775877033812950410444923289190569174253991490023273893648047005499392.000000 0.000000
-18613893949775877033812950410444923289190569174253991490023273893648047005499392.000000 8012975985235671485684794865762360538970982196486461284210200400542511285665792.000000 0.000000
0.000000 0.000000 0.000000
507560327563133856494899066310258841005697974732550550548989254043340060902817792.000000 -530124767426077572121531148898094334606860627505287676788918726690840915499548672.000000 0.000000
-530124767426077572121531148898094334606860627505287676788918726690840915499548672.000000 230144104810644689621612675259408656954311380772426238315597929584644838658146304.000000 0.000000
0.000000 0.000000 0.000000
-655435606889250606556141524027815354995412743495469950199843423091061449830694912.000000 -168130748706638548416881162826128006287096510198412687378184971705490017047543808.000000 0.000000
-168130748706638548416881162826128006287096510198412687378184971705490017047543808.000000 70088106206441768658201907904412336050005056895564374962346063407939008709263360.000000 0.000000
0.000000 0.000000 0.000000
-142423672557602259724617931805020048545295274614165868905678300573476970643324928.000000 -203202181537462032712189970523397670545501675256012753997554523395295869914841088.000000 0.000000
-203202181537462032712189970523397670545501675256012753997554523395295869914841088.000000 119703962196796251644802505259827598316708662103309937994880354817235827430522880.000000 0.000000
0.000000 0.000000 0.000000
170873298931219165505036241629503422156953697217581596381297343755525126306660352.000000 -605036029047793222073768953264408068187642463677038746491484279614426563743842304.000000 0.000000
-605036029047793222073768953264408068187642463677038746491484279614426563743842304.000000 311311411103052899104957394062001053002214504230231243223736646175439296552501248.000000 0.000000
0.000000 0.000000 0.000000
135288787756833174856695716206648056111196810650013349173104678859234565362286592.000000 -138045542716130126408783824366023826013389374738780122529178981613188269660438528.000000 0.000000
-138045542716130126408783824366023826013389374738780122529178981613188269660438528.000000 61604650412459814826805395502970822711084005870003709661710774166836331637899264.000000 0.000000
0.000000 0.000000 0.000000
-5558425016638340631883328527152956556317187480558731812912903584181098669041254400.000000 639649269870767088706607636537333874806889514207304655319957521086443449059639296.000000 0.000000
639649269870767088706607636537333874806889514207304655319957521086443449059639296.000000 136998057622267303134525131236855503134649471394049425796798971722526062175846400.000000 0.000000
0.000000 0.000000 0.000000
4568329762240853774099914511792929780614033901495360948695952732644076586795008.000000 -620986237218167667842120640261914004161170813800403036599293581867625064469364736.000000 0.000000
-620986237218167667842120640261914004161170813800403036599293581867625064469364736.000000 350870682564434686665748277505283677046800622437940499197302839198350934127149056.000000 0.000000
0.000000 0.000000 0.000000
-110815909439914507271776060937456321284615311716181446893471617134332175634661376.000000 -265209114892071042423647857223674303342906178281654885466278086110939758630797312.000000 0.000000
-265209114892071042423647857223674303342906178281654885466278086110939758630797312.000000 160416819764675851014020482213624808684279072872223615214745541275358868992425984.000000 0.000000
0.000000 0.000000 0.000000
-1989323894397119505434951338413408398755218473942182667027357016735396464332636160.000000 323372449507381300653017183923416339276265542251654878197424202325232408953094144.000000 0.000000
323372449507381300653017183923416339276265542251654878197424202325232408953094144.000000 91568261213752369455765309666861856607715285093444072777490618294222688238960640.000000 0.000000
0.000000 0.000000 0.000000
-1353679354651028527373827041511554480718342751154696933028631977310011552432128.000000 50015701861155618280715962497279221737588169850073100712431080480750976192479232.000000 0.000000
50015701861155618280715962497279221737588169850073100712431080480750976192479232.000000 28194075342576315784954077152065428226185698897559409893925276109752654138179584.000000 0.000000
0.000000 0.000000 0.000000
472479270420307115836134696312235848411590213899124179035709967613398196514979840.000000 -43590761325141403553195597906928221501139884398513327804718769807141107360858112.000000 0.000000
-43590761325141403553195597906928221501139884398513327804718769807141107360858112.000000 6631392856068423473867407503049454230722388230344693703847904679726326784983040.000000 0.000000
0.000000 0.000000 0.000000
-42028526023847519879806206072662406635777422864537959933149801899248402996712701952.000000 1600045002944180438877190219341079369735395098200421727099372745641592655783657472.000000 0.000000
1600045002944180438877190219341079369735395098200421727099372745641592655783657472.000000 141704490113731883643177785869761211052297529415499999242626970377765519561326592.000000 0.000000
0.000000 0.000000 0.000000
-171030276423235439746064737808534815816968796308581689995267042769798013336420352.000000 -65533308441397781774074248454616032823898684514504551100052271864590747966636032.000000 0.000000
-65533308441397781774074248454616032823898684514504551100052271864590747966636032.000000 29922841111145867855941512071182380500396784971163150750848947932095623527923712.000000 0.000000
0.000000 0.000000 0.000000
247189310241459856141520698893476128506754335716590780038802302056128474372898816.000000 -20900818187038860889125478112377898113433562204406678173391474550828006528516096.000000 0.000000
-20900818187038860889125478112377898113433562204406678173391474550828006528516096.000000 3878744867997524368410181308373892867571385527549325616340147618100821100593152.000000 0.000000
0.000000 0.000000 0.000000
394207931199772437369977906398565812514004581793615315560008914753227699102154752.000000 -364392138966717919953504800871886684715877564116170740437079286547314564508155904.000000 0.000000
-364392138966717919953504800871886684715877564116170740437079286547314564508155904.000000 148910286974376133048270717259186118454060044605327292057745538528519443105972224.000000 0.000000
0.000000 0.000000 0.000000
105696595093314334459093822625759202632530619215456487743919880830452588844417024.000000 772821730596300433963448855125283788416240585468762931450888980831773501595582464.000000 0.000000
772821730596300433963448855125283788416240585468762931450888980831773501595582464.000000 420692453676575912905046903707691142520768961370022045396008777792631999645614080.000000 0.000000
0.000000 0.000000 0.000000
-7884261712558277770051018732336552815499225964528076811164319061734706346675142656.000000 1465648905021388986755022053235913714458738084072267947626707959398208783828123648.000000 0.000000
1465648905021388986755022053235913714458738084072267947626707959398208783828123648.000000 459942298615801031031636371623439927663529902980220086167721416422469574791790592.000000 0.000000
0.000000 0.000000 0.000000
19988569738200244365602585692227927557598246003267581931697341808294690736308224.000000 -49701584729208671784934122032130915735756779079005695676360093896858762284630016.000000 0.000000
-49701584729208671784934122032130915735756779079005695676360093896858762284630016.000000 11742386395364483366597815299135744415654812667923781110612246721594119174488064.000000 0.000000
0.000000 0.000000 0.000000
57861521530179593112309842690617011931806394089149076317571445755386031759163392.000000 181301852269122569430032734173707312964203205659175367476666571836264547092529152.000000 0.000000
181301852269122569430032734173707312964203205659175367476666571836264547092529152.000000 95085301139547876217174570617569520963144573618288874761047082700815864652890112.000000 0.000000
0.000000 0.000000 0.000000
-873984455144183556732695949202792006206352959087655637113272491401303122505629696.000000 -602100088832946882066734078589355467739134958272254935005185401406876021308784640.000000 0.000000
-602100088832946882066734078589355467739134958272254935005185401406876021308784640.000000 329338415089659558289008227800755865000954594210725490458606958813841864939012096.000000 0.000000
0.000000 0.000000 0.000000
31376862131713809067525455420880897371444148021178368505959865792121676668862464.000000 22140245649948416442625178961557538112735021425277080251128805505988914810191872.000000 0.000000
22140245649948416442625178961557538112735021425277080251128805505988914810191872.000000 8031594653869084035140805702909934304836269005528074497526669286256604635725824.000000 0.000000
0.000000 0.000000 0.000000
184537558829803845914149210091134872139180023490356593070585747714576147648872448.000000 131706381760719580449264919855094596453907079058320758377665714611367097409732608.000000 0.000000
131706381760719580449264919855094596453907079058320758377665714611367097409732608.000000 49984380346836497180848398278700012956181943693793087152637463921681893970411520.000000 0.000000
0.000000 0.000000 0.000000
-399028794623711509483748764115259518938218034812845862316005830444021504840564736.000000 -476207155021547940109697122937032026273809447830238083060178152845340459812257792.000000 0.000000
-476207155021547940109697122937032026273809447830238083060178152845340459812257792.000000 285931965377374731250859840483464970306874903684616102717876271997833300622180352.000000 0.000000
0.000000 0.000000 0.000000
290712744684178841663822224280807328243796684803618285480957879133637367784538112.000000 70343312854478704369461444778322675472045579340363298614754963120654292843757568.000000 0.000000
70343312854478704369461444778322675472045579340363298614754963120654292843757568.000000 11745236254153925838303471694252960492247313717606680860102236006185733770444800.000000 0.000000
0.000000 0.000000 0.000000
-149089369001096767402546780855825001127856024005186109119946341813212235593416704.000000 -264337025107619203175136521084680765072318820041086573997302885794762390348234752.000000 0.000000
-264337025107619203175136521084680765072318820041086573997302885794762390348234752.000000 188165883165215841199169135122534319079199704380660391491952612520501798674366464.000000 0.000000
0.000000 0.000000 0.000000
15015466493674704162239592647962992635840501427836333761458516805132017815519232.000000 -15474547388449334845595466096564540508557916790336402219649570843717252073652224.000000 0.000000
-15474547388449334845595466096564540508557916790336402219649570843717252073652224.000000 6599053283674701309874628822021162546538130998354966999307981469471787079172096.000000 0.000000
0.000000 0.000000 0.000000
10344487821915597565952210573727405520955770768062441280805550291858361098960896.000000 178308592571178465611663321399861466576275776849624258348171968306273313326366720.000000 0.000000
178308592571178465611663321399861466576275776849624258348171968306273313326366720.000000 103907527046330228787931863393254141611776428356593825088230361795838222926872576.000000 0.000000
0.000000 0.000000 0.000000
9356046546855122384511840952565940628106006836349985777241833980239003758100480.000000 -143424070027656526527732332384950560267563434683005853456851167177782172644802560.000000 0.000000
-143424070027656526527732332384950560267563434683005853456851167177782172644802560.000000 79265244394419039721248387099180679663854028223935499436721513787403438454210560.000000 0.000000
0.000000 0.000000 0.000000
-16125663564198043486418981561997555420615148857868595248299874004098211886661632.000000 -107432838482623799013653111052397264996558624541327197655595437345542658613837824.000000 0.000000
-107432838482623799013653111052397264996558624541327197655595437345542658613837824.000000 74872015217555570882497425901138192550393948508333878658138130664902316125061120.000000 0.000000
0.000000 0.000000 0.000000
732441863423331575585950926048141443491309145775228118427527711029202819771006976.000000 -574996213436102087145858444569125600351354728008477548800276541556176696532533248.000000 0.000000
-574996213436102087145858444569125600351354728008477548800276541556176696532533248.000000 219746064332995811358683036341306148947812428458536441155010417599651357365633024.000000 0.000000
0.000000 0.000000 0.000000
-4606749668986027477557809040031156511363658957813254587089098773163456172677660672.000000 -662399481679867337252377415160295161393484911315277943681827017024857391971172352.000000 0.000000
-662399481679867337252377415160295161393484911315277943681827017024857391971172352.000000 170926306283605362932986885397397657067846383327331407580518799838219405608615936.000000 0.000000
0.000000 0.000000 0.000000
-200847614470295291868562303391816783074066864405450111733855208097997033475932160.000000 397266478768282267362071644077643300957848895084647479829080631728227032189894656.000000 0.000000
397266478768282267362071644077643300957848895084647479829080631728227032189894656.000000 211618271065337989719339644330030405957037378199613891178228544994138811468349440.000000 0.000000
0.000000 0.000000 0.000000
105767861138574311923250611465401554900755403747208846185806704687447409017487360.000000 167754786634278719816835346634422489402541366118097353126226415877567945967140864.000000 0.000000
167754786634278719816835346634422489402541366118097353126226415877567945967140864.000000 82558984610865312393177165606954850247892033235987206124391302497822968083644416.000000 0.000000
0.000000 0.000000 0.000000
222557593734746796758246989126561245494154212536049027001452145904483007322914816.000000 -927894484944548929923073543044379206485345890363604705112324018449719231470632960.000000 0.000000
-927894484944548929923073543044379206485345890363604705112324018449719231470632960.000000 494742357028859507842678542989356197880582662890649681040268656913737419180736512.000000 0.000000
0.000000 0.000000 0.000000
907079709879449548656261232466653822875191436347833291306871758450931741021437952.000000 -797087385820254605811045113003825378907506407753747497618587148837481677131350016.000000 0.000000
-797087385820254605811045113003825378907506407753747497618587148837481677131350016.000000 318678060541531296162991300009286200625782873655739767408614899965396458361847808.000000 0.000000
0.000000 0.000000 0.000000
7492732071715008632878575157678115200779041758422474143797178042955426158346240.000000 -6933960170303808062092217422966429052857868135701869516972671765089272106844160.000000 0.000000
-6933960170303808062092217422966429052857868135701869516972671765089272106844160.000000 2969846894434475355920004261566763265854450150023796724379653380731572053868544.000000 0.000000
0.000000 0.000000 0.000000
105614266151185890766663506397837025597424017519998986146437098266391661495975936.000000 -451125772450187569394193035736916726328239069015929596156788817092151731833274368.000000 0.000000
-451125772450187569394193035736916726328239069015929596156788817092151731833274368.000000 264589878926022599968077128182765480786558981367498434095944106982255521062453248.000000 0.000000
0.000000 0.000000 0.000000
28590910345902986697091185549016887960935062634676891184796988314803276812910592.000000 59608485067640555041591064050110078727893215620392675596128003101442356591722496.000000 0.000000
59608485067640555041591064050110078727893215620392675596128003101442356591722496.000000 30369650285725831578668297832672138160882514589282798491343102093987914128031744.000000 0.000000
0.000000 0.000000 0.000000
446747813911591293749815042455412152909201597156674150697920132853407896517476352.000000 -267768537633222456725628451755179726640768491322392473286453568909475650685894656.000000 0.000000
-267768537633222456725628451755179726640768491322392473286453568909475650685894656.000000 88230647055000773929906462925961487756855011674339469236654347420356082132844544.000000 0.000000
0.000000 0.000000 0.000000
115754299935251136254681544366197656138157602876264296500748426699417420793118720.000000 -319957740285942587384107159904716434849807181813660919092453976436265757737746432.000000 0.000000
-319957740285942587384107159904716434849807181813660919092453976436265757737746432.000000 165320158856742241100041754852280123760281245360834978140488236871532884434878464.000000 0.000000
0.000000 0.000000 0.000000
-10542166261480563559380134226512914943996116601986410442409795041938871546806272.000000 -239198038966670352536679002814615428752102708597170183172464836740596240406806528.000000 0.000000
-239198038966670352536679002814615428752102708597170183172464836740596240406806528.000000 133987928006330114400574519819452569166699667601423486724526257755644520214560768.000000 0.000000
0.000000 0.000000 0.000000
-6922774795688143777357339858484709784267649853564647611849118099060967925088256.000000 -76514774116612936708925500214690080096860298793652271441821119570215394328182784.000000 0.000000
-76514774116612936708925500214690080096860298793652271441821119570215394328182784.000000 47168722386545435973906549687188864414774712488016510017669994066245607325958144.000000 0.000000
0.000000 0.000000 0.000000
500617208859539938098242806221381610319367852511509310007873588290584292028841984.000000 420972770221443132515443549834800424799881375134377984771982562309036068164337664.000000 0.000000
420972770221443132515443549834800424799881375134377984771982562309036068164337664.000000 165637740464879428045246033136740201953368854172523504463071809287318930800508928.000000 0.000000
0.000000 0.000000 0.000000
-18365760862609945409872474136614860640333503492806799889403993945839126240559104.000000 80537146438646147220009914531044224148336186666880630252710351273776439531405312.000000 0.000000
80537146438646147220009914531044224148336186666880630252710351273776439531405312.000000 45765627535855429360735935411471323373583205941494772746581808862126694234849280.000000 0.000000
0.000000 0.000000 0.000000
-1885870929792403648387380643022431951946291305868582441963610459561614667876925440.000000 -194025614097256206920061110666703673016737303492194686773582521096900642131148800.000000 0.000000
-194025614097256206920061110666703673016737303492194686773582521096900642131148800.000000 37657801336868907222108478150614213928738602872671014319286201943309254112837632.000000 0.000000
0.000000 0.000000 0.000000
-9102645977313863512722964543072831361158204030316327411059775941439398520815616.000000 -66888155948459900423738724887632852086515230701030538614826234070401400833048576.000000 0.000000
-66888155948459900423738724887632852086515230701030538614826234070401400833048576.000000 39018032131951094626967230126078781445381765075385688684624965740436803077275648.000000 0.000000
0.000000 0.000000 0.000000
-303525500830716542335893051452075970451571001883658679661846446631675864522162176.000000 332674102402960385985582325219022938157440874548395440941632850288206600520859648.000000 0.000000
332674102402960385985582325219022938157440874548395440941632850288206600520859648.000000 190412994391387699520729828745281458908600857851757159257802225727988119623434240.000000 0.000000
0.000000 0.000000 0.000000
-92007931552856399409378959795104632264476648497572711024106738787301353246949376.000000 6058813607187185599936482732596594735420712682708277867588259954072722245419008.000000 0.000000
6058813607187185599936482732596594735420712682708277867588259954072722245419008.000000 806561280458119518453817983160284113877533469123168419130469811980325290508288.000000 0.000000
0.000000 0.000000 0.000000
-25187110961161469986357297468232502843233577536701784866607175338680038365069312.000000 -165119304316255189794010171715029748277996634186489492825306826599160856300224512.000000 0.000000
-165119304316255189794010171715029748277996634186489492825306826599160856300224512.000000 93485295704585551815942546578717977173870696787471589845322264575285517829013504.000000 0.000000
0.000000 0.000000 0.000000
144110407414286668642872848356905245670377930261262887082165118735335730528124928.000000 -111138201607243004680641987685117299822009911884055582516101854804969930583179264.000000 0.000000
-111138201607243004680641987685117299822009911884055582516101854804969930583179264.000000 46980991555905423268692828211690539376227034566491701458432505321556320383401984.000000 0.000000
0.000000 0.000000 0.000000
-902147394490826260713452602898256557535967795344225701838771740643395292591292416.000000 650243900111140168495890146500980943174438125897752086141996778583454614881828864.000000 0.000000
650243900111140168495890146500980943174438125897752086141996778583454614881828864.000000 358051275950224405355113736171035625470876457598533003574560433238884439988109312.000000 0.000000
0.000000 0.000000 0.000000
1871547917150183023280946066715082867361782389377670778745180366533522925090242560.000000 1104747945697530473949072845015373979585214018208631215991614662743372305423925248.000000 0.000000
1104747945697530473949072845015373979585214018208631215991614662743372305423925248.000000 355035767769606889191906004183266584898458236109776130729455492607202385868095488.000000 0.000000
0.000000 0.000000 0.000000
1306565894376415390416609894959261415133943928194976978598617814278247840464502784.000000 -481340199990073928848476862480522610864089764746881520398518259565729705111846912.000000 0.000000
-481340199990073928848476862480522610864089764746881520398518259565729705111846912.000000 110161477252289201856872076271448607891243648719565986209130868954095400198864896.000000 0.000000
0.000000 0.000000 0.000000
-262895670623388516775224307794791154030757942414987944831578905660094549065728.000000 1518098219341956172379729811401352084189026722045225667174495420683003084406784.000000 0.000000
1518098219341956172379729811401352084189026722045225667174495420683003084406784.000000 861137328672139939967850159967285629984535204129214228455080306998135251533824.000000 0.000000
0.000000 0.000000 0.000000
3233129845753857204488604522047942027722171527093358526885766050198864885972992.000000 -1696335171840697378097177794591777181608360337550978480160226323700137639018496.000000 0.000000
-1696335171840697378097177794591777181608360337550978480160226323700137639018496.000000 512275624432035527244344497127567742602820960766208519246886824899997381689344.000000 0.000000
0.000000 0.000000 0.000000
-478112948961229845896752048756540370982098852048918390002155187891377584503521280.000000 685714796266095488392848188023703980299892039858686672901388238280012835919495168.000000 0.000000
685714796266095488392848188023703980299892039858686672901388238280012835919495168.000000 395371783816733858062721250873164923381277168062538397885531579642832324063657984.000000 0.000000
0.000000 0.000000 0.000000
582783666282184236084446196966695063114918317461748498603808566042015408939073536.000000 227325888024871895114941314135932632993631410159278312340109192484213335582048256.000000 0.000000
227325888024871895114941314135932632993631410159278312340109192484213335582048256.000000 54330019702221659425384406882887965952687740580735158068057150479469540158734336.000000 0.000000
0.000000 0.000000 0.000000
44006657643608134685779418465687582331039197590696343095503179977611066877149184.000000 185189890982725299148146832030572967614737944104559117082349328672016059498233856.000000 0.000000
185189890982725299148146832030572967614737944104559117082349328672016059498233856.000000 98806263334329002238724534707216988474739332912493682200518783132489216086245376.000000 0.000000
0.000000 0.000000 0.000000
184750076255691583554211116610603092565861111321811051994769566439201612205391872.000000 19326417328159092852738059827822693444011524314910600823791640146847022670938112.000000 0.000000
19326417328159092852738059827822693444011524314910600823791640146847022670938112.000000 3072282039995498040820610561354236973949895204093016420547408587573201261821952.000000 0.000000
0.000000 0.000000 0.000000
87778931266293380330080564933995594321574367891356194717358141220786490696531968.000000 -217370533865449784185752366785085288575155310110637137639282410026066690816606208.000000 0.000000
-217370533865449784185752366785085288575155310110637137639282410026066690816606208.000000 111544697534417159121228320751199219423017359231167101617704421277646353466392576.000000 0.000000
0.000000 0.000000 0.000000
469576674320949487471461557402631028162022214321071936372075117297128776677720064.000000 294630280395606432692322186740308613978264335961179483130113325618885112098717696.000000 0.000000
294630280395606432692322186740308613978264335961179483130113325618885112098717696.000000 98360574150870297325167446086842202475360993089398433627683785722226803510083584.000000 0.000000
0.000000 0.000000 0.000000
1458971192567873211820509989190496304187023714189525196383916091089627885076480.000000 757810285807691118864054457374737649828927497821931080370691750453777862230016.000000 0.000000
757810285807691118864054457374737649828927497821931080370691750453777862230016.000000 224967948591382845274239318966941283650879339047837265695326916474533404737536.000000 0.000000
0.000000 0.000000 0.000000
-635765714032226306526327976322870104829947522707675292848993347614409248856866816.000000 -216739079692587846280598413574067186402666706870692702858473407513267445711241216.000000 0.000000
-216739079692587846280598413574067186402666706870692702858473407513267445711241216.000000 96808156322518373447817121582727769192413005125917380381569020215101105591287808.000000 0.000000
0.000000 0.000000 0.000000
-12005773141281630717785619218630899179105696314799578627597333358969261634168553472.000000 -1372077457312563385486924700197119150337926155663593502675560585026063290895171584.000000 0.000000
-1372077457312563385486924700197119150337926155663593502675560585026063290895171584.000000 295283699578187866944782426173056473501266741811101713464204583666381498311770112.000000 0.000000
0.000000 0.000000 0.000000
203685596229018446027299784783123506078986940188570812597062328335700565677834240.000000 -52422163051788670975714563580935345370843991006035390685496895599390201703563264.000000 0.000000
-52422163051788670975714563580935345370843991006035390685496895599390201703563264.000000 8184658154500260556638685053925432395786729883362167926503648673683846750797824.000000 0.000000
0.000000 0.000000 0.000000
-287494554267291418051205099599095634565634385938833412769089549159650374157598720.000000 -395144765577533352856257487685552527480705687225798281628149876616039724304302080.000000 0.000000
-395144765577533352856257487685552527480705687225798281628149876616039724304302080.000000 227660722787772119462352139700180684183831976459441559558865526167187748361863168.000000 0.000000
0.000000 0.000000 0.000000
84539244685744163239123689911204479106064269557548034742188672683386328154374144.000000 333292138432902839626468480412060116878095670777330107764943242334710008645681152.000000 0.000000
333292138432902839626468480412060116878095670777330107764943242334710008645681152.000000 177189195716748279702639673289453959898021248538023578610091474438554750061379584.000000 0.000000
0.000000 0.000000 0.000000
90929510456425254206519591931590556301068522088720603150634943387360807993999360.000000 49057952452143274048460771226374629426420950149596985068406788969281258333929472.000000 0.000000
49057952452143274048460771226374629426420950149596985068406788969281258333929472.000000 76361701491622484322735946158325256734086252965594761079464716945482725241913344.000000 0.000000
0.000000 0.000000 0.000000
7968236121957450862772574900985092869900583544470184872386532454595667251167232.000000 18496538978239359120252764895549247494390160051231832937923274847161868565348352.000000 0.000000
18496538978239359120252764895549247494390160051231832937923274847161868565348352.000000 30304712056116459230972023345653326685698418910087033467678331218232221531897856.000000 0.000000
0.000000 0.000000 0.000000
193576600074587771973522945442332822525408269539684140477816395680477035817336832.000000 295835551737974043418446672518637060915572332714779152444247035904360153274646528.000000 0.000000
295835551737974043418446672518637060915572332714779152444247035904360153274646528.000000 140844996545618362921464895903429233358182108454822951443528094617570188212568064.000000 0.000000
0.000000 0.000000 0.000000
-2267592200544802824741046130778026202737157187421863766841316753685542330171392.000000 -2360253518298451327417444840487164065670106421850153841118264371636715588157440.000000 0.000000
-2360253518298451327417444840487164065670106421850153841118264371636715588157440.000000 1347806517250008376419326018373143692995222024914775374773868351678996709113856.000000 0.000000
0.000000 0.000000 0.000000
1653903978578714023869552306725441078192642153903179692690469478385140561254285312.000000 986532212421526993240372823174139231605671629233520252027976975387290482681839616.000000 0.000000
986532212421526993240372823174139231605671629233520252027976975387290482681839616.000000 319375418713305484072231027295936095579430826096583094918629369505591229765648384.000000 0.000000
0.000000 0.000000 0.000000
5596635681800855101887712878203502331490271990587658373703857255717040960412057600.000000 -1100889864574843835184501266307061313241088605995982321988749079270814022746767360.000000 0.000000
-1100889864574843835184501266307061313241088605995982321988749079270814022746767360.000000 166011733668975760931970554274118967405911029752861941894859941502657603773136896.000000 0.000000
0.000000 0.000000 0.000000
80404165241315319683185201458617654951494104038478651782356727454410025738436608.000000 -68404995359028737065294563404509187443841389894961292793508182083847634143936512.000000 0.000000
-68404995359028737065294563404509187443841389894961292793508182083847634143936512.000000 38875118427450633570404699264746678143771652389861546531692816159620937623273472.000000 0.000000
0.000000 0.000000 0.000000
29570736562820895307218846483215721249315034451460629330434895854436352.000000 33029977048147610642479240774253920121747737505169408709582679527391232.000000 0.000000
33029977048147610642479240774253920121747737505169408709582679527391232.000000 15098716238292168185847546370332330551756432934217710476361592289099776.000000 0.000000
0.000000 0.000000 0.000000
1677581879913600802824648689347991246206452134335456916605202252081559341367296.000000 1734886890389151481028644333354729104165153020568040290759172460718847699189760.000000 0.000000
1734886890389151481028644333354729104165153020568040290759172460718847699189760.000000 783163840043006083369424617657943301638638306249264545685719098712611696410624.000000 0.000000
0.000000 0.000000 0.000000
50575120569019332949675132770548064686000497878681713898345179105033080644042752.000000 24336805550706645832589259299641957259415655530405602071374409524380227384377344.000000 0.000000
24336805550706645832589259299641957259415655530405602071374409524380227384377344.000000 43891497682094262709767025402827297584451766076959513655250834506492864620396544.000000 0.000000
0.000000 0.000000 0.000000
266541206761954161062357913337553067027366152128205328674753905617576031995035648.000000 -184667665960699724195823032692061232698922059938934820863869463246193045211709440.000000 0.000000
-184667665960699724195823032692061232698922059938934820863869463246193045211709440.000000 66214115827799572792052119509582555122167247579592736597692630333704522749181952.000000 0.000000
0.000000 0.000000 0.000000
-1093417377668731575773916048898791659514598352415569833525786574221932336773070848.000000 -269928404726532677291886359267614971251441461294920117154064006649633146067222528.000000 0.000000
-269928404726532677291886359267614971251441461294920117154064006649633146067222528.000000 96370056104262979177771629177466046352719461995793286530349960359157375998885888.000000 0.000000
0.000000 0.000000 0.000000
426230919404020405027657124238790353440934472743644921496398571392046624541769728.000000 206896474037190608045091924903058485678130195168033498613376923146481562223116288.000000 0.000000
206896474037190608045091924903058485678130195168033498613376923146481562223116288.000000 69820154743006191766985907590979447422836670786132265266315593803639705412042752.000000 0.000000
0.000000 0.000000 0.000000
472454875419477147873766503108907688795155995746783913492309082112.000000 -2036346937890948387407749457798083653841429854574132257684493172736.000000 0.000000
-2036346937890948387407749457798083653841429854574132257684493172736.000000 1087914952194922903646254084608663546752646109996261499842664071168.000000 0.000000
0.000000 0.000000 0.000000
-73763905050758805610911713869262579703592439883635801888276496036771811492364288.000000 11305366075117183871600031296135255517862701630359760549582728005593134429896704.000000 0.000000
11305366075117183871600031296135255517862701630359760549582728005593134429896704.000000 2962648427954460461962259498574163528804794774738702649777622945823355928838144.000000 0.000000
0.000000 0.000000 0.000000
80256644064383954049024084762842233191531256682503379385813697929272622802010112.000000 -391204808928638903220263539626492193784804897415622909050410118181997966006419456.000000 0.000000
-391204808928638903220263539626492193784804897415622909050410118181997966006419456.000000 210190693316693737567288948162586521064802687244476499564882945285643036994306048.000000 0.000000
0.000000 0.000000 0.000000
-598086831656403223778719397303185891047510192086441478965197865817750046840455168.000000 -484847320861696260047431842613403579214596579337543963160656228011940813733888000.000000 0.000000
-484847320861696260047431842613403579214596579337543963160656228011940813733888000.000000 270846014594974282641234428358367699654843959519965214674550846992679691268128768.000000 0.000000
0.000000 0.000000 0.000000
-34594914437708032205849472537711567525305707891781112801409182559064111024439296.000000 -271671631812927604406715310960620793107519217312881801265370441511975035561050112.000000 0.000000
-271671631812927604406715310960620793107519217312881801265370441511975035561050112.000000 153414661215570921353515909712276769225641783468873826725352074646618346159603712.000000 0.000000
0.000000 0.000000 0.000000
-2343262907522232813880482675323712629217205466136377261719440176701853449154723840.000000 573220124558398805603389717743690689639326744698562992191325736656292960855392256.000000 0.000000
573220124558398805603389717743690689639326744698562992191325736656292960855392256.000000 215547545861290018592106900741004985541264918277423344245990962447634468672897024.000000 0.000000
0.000000 0.000000 0.000000
101124032977844492373108850803145684952383028419132437468897781096356594472452096.000000 42049531978856007916420710949705256466237179822011577682882509657858562745958400.000000 0.000000
42049531978856007916420710949705256466237179822011577682882509657858562745958400.000000 10538154706196151018408948339279614167164771195008773950624058406903008762789888.000000 0.000000
0.000000 0.000000 0.000000
410678452881483868122979687550806903644904916306948978516176165971488738247704576.000000 -61512296802766745353261181098804748396620209210283215812087294999852258215067648.000000 0.000000
-61512296802766745353261181098804748396620209210283215812087294999852258215067648.000000 15565118445318496461421891145027527357177785732714138172713554184665327130902528.000000 0.000000
0.000000 0.000000 0.000000
10787001943403011936956167893972450067025254759957667307122755784466900809940992.000000 -38959242892354043865323777021186507446001384522606676199893153669026931581911040.000000 0.000000
-38959242892354043865323777021186507446001384522606676199893153669026931581911040.000000 21327453549722244913132077664422723671381573293286182615664708167273425871568896.000000 0.000000
0.000000 0.000000 0.000000
627391360348815438863622833891132136168487331540428149712569836710693803602739200.000000 466656618671803745383427315298608476733626491470461170211336234586694893952827392.000000 0.000000
466656618671803745383427315298608476733626491470461170211336234586694893952827392.000000 172003547996616912101364483553557766992793253578377503493371645357449522842697728.000000 0.000000
0.000000 0.000000 0.000000
-238392019438989431613247787596006095985936757031185054420661897429437456156983296.000000 -589250744188303405402964789336906508986917691006709924481866507605320562829688832.000000 0.000000
-589250744188303405402964789336906508986917691006709924481866507605320562829688832.000000 352910682220445145766160646591013993557922131448696770533183984191783975381893120.000000 0.000000
0.000000 0.000000 0.000000
35363167829002241442787794137240495452200629422728508116145788514222288129753088.000000 39774223945776935159370867583046741776417647980939992176743662266291071456641024.000000 0.000000
39774223945776935159370867583046741776417647980939992176743662266291071456641024.000000 17486571658161858783782235289031156213433831419409659573888617443078912985792512.000000 0.000000
0.000000 0.000000 0.000000
371506178016376741806351630558013875918670361766095537620857439094237867519508480.000000 -393157837056074435688785196268476742932563347583631742071047050369995333269716992.000000 0.000000
-393157837056074435688785196268476742932563347583631742071047050369995333269716992.000000 169222204907267441191511171371059479266111723640750490488899224521338292774371328.000000 0.000000
0.000000 0.000000 0.000000
-453961906195158572508541775072053068892532929951925430613171886504052707711457951744.000000 5661750378656073202897354552822459259626130555747901426730128183676827865706397696.000000 0.000000
5661750378656073202897354552822459259626130555747901426730128183676827865706397696.000000 141304270199728293601850960124212149171342547714498210886114123277762387278561280.000000 0.000000
0.000000 0.000000 0.000000
193344163097119644323863040838429097621878131394543854726598285850673739621990400.000000 -317421478256068358806694423204782679193758923049841626846155030083788030080974848.000000 0.000000
-317421478256068358806694423204782679193758923049841626846155030083788030080974848.000000 153417483408015677135911240946792365410724714619967537547002486585342869492465664.000000 0.000000
0.000000 0.000000 0.000000
413743277853461818012806568969842237030084331746904973565767009940387972822073344.000000 -302908868968499599784509519182270859697215027218994914415525049887274988182962176.000000 0.000000
-302908868968499599784509519182270859697215027218994914415525049887274988182962176.000000 110669976617640501113925098772520703490551159705936252148315371792451436514639872.000000 0.000000
0.000000 0.000000 0.000000
-228085402691707297878681051330569585256373713039911082857679674809743025316560896.000000 46265899447597167087452831502946379754460469625021186232402578782135520891764736.000000 0.000000
46265899447597167087452831502946379754460469625021186232402578782135520891764736.000000 6606563767722243256628204414768463294889992782995799685723268429699754322034688.000000 0.000000
0.000000 0.000000 0.000000
104660117296346375439169004087957692747068739120195861310884322080456603202486272.000000 135167569844406191399692676647964895566066557841334070770455508668449339465531392.000000 0.000000
135167569844406191399692676647964895566066557841334070770455508668449339465531392.000000 63198961823099763263834156773636810060104611616040195822320229087807768694358016.000000 0.000000
0.000000 0.000000 0.000000
150720217283617986308096434172749349028256022475481969372261982489384068090691584.000000 229621803498496907549501674355331067936170769844687148463616224491979809811857408.000000 0.000000
229621803498496907549501674355331067936170769844687148463616224491979809811857408.000000 110917026117469912535755328916590144351744984623428924501141297977479292048637952.000000 0.000000
0.000000 0.000000 0.000000
-110494659332981863343687595490955586534708765877240807599286176989718507539136512.000000 184083302950021919620124403817158493253364433357720735691346129905551094059106304.000000 0.000000
184083302950021919620124403817158493253364433357720735691346129905551094059106304.000000 106761337197668333808369152036830570696498671092241656044894243202350272714113024.000000 0.000000
0.000000 0.000000 0.000000
207684297747663452713481261991893426103024645774573519788772006617353013742796800.000000 77433610609856118681853557514675940057226561214634900043331491576215556635754496.000000 0.000000
77433610609856118681853557514675940057226561214634900043331491576215556635754496.000000 31387257447674045171549356943097949617386484540947014443397704584207552131104768.000000 0.000000
0.000000 0.000000 0.000000
-132011775144395183143793077503474138849203157760000765380243687793350773366063104.000000 423237106843033320524897636690042882503768761459731852499085245878496691734183936.000000 0.000000
423237106843033320524897636690042882503768761459731852499085245878496691734183936.000000 242197613943627344031404629493781565305434093547842803488755570741568652175212544.000000 0.000000
0.000000 0.000000 0.000000
-355652083194526721019412751405315344038473563159686531164877063953325785639550976.000000 -354890184171846259896878124252797920938858652981189419415357704882198760566816768.000000 0.000000
-354890184171846259896878124252797920938858652981189419415357704882198760566816768.000000 206552153654079868013803468985415562136974320085312153257848687150649220869914624.000000 0.000000
0.000000 0.000000 0.000000
-4850871024371112237431421247374557961007037148582957034058173347969899728740548608.000000 -1057408182283511114851514379684730877460345342777725463144611457530275304377942016.000000 0.000000
-1057408182283511114851514379684730877460345342777725463144611457530275304377942016.000000 366401943154049896415097481206817018933461014354666877737296118682595534479294464.000000 0.000000
0.000000 0.000000 0.000000
89746100106076216567374410898594896927467951530512595679488914855471082381508608.000000 -70996448282058395500420202436469570267047187685255360979612057506138508952076288.000000 0.000000
-70996448282058395500420202436469570267047187685255360979612057506138508952076288.000000 26482066551816120132733260603057868172666287018485566681489679602814187594579968.000000 0.000000
0.000000 0.000000 0.000000
-69735583707488623772093861591237471775079737260744074748633094414685576011710464.000000 -7408250066035821780802577832495636778673357155496749462620234093283444772569088.000000 0.000000
-7408250066035821780802577832495636778673357155496749462620234093283444772569088.000000 1484939231828831586989807235533430176787669410708013266493652836460299311644672.000000 0.000000
0.000000 0.000000 0.000000
39954167653402632162528871391634041319387297120411253564247240624075225916506112.000000 -21931970931696313852845623866422777761349000598859348919496166074469274146045952.000000 0.000000
-21931970931696313852845623866422777761349000598859348919496166074469274146045952.000000 10409201169826198158409225950452258417368408511763982979596488650839257444777984.000000 0.000000
0.000000 0.000000 0.000000
201067459265037653237531320398647782043101713094960895212473995818524008062648320.000000 195931636488752746822245229639054522383832563081366295025945943551831872381124608.000000 0.000000
195931636488752746822245229639054522383832563081366295025945943551831872381124608.000000 81860843674457770245632016057424055868008142894039224452628664370211374822850560.000000 0.000000
0.000000 0.000000 0.000000
231722950596801407199664636119326054967311374521145104961487874421032191430492160.000000 259757571042313649764325739373902242207575418998015412561844063403691564920209408.000000 0.000000
259757571042313649764325739373902242207575418998015412561844063403691564920209408.000000 114071939599708872717889061130031955308853520431550584082545114030846344270184448.000000 0.000000
0.000000 0.000000 0.000000
-990560173942047066143274158029325161508002587220343018717553333266704040300904448.000000 190698418304074279512966177584890153776873267153642143103291865352510898830311424.000000 0.000000
190698418304074279512966177584890153776873267153642143103291865352510898830311424.000000 66472077138919311564334941774626456402007738802300939944074284868091231980224512.000000 0.000000
0.000000 0.000000 0.000000
144582097696198201707777364672679721305508357027644468112842781422532588468174848.000000 149940730453036430925548610875404111023085300179295286190123449411490298334281728.000000 0.000000
149940730453036430925548610875404111023085300179295286190123449411490298334281728.000000 63986437739181735441401468047707814179687782364665362326305614749514583701979136.000000 0.000000
0.000000 0.000000 0.000000
-33486579998182477340665681946645772475390724277548579130419969424652788952645763072.000000 1954574763294841675947178480799915317721591188800210627667493916106727567038349312.000000 0.000000
1954574763294841675947178480799915317721591188800210627667493916106727567038349312.000000 224287114404484740096084133644406317163532275410464299200437462079324756589412352.000000 0.000000
0.000000 0.000000 0.000000
65944128148223430323150715249336413679027553953015854647771164522545339317616640.000000 -97838311562754015549359093377971667438336167415575198920907248391662570160783360.000000 0.000000
-97838311562754015549359093377971667438336167415575198920907248391662570160783360.000000 46362971982388726242365829348263088180639091474475010505579568207325431563550720.000000 0.000000
0.000000 0.000000 0.000000
-101899333430477823661115870028633792962872088148026353241052049539612444459008.000000 226899114462390189183265429248294215033032670153212909405718973646366790647808.000000 0.000000
226899114462390189183265429248294215033032670153212909405718973646366790647808.000000 130760470861920332209238168051626254001066790785762756390328204067760859250688.000000 0.000000
0.000000 0.000000 0.000000
1771984151360939090759814523621147017860050296610462204657352610305945030885376.000000 -419096086503358420183917152171397264800800034015654659712796865761728327057408.000000 0.000000
-419096086503358420183917152171397264800800034015654659712796865761728327057408.000000 63700158604020591845059368540654030833011709865525972581253971141265771724800.000000 0.000000
0.000000 0.000000 0.000000
12825492299566124852080863608187266078331610962843604309971288233145139174834176.000000 -14284761281319195624410703186300378277879697158836811248465495136838456998625280.000000 0.000000
-14284761281319195624410703186300378277879697158836811248465495136838456998625280.000000 6300343872014048446704332221136089098502268985193510469674011998681812814528512.000000 0.000000
0.000000 0.000000 0.000000
-3299884834489377405410635999226610903057075965973679335241114361929745941118582784.000000 1131675028833104779302047058115641015199884056066890879409479431453692652546949120.000000 0.000000
1131675028833104779302047058115641015199884056066890879409479431453692652546949120.000000 512073146548109268914290131706671994394446262794205155513822839237964914545917952.000000 0.000000
0.000000 0.000000 0.000000
58567699805271835543685608677698646784645233421689477775148292524685683612188672.000000 500458120571845235998229311712471431217009564463577968762692282025649188634624.000000 0.000000
500458120571845235998229311712471431217009564463577968762692282025649188634624.000000 73467980019638955205068850028848180156826948229071144726740046733404413100032.000000 0.000000
0.000000 0.000000 0.000000
949968308963740984685068514864016005498062672922401287721982068346287642858487808.000000 -82626769897194813149569244849965112811633040022699851647335128277128315651751936.000000 0.000000
-82626769897194813149569244849965112811633040022699851647335128277128315651751936.000000 5143734354663423934372830317573494969556163936211963757197480520016520913354752.000000 0.000000
0.000000 0.000000 0.000000
51792478145301708600117463325511873478437903413840803252243270914733239533830144.000000 260267631917872855875346435367701119010904137485879291893109111017715196265234432.000000 0.000000
260267631917872855875346435367701119010904137485879291893109111017715196265234432.000000 146127959834769564813074990100302366585833671709166814324718825574817679110307840.000000 0.000000
0.000000 0.000000 0.000000
192660831063131025483822096620991245544329878232934182703040663166326281338880.000000 -1660276872659317885770047604162367499742846170893632603470478344244491345461248.000000 0.000000
-1660276872659317885770047604162367499742846170893632603470478344244491345461248.000000 906482177341115903917907613400848543194037304919312692551292770119406910963712.000000 0.000000
0.000000 0.000000 0.000000
-180158480027169329887043379650608205580131520287805570578061396482030294374809600.000000 -153413556239460521285959408889944996387366995817343391033608845589568519606894592.000000 0.000000
-153413556239460521285959408889944996387366995817343391033608845589568519606894592.000000 86163082615560829506805165368130011167783823666559785686164880362926451877478400.000000 0.000000
0.000000 0.000000 0.000000
39059590699955871560090273094285869265242253133030136788234361927548589578387456.000000 17203998554275843323671610899442839453299742605865737135753710804445647377268736.000000 0.000000
17203998554275843323671610899442839453299742605865737135753710804445647377268736.000000 4544895389357209663430133145064346258578704070479795158912544227759966537121792.000000 0.000000
0.000000 0.000000 0.000000
163154498024856192182965536347681208665115348618630577139692367078933297327243264.000000 -14472537825343235915436574862721827447951464366969344668017868091932746532782080.000000 0.000000
-14472537825343235915436574862721827447951464366969344668017868091932746532782080.000000 1270125135264764819688151177011151604334307104320414171132508050463388875096064.000000 0.000000
0.000000 0.000000 0.000000
-14798080794402924745539247987841040416014247280000474379959135699321880970130358272.000000 695770659336054405086847592720994172949154521896594812897121891203518814918541312.000000 0.000000
695770659336054405086847592720994172949154521896594812897121891203518814918541312.000000 64680070069303229827555915105416007306563341605385030096521874148265812811579392.000000 0.000000
0.000000 0.000000 0.000000
436582954377696803857161917968250773053351826248679134952657490871093178151206912.000000 322410240148928778282577211721063059890153794155297990274800566849786846541512704.000000 0.000000
322410240148928778282577211721063059890153794155297990274800566849786846541512704.000000 118362668092811963086625356181956323643249909741624191684494996283647181690241024.000000 0.000000
0.000000 0.000000 0.000000
4952762080170386123126287138054874231232524561437804861848769307931272449884160.000000 184241953719513239524772699184446217507479577982576399848155539814407033755533312.000000 0.000000
184241953719513239524772699184446217507479577982576399848155539814407033755533312.000000 105665313749031154109481735233629687280312437893983889636146202211236909326270464.000000 0.000000
0.000000 0.000000 0.000000
-190110558323981051846415995915410055497509005089125272809188869665522868167901184.000000 457438116184511576277157994332261585920358052721699268500303879490668100556161024.000000 0.000000
457438116184511576277157994332261585920358052721699268500303879490668100556161024.000000 262336704931564773979371946058388718285993037292930731189835981390792389497454592.000000 0.000000
0.000000 0.000000 0.000000
116331867758760439193272372668143678247734295550770495874068447176201354700914688.000000 354698012902977861284804039465229940793161384886156806561063707586316549794824192.000000 0.000000
354698012902977861284804039465229940793161384886156806561063707586316549794824192.000000 186225537712818331295920799091209948493250429972953267077348159531416650392797184.000000 0.000000
0.000000 0.000000 0.000000
-175972361922199965919110442245070533331965155052989475766030459956527839484561063936.000000 2442270479845066488799279700459087014473383644227530003919347333474506064076472320.000000 0.000000
2442270479845066488799279700459087014473383644227530003919347333474506064076472320.000000 67741842496328910443654534577570405164595988104030945799892272092163714790195200.000000 0.000000
0.000000 0.000000 0.000000
121570177738558973466008740644383043496878069791412966575510084130694645808103424.000000 -57034775813723676800993175180841006435872666704585893345078148311387988945797120.000000 0.000000
-57034775813723676800993175180841006435872666704585893345078148311387988945797120.000000 15604258829317855726196602633083574045123663608651745898962174499676525193854976.000000 0.000000
0.000000 0.000000 0.000000
55533142860594560226716346480182867330204565227432595956807313096973803537301504.000000 -85029892636662534713650188432281134341783023544130450518335840545905926914179072.000000 0.000000
-85029892636662534713650188432281134341783023544130450518335840545905926914179072.000000 39501970096333963609469249610985111094984567645487477612892835695493599325061120.000000 0.000000
0.000000 0.000000 0.000000
61356114430006294068755158117202919419984732619844307334010512167561909535506432.000000 156641544727166411313305321870386901955202456678522219306696015172178833022386176.000000 0.000000
156641544727166411313305321870386901955202456678522219306696015172178833022386176.000000 66723044036996775142599739707450342210748504594232695426270067936247914845700096.000000 0.000000
0.000000 0.000000 0.000000
-660790123516124152701704495787777844965233393453449416330393696774538765703053312.000000 24165026214247913129891146936037049610925374508633713875433291971095625245655040.000000 0.000000
24165026214247913129891146936037049610925374508633713875433291971095625245655040.000000 10271042146513837155698572167340738255832181189808921864950021427303002425786368.000000 0.000000
0.000000 0.000000 0.000000
315277841792377501562449706767843166605804490196492631084453466036016988792291328.000000 -68250176856381571854047576399854878526562254371377402092542808161054993982423040.000000 0.000000
-68250176856381571854047576399854878526562254371377402092542808161054993982423040.000000 9592733142258915056444222839567496703325657078193793643700406347869310605590528.000000 0.000000
0.000000 0.000000 0.000000
175913248056699250526232767110647510912118063474404392681008889372268709382455296.000000 283540069945336702981634898374236749979785394975176061046241076124522902395551744.000000 0.000000
283540069945336702981634898374236749979785394975176061046241076124522902395551744.000000 139006061257668681796681189126442523476065600981306149442840412285552578330099712.000000 0.000000
0.000000 0.000000 0.000000
-113277466717734071905241698009439025655560955584995782871421204822385139159924736.000000 -131546303271936035620295364314591143456590276110618962155878890997001958530744320.000000 0.000000
-131546303271936035620295364314591143456590276110618962155878890997001958530744320.000000 79916233412918283692376038623267132597374805039921428659121506990020341503361024.000000 0.000000
0.000000 0.000000 0.000000
454482028533550536421464912449787747760904371295274195897082942220690780179136512.000000 -16160999694565921679299583768629262438236836543842094810171816817523203334209536.000000 0.000000
-16160999694565921679299583768629262438236836543842094810171816817523203334209536.000000 407445276765189885423872586392590663903022573234660471548370300065715471777792.000000 0.000000
0.000000 0.000000 0.000000
94182709543814706916713530841804272932345220282453636209892772828111130096304128.000000 -800350909860899042129746722423891144816846462971142283403091709160419798124855296.000000 0.000000
-800350909860899042129746722423891144816846462971142283403091709160419798124855296.000000 436974394707340577477338027589281109655639748455249377975875534997894045097787392.000000 0.000000
0.000000 0.000000 0.000000
18697765761224155322381285637949154918719107412921676189620284596674373324111872.000000 994711533520625128927858645349609276144444880840604978314006934370275123265536.000000 0.000000
994711533520625128927858645349609276144444880840604978314006934370275123265536.000000 52113628851651887192565595796087712766887367584582145253676837527510463807488.000000 0.000000
0.000000 0.000000 0.000000
-179568172181861130799626811292472557627134662847753551605526550349576862338908160.000000 14396046165197152953924423885799391278798113017323210304976359473353230156562432.000000 0.000000
14396046165197152953924423885799391278798113017323210304976359473353230156562432.000000 8228107005344371878657323602685362149740698308691365642644388705596447230263296.000000 0.000000
0.000000 0.000000 0.000000
55309004192351741827382312136312086055434183884700388565075140102324423044890624.000000 3908282108897648215229229038533801776040963278448327716789089348499337348382720.000000 0.000000
3908282108897648215229229038533801776040963278448327716789089348499337348382720.000000 393334271201124794252951200774804878811695671979429334851191420797537356873728.000000 0.000000
0.000000 0.000000 0.000000
134387299135894238037499844594201844254852335308479108097896439153206358815277056.000000 -50249378182429011557294847126298824327782126701196571353780960611532194678046720.000000 0.000000
-50249378182429011557294847126298824327782126701196571353780960611532194678046720.000000 11540988212504816081066818564987912326522733817689396148540884327547229091921920.000000 0.000000
0.000000 0.000000 0.000000
228027455215119633179768468581071824441247676164676150591318927556619698618499072.000000 -153243587068581696953285743805475718119256094573872085892020383200874594622767104.000000 0.000000
-153243587068581696953285743805475718119256094573872085892020383200874594622767104.000000 53814588110102624870289479438533154837591222562271406776138017705820709755813888.000000 0.000000
0.000000 0.000000 0.000000
99725766751722212301612382926533008256592628270545875734506056931100095387009024.000000 23825548561434283600612584763633859570898072357252382777797395402762782028857344.000000 0.000000
23825548561434283600612584763633859570898072357252382777797395402762782028857344.000000 3905076836218968200153055336777524258410698321735654946637460640268052967981056.000000 0.000000
0.000000 0.000000 0.000000
80624048825727528805702885794372182489389440721012112787427904361762682090553344.000000 -33766442113744259540886396195307323112800271407762256627621979904208641500119040.000000 0.000000
-33766442113744259540886396195307323112800271407762256627621979904208641500119040.000000 8523802961931405049000132838799190164997630832071185724107692616225985059094528.000000 0.000000
0.000000 0.000000 0.000000
-2166198255674253133197985546086892795296145901994472130567516963647391987700596736.000000 -1910042224706204369251985233426111730116463225742141224233570092504116986185252864.000000 0.000000
-1910042224706204369251985233426111730116463225742141224233570092504116986185252864.000000 1075999022194301588930882430651388972667895236237602281203286976071128907369152512.000000 0.000000
0.000000 0.000000 0.000000
-130532281237698413809881332482593603187824766775959976513264680494912920822480896.000000 14700242383787318685413193908977686115831943473509006199840162885451268396941312.000000 0.000000
14700242383787318685413193908977686115831943473509006199840162885451268396941312.000000 17703156965177524359975582710996328527672915610978241032934792963388037547425792.000000 0.000000
0.000000 0.000000 0.000000
36697724535920059918701561276099062981340814768659398755452216020438445539196928.000000 3721854183141852038713539142584185025440226397820630964050583769124378557546496.000000 0.000000
3721854183141852038713539142584185025440226397820630964050583769124378557546496.000000 7681032995475662261281349602706042657060070329364797490873822477334963919257600.000000 0.000000
0.000000 0.000000 0.000000
112497234657573204646013765909938242968187961034377571279013796072224337686429696.000000 -195560872665462732043728596957133053458778421108640070064194971565861914177175552.000000 0.000000
-195560872665462732043728596957133053458778421108640070064194971565861914177175552.000000 95588234562425214323642407524938070298128361880236424203792573800675945155133440.000000 0.000000
0.000000 0.000000 0.000000
-236467621615051670328418803841958703820819880375016207340031380137774004511440896.000000 558863019537413302688870369304677177967206782877013178337445071171985639252951040.000000 0.000000
558863019537413302688870369304677177967206782877013178337445071171985639252951040.000000 321830087086484622087489988485888716146617259909235655096760382661166383295889408.000000 0.000000
0.000000 0.000000 0.000000
950767896442446132339742484128230125672018822185526073475689864535591825623220224.000000 -166406480330391035999452833602653888356737606011987187096373152163537488231530496.000000 0.000000
-166406480330391035999452833602653888356737606011987187096373152163537488231530496.000000 19069663019557807933158310633606289316465892893801977262173498520621042811011072.000000 0.000000
0.000000 0.000000 0.000000
228039588693541968525688557742890535438010168662767657011654638073282514500190208.000000 -316598812440341724807136574717769137586175209752073017227632908193642480024944640.000000 0.000000
-316598812440341724807136574717769137586175209752073017227632908193642480024944640.000000 146067893827286632372288243911499326236205975735351011692559666894580546657058816.000000 0.000000
0.000000 0.000000 0.000000
-522683275279926287558396026482692370843233727921348669991074786375760092424306688.000000 194848320707953202010337776034237498797125020200156369588077790933524053653192704.000000 0.000000
194848320707953202010337776034237498797125020200156369588077790933524053653192704.000000 90468197006574618696298088395975137965937448903809249623099817690813874223185920.000000 0.000000
0.000000 0.000000 0.000000
101414339388753224776935020622488882479770784174155866524904061105685503737331712.000000 -70934757723279937478823600877543833762520263421676061811317311885730247589494784.000000 0.000000
-70934757723279937478823600877543833762520263421676061811317311885730247589494784.000000 26384432485410162538395226204745615495399475962926512741068513338388670297669632.000000 0.000000
0.000000 0.000000 0.000000
570825533204318524383884864730298367379119680941330102649162803308598661402853376.000000 314334551607486162103208582986069395383271889653475229459607617710977292982812672.000000 0.000000
314334551607486162103208582986069395383271889653475229459607617710977292982812672.000000 96738428078004817447995744691046689486165670326147828862183339952223137275314176.000000 0.000000
0.000000 0.000000 0.000000
-31847455740711593756103291530066521534980291066378114789101901514476316912517120.000000 6305654252474161819796569527810729968645557428088772228004535573778599711342592.000000 0.000000
6305654252474161819796569527810729968645557428088772228004535573778599711342592.000000 2046784045984883943662756741402146363427337661303687688693813328934411373117440.000000 0.000000
0.000000 0.000000 0.000000
-293775199967755163546126471657447458329257653556136454738370052189034630386548736.000000 24934889900481853903642566115986755358063574815264443581080440581200638971478016.000000 0.000000
24934889900481853903642566115986755358063574815264443581080440581200638971478016.000000 51429098501299669825591298511526918480395204692269019403772224155212641663451136.000000 0.000000
0.000000 0.000000 0.000000
54208363975483285117550827609965388678072634673601507928165584070058408341929984.000000 -134893832004687870867375102317387840770850178602399139524049859566078169008046080.000000 0.000000
-134893832004687870867375102317387840770850178602399139524049859566078169008046080.000000 80243585589418147442893966584164737234205699250665049051023003555162844022439936.000000 0.000000
0.000000 0.000000 0.000000
-220203754200535163826534068015459677262950164311539442958021728955329218806284288.000000 -595878580534768561209769908857850255947616024489887734594387431773336191071420416.000000 0.000000
-595878580534768561209769908857850255947616024489887734594387431773336191071420416.000000 336302902621112517355523636956640787989093596691193331360840110595255017922363392.000000 0.000000
0.000000 0.000000 0.000000
653206008709889193965224078327399397543583485720321105217104053017121977425461248.000000 -277485297847595790940582368406598068920228795642185875211069559313529363742326784.000000 0.000000
-277485297847595790940582368406598068920228795642185875211069559313529363742326784.000000 70425605402771255066742678137418650089107647516514920023918354701741712052584448.000000 0.000000
0.000000 0.000000 0.000000
587774981089151958398497390813345077767523288216198517157429560992129551194652672.000000 316358094145969890746629602340123142480430109451513472425676855880135795577716736.000000 0.000000
316358094145969890746629602340123142480430109451513472425676855880135795577716736.000000 94790147434435903201121507199777195920416585553351999312358351065061774577369088.000000 0.000000
0.000000 0.000000 0.000000
1017909579553181690918943350842245008205812930903770619985496018676210023226408960.000000 -678855286915194516711464596502384112074492505326550365647926101501189738893148160.000000 0.000000
-678855286915194516711464596502384112074492505326550365647926101501189738893148160.000000 235315113133535742235875674979761151473158903919863960473909714333809391247032320.000000 0.000000
0.000000 0.000000 0.000000
576363531706555236684281585697163510061952530164165885032702640986869408733331456.000000 -717098843464804346664258466055818143371222274542951944685907920214738347371790336.000000 0.000000
-717098843464804346664258466055818143371222274542951944685907920214738347371790336.000000 325048337541970923010602018490512878495432603638156331502295558849702933496332288.000000 0.000000
0.000000 0.000000 0.000000
390305851295773268484431619135261171223076194480558416773627045950574890833674240.000000 -69460204535763737905330640175718191680071833916030653858186265049113737398583296.000000 0.000000
-69460204535763737905330640175718191680071833916030653858186265049113737398583296.000000 8504818971758636778887107982669109085924694501905979827262803370186149782880256.000000 0.000000
0.000000 0.000000 0.000000
-23428408751063303258614259292701771264826806397741534337704402767084134604996608.000000 19019576782174546202811869905447738462430590957142311763470932854092101228429312.000000 0.000000
19019576782174546202811869905447738462430590957142311763470932854092101228429312.000000 6110486308461501960868644711422715897095020596727264696466957445690436844781568.000000 0.000000
0.000000 0.000000 0.000000
-40642026266948334467134913080225375552827988113719896964514591173413211098578944.000000 -225140158017281781810145092960430274129334889022390095694208079733989657567821824.000000 0.000000
-225140158017281781810145092960430274129334889022390095694208079733989657567821824.000000 130335136055763327806480349197212753103138077181037960773037338845662470933053440.000000 0.000000
0.000000 0.000000 0.000000
144000810591939741300546383057482954720096104085748880486615509588696874514120704.000000 232046065572866774383867236672595586095750314916800594979796516449674010791247872.000000 0.000000
232046065572866774383867236672595586095750314916800594979796516449674010791247872.000000 107385367942973625421696717799307197752623602279732471836566953080663291344191488.000000 0.000000
0.000000 0.000000 0.000000
89578064686531515936238131675865764991761042329976151522491007903484163429236736.000000 290749457775086457050385139329555455747181505699034001744384113504076130276081664.000000 0.000000
290749457775086457050385139329555455747181505699034001744384113504076130276081664.000000 152808962763202390431666969871652276686722657043690956718225047215296545099350016.000000 0.000000
0.000000 0.000000 0.000000
1272827335880444859534655887680196439683535630564815908040820918198856740436443136.000000 -558757511154402147112860080213775504074524905832086517474635158048050381882130432.000000 0.000000
-558757511154402147112860080213775504074524905832086517474635158048050381882130432.000000 145446552078373160182909144279825748398204041864308346023612225476928843628412928.000000 0.000000
0.000000 0.000000 0.000000
1257148629602957358063687851789295180100534553851761801990061157056671026264408064.000000 -432290510469320358853470732319749714387457422071113026861471329534357836358746112.000000 0.000000
-432290510469320358853470732319749714387457422071113026861471329534357836358746112.000000 91837230769450156462441274038982001980616988753768302100837135764817794064973824.000000 0.000000
0.000000 0.000000 0.000000
-110866604734489424422101672236151030784269763035902730599815470582222872509415424.000000 266961695641298469618617680937766842872891226512240225713587908344687530122149888.000000 0.000000
266961695641298469618617680937766842872891226512240225713587908344687530122149888.000000 155785379081751100086437356803591059968839456579501044014651705974572536513429504.000000 0.000000
0.000000 0.000000 0.000000
-429557717613409969325627343593645803437321908095978738690779385119628813133676544.000000 369091136407574912926288534712702342235811769959759577502380548985377840531767296.000000 0.000000
369091136407574912926288534712702342235811769959759577502380548985377840531767296.000000 208708691539970198757309941945464263085821431645555074545424911318132681649160192.000000 0.000000
0.000000 0.000000 0.000000
449265322020796848208409649565519025835799602343334286549524618750641532932456448.000000 287710934597453718893824682973423508784906184316327744477403137955792843582734336.000000 0.000000
287710934597453718893824682973423508784906184316327744477403137955792843582734336.000000 97852820599426430027732050964661346427355528098129822820064567313963937744027648.000000 0.000000
0.000000 0.000000 0.000000
71372355269060770506077029026674116711261171483959625944518877722417223975305216.000000 133080136422231473325434141045064969643478841069663381009629312346567105765703680.000000 0.000000
133080136422231473325434141045064969643478841069663381009629312346567105765703680.000000 67078097126705549697517389696611608650281647870189080862205666144264865030602752.000000 0.000000
0.000000 0.000000 0.000000
48866706213077962757050548316591039206439129023430306331930332763751795679821824.000000 49441832650538116399836130618730183478749987892554475798954871075873642491412480.000000 0.000000
49441832650538116399836130618730183478749987892554475798954871075873642491412480.000000 22688484718989557398860507753759889071687911555150818872556423989694595455778816.000000 0.000000
0.000000 0.000000 0.000000
438045347703614766162495805434404004684638608089710390139477174866625431651483648.000000 -231926080936175407613640916992909680583534437874717586423358816838265516568084480.000000 0.000000
-231926080936175407613640916992909680583534437874717586423358816838265516568084480.000000 68268651997964492298007392120399292223085848008943750263232718534497396798259200.000000 0.000000
0.000000 0.000000 0.000000
2034674217213871559503554541139948672929972111593559058352109724629179608072192.000000 -3991348778775431526043793390623279330478251948110170813191863769657330907480064.000000 0.000000
-3991348778775431526043793390623279330478251948110170813191863769657330907480064.000000 1989615422220501930924133126407984057378701205706644779255444877855761062952960.000000 0.000000
0.000000 0.000000 0.000000
144117220486974885605923439345641154403452978592585848700358258375474609433608192.000000 -352410029243241716368163962125455009427089291929437258865169719534568967730364416.000000 0.000000
-352410029243241716368163962125455009427089291929437258865169719534568967730364416.000000 180634047271538551603694821855896629732429567053038514026965776833833715762200576.000000 0.000000
0.000000 0.000000 0.000000
167904530939907305952960285614713135358977556621473745671536973798037051074936832.000000 -285351547736148845878253802740105079337367475727923319614121346185390483256115200.000000 0.000000
-285351547736148845878253802740105079337367475727923319614121346185390483256115200.000000 138939295856716527173094539742775386525621264423879603792364407451589835287953408.000000 0.000000
0.000000 0.000000 0.000000
383242860107876367419036567601597088922515741907413909614506991292583436330467328.000000 2471328971042019493612484039343086012403529077858119317082125007601510067231260672.000000 0.000000
2471328971042019493612484039343086012403529077858119317082125007601510067231260672.000000 1340958748070147671070405782260053805855041325261964018649398369414847502980481024.000000 0.000000
0.000000 0.000000 0.000000
310144265555651962282409792250558127152096886498176291146643559631793768500297728.000000 89378932755491125069308080305258804668908608120047283971361182044091413449146368.000000 0.000000
89378932755491125069308080305258804668908608120047283971361182044091413449146368.000000 16874214510735380646810229056382748860493254563252518368087177091565957117116416.000000 0.000000
0.000000 0.000000 0.000000
-1898921515720243680785383951887662245060518807690913360069920586124354716685469483008.000000 6529392982850651379336717884663986525412486414265416235945120146851121848844812288.000000 0.000000
6529392982850651379336717884663986525412486414265416235945120146851121848844812288.000000 50149447174428445705369851828043427682988737888876262721804575227297782344712192.000000 0.000000
0.000000 0.000000 0.000000
142583640454225428578910570754844530723645666037222724493338584403933451601838080.000000 -28232145392026941675266354635961218387026451603192431443033659803035843000532992.000000 0.000000
-28232145392026941675266354635961218387026451603192431443033659803035843000532992.000000 3631420608563320025059235701789984430594204915284375805461355565119001516310528.000000 0.000000
0.000000 0.000000 0.000000
87763525993831333871027172853830693480708177884773327181300049846987898805551104.000000 -125715560060315801046214840414325145783469688575118707781737383982334999670030336.000000 0.000000
-125715560060315801046214840414325145783469688575118707781737383982334999670030336.000000 79467231136815297642540393298176048695172362430124043029986620005709497336070144.000000 0.000000
0.000000 0.000000 0.000000
-51694126696939917128034976321550321407539781482989301773311440009983328785740595200.000000 -3391191181586770637882281486083803753694824859306900327898368056786855305569894400.000000 0.000000
-3391191181586770637882281486083803753694824859306900327898368056786855305569894400.000000 433736527935690277078958333736064071462808862218025484991867311674292348693512192.000000 0.000000
0.000000 0.000000 0.000000
80163269974062756568785634759497711557157230282811856194654161955795341152354304.000000 -2858114436050780682556588368233187166510625935826676317512546467773590880124928.000000 0.000000
-2858114436050780682556588368233187166510625935826676317512546467773590880124928.000000 70364269435360769546844314914810051486709348024004866084723514332869017206784.000000 0.000000
0.000000 0.000000 0.000000
75092648185019130729667984170236998692441308627589940117476822810902782837522432.000000 -40541222795305980379701125321119905911605455285864084920121651409345973070069760.000000 0.000000
-40541222795305980379701125321119905911605455285864084920121651409345973070069760.000000 11824916670576162847408632678646271227193809966626207682541090578761775340060672.000000 0.000000
0.000000 0.000000 0.000000
172108470864193012969531622062792881013140612708128871365813844215833308891709440.000000 -10302040014090322676737951037387140182103514946627299825835035403675581242408960.000000 0.000000
-10302040014090322676737951037387140182103514946627299825835035403675581242408960.000000 458851102422995002770346934722033796371743801049851983998202600455254304620544.000000 0.000000
0.000000 0.000000 0.000000
398811495567918727453569953988357625368626470699025510969678095165810676036796416.000000 765678014904587024596884306956380763848370625834856298299287107895258347766546432.000000 0.000000
765678014904587024596884306956380763848370625834856298299287107895258347766546432.000000 381651580569896835285209076085658175545964130758799634398984757600452171993710592.000000 0.000000
0.000000 0.000000 0.000000
-47987708087701665067827147273451487617470447655027251759706430069836659231293440.000000 -336234196619491200160021470736012334096443958502833109020742199174189167583166464.000000 0.000000
-336234196619491200160021470736012334096443958502833109020742199174189167583166464.000000 190170839720042951910378546254971382863361270322723320368006646705791650171453440.000000 0.000000
0.000000 0.000000 0.000000
300700589206116548196900541690517896232431885868621141507475135441574863831040.000000 -63190104334001217281473607897911111715636547012927677710223698600181379366912.000000 0.000000
-63190104334001217281473607897911111715636547012927677710223698600181379366912.000000 12949281148729909172179311556218436726229591389693646541898420739986214092800.000000 0.000000
0.000000 0.000000 0.000000
29730831680709062628846471768551910931959885182577975355605320246166821648990208.000000 -10745116778379823391522050590786609413640308441359061569271755894424168193589248.000000 0.000000
-10745116778379823391522050590786609413640308441359061569271755894424168193589248.000000 2436938485003338819992287104084848394376771727094991274074447711032619485364224.000000 0.000000
0.000000 0.000000 0.000000
-58242229037531460139904872634716916701018068236024824250342285577352590483521536.000000 -1579730584174476518444243843889713144798994353396491224322999177491324060496297984.000000 0.000000
-1579730584174476518444243843889713144798994353396491224322999177491324060496297984.000000 882836349663939978272619764839400841194258687264268139195733676559817981409886208.000000 0.000000
0.000000 0.000000 0.000000
138702893166702110185516327186370778934219180093313747500442941502168253396418560.000000 -15658345894830884427711985017918135982904214948042528489257215552710323558416384.000000 0.000000
-15658345894830884427711985017918135982904214948042528489257215552710323558416384.000000 1444526581232006882926842455623173441965213845997412950599701251605766854410240.000000 0.000000
0.000000 0.000000 0.000000
-21402390648073031876690705079188885840457428868632822478736572693876483995729920.000000 151019446038630822706614832531071972391300743985432477606817998091647526365036544.000000 0.000000
151019446038630822706614832531071972391300743985432477606817998091647526365036544.000000 83238056170570525920616569674560100883587179387492708244206908241171970250506240.000000 0.000000
0.000000 0.000000 0.000000
-114098872124033229133899451182238107396324066287811621931700996202902355210928128.000000 180830340641168906080578979401923778162307162841373886118016640511849477116526592.000000 0.000000
180830340641168906080578979401923778162307162841373886118016640511849477116526592.000000 88792065695562514224256083125167377447409165432389980934970618302397358398242816.000000 0.000000
0.000000 0.000000 0.000000
-872219428390814115642627338948769388133104828207985862471289479558881806875885568.000000 -226654526050017894427444268859992147189723497947111430027147343577636329817636864.000000 0.000000
-226654526050017894427444268859992147189723497947111430027147343577636329817636864.000000 106359614094543416732711489624104758904744247614960275710220001970123209474834432.000000 0.000000
0.000000 0.000000 0.000000
243544285473263016243495718207899439737353351507729349528226018795258331097202688.000000 -38519029342709154907042845561703971738536488531371055583212458125223112657076224.000000 0.000000
-38519029342709154907042845561703971738536488531371055583212458125223112657076224.000000 4367724403866948133561399707932779217836654158875427089587664774667959665688576.000000 0.000000
0.000000 0.000000 0.000000
-5716205514106522991278203232483155142168414942608429441616174279622983094777151488.000000 728726271307118950138142044815908023201068637143652034315484455427164784283353088.000000 0.000000
728726271307118950138142044815908023201068637143652034315484455427164784283353088.000000 172845604527771748962815035159914325550361924973273294585804953043838349294436352.000000 0.000000
0.000000 0.000000 0.000000
-530064728254921579035310863621415632619677746730620637359899180634009261546930176.000000 -765457418605560842333750690199369323555455400495128121599913412680513500185886720.000000 0.000000
-765457418605560842333750690199369323555455400495128121599913412680513500185886720.000000 441446060837873927031667624038131512428111984483078418365575114530978429724000256.000000 0.000000
0.000000 0.000000 0.000000
-5459882569777514241949316679992679322694108887399309871231286579777544055127277568.000000 -1204877764683370955565249859456595795435185926284242595363432036834113064850685952.000000 0.000000
-1204877764683370955565249859456595795435185926284242595363432036834113064850685952.000000 424744986479495628228740523728758443367050716333360152063397067450537330184552448.000000 0.000000
0.000000 0.000000 0.000000
331481226188891929129276661185081261945282413466850107305206921346152731842183168.000000 -9672952114822587022024257954592133042001905855048533874586627471545991553875968.000000 0.000000
-9672952114822587022024257954592133042001905855048533874586627471545991553875968.000000 314242833771462982970956640711555139232467661257119705750802965861139981795328.000000 0.000000
0.000000 0.000000 0.000000
-15761988745697740972025629568282369127151336782799339961511639209675024469092990976.000000 760770276123273627077541747191282207451799299987943426721352159477057327714009088.000000 0.000000
760770276123273627077541747191282207451799299987943426721352159477057327714009088.000000 72345955805046508400701333980279332290823446807949923307917224270113934762049536.000000 0.000000
0.000000 0.000000 0.000000
99720624664848741414818753061296241935156258604024888950098004245121462769287168.000000 87706069972616844079922382560894423825024210325910587726614123988315863221534720.000000 0.000000
87706069972616844079922382560894423825024210325910587726614123988315863221534720.000000 39947641311183207157167478001789705443912109524266422762513853664006590968102912.000000 0.000000
0.000000 0.000000 0.000000
-250067086103559923703564893302777625467126101675808408401151341263155638852124672.000000 11107157958086105234296206064759509436692665004594876382771688560450763648663552.000000 0.000000
11107157958086105234296206064759509436692665004594876382771688560450763648663552.000000 12097974819912174075576342110173904595734423750189993241859096681149710389477376.000000 0.000000
0.000000 0.000000 0.000000
422475419885515197820617880569465136962143796696524384215418451699394473294299136.000000 260001714369497294664518267737953841242174069559592993148901270334960315838496768.000000 0.000000
260001714369497294664518267737953841242174069559592993148901270334960315838496768.000000 87115367724232267874516375955404650262007913238066055574602605584716961736032256.000000 0.000000
0.000000 0.000000 0.000000
-2753039416471429966046810793287106913181141366329317022450625629867819535400173568.000000 -747950089770954128306261685073802736953170182694097734494739473899995836708814848.000000 0.000000
-747950089770954128306261685073802736953170182694097734494739473899995836708814848.000000 334698582947789125156223161595978141826148574371490218850225654245766717696376832.000000 0.000000
0.000000 0.000000 0.000000
-171610282255317001320480871241915088640388565369225981668713340084366881180352512.000000 22921248549726004462453056926850002217992582175070541003182365464982829142114304.000000 0.000000
22921248549726004462453056926850002217992582175070541003182365464982829142114304.000000 12649897315832278479917843546840303272682298059799963706410498171409599364595712.000000 0.000000
0.000000 0.000000 0.000000
31741186130553082746153449548105333666951142508028393794181498394273056250920960.000000 8935952868934591659606296812922290067256197815903868306647463285347472933650432.000000 0.000000
8935952868934591659606296812922290067256197815903868306647463285347472933650432.000000 1732445821688075886042361959305394206109851702423783217733240035226298773143552.000000 0.000000
0.000000 0.000000 0.000000
257136431390707229533814605119008131182590508433094757565857874170213214896259072.000000 449917819988816372128005457792263918731681356721278170351482335419043455589941248.000000 0.000000
449917819988816372128005457792263918731681356721278170351482335419043455589941248.000000 219952510091354849085855571984096332544597773828820198558025326701707602430001152.000000 0.000000
0.000000 0.000000 0.000000
2526810327788452703819226019359434279447201591066164601012052672042769912153767936.000000 133831487945820137275665925830983306098418631437439712032242548599015112081145856.000000 0.000000
133831487945820137275665925830983306098418631437439712032242548599015112081145856.000000 12110839865848245842732333997173600386338945142034123334743272200776118882533376.000000 0.000000
0.000000 0.000000 0.000000
11804518744701455994219903657239074906493679825757534077408168100622222059634688.000000 -5837882785207728175120672060364341266690318166660733916328590541747510721904640.000000 0.000000
-5837882785207728175120672060364341266690318166660733916328590541747510721904640.000000 1678505379923945864303523778560455871979274976168938408445557049699901919723520.000000 0.000000
0.000000 0.000000 0.000000
519154958348621703493748700517032554122118798111308995179489676073066634080681984.000000 687247296888009550462126566999205917379191731866896495720006724546856719443034112.000000 0.000000
687247296888009550462126566999205917379191731866896495720006724546856719443034112.000000 324166209273467188582610728051569252277274827675650338585724321287412192500514816.000000 0.000000
0.000000 0.000000 0.000000
-17953499682546991657362931386654835117203100805613051416025543363151339477532672.000000 190192904657796258949517780183456784003271000971451235667343123196201704274001920.000000 0.000000
190192904657796258949517780183456784003271000971451235667343123196201704274001920.000000 107260008736870844125366882943010567707690350687044300730371875794938365288120320.000000 0.000000
0.000000 0.000000 0.000000
-45357758798091044968582548860020574679661856341215566319861785985346911613222912.000000 290128325350358327815004011576574900326104168029507998227283095467978411768545280.000000 0.000000
290128325350358327815004011576574900326104168029507998227283095467978411768545280.000000 164324348686141232483925959034601934653746063141226602329858386161698670334967808.000000 0.000000
0.000000 0.000000 0.000000
-31039233838849877955002972320042586683570450468071139030455987649064117987180544.000000 92473877499982068076069482508867908467491433267303005821787712654997241945128960.000000 0.000000
92473877499982068076069482508867908467491433267303005821787712654997241945128960.000000 42061215383628471625876101620762186552754622088138670711354061305324051464454144.000000 0.000000
0.000000 0.000000 0.000000
-122377501250673950916121107906771243772316661383855762881096603006986218943545344.000000 171749355035563126843306191504847364102728808012065310257362576136834465811922944.000000 0.000000
171749355035563126843306191504847364102728808012065310257362576136834465811922944.000000 98274807528244384015172539528867759178851012429600655309550858392313530232602624.000000 0.000000
0.000000 0.000000 0.000000
778555137636050826951924488569862478007088355814825686891820589506839338800906240.000000 28547595602495054930267533808935491723573833749736222806022034321174899390939136.000000 0.000000
28547595602495054930267533808935491723573833749736222806022034321174899390939136.000000 868200625413571208124773691966924266781549312775667418155570472214226937053184.000000 0.000000
0.000000 0.000000 0.000000
845797570436923681319711755958315962850769794353697352577125144713090787383967744.000000 -643834833462376724895415154027919578778344333190858412984081961329844960557531136.000000 0.000000
-643834833462376724895415154027919578778344333190858412984081961329844960557531136.000000 240234657515931872077832417855876142260379638483884907170893857871637435637563392.000000 0.000000
0.000000 0.000000 0.000000
-202553970062810130291008128783001620006461543932541987776746558289513277074440192.000000 -130983797336291098710348573901449638914465504585711363951146468701130154745790464.000000 0.000000
-130983797336291098710348573901449638914465504585711363951146468701130154745790464.000000 71032025145769781063655217090529465456721506045556708644002628817341613644709888.000000 0.000000
0.000000 0.000000 0.000000
8680623585238811070772247504613643261285784153302252598291963861434827276288.000000 -2995535823754556832485307868902958453267232677199153130402299232429988118528.000000 0.000000
-2995535823754556832485307868902958453267232677199153130402299232429988118528.000000 638687110773756202864191946348729633089720924389994555117700446099490209792.000000 0.000000
0.000000 0.000000 0.000000
234323200898275990916388221106564521757665110636061578438377728297698926230765568.000000 -112504090436379368698908964642724698638826391399624465698723217463689715801653248.000000 0.000000
-112504090436379368698908964642724698638826391399624465698723217463689715801653248.000000 31357115514675318438010461524635486476178429153308437735631154532961174455058432.000000 0.000000
0.000000 0.000000 0.000000
-944353913515159601374601870113763027867865821940951099407949358951493367568007168.000000 391273689505511999355913992739824605992376033901714177384566885257545539402072064.000000 0.000000
391273689505511999355913992739824605992376033901714177384566885257545539402072064.000000 188854548271002362352064650938888536778242989932136153417295323208509376547520512.000000 0.000000
0.000000 0.000000 0.000000
68402017533320579532502747354345282437638686776865783259381448937303670953869312.000000 -160382277648505233883280556153901350477772029830524539809127165752616973714325504.000000 0.000000
-160382277648505233883280556153901350477772029830524539809127165752616973714325504.000000 82169181302180310964197290502700825343665721599070817687366929684965036402933760.000000 0.000000
0.000000 0.000000 0.000000
107049471606342040852432347657217993100624605948923961673862438149966342603669504.000000 698185484396232333283379017000474763562761965459700087425928695852126482590597120.000000 0.000000
698185484396232333283379017000474763562761965459700087425928695852126482590597120.000000 379167483605243766377252533960154591581621662023819595137668490412876398287912960.000000 0.000000
0.000000 0.000000 0.000000
155994325552634894800824236099275092585655883140057296216458695054798594062155776.000000 2591472086720134250318928404960792206725099112800719340663638781099725497040896.000000 0.000000
2591472086720134250318928404960792206725099112800719340663638781099725497040896.000000 53465457576768469274818890384219586225268402700417586673568841323838745608192.000000 0.000000
0.000000 0.000000 0.000000
-6124407756353479910611412951220875280351120568572145342662031583652285845749104640.000000 769078681869097652444528733628929038799949201926871314538835294507425664010813440.000000 0.000000
769078681869097652444528733628929038799949201926871314538835294507425664010813440.000000 173320382432808775723812030933027144327585555375877888535396825606908160807796736.000000 0.000000
0.000000 0.000000 0.000000
-15846126548242904236827447268953275227797231227624135522757646486418556771631104.000000 19419296537648753335694621693487123185152303492731780631850255599710714288144384.000000 0.000000
19419296537648753335694621693487123185152303492731780631850255599710714288144384.000000 11189642104049295139820993431459584350858588485151066805020157828135184836329472.000000 0.000000
0.000000 0.000000 0.000000
7285538890287838456571582799227006940520210741656414760966852193701125322440704.000000 -115302087660726453825571654391243920105434452282339401955980769170929563014791168.000000 0.000000
-115302087660726453825571654391243920105434452282339401955980769170929563014791168.000000 64762994541249034905910468752408508825143012834328565121196218248269527468998656.000000 0.000000
0.000000 0.000000 0.000000
308160765043452948025867446401687178669171122488844437414014754801778505094791168.000000 128331884984151055048700707364413151617719132265396635731941307850273403170717696.000000 0.000000
128331884984151055048700707364413151617719132265396635731941307850273403170717696.000000 32954864208943444323864806472139676199211152422753272771242978869747479329374208.000000 0.000000
0.000000 0.000000 0.000000
-35061291828993841208547626012445599047835371474486592767325449762316684894404608.000000 432844711012556325111262969511473495929601728874885059770777910836464566021390336.000000 0.000000
432844711012556325111262969511473495929601728874885059770777910836464566021390336.000000 245757041718699054736658414684104051260209993522422459962215202742536260512907264.000000 0.000000
0.000000 0.000000 0.000000
121609407324783777279413844259262785247658171361608829892502971319565595428519936.000000 42249662953900993574182475587798489719296180632334502171065798045883744244465664.000000 0.000000
42249662953900993574182475587798489719296180632334502171065798045883744244465664.000000 9128700503602145636243337002762306565724834293889966879422615557720067912237056.000000 0.000000
0.000000 0.000000 0.000000
322951155628810230394306333496459062364729991480149772310512923566237022427283456.000000 -87530590254072637566060777247647010370768976810325488093834426738633182015389696.000000 0.000000
-87530590254072637566060777247647010370768976810325488093834426738633182015389696.000000 15866707646674053127250153590401856762816210190329479079124638966904520972435456.000000 0.000000
0.000000 0.000000 0.000000
-2507663897475839327010560784791073429026050983491935019699328605849210411024384.000000 2166368941681438573665350596042926786424120255918469353222918175977347791978496.000000 0.000000
2166368941681438573665350596042926786424120255918469353222918175977347791978496.000000 1219598651959783953913110797717547222467355355768438824128020779647917495418880.000000 0.000000
0.000000 0.000000 0.000000
168893641517187982814928122180184861208901639763512235646001780064117526093627392.000000 10921448297363056042634739333910958381759684747058881230653902491592395189125120.000000 0.000000
10921448297363056042634739333910958381759684747058881230653902491592395189125120.000000 693252771817330867946520935335063491987770127426619635086125426814705721147392.000000 0.000000
0.000000 0.000000 0.000000
794968827154967518042533143232475496640655303095559745949039421940780202423484416.000000 -444920955682032534974894620866106132668869085621740939907897471083345878699737088.000000 0.000000
-444920955682032534974894620866106132668869085621740939907897471083345878699737088.000000 138095386999035916827772560515474648423801975875579416832406194703714221241139200.000000 0.000000
0.000000 0.000000 0.000000
89822270238395461163408722781191550948475921065236793039601008728912918313172992.000000 348776914125789088085711179566177667829434748957725476730816676448424266676830208.000000 0.000000
348776914125789088085711179566177667829434748957725476730816676448424266676830208.000000 185375013366298356816309667054801664028573994847715467639615970650757738358898688.000000 0.000000
0.000000 0.000000 0.000000
-3150552948540918846959422072356446118526950752948281398834398186520550417765498880.000000 -2224658970607094636717545424184651530404775200063233964519782645570088154393739264.000000 0.000000
-2224658970607094636717545424184651530404775200063233964519782645570088154393739264.000000 1221655506140293002205400573061023921281883665953198952372372981478321384595652608.000000 0.000000
0.000000 0.000000 0.000000
54633734101578690781046536328174529442178506632105884639129315524423485185064960.000000 160110003399590733998713038364676796830781397930792648805392308146657384346943488.000000 0.000000
160110003399590733998713038364676796830781397930792648805392308146657384346943488.000000 84802200405288867153365418992140176818159439259150722743379192922881191263076352.000000 0.000000
0.000000 0.000000 0.000000
-15948645276556304063836414513435709376322483227203385341819024619473861791973376.000000 27154232929777935735359029300477655905192223095709846896224023211381478632980480.000000 0.000000
27154232929777935735359029300477655905192223095709846896224023211381478632980480.000000 14559431446574328792066375717286126306465849387158882791954482939573410520367104.000000 0.000000
0.000000 0.000000 0.000000
-4194864900966336817486031301086256623533582913979063887577504596710049888337920.000000 -748271126850688983840845098164535232330820440467314571764026163812660508884992.000000 0.000000
-748271126850688983840845098164535232330820440467314571764026163812660508884992.000000 204500098612640875888626071125539548869316694878090148196839491156421770215424.000000 0.000000
0.000000 0.000000 0.000000
241602560286687226126240073583543865038638777026826922141478293908596036481318912.000000 41205921732032903028856327389199500053806044012523569132277333999495127876239360.000000 0.000000
41205921732032903028856327389199500053806044012523569132277333999495127876239360.000000 9312500451956939115677818284342286265454013388968827546555111289317603850321920.000000 0.000000
0.000000 0.000000 0.000000
-27211598678882685008640355064228524152862532122126412058648961257917466609188864.000000 -238798163959957768078070211752433437983007640665609064988846418297622075340226560.000000 0.000000
-238798163959957768078070211752433437983007640665609064988846418297622075340226560.000000 134961397543075661474261094412224803051731209453610890846701362941702759272939520.000000 0.000000
0.000000 0.000000 0.000000
-56109721661116677258860554627586177156771945067077165351457377055302684136964096.000000 261709050133378337716893111510915536406155033270907679832694647978857436905734144.000000 0.000000
261709050133378337716893111510915536406155033270907679832694647978857436905734144.000000 148905581454855333215131104879367830713366396860365469417650685776485987704111104.000000 0.000000
0.000000 0.000000 0.000000
226063669274849042450358971665567765573154167439503456015100322353546284826099712.000000 184609511946060464239438344744130677780390137079542916821374486987611305850961920.000000 0.000000
184609511946060464239438344744130677780390137079542916821374486987611305850961920.000000 60488534855461795452687654980360664040561679801441881898225394431541461716566016.000000 0.000000
0.000000 0.000000 0.000000
182793839286505766471606356093740790200803675359435824682997840851882970397540352.000000 -45279799317803544372742832471779051725483008906328083079175577068631750439075840.000000 0.000000
-45279799317803544372742832471779051725483008906328083079175577068631750439075840.000000 9310716030065090804876091723644379596168362148360163175536815110956911823945728.000000 0.000000
0.000000 0.000000 0.000000
159413062984944209295740884652850433824997008544346576880222734523579264101515264.000000 30487799811994545502516615785502405536200320277822802727174677880080762874626048.000000 0.000000
30487799811994545502516615785502405536200320277822802727174677880080762874626048.000000 3974583005842570501078804169152272081243355296565646954012136374739736165613568.000000 0.000000
0.000000 0.000000 0.000000
-3093150471223519085558174920141529408410247386060725390325264933758250051595558453248.000000 17744445778994577045431111254582070822884091556258377894734338296880320361825042432.000000 0.000000
17744445778994577045431111254582070822884091556258377894734338296880320361825042432.000000 206593453440218471406414089170026739969873977484048074925011548109848149330231296.000000 0.000000
0.000000 0.000000 0.000000
2862236435662138174362698944963682820732610635550821930834291801807168118718464.000000 16002689608263513866325252800272531262293761601442867877705153448768299826413568.000000 0.000000
16002689608263513866325252800272531262293761601442867877705153448768299826413568.000000 7896802554667709398762230054966210577579545201196705872996989638343679885180928.000000 0.000000
0.000000 0.000000 0.000000
120855456289747520061081156015461311215641174475851514693026907764614911257214976.000000 91485548935224280210441969620417074286644683266403004727330003414279718327812096.000000 0.000000
91485548935224280210441969620417074286644683266403004727330003414279718327812096.000000 35314749827246706385740924822497612646492196457968054912930039842671811429924864.000000 0.000000
0.000000 0.000000 0.000000
362072361210016449991421776906341754408612885395354463302987082489501945478250496.000000 710331141659493082609341010347220750739546240336511120569083998845238624189939712.000000 0.000000
710331141659493082609341010347220750739546240336511120569083998845238624189939712.000000 352655001711102917460121800641591526560208430375578354057635799121398097518788608.000000 0.000000
0.000000 0.000000 0.000000
-1570006618348194506810328812910684589032035290796149777046816674394584681367470080.000000 829016917306176091590470659403101444240922228694750532281852802180872520318582784.000000 0.000000
829016917306176091590470659403101444240922228694750532281852802180872520318582784.000000 429634601122692076396303201075167682768938305317669688236630315954712148300529664.000000 0.000000
0.000000 0.000000 0.000000
173822688762358568039043434312095498349243103569614413144566277119288444547235840.000000 -206462424701701984256798984814064140329819038127978393162146134753447484934062080.000000 0.000000
-206462424701701984256798984814064140329819038127978393162146134753447484934062080.000000 100551287522408633258995517441106004560616005827443752654673777698370844046131200.000000 0.000000
0.000000 0.000000 0.000000
73243692367553811736700651508043344099876520264978831877802040755954428919414784.000000 270772764793677083334830899130513775221249509609469482560641314402797786970980352.000000 0.000000
270772764793677083334830899130513775221249509609469482560641314402797786970980352.000000 143346898709686126925337074968001934637074436345989104829808801941351719375994880.000000 0.000000
0.000000 0.000000 0.000000
-52505775503701653864318382277791942642839724836379468039151351903239141872107520.000000 -265921882697593179732576616652788142466601075004591232570641478663752829594763264.000000 0.000000
-265921882697593179732576616652788142466601075004591232570641478663752829594763264.000000 151106380405513057758999317256113814360937880132174556202050870031394524033449984.000000 0.000000
0.000000 0.000000 0.000000
21573978637996485780728404976407506317684267304341110685611741373337109054619648.000000 11642833263482244446286806937547870618180832212636378203615192738946908812214272.000000 0.000000
11642833263482244446286806937547870618180832212636378203615192738946908812214272.000000 3703539008519612672602601158170996792474919027909273779286918730971167663849472.000000 0.000000
0.000000 0.000000 0.000000
633527337002528090841967923420186322403172111153270635870221310928198937234898944.000000 486190843909478190528629610761684396952583832093038161016801764465803339715575808.000000 0.000000
486190843909478190528629610761684396952583832093038161016801764465803339715575808.000000 182841653003457050377985181508141104662904152548346149563812123471691045931057152.000000 0.000000
0.000000 0.000000 0.000000
204350585560396913480794380601589597279326730250341514347697426096107770334937088.000000 30479514203033893028682925793994744506670589517108902415187922061859379212189696.000000 0.000000
30479514203033893028682925793994744506670589517108902415187922061859379212189696.000000 3702012647032585009234172945683525617094792881471865628929679619880266888118272.000000 0.000000
0.000000 0.000000 0.000000
-314241218104520238571550476622027168791723791511759613942697574059031455743344640.000000 675702597333715722216821088320753419835717577991737896133505845092088923891433472.000000 0.000000
675702597333715722216821088320753419835717577991737896133505845092088923891433472.000000 391127345219435895141385058307049473752083819899403825396038368299708121671008256.000000 0.000000
0.000000 0.000000 0.000000
-9207527717396704221291069596460236875076408111171678576107713593954005971598573568.000000 1992059547984829173639792049871635508070615267409900015958035262354222583715463168.000000 0.000000
1992059547984829173639792049871635508070615267409900015958035262354222583715463168.000000 696418506715735730963414682241073784691906237563444619095505254072944775537885184.000000 0.000000
0.000000 0.000000 0.000000
-38926162390544241960799491392084346260425720019645672872050353556335162818560.000000 -10210391781549715419512147298805959786305833593863529033758733298357787164672.000000 0.000000
-10210391781549715419512147298805959786305833593863529033758733298357787164672.000000 3997460931652742537381827567299725182053466697286789399146142880899981639680.000000 0.000000
0.000000 0.000000 0.000000
240281473133943624421275098945279407838661597445169350570546108085672832139264.000000 -338509808536308223752418287604603979947197392442314826745471565844562155929600.000000 0.000000
-338509808536308223752418287604603979947197392442314826745471565844562155929600.000000 161347824493211678640064322547936350860061412271267985836256930556777269821440.000000 0.000000
0.000000 0.000000 0.000000
131483108383547191357149575469747528460682288805140576053607775878045985897709568.000000 698996042268245402591862992576052834863838033323397016581794022468343347223199744.000000 0.000000
698996042268245402591862992576052834863838033323397016581794022468343347223199744.000000 376593796236163233788141412080099583871728525120742512506064191686563135416696832.000000 0.000000
0.000000 0.000000 0.000000
-2449965374457813093842988598759270730140953663408374568669106714636935845904384.000000 -1584942091770418197764668325162762379216259609195938572815712977105060485922816.000000 0.000000
-1584942091770418197764668325162762379216259609195938572815712977105060485922816.000000 4707998294292335852098175112328462581799165375735847297752619932978656743260160.000000 0.000000
0.000000 0.000000 0.000000
238677042398182530383836777429069883780593995674285113138632808545654298887847936.000000 326143168009848191488961056052722002483079331376522093427583118516514899577798656.000000 0.000000
326143168009848191488961056052722002483079331376522093427583118516514899577798656.000000 149232185172014411511484455494781727251344203008465198472157257713175749921341440.000000 0.000000
0.000000 0.000000 0.000000
-1471338443834713844513270333303400192880975622508236130385492136834575295697649664.000000 -372922297439626355432897603173628849567792919562085020902232386343930094197669888.000000 0.000000
-372922297439626355432897603173628849567792919562085020902232386343930094197669888.000000 143819716654525059093655622073937871307750145161872403576190900612149511689601024.000000 0.000000
0.000000 0.000000 0.000000
457184857413933022071568700072095512215881193102446557727631961236438844713205760.000000 474973268388853657280171071531706173572195868861495433481910600124734915473309696.000000 0.000000
474973268388853657280171071531706173572195868861495433481910600124734915473309696.000000 204244586049193098494568450046387059024354233634646702011525801066442852396957696.000000 0.000000
0.000000 0.000000 0.000000
-1926358985928498038987736384149538606602179399416802654365715979189880565740339200.000000 -109890409809082685267887336795881075924865288028704860710678873982437685500837888.000000 0.000000
-109890409809082685267887336795881075924865288028704860710678873982437685500837888.000000 12304736253728105668043842693227092276052160011183886774787861871619534158299136.000000 0.000000
0.000000 0.000000 0.000000
481264328151403227787409396058370197765437405154098221595938248701067933268312064.000000 321979040125645296904771636605797358953135163696915341148224759907952045053706240.000000 0.000000
321979040125645296904771636605797358953135163696915341148224759907952045053706240.000000 113768256666333424814369066328317873970536146313317469396854063404799636061290496.000000 0.000000
0.000000 0.000000 0.000000
-18060760847442558610243412081517779860006337149967821198300064771246233489506304.000000 -126551490976352576763728411558881380330366625074224890580014109344718491370913792.000000 0.000000
-126551490976352576763728411558881380330366625074224890580014109344718491370913792.000000 72194507799025075925026063491042608315926802654521339719672316516627933705535488.000000 0.000000
0.000000 0.000000 0.000000
-169776958526683222516634205561496449754736056637249996292676699501875078497304576.000000 146435713613853252353458291036016708390987911723871994734144507226858283140644864.000000 0.000000
146435713613853252353458291036016708390987911723871994734144507226858283140644864.000000 82331971150032814224654025661808701693028261990323383083253323549788875433967616.000000 0.000000
0.000000 0.000000 0.000000
-4174038692178935387057005789304064845263730815333760765604642275529762027058757632.000000 711435408613098496474120352576409147082242006217609136199457820541162175978274816.000000 0.000000
711435408613098496474120352576409147082242006217609136199457820541162175978274816.000000 209990835813069382295094206331812566194732149744258794774155637571969633235238912.000000 0.000000
0.000000 0.000000 0.000000
-1011123124549193547607751978646844709432235066718330760703620990958093572337827840.000000 -357956540934150859301607541925597638210189227079896321332224498779823330054635520.000000 0.000000
-357956540934150859301607541925597638210189227079896321332224498779823330054635520.000000 162517292434940083170897317785572925326286668172817145566337956860086035394068480.000000 0.000000
0.000000 0.000000 0.000000
74640824281494304709481092634672205387204807436067074731618597933859698422841344.000000 -56594675503373475372839040964405501738934757522538103632659064254595854841675776.000000 0.000000
-56594675503373475372839040964405501738934757522538103632659064254595854841675776.000000 27298837003552723359273389362062122733297580433910739296288098148879037349494784.000000 0.000000
0.000000 0.000000 0.000000
108753626615198668746330911174811425289329071336869491220265718982695159456595968.000000 -48994825320159244263184677014492885319295233465237245301065635401019767929176064.000000 0.000000
-48994825320159244263184677014492885319295233465237245301065635401019767929176064.000000 13496826283486206336885361764239675238348429598796394402224914698639595418943488.000000 0.000000
0.000000 0.000000 0.000000
107621244477946854271444554788139106824372663687061039953445281555689733558894592.000000 -87806073044079570271189121135689275394477254879860744313054610689090312873181184.000000 0.000000
-87806073044079570271189121135689275394477254879860744313054610689090312873181184.000000 33875824898748820486911051158842498911977429686038034008249772187470444810469376.000000 0.000000
0.000000 0.000000 0.000000
190785441425887453406661055235179224268630658717805465478840174294576278227910656.000000 107589183018585425141507361981649288080213461288535059719200540869604745341304832.000000 0.000000
107589183018585425141507361981649288080213461288535059719200540869604745341304832.000000 33606409396532582447858839877804410144815001656066701108660867187602876285321216.000000 0.000000
0.000000 0.000000 0.000000
672896976129169420524314828314687914110521345864864726832025239108910504214528.000000 275282024360911207770408160947686400582099253717337847855626168474085667897344.000000 0.000000
275282024360911207770408160947686400582099253717337847855626168474085667897344.000000 67599173199443047516964074405993612199778918282202508442162348928969895575552.000000 0.000000
0.000000 0.000000 0.000000
97096072924042760900521774770112565842732388263612787124244048224583883809619968.000000 -232098746313014579336378765981815589411927925726943276964373300600404955864498176.000000 0.000000
-232098746313014579336378765981815589411927925726943276964373300600404955864498176.000000 119177533715938494329143436756463560879404348418665461285093128427612699931705344.000000 0.000000
0.000000 0.000000 0.000000
-9448866195542780396390541004640095122906613579430292103308588698056644202856448.000000 -940584956365830683619757336953753132195683465691962589812143415842750980947968.000000 0.000000
-940584956365830683619757336953753132195683465691962589812143415842750980947968.000000 2147404581239637132419386617978310984335378078007206733375914473092085723430912.000000 0.000000
0.000000 0.000000 0.000000
47266823076294434043826849132001758940697785990445069840186613152122365890527232.000000 -34380598411622875993653225856930713729539561168778928103116774346830771428261888.000000 0.000000
-34380598411622875993653225856930713729539561168778928103116774346830771428261888.000000 13345313998535007781072491792076852376262296909453521766006834677080996867735552.000000 0.000000
0.000000 0.000000 0.000000
-488262368422362181149850819858298127261244505166058404244025039287530625821573120.000000 716801255239989265547745119993216449434498823981474700762797280025154776144543744.000000 0.000000
716801255239989265547745119993216449434498823981474700762797280025154776144543744.000000 415718791295879789763144944545169299235369729601573988119332246169965118617550848.000000 0.000000
0.000000 0.000000 0.000000
-22405902651193836486036836206211604972925423294901716308464713552675985581670400.000000 -4511235947500597700178145645711350165512379751052974442714440738591145132556288.000000 0.000000
-4511235947500597700178145645711350165512379751052974442714440738591145132556288.000000 2577758588548465105825273993555530311782046603112630102423593181507840433455104.000000 0.000000
0.000000 0.000000 0.000000
-55435896257320130409814854727965578007546060119061580120094723496054970904477696.000000 -3736464656438102851064466915301153920108116258047968452466511833803657943449600.000000 0.000000
-3736464656438102851064466915301153920108116258047968452466511833803657943449600.000000 701754125356555394889651073493399677782252265227913203231817949677484930760704.000000 0.000000
0.000000 0.000000 0.000000
162117090172115362854822123463837545839489657194445266052947679516465511503233024.000000 8850456641086391512499953295058470532440741010779713340621271677666485610741760.000000 0.000000
8850456641086391512499953295058470532440741010779713340621271677666485610741760.000000 387197737767293821010613751460844718269958887838419415624399762300157133062144.000000 0.000000
0.000000 0.000000 0.000000
-6724858128229534864661844077902642157649460562919553712347580003584400394157031424.000000 935729324699844161990029126510968729820532284384189622900737732026999128633376768.000000 0.000000
935729324699844161990029126510968729820532284384189622900737732026999128633376768.000000 237529936685616427205940606909997935144700098537753791037780960481529745620598784.000000 0.000000
0.000000 0.000000 0.000000
33725701284664015833026481455064939384423651768563215148540262381019117683474432.000000 6059339238168784952555134149634708166049698767709475183863508087804509814784.000000 0.000000
6059339238168784952555134149634708166049698767709475183863508087804509814784.000000 449131319494973325420334270868608194409925292939177076430502830386094501003264.000000 0.000000
0.000000 0.000000 0.000000
175265679115950676262870839083305163597285890019265496759895001953866619329445888.000000 -27751324326222895562756276770811901200653886600032604886556592637477148541583360.000000 0.000000
-27751324326222895562756276770811901200653886600032604886556592637477148541583360.000000 4009953170283898771372720772484347094321394113429513012382987645977167648522240.000000 0.000000
0.000000 0.000000 0.000000
61421577763260664530980521965009891039525909359235090235188561340006462813896704.000000 -185618916071596962742901240635989476927574248760237471703979344760708370289131520.000000 0.000000
-185618916071596962742901240635989476927574248760237471703979344760708370289131520.000000 113934906354046503183440171942680677064590570690068609018867370531066112831913984.000000 0.000000
0.000000 0.000000 0.000000
-19571988159246291508717316739122308907562371576611036038243578984518037972975616.000000 16559027317234991912007010800527462793858284480683833420717966193814634246438912.000000 0.000000
16559027317234991912007010800527462793858284480683833420717966193814634246438912.000000 9569262358469251824161696630538723309562855124710219747735237058295140540481536.000000 0.000000
0.000000 0.000000 0.000000
25834365184264222390762344679378180361562682437436156608306023394277401221398528.000000 -43881997710035637590334651131943218104068529511041929762198229219396961211252736.000000 0.000000
-43881997710035637590334651131943218104068529511041929762198229219396961211252736.000000 15868061361927169774763076636594721857438657341948147517054469234674723886989312.000000 0.000000
0.000000 0.000000 0.000000
-240348752246580840868540531177508864925170384342349028774683365053041669209849856.000000 -155012848887129727025427046391002133455796429452334967790024037395046853853052928.000000 0.000000
-155012848887129727025427046391002133455796429452334967790024037395046853853052928.000000 86673812928164357011646027553118961006570514667419265746562569990504078532149248.000000 0.000000
0.000000 0.000000 0.000000
55225961753094773316473601588013093623885970050485696438085174518933384159297536.000000 2671083946800175359769953626200187782060885558674603784406099655492184238456832.000000 0.000000
2671083946800175359769953626200187782060885558674603784406099655492184238456832.000000 578805603323524663532563912814500028908769204858740775828984665866324892712960.000000 0.000000
0.000000 0.000000 0.000000
-1088447270248018342938470187001087519485201812523464968993794463243988308959690752.000000 267193098927421587059768901228931271560972929778342033890782932103234398332125184.000000 0.000000
267193098927421587059768901228931271560972929778342033890782932103234398332125184.000000 104147156807298953213346265061918811247360646652932160052208885212941501004251136.000000 0.000000
0.000000 0.000000 0.000000
517650657183974172051248495805357070336062020324126484601520361264625526440460288.000000 547469771168914255751686639786580621006043360912826985498578879190167499246141440.000000 0.000000
547469771168914255751686639786580621006043360912826985498578879190167499246141440.000000 235695686053738455314608782836103186211681972088181626992582088734011250477891584.000000 0.000000
0.000000 0.000000 0.000000
826278481658459974956643282326246356428009144656949870939385568873801370694582272.000000 -482679061295082367273073052636812658330357964249975870124730443316327460934516736.000000 0.000000
-482679061295082367273073052636812658330357964249975870124730443316327460934516736.000000 154081412369923714958701905780731030633447786666223436191193817853038237738598400.000000 0.000000
0.000000 0.000000 0.000000
141729425891207799468736095092180152547688721380376351712813254755163260619587584.000000 -40657400754677241295494393533667871882276188341750740717401231386475030829334528.000000 0.000000
-40657400754677241295494393533667871882276188341750740717401231386475030829334528.000000 7797639572031129189729450890074640616952825836561131906209395224556065261617152.000000 0.000000
0.000000 0.000000 0.000000
115068874345495829896702650305777800885894529853241723706439411653042836758069248.000000 -143467589444227118747944953043428798889370601238816992278457870924497563976466432.000000 0.000000
-143467589444227118747944953043428798889370601238816992278457870924497563976466432.000000 65067293362805101234256601482625315459020608099963545179079342857829147018788864.000000 0.000000
0.000000 0.000000 0.000000
298548068569514381516355273497363428061292743003784325113595926675866617127108608.000000 -283489300918158494401886667414113430210098391237149391509585126505829092443553792.000000 0.000000
-283489300918158494401886667414113430210098391237149391509585126505829092443553792.000000 117330892956752635910086099225021610979903488479334519102668434502979974965755904.000000 0.000000
0.000000 0.000000 0.000000
-483156860420539269133966893842414519750891274944615304574380090347943471611904.000000 -506190905571853710143969837959474653234681858407736460353153623433198715273216.000000 0.000000
-506190905571853710143969837959474653234681858407736460353153623433198715273216.000000 353844393126494520614318457169821340349291530933010690105341421584151987879936.000000 0.000000
0.000000 0.000000 0.000000
-772142084882367758941727086976708692660732517543365034664071570952017816108138496.000000 486920683883077417217333878792392907385869906817678604305553555528285472117751808.000000 0.000000
486920683883077417217333878792392907385869906817678604305553555528285472117751808.000000 259752777716777867592170673442383648236856290645699247943926088272585960055635968.000000 0.000000
0.000000 0.000000 0.000000
805079892762378086310336036221032082971218442619635400241693623024788962824683520.000000 2953376459372264345353474655805687894600732430420103544052583512637260282596425728.000000 0.000000
2953376459372264345353474655805687894600732430420103544052583512637260282596425728.000000 1620790538397937718995102060729650120095709485291071026039936414547452854508978176.000000 0.000000
0.000000 0.000000 0.000000
211040467220368687637623297118409040180316420926077092100560299236279263424413696.000000 -23511108575068433325463636986360809491445207941238397037501501595925849789431808.000000 0.000000
-23511108575068433325463636986360809491445207941238397037501501595925849789431808.000000 3480435112949038284231568949210913610729471894421333082546371538767505113743360.000000 0.000000
0.000000 0.000000 0.000000
721919831811455441942462012872253648349582864705795313850222236287609511367147520.000000 624382009478110708929885624252235234505145854407607279015107740212792312392056832.000000 0.000000
624382009478110708929885624252235234505145854407607279015107740212792312392056832.000000 248853701477145563697264176707769026095513649364656306731415642078845765268013056.000000 0.000000
0.000000 0.000000 0.000000
-24146101896562999774862872414996830231138532118012692395997635369978662936903680.000000 -2098284740212311938494254599466672345220831930804879821666290088259500367675392.000000 0.000000
-2098284740212311938494254599466672345220831930804879821666290088259500367675392.000000 1175057044233393150793834670913685984011606184081754670646200156855609480708096.000000 0.000000
0.000000 0.000000 0.000000
485077345522032069178262164990388677051925804335408066710993829360269046841344.000000 848426444668526736617229757750616096027265839049049583219293478173886012981248.000000 0.000000
848426444668526736617229757750616096027265839049049583219293478173886012981248.000000 415181717290093078329719978781606953962919966917808867256507117454286395539456.000000 0.000000
0.000000 0.000000 0.000000
1443816363810243358460248236335085991564295509074329739055933461392871136755187712.000000 354648940001546550979202337652297606605832321055432814272815221272852958701158400.000000 0.000000
354648940001546550979202337652297606605832321055432814272815221272852958701158400.000000 56455548567258683689237589128980843725486077417423391520720311562425891771383808.000000 0.000000
0.000000 0.000000 0.000000
-779868309459626211668768533287694704475191167304513555716798413897673709063241728.000000 208886099794411908859656620995430719982849045723047653174422285367370348509528064.000000 0.000000
208886099794411908859656620995430719982849045723047653174422285367370348509528064.000000 82745784294606017971626536579486556449503846080878297422709394854143748575592448.000000 0.000000
0.000000 0.000000 0.000000
-736184411901150414669405367416650478497482220839691634313528521140208709203394560.000000 191720227485457343898004535147276284007118443543865899458852558907928818525143040.000000 0.000000
191720227485457343898004535147276284007118443543865899458852558907928818525143040.000000 76339592035562142533980898144779922451038766243815290844703531692541074303090688.000000 0.000000
0.000000 0.000000 0.000000
706506954591259450892414881866335514539195093542990381297601008983740915547897856.000000 39285599416607300585324425569163373495901426326472624324779581430916411262238720.000000 0.000000
39285599416607300585324425569163373495901426326472624324779581430916411262238720.000000 10119440798262421227805224346157283652674988345950882321496454020199901705535488.000000 0.000000
0.000000 0.000000 0.000000
175877917462146854348418798554994980184439010079128297330887307525482613825339392.000000 1175713101396943238613134810636096544071340430380617226588962036199440753543348224.000000 0.000000
1175713101396943238613134810636096544071340430380617226588962036199440753543348224.000000 638278993814520505004437306581010044610169705156357826857115546096345368645074944.000000 0.000000
0.000000 0.000000 0.000000
62449305779398801570894303693214453488615654747854780699400716777429431782211584.000000 2361611915771938734599444093465956621010412642078017272074392430368411293746987008.000000 0.000000
2361611915771938734599444093465956621010412642078017272074392430368411293746987008.000000 1307541830719385105577016872165475943604760484532531731945659923788630087415365632.000000 0.000000
0.000000 0.000000 0.000000
-193785349363240326634639299645438284691599388239181313446271954931619363913990144.000000 174254036490446785952807909628979031929012954677188602827011270674193090556723200.000000 0.000000
174254036490446785952807909628979031929012954677188602827011270674193090556723200.000000 101672603324604094890970840088631585226786708342532764502082721484074825356935168.000000 0.000000
0.000000 0.000000 0.000000
-124461301834747792508858508200537459459683678709386355983845433518781818015318016.000000 -10017564830953728748181276333579504303927106961295914062235119375266886698663936.000000 0.000000
-10017564830953728748181276333579504303927106961295914062235119375266886698663936.000000 9309055391983073453709768508789919756185146105482502330082671193267979082006528.000000 0.000000
0.000000 0.000000 0.000000
-44057579177851655043293581766205087742876335395691692830628519080288150022520832.000000 -115126776099032501265075509270463562799976483743659988982929491821217062982778880.000000 0.000000
-115126776099032501265075509270463562799976483743659988982929491821217062982778880.000000 68021710934379515527438480300970359662310823975520554230150645989146799942664192.000000 0.000000
0.000000 0.000000 0.000000
-43152807702312675223594979228688703748828966921096152503950237722802600871460864.000000 21360729710729482091718073129596583203385259610194155299086934666432270473101312.000000 0.000000
21360729710729482091718073129596583203385259610194155299086934666432270473101312.000000 17600516727316546772286024968857900632500671477550233419358392829249458567905280.000000 0.000000
0.000000 0.000000 0.000000
35156552107616588411076113117601475853122045616834518220066833596222208793903104.000000 26692657904784704446043930809703181439471266550541615329857175126391540800290816.000000 0.000000
26692657904784704446043930809703181439471266550541615329857175126391540800290816.000000 9948411725750765638545444518853405026212394959744618990940547349668574225498112.000000 0.000000
0.000000 0.000000 0.000000
-8640053617152803334940099859785340396571585014343467565337736178749617202884771840.000000 627689552459764928383334977840591355562612842137859364942597129309589529524436992.000000 0.000000
627689552459764928383334977840591355562612842137859364942597129309589529524436992.000000 89153970114420965059925026837827136815982759055565026085844356153980169549250560.000000 0.000000
0.000000 0.000000 0.000000
282652168691972428896324383577722338472267544461814669423923133124278999985422336.000000 304027950004171124408103862970322938210172128748792311672036603983615744676986880.000000 0.000000
304027950004171124408103862970322938210172128748792311672036603983615744676986880.000000 131515626055275575525899458644582335665080248015744673284402839575993332287930368.000000 0.000000
0.000000 0.000000 0.000000
254190641421186160894349208779317839394061453248277603166273266730968307581583360.000000 27346542450085682717510963154614896839923337413105970642246827382813678869938176.000000 0.000000
27346542450085682717510963154614896839923337413105970642246827382813678869938176.000000 1997789105443384910916501182297736971530085097749758698090789823619995447328768.000000 0.000000
0.000000 0.000000 0.000000
58928358341949047633394850370476612253487484924346554196321562777530980051714048.000000 29767396477113203876273327904088616645832840421763311230780693684754050470379520.000000 0.000000
29767396477113203876273327904088616645832840421763311230780693684754050470379520.000000 8599159789236547294288805201316469652419597184529734014137937694400820293926912.000000 0.000000
0.000000 0.000000 0.000000
-145444624998573411378401839922554529533255341539991891343814896638684324312383488.000000 344072377078719397715744261548488605369273327237578823659033110896965860276043776.000000 0.000000
344072377078719397715744261548488605369273327237578823659033110896965860276043776.000000 227146932567226794625225651348009625344628009849369171441666381618874899262078976.000000 0.000000
0.000000 0.000000 0.000000
455698252845471436132886643187224472890176576186589153703610081148105859239247872.000000 139400414038892941415795013690094244362131396782570806958136314326204368092659712.000000 0.000000
139400414038892941415795013690094244362131396782570806958136314326204368092659712.000000 26954940976884383057766081194445939785865145714090492355869053832806111591268352.000000 0.000000
0.000000 0.000000 0.000000
333874692653679701245575226081813322765361084720213303728632692503512838299451392.000000 2030534573617588189221458968868083007545319959037910896597090799364414241196998656.000000 0.000000
2030534573617588189221458968868083007545319959037910896597090799364414241196998656.000000 1099452905054663380723808338092659311399563585495729181836324000476874729421012992.000000 0.000000
0.000000 0.000000 0.000000
-230026791298760823288288026745955263317352234743557938114225632529787871322701824.000000 303920271201789341623948611528414574452974488422056354553027180644706392037392384.000000 0.000000
303920271201789341623948611528414574452974488422056354553027180644706392037392384.000000 175940051569058124726954068353171623221019020810561174230453450177216476247752704.000000 0.000000
0.000000 0.000000 0.000000
34865944793787672441718640410805869529735656220260876678957782005813951911165952.000000 -274517980099146676412004673403049901825768964561594411098139422748791571637862400.000000 0.000000
-274517980099146676412004673403049901825768964561594411098139422748791571637862400.000000 149515519436260053306008865863679921735002916383295927624482108655962855846182912.000000 0.000000
0.000000 0.000000 0.000000
-15749830271262533253295068951489290486779693613569948605485366285611051908071424.000000 68333376722136377213104025002514283912529000762599121527419302571405048876630016.000000 0.000000
68333376722136377213104025002514283912529000762599121527419302571405048876630016.000000 38490404367571313554119738651727010488046774404170394540877655405493050216022016.000000 0.000000
0.000000 0.000000 0.000000
-21197450001081229617361000012966789750042703847652972921844199864438649524755827261440.000000 216441463929653521397205755881938964504173865495204609179792225223724239710511431680.000000 0.000000
216441463929653521397205755881938964504173865495204609179792225223724239710511431680.000000 4416173816139676929435981289236718936014106026266489320321331708647190948405575680.000000 0.000000
0.000000 0.000000 0.000000
58083077815479622248370122943408447761192704710242106029338274276090836221427712.000000 -732968277195036074280526482108222846224106312930872966555846351407015059607519232.000000 0.000000
-732968277195036074280526482108222846224106312930872966555846351407015059607519232.000000 427361024877536496221286939003237720047530133353222467453391123689561607597195264.000000 0.000000
0.000000 0.000000 0.000000
10326369607711676952615423810516443368164436907610303424285496608820612535681024.000000 85178889878827375598793721946713768246590003368344233501662748579319018562781184.000000 0.000000
85178889878827375598793721946713768246590003368344233501662748579319018562781184.000000 46438769685266704235275400586349829427103872406257044617209241065844380551610368.000000 0.000000
0.000000 0.000000 0.000000
-15027224993453611474600178816148692326123854354240261388755681291463757472439730176.000000 2001468983628810114200526599250664523233643955313694603261503379656054466240577536.000000 0.000000
2001468983628810114200526599250664523233643955313694603261503379656054466240577536.000000 485113477155165869197336303673824679834808270153121839855673682227132037528027136.000000 0.000000
0.000000 0.000000 0.000000
967573172403468658052224028557301221683553529832337012150577906957470880373932032.000000 -906910543009990552739796304394935414591733501493558046510102974602740869057478656.000000 0.000000
-906910543009990552739796304394935414591733501493558046510102974602740869057478656.000000 372914417704503470162268299600942054108448325406201286908442139910632947297812480.000000 0.000000
0.000000 0.000000 0.000000
69875212425279279719345108840557910192046289097820706129123232049141819207843840.000000 909055592030489343693444154279410218851333567765789387352751211278293933228032.000000 0.000000
909055592030489343693444154279410218851333567765789387352751211278293933228032.000000 509419235014006707589192231200030450343278668340059199698407008494866577489920.000000 0.000000
0.000000 0.000000 0.000000
513449250706077070110192541008069477040188163471925049702678916967385352563064832.000000 1043015762510993694147910928397248571361187805453367151807410119491229082760249344.000000 0.000000
1043015762510993694147910928397248571361187805453367151807410119491229082760249344.000000 522271379066712441252135889529218645375678927729415526629360776281109949635887104.000000 0.000000
0.000000 0.000000 0.000000
18094989562226823920687921618018380226053405686905487580292208609603742345461760.000000 30277319917305444146455791762383485331656686835963285929812930046706066292473856.000000 0.000000
30277319917305444146455791762383485331656686835963285929812930046706066292473856.000000 14976202439619150191684684199492115875538422994645468884950779068686191426535424.000000 0.000000
0.000000 0.000000 0.000000
134648763137348848621035884111320706910736418444457405517304871481479318732800.000000 744003360647354347783841461997210756422801839012268423792336667762903591419904.000000 0.000000
744003360647354347783841461997210756422801839012268423792336667762903591419904.000000 401517709876460589937325602923122900587075740619387125987622750695974311559168.000000 0.000000
0.000000 0.000000 0.000000
-1674884988453323333497151421779688233372615881045275468361321566444458105792102400.000000 -1600208915355827548826268383426445697141960647711795083763303594329261170594152448.000000 0.000000
-1600208915355827548826268383426445697141960647711795083763303594329261170594152448.000000 919053769239262175078236605700378953345213701152348298084453360884160918613655552.000000 0.000000
0.000000 0.000000 0.000000
711008393666361095826117649108036422401310712100054273890159671689111561226420224.000000 580432898125994867620377876564350280356801549705723579792813340711283048977530880.000000 0.000000
580432898125994867620377876564350280356801549705723579792813340711283048977530880.000000 214592606637267196524012183579088998318640708789438035192152507985722410650304512.000000 0.000000
0.000000 0.000000 0.000000
-341011904770811635326990418890866102878979880716985499218924808293671775728828416.000000 1399432000971794164003161207040702621082273274471084956476339815954791551786287104.000000 0.000000
1399432000971794164003161207040702621082273274471084956476339815954791551786287104.000000 805122373426311859682067300432592305223326347072305038925472592087696476280455168.000000 0.000000
0.000000 0.000000 0.000000
-15599333766904798986560090046118698124455369615853208272438619737889961736071544832.000000 -668913863445939543911524978269707276248064621550920966558662581168873634600583168.000000 0.000000
-668913863445939543911524978269707276248064621550920966558662581168873634600583168.000000 58166591745343741312763431016522112687478727126294996323611800735409624833851392.000000 0.000000
0.000000 0.000000 0.000000
2120049022568390459292191105967425717801199699763488170532110940311455923175424.000000 -7227303496021905795071927106037600801981061463094980654636963076503990326788096.000000 0.000000
-7227303496021905795071927106037600801981061463094980654636963076503990326788096.000000 3834607252432662784930702621733140779250261039307404362373607702935187662831616.000000 0.000000
0.000000 0.000000 0.000000
-131124184084282341052300230669749172287701037733580570616633597285122280960032768.000000 -141365547984179026433321733636515657138678531638506829915841280316625024830144512.000000 0.000000
-141365547984179026433321733636515657138678531638506829915841280316625024830144512.000000 80765738717768915025890116508682148343106508907864879942097172326247112342765568.000000 0.000000
0.000000 0.000000 0.000000
6307264760195207429666077500002259241908560280108322155749854009431077953732608.000000 429841245726372915644420343942240505828383000698351393488834007575186462736384.000000 0.000000
429841245726372915644420343942240505828383000698351393488834007575186462736384.000000 803916258456327633532828526529632197641950329062276317491654209703429183373312.000000 0.000000
0.000000 0.000000 0.000000
-3059188355809769726936007400428963174899856005485841859173613983996385582668333449216.000000 38936832986938610384896919215370247021920312924583528443667778864824542609698455552.000000 0.000000
38936832986938610384896919215370247021920312924583528443667778864824542609698455552.000000 990049360631127352970697498995306047470146386484421760153321679687029057424195584.000000 0.000000
0.000000 0.000000 0.000000
-2288614870061248484966585459562292989514166920322241838009052370739025550071824384.000000 744799283910716224052979998996989590726973655774527998870751482339952912406413312.000000 0.000000
744799283910716224052979998996989590726973655774527998870751482339952912406413312.000000 325363311905377371739297555633629231194536615547938653173098413559990470326616064.000000 0.000000
0.000000 0.000000 0.000000
1378556023437788117225451375559704090083139028547181415310250318177620470005760000.000000 604656025132086413170283947475504381337583013759566935075624300000183859728613376.000000 0.000000
604656025132086413170283947475504381337583013759566935075624300000183859728613376.000000 187305822258233467097837915413444514234614656171990075129733426481318178987180032.000000 0.000000
0.000000 0.000000 0.000000
-565310522889714349857966431993520818024593880192516570537685278587050386058641408.000000 -220102334361063212238345986072957594718550381816601497045254391378734083754426368.000000 0.000000
-220102334361063212238345986072957594718550381816601497045254391378734083754426368.000000 68689267895477518420691567558700416278002353793854894092675490831012898564734976.000000 0.000000
0.000000 0.000000 0.000000
-790858263241785115836696919015626240627773162450629200577958306881688317357719552.000000 -130454115538037860253449142364046124014584355201580822957032159226469744610639872.000000 0.000000
-130454115538037860253449142364046124014584355201580822957032159226469744610639872.000000 39113636307635113725823342861198312850998038988351748047823241025225015217356800.000000 0.000000
0.000000 0.000000 0.000000
428221243511974705577561791809661214685890244704973711151981333111922216027553792.000000 -44441895245068931489936896296231514054165263356277934931445790965586641563942912.000000 0.000000
-44441895245068931489936896296231514054165263356277934931445790965586641563942912.000000 7943675287712213222281856615335353189012702171461530138054032819968741092622336.000000 0.000000
0.000000 0.000000 0.000000
-5523808005337639934478903812904688462541336722922985306103564671633748952145199104.000000 1049437030453569267722531452136199276036585975280750805212169638760651689679650816.000000 0.000000
1049437030453569267722531452136199276036585975280750805212169638760651689679650816.000000 348518073526988923005404397914528381765708525509200732107863302431941877561294848.000000 0.000000
0.000000 0.000000 0.000000
219303571695645189766295580198264477470610159579784612835225321369871526909706240.000000 516042102947559651846492748478711454243644207316572275589567908399551197824942080.000000 0.000000
516042102947559651846492748478711454243644207316572275589567908399551197824942080.000000 268287624350771181724185816274128384028280885891933432044229568839691446826041344.000000 0.000000
0.000000 0.000000 0.000000
176478287726154679551437944054886778179746622913193018481598990893744763571273728.000000 -299866626451721735656255402386980865394179300295579021672633064212729628255584256.000000 0.000000
-299866626451721735656255402386980865394179300295579021672633064212729628255584256.000000 146192040425546900333773761658712236423843776994214971699551737775025306061504512.000000 0.000000
0.000000 0.000000 0.000000
23204026759509705812939669454419027307066932718317529342432505555620631991549952.000000 433960557992972363506017015314078218629983573740857546424878401244788755684917248.000000 0.000000
433960557992972363506017015314078218629983573740857546424878401244788755684917248.000000 239377441857182476402158918788573616807913510380477649567565402083609912778162176.000000 0.000000
0.000000 0.000000 0.000000
195537177660448369254316607462907074818901705050128694347131609761396974736637952.000000 29359089752019502640014188947059649447704321849205884631365700322070920240824320.000000 0.000000
29359089752019502640014188947059649447704321849205884631365700322070920240824320.000000 2997219904083504755167799790561150340221565550085018169443819179470656146243584.000000 0.000000
0.000000 0.000000 0.000000
-12364399775806977449149189447292489556784422936509685108318634180777711606169600.000000 15368589030326853463392003400991508269797167560970911450870128460143282450595840.000000 0.000000
15368589030326853463392003400991508269797167560970911450870128460143282450595840.000000 8230689933311837174179314137544420074474243673563804849374443316232780284690432.000000 0.000000
0.000000 0.000000 0.000000
26593198062383751275200129967793743666167076013212435305157127552227706687979520.000000 -30539129793147629998214883405855828772059381093423250474329802001327566121598976.000000 0.000000
-30539129793147629998214883405855828772059381093423250474329802001327566121598976.000000 14336333960792783819292475229100265179179565030202264868984067233393418419830784.000000 0.000000
0.000000 0.000000 0.000000
-16090130148004398579209420794905742697622332698740996063450438345510712969521004544.000000 219601820550950090852365816842831341954466818758501994321818069181256362662821888.000000 0.000000
219601820550950090852365816842831341954466818758501994321818069181256362662821888.000000 22088411582329884693595253396921705779573529211464465982781214801958075489058816.000000 0.000000
0.000000 0.000000 0.000000
189618404646015420919108303458013612856148626068871173618128824401715604251213824.000000 591941373358661629552146176941779724366340838872124484466089889539944565048344576.000000 0.000000
591941373358661629552146176941779724366340838872124484466089889539944565048344576.000000 309152821353803376351727683676762781428111937631673578215165601471348631503110144.000000 0.000000
0.000000 0.000000 0.000000
-177407357273796492950072826670176096199066421497711107210163892609228755217416192.000000 -137871870240370169217256567509354971286256885225873350868860135621047742038540288.000000 0.000000
-137871870240370169217256567509354971286256885225873350868860135621047742038540288.000000 76871546756249325253828830747905939054170715085274299841796818209515443352240128.000000 0.000000
0.000000 0.000000 0.000000
7646990137492164992878286957881012800769880248060154322402672778575255789633536.000000 36799293109713348497345598506182427790502613968885789534408991514086402936537088.000000 0.000000
36799293109713348497345598506182427790502613968885789534408991514086402936537088.000000 19751634290849584608514942863968838476865578894541923227463290376296564250378240.000000 0.000000
0.000000 0.000000 0.000000
-458345377139419982784748996201563705045415881114964179826759148461202313400287232.000000 962140537597725161049863739446538096740745239987176361128046464742945594405814272.000000 0.000000
962140537597725161049863739446538096740745239987176361128046464742945594405814272.000000 553456525922276743740230362422378616708427035948067300086330033246667237750734848.000000 0.000000
0.000000 0.000000 0.000000
12036588366865803081583339712663554452502524915020546195621284471521171308806144.000000 233536140252842989236780434401730950413650762033692447258883557525834467660267520.000000 0.000000
233536140252842989236780434401730950413650762033692447258883557525834467660267520.000000 128034091677311376762728213623013824480563509885639186706894542682417895430946816.000000 0.000000
0.000000 0.000000 0.000000
202019377385273230979128268459330183320795008063112964604902609583000084411318272.000000 25462741573381966019063932027674851256268422162284073867314898729917813551529984.000000 0.000000
25462741573381966019063932027674851256268422162284073867314898729917813551529984.000000 2922522840724042492459299557076011694267900892553228043291252954890072697602048.000000 0.000000
0.000000 0.000000 0.000000
-6926132269153102796073355505299588098684302928435975689509693094265715503092727808.000000 1753038649311023943411537379904095257982450755480736740388355399172516654667005952.000000 0.000000
1753038649311023943411537379904095257982450755480736740388355399172516654667005952.000000 672271277551487588839706952863591735504161358033947327191173249506440272102293504.000000 0.000000
0.000000 0.000000 0.000000
-32289779423486495913346536767359237771962681960761365904717659055078681277680844800.000000 -635727306808683000823793822952418911432669145427396981498978477159456757057060864.000000 0.000000
-635727306808683000823793822952418911432669145427396981498978477159456757057060864.000000 96381343662925978714621947568487125432856315134103831534539250060167905319845888.000000 0.000000
0.000000 0.000000 0.000000
-3848014053520532040801702048478318855920495622854317494238815063426731017370599424.000000 3301543386659240928841137170038219592846821465072655495689367526924884061097820160.000000 0.000000
3301543386659240928841137170038219592846821465072655495689367526924884061097820160.000000 1855347871799808744440626350716102470260355535114040278429006573522676931467673600.000000 0.000000
0.000000 0.000000 0.000000
-100453458435701246855903379152510899669692022029966319057421397257260829444887543808.000000 5568760299824222348193550671851670572247447654358417570056566741324505447632207872.000000 0.000000
5568760299824222348193550671851670572247447654358417570056566741324505447632207872.000000 606224135244842978196552151640513308143500823521050988969851911122346902187671552.000000 0.000000
0.000000 0.000000 0.000000
550203826228584905112120364959452863406148348617387169289459926155171815573422080.000000 822579642494981959389446206995441249238210159161177167008488615810557634959900672.000000 0.000000
822579642494981959389446206995441249238210159161177167008488615810557634959900672.000000 390424290895798786467848352648655942177736988852423488768797502221640218200506368.000000 0.000000
0.000000 0.000000 0.000000
954687068615422106183615141357993016929626203822180129722275697692616378143473664.000000 -358587399885765360595308861221275027440399878614624220693273886334123184280829952.000000 0.000000
-358587399885765360595308861221275027440399878614624220693273886334123184280829952.000000 80186670322407261528624390306517415780150568034161056891582595386357465909035008.000000 0.000000
0.000000 0.000000 0.000000
80868328950826333128636745453063505226779588342454168878172757846388453951930368.000000 130616046252912767951310087740346570558240510985546582398331260520365682983960576.000000 0.000000
130616046252912767951310087740346570558240510985546582398331260520365682983960576.000000 63323170716553229561896887187581901785737015712026616835756756793848990183456768.000000 0.000000
0.000000 0.000000 0.000000
40292878886706015079858684251157480073564366231052469980827934072383705507168256.000000 -214889959978264746460817260594311752880511904231924439938053055783350122332553216.000000 0.000000
-214889959978264746460817260594311752880511904231924439938053055783350122332553216.000000 115825226669408553395643116941118588483711847081506154175732137429212375837310976.000000 0.000000
0.000000 0.000000 0.000000
-363015460046274811569302070831953830816142837584453243360842100529441677332447232.000000 -328913911108102638502479376280319917943892697887391211013239299142709112450580480.000000 0.000000
-328913911108102638502479376280319917943892697887391211013239299142709112450580480.000000 185513699990975807956570978620164572184875553815537735542546179988271965914791936.000000 0.000000
0.000000 0.000000 0.000000
280351960636087898444774109044306615383672754345484161376901417569881439760023552.000000 100266212468794393015235555421471515962780447871584908681772216131839378050777088.000000 0.000000
100266212468794393015235555421471515962780447871584908681772216131839378050777088.000000 26803336498767939362443280723719783689114926778566516696750478586748729638780928.000000 0.000000
0.000000 0.000000 0.000000
160441572790872779345418469780745161775250488703374837548160307539084935212040192.000000 1992058569617899176381578394860540706682586907378352408317844037440726938329022464.000000 0.000000
1992058569617899176381578394860540706682586907378352408317844037440726938329022464.000000 1114156899700226506374011139760299795559460672540875975193015823137819359147196416.000000 0.000000
0.000000 0.000000 0.000000
2149872830418877257188267564437721722567315498606854312922954817824362661412864.000000 1390001200399973704476455900187431302839866530281810312736881022687418974732288.000000 0.000000
1390001200399973704476455900187431302839866530281810312736881022687418974732288.000000 488874941473252828448707769194657537664773872180990511121602885330128164880384.000000 0.000000
0.000000 0.000000 0.000000
83024225356952344882022787125445304638475498930740993337631289900899499981668352.000000 1538670845180843820327354190660917223734018578898507474229018667450124159942656.000000 0.000000
1538670845180843820327354190660917223734018578898507474229018667450124159942656.000000 21427502210161626149404712714965641425531658407763087751455406407124850311168.000000 0.000000
0.000000 0.000000 0.000000
2299339632654553677463493798260274266705304930041582747928763895911726875100053504.000000 -4224120920663771665324909680689447075927976523491152630020882845143424557127827456.000000 0.000000
-4224120920663771665324909680689447075927976523491152630020882845143424557127827456.000000 2084122230082467864063688008157946007748458956374766137897824624056985156325474304.000000 0.000000
0.000000 0.000000 0.000000
3015300106238191817147031212939807229273867910432295291286778451354063927771136.000000 817890080755158027165856627681150493716998716465157508803036007684861000155136.000000 0.000000
817890080755158027165856627681150493716998716465157508803036007684861000155136.000000 310909348127289135881486302061525339917216151809769960393677628738031912484864.000000 0.000000
0.000000 0.000000 0.000000
-42399415873879802373568240003294197416401670298614506836307963585364226033582080.000000 -85091209249098688915893911965086628293827401969684751705793293889666607355002880.000000 0.000000
-85091209249098688915893911965086628293827401969684751705793293889666607355002880.000000 48702387137680523151681584238007754880160587749116466198183223340231019276009472.000000 0.000000
0.000000 0.000000 0.000000
-898665673828168644472996721015427873812906982749563246850222674030948048175104.000000 -22569171890065033859270336804682079699274146777626529915692317992838313535340544.000000 0.000000
-22569171890065033859270336804682079699274146777626529915692317992838313535340544.000000 12535281222369606284454844868142879674998438510308092710518801992384491397578752.000000 0.000000
0.000000 0.000000 0.000000
340699221467523494379942088967927821954288556508611966419101674922974589545873408.000000 230619249616139148823316458436091166391235647808214435726216258248982514704056320.000000 0.000000
230619249616139148823316458436091166391235647808214435726216258248982514704056320.000000 81580129570543758964419461172623271543841141554340375576072114293036778497507328.000000 0.000000
0.000000 0.000000 0.000000
-146593056467258902096106567129566912782546756649219126719510772010740757924151296.000000 68607980126683540672593742661590201269633678934781187657859158507559666170462208.000000 0.000000
68607980126683540672593742661590201269633678934781187657859158507559666170462208.000000 34392999912872625895246250843148516677779096264193120466334429705488725134278656.000000 0.000000
0.000000 0.000000 0.000000
314744376771315438259232626987461729960983986235562383961800758854719656175861760.000000 594936576148195437324699102009069436200656701256292808016477516030158622454448128.000000 0.000000
594936576148195437324699102009069436200656701256292808016477516030158622454448128.000000 239743662913998626335248860867375043432577143924969042791254145421730314295705600.000000 0.000000
0.000000 0.000000 0.000000
-29466011706902249393836932433361052248004671037895007016447439503663752943083978752.000000 4976476691230991501200954008468245902505749287650933653772284224911162837856944128.000000 0.000000
4976476691230991501200954008468245902505749287650933653772284224911162837856944128.000000 1460268836008961312236541973727735367289674686244531570705610517667679959754211328.000000 0.000000
0.000000 0.000000 0.000000
183803981621272263903327298300837244180745756789832482127648108667339684075012096.000000 -181267139376024003559361613276380273633894832257131585330359518741365058072215552.000000 0.000000
-181267139376024003559361613276380273633894832257131585330359518741365058072215552.000000 76036515903232366487054617010439914104416924368945743233298414673536904587116544.000000 0.000000
0.000000 0.000000 0.000000
-2366508015192597435802010159904968625785068509664284835424892342181740133637685248.000000 1534425425248931809269585120263933256350162604546422449399854958060004973446430720.000000 0.000000
1534425425248931809269585120263933256350162604546422449399854958060004973446430720.000000 831146695822571352898866228148778406903680296641120343368628542082008943903637504.000000 0.000000
0.000000 0.000000 0.000000
-46276738860221042188653010876485540822693529057616110959895946868169486372962304.000000 -10737533340863197313396658214789048317157286872419080934968697881062662475874304.000000 0.000000
-10737533340863197313396658214789048317157286872419080934968697881062662475874304.000000 5467027932102164381934757679965485835025775555363216523688648435484496278585344.000000 0.000000
0.000000 0.000000 0.000000
109540443188506556062457839476886150822406142327317637519760105402923584369721344.000000 151031401576280000543897355703453555843740364301531366822838360138902585810616320.000000 0.000000
151031401576280000543897355703453555843740364301531366822838360138902585810616320.000000 65820176921667537638788105749235951405892819702196712202250513494739442630393856.000000 0.000000
0.000000 0.000000 0.000000
-676312556096083390849187073968384123191138368028222078590950867239105110185345024.000000 85738359931910195804023997500202212271192162967302452303273778500330542273134592.000000 0.000000
85738359931910195804023997500202212271192162967302452303273778500330542273134592.000000 13598718729831902146239998281832056362780610255850228194448627100007756417990656.000000 0.000000
0.000000 0.000000 0.000000
763010640684233828390148884903439971440462876821691745019229891602347350850273280.000000 1180179610492699719047098202073903581393352330097788745611365979413008431880077312.000000 0.000000
1180179610492699719047098202073903581393352330097788745611365979413008431880077312.000000 601837239377980428419117828117447940383610438132613105778988424956410403613573120.000000 0.000000
0.000000 0.000000 0.000000
-1495445317688082748832610203704692409115911713505772789618197862099701778889048064.000000 -627694504596111383081079504016105220932441865075168386767691323322923510080208896.000000 0.000000
-627694504596111383081079504016105220932441865075168386767691323322923510080208896.000000 303784727613338221142656441037755304054721040660808624755518111145806583256055808.000000 0.000000
0.000000 0.000000 0.000000
-896517521713585658791400928170127605139633294076287835983254106601099391060148224.000000 -322445399652275598526172378100376973928190289729944444358169488883849712354983936.000000 0.000000
-322445399652275598526172378100376973928190289729944444358169488883849712354983936.000000 146876882283023681256310573401351189938745139065496674427943461233270532169793536.000000 0.000000
0.000000 0.000000 0.000000
-11120533049508744657136713476722850733543034283964099013496512738727437228070597033984.000000 16013075446539688010253315863953252749205219518255887655167088644171217836208816128.000000 0.000000
16013075446539688010253315863953252749205219518255887655167088644171217836208816128.000000 46104786400035303106642392996816636301120678563718799427794815029398228543995904.000000 0.000000
0.000000 0.000000 0.000000
-376754593365077122290218960477075136873150303240783785194883630485818946512486400.000000 120687415246409086943962958708983008569833189208301607424769472916567769086951424.000000 0.000000
120687415246409086943962958708983008569833189208301607424769472916567769086951424.000000 52434407400004945984720004363034791652084702852897250657999273981963920824336384.000000 0.000000
0.000000 0.000000 0.000000
45499608291021184179857478866090187322151753043766711268579374714282252271878144.000000 31264587464627038012260397534269264908346422526559844044872487024811768165695488.000000 0.000000
31264587464627038012260397534269264908346422526559844044872487024811768165695488.000000 13490202313586330935494417950588002775008646175985909609085554287063170696609792.000000 0.000000
0.000000 0.000000 0.000000
122867898323212465770192183957110268768157798801269392676019136337858276194516992.000000 -12018393548470018538657899313201542721621112690441933217385240139264812833046528.000000 0.000000
-12018393548470018538657899313201542721621112690441933217385240139264812833046528.000000 2133716992825469193563089622794958507012281182977872257908925777801515198578688.000000 0.000000
0.000000 0.000000 0.000000
-111949799565706576769843857459323738831208100366582538201525483265847880320922157056.000000 8973466249521197385035388565188884347888092343740890417757807715539536803373514752.000000 0.000000
8973466249521197385035388565188884347888092343740890417757807715539536803373514752.000000 1404857748540553942652199778114048482627356804587410403688625701027736416528891904.000000 0.000000
0.000000 0.000000 0.000000
2186311939573498659371237078141596390301644686454528090002482834150900440508661760.000000 2121623118748703468047814044344008015167909487767685463272256773298834422890496000.000000 0.000000
2121623118748703468047814044344008015167909487767685463272256773298834422890496000.000000 883701381165895394014671255789834498749362734212285729856327058175434332078866432.000000 0.000000
0.000000 0.000000 0.000000
38758866324651093773334694888611360261613229877526475977484947948285947287699456.000000 -155572639792097665998470353047413340968059920615240273952513398091467180526796800.000000 0.000000
-155572639792097665998470353047413340968059920615240273952513398091467180526796800.000000 83876542860550220611602642106408686207858566166146836411550047974724807719649280.000000 0.000000
0.000000 0.000000 0.000000
300609963896429757497719383698887457900910131643188588623834961319848433644732416.000000 -209764515246813126080344715163952048160599208284179987459426660051642184674312192.000000 0.000000
-209764515246813126080344715163952048160599208284179987459426660051642184674312192.000000 74019696829103850710392438127739949676812392923842973546340410707134576410492928.000000 0.000000
0.000000 0.000000 0.000000
14393207535760111908106557885353855503479575372476823529963964864538067339313152.000000 34311518117901157579505346522596003913101695930585076794451907861176248600363008.000000 0.000000
34311518117901157579505346522596003913101695930585076794451907861176248600363008.000000 17482730727702894908963589842955525206077357465709673086910983468675746152579072.000000 0.000000
0.000000 0.000000 0.000000
-30291872609089627492620735936585406692052818188404527494140626342713821530947584.000000 -77045225613606465200358427242348362228840202114259570824166072584594514260262912.000000 0.000000
-77045225613606465200358427242348362228840202114259570824166072584594514260262912.000000 42270729974261303615266516438662284610332597021485653602191053581642852022091776.000000 0.000000
0.000000 0.000000 0.000000
4772174989137997184656999801795591308025922926559935503329606737195606488408653824.000000 2597956236864737791962314551569446643980554778026012450883676958414187003367129088.000000 0.000000
2597956236864737791962314551569446643980554778026012450883676958414187003367129088.000000 889213665880122955241808180373812899591673818371535450139699056211622644506689536.000000 0.000000
0.000000 0.000000 0.000000
16124345851536994349375453973259516141424597267802298464052791245135568487579648.000000 50206873980694196767580602639951563211633538250847396925218624055963857843126272.000000 0.000000
50206873980694196767580602639951563211633538250847396925218624055963857843126272.000000 26975185381689097378361562004365945616087557667738570098952650957047658786586624.000000 0.000000
0.000000 0.000000 0.000000
-1629153677777302306654585357647521717365448926828002660034745776087650823772831744.000000 12135920830403422976539992975523714230877651655659038978511687742957214285510475776.000000 0.000000
12135920830403422976539992975523714230877651655659038978511687742957214285510475776.000000 6858758440517827080983352674920892232785536460537394319733612929042447169346338816.000000 0.000000
0.000000 0.000000 0.000000
783133521996394132500903021495745166043241047940232791838316241723354546912100352.000000 559341822320258932973540323739261233300079625928589448663705361708024979284557824.000000 0.000000
559341822320258932973540323739261233300079625928589448663705361708024979284557824.000000 201618924488394158016384717529652290801745317905711910081081015965651496060583936.000000 0.000000
0.000000 0.000000 0.000000
1876747529018732651422736443432471872581695021512009674056335285814299059027968.000000 8351726489325301059096549827345963112400649066411603000000992547329364136558592.000000 0.000000
8351726489325301059096549827345963112400649066411603000000992547329364136558592.000000 4627620786791382684186701837104760021996379084415952471932119316159856904241152.000000 0.000000
0.000000 0.000000 0.000000
435941523845218080344581515538609068073738403992608621768953554240030759446380544.000000 -288469082902977072291485519217022830294722217363039478505429769315410125642530816.000000 0.000000
-288469082902977072291485519217022830294722217363039478505429769315410125642530816.000000 105323680051599044730686878279018691042343905984387235824612066625735643761737728.000000 0.000000
0.000000 0.000000 0.000000
2781937873255641870874987675937915632624806156652731120166718192121697847501389824.000000 1888377392188942907979648518467132620122738341050635881283655007510936686908407808.000000 0.000000
1888377392188942907979648518467132620122738341050635881283655007510936686908407808.000000 662068493615730734572235047737890861232079636011745231295427124218395738935132160.000000 0.000000
0.000000 0.000000 0.000000
-26423351270798047031404980982594857291162023035444651716024266251272706272002048.000000 66257170444923197152633892200838162379395542386474795538294918681043896404803584.000000 0.000000
66257170444923197152633892200838162379395542386474795538294918681043896404803584.000000 39121024581083871201786950370352146396805417732987436915141487119975284117340160.000000 0.000000
0.000000 0.000000 0.000000
-390469675422124391329692570794004167620479439814223422288768892093517739843387392.000000 -21838979858431570718836499311338872686314452584814474015051561451899593974349824.000000 0.000000
-21838979858431570718836499311338872686314452584814474015051561451899593974349824.000000 2659175201664532897023039614247206428313351869037316423944146085822195220611072.000000 0.000000
0.000000 0.000000 0.000000
205061181634234264634686756629574953343637749933087207033591540843286930709807104.000000 -106071999494919906196907183313269249650610995002887509584265591178157531791884288.000000 0.000000
-106071999494919906196907183313269249650610995002887509584265591178157531791884288.000000 31317095690210135236108377176385494199505599226115356750805379112400819182370816.000000 0.000000
0.000000 0.000000 0.000000
-687596682669556995692932541442008473959397676776359709677177037414850757253922816.000000 1073038177986754064948719320224040760053141006993716068180340492129140762239565824.000000 0.000000
1073038177986754064948719320224040760053141006993716068180340492129140762239565824.000000 620433890384097207785884955570875268282281283790368923145229609417457790189830144.000000 0.000000
0.000000 0.000000 0.000000
-1871251336917647948179884321090907946017073085327742722154748373536031512010424320000.000000 -54536018370788268179502872192741047901082115032230228421078394476787265437494673408.000000 0.000000
-54536018370788268179502872192741047901082115032230228421078394476787265437494673408.000000 3161668814384425203730196000888836765522495788942253192165595842428661457215291392.000000 0.000000
0.000000 0.000000 0.000000
-2254766431949751235139007210673284860490697664384676008906527459921167652910792704.000000 -423918569294643761400417538744455640000393585975748016404447275777359230053384192.000000 0.000000
-423918569294643761400417538744455640000393585975748016404447275777359230053384192.000000 134408782141951995065160896380443289505300843086437423272076510368605023082905600.000000 0.000000
0.000000 0.000000 0.000000
40855523431675611669205059155768419084373178020907505017566940068118684061663232.000000 -8001044833084734751407427484513964634197769679288506089739990909574771407585280.000000 0.000000
-8001044833084734751407427484513964634197769679288506089739990909574771407585280.000000 1125799022143221723633648742456555776199409694597297967697064393036526576992256.000000 0.000000
0.000000 0.000000 0.000000
-487106564937903567352642516522732655355837038489832201828485215146576508237119488.000000 -727132226359656796399855782364414347772298117302702844519276915213571917055262720.000000 0.000000
-727132226359656796399855782364414347772298117302702844519276915213571917055262720.000000 417359199316467201205030521253022216688637388536196221243953563697844774466748416.000000 0.000000
0.000000 0.000000 0.000000
-11646807980636152460439456246093957613325611671413020197499600312032514052880072704.000000 -49944161504457966314610450282059690746773343430528326435201573662457192511438848.000000 0.000000
-49944161504457966314610450282059690746773343430528326435201573662457192511438848.000000 2067939577080114840014148349079758710161396906986442151659793233724223386550272.000000 0.000000
0.000000 0.000000 0.000000
-561091293440956703745302978813471269171670587824415877314269687560187133474897920.000000 457494203830608864446918354244641389256289364220713763886097676389405691096334336.000000 0.000000
457494203830608864446918354244641389256289364220713763886097676389405691096334336.000000 256163251434896637916734941260632471934254154847179518455643965676617141250424832.000000 0.000000
0.000000 0.000000 0.000000
784362064990209670233352944342049457331568739637394398236909997128897277089284096.000000 134544960236965157656628006900620760329154777360089291657273911801150930258231296.000000 0.000000
134544960236965157656628006900620760329154777360089291657273911801150930258231296.000000 29854032314502690501358237197311254365486906585619017081997536895389627999846400.000000 0.000000
0.000000 0.000000 0.000000
-11404054591303555341588590907137894299434656309790671357827179316354808151669735424.000000 -17686218267078786610577244690103837774693465609260527393187863971411222314161799168.000000 0.000000
-17686218267078786610577244690103837774693465609260527393187863971411222314161799168.000000 10244918326328041998260767311131402247319763097962309910030476691229411917562904576.000000 0.000000
0.000000 0.000000 0.000000
1041376890811640788595493923521470963358642706042852515557143963279151412061143040.000000 186396297060988855802156175141002159010167615085309704929747603734660270295875584.000000 0.000000
186396297060988855802156175141002159010167615085309704929747603734660270295875584.000000 33989301982889673009848094827811505381596469662154408653828794334645721998819328.000000 0.000000
0.000000 0.000000 0.000000
-3206942541305568777646309376314156835260515180794643477705808954662916400160440320.000000 805783661261616177689543796769064568711157846969846580302497098547929978882752512.000000 0.000000
805783661261616177689543796769064568711157846969846580302497098547929978882752512.000000 310272779587299193208433973580263324740941912555959092986906407873518307440066560.000000 0.000000
0.000000 0.000000 0.000000
990970119886747871770003388725330548279271562131313288942752008534598028743409664.000000 1676420062843959009215846087673714415459803222268223622817500237433438439978565632.000000 0.000000
1676420062843959009215846087673714415459803222268223622817500237433438439978565632.000000 815624339417684882043011784493027128736304369254970418544063179340677857039876096.000000 0.000000
0.000000 0.000000 0.000000
-8417521210297902827250715706781559777739322335696675116273631590884503726325760.000000 -266431045764448210017502872346994700610845429719518595242799224369872029876224.000000 0.000000
-266431045764448210017502872346994700610845429719518595242799224369872029876224.000000 340860043183568022681507365196323463166219410154141469702481328991848189919232.000000 0.000000
0.000000 0.000000 0.000000
-81235832212576694268525568867639946368872665960197931446803837167161101852344320.000000 423835130296040092004620867464701396657246040619010244856631641484901112642273280.000000 0.000000
423835130296040092004620867464701396657246040619010244856631641484901112642273280.000000 250211427606796108503869610821601936033172644137496745542401457733032893602594816.000000 0.000000
0.000000 0.000000 0.000000
-348674278256714519401747636843568220691992523024609828143544779014623758047510528.000000 320525010258180565344593439751766555594773083460850579278032220494970045425778688.000000 0.000000
320525010258180565344593439751766555594773083460850579278032220494970045425778688.000000 180309914775292512285343680554651370644571494696053278524924590509903104171835392.000000 0.000000
0.000000 0.000000 0.000000
269610512006366057543402163664468613228673100495947933886723210130010410049339392.000000 -323511665750938070061597464319165553759609135914635975969691652599005392163307520.000000 0.000000
-323511665750938070061597464319165553759609135914635975969691652599005392163307520.000000 149330524795785694676294480150137788610974204783265038525369060419970006855450624.000000 0.000000
0.000000 0.000000 0.000000
788163617211198599145895655026534061177419595602261585116776957802112123750318080.000000 -1138420281006028428518518573642865059022095985838267447594694591268521637209702400.000000 0.000000
-1138420281006028428518518573642865059022095985838267447594694591268521637209702400.000000 538407319444656417756463936021381234656119857633758772098455216769009106856968192.000000 0.000000
0.000000 0.000000 0.000000
-2136084438273451517490358049791478876809445725449451091879577653367723040559857664.000000 956564103048003454860956450059747240310590941966061194848678775980185385764388864.000000 0.000000
956564103048003454860956450059747240310590941966061194848678775980185385764388864.000000 473716976404426772342626794252538806533903673931000375789555372710589557582594048.000000 0.000000
0.000000 0.000000 0.000000
453639668008690790341238230651633552397555284634669927535882580870873591861739520.000000 -117802596941850116766713361074735176300233085312372192405505895793387330886172672.000000 0.000000
-117802596941850116766713361074735176300233085312372192405505895793387330886172672.000000 20317061290504412964844541987456787657008137244375140675420712827585476035608576.000000 0.000000
0.000000 0.000000 0.000000
512375898053365152883080766735380843342849167574772310516119776434138814684856320.000000 -310281676436573500627433375705913572142416406699575468115937062104278053943246848.000000 0.000000
-310281676436573500627433375705913572142416406699575468115937062104278053943246848.000000 101589589005885554083528545529525106606766475619324778430600592830383301809143808.000000 0.000000
0.000000 0.000000 0.000000
1534119849166627757035643883639022475257307810419943878796949943151330819359899648.000000 330593158447155834839302478629219794585510507769685859718370210414675612007399424.000000 0.000000
330593158447155834839302478629219794585510507769685859718370210414675612007399424.000000 82678724271927005651151226314784126620468333965016125400721483750986870073327616.000000 0.000000
0.000000 0.000000 0.000000
1298350233166956687228411138697042224442138090219309594713877956582891977334325248.000000 1157867552695577939212732302070003240795562071673509496252695588269363602290376704.000000 0.000000
1157867552695577939212732302070003240795562071673509496252695588269363602290376704.000000 465931386383262269718820908579921843867123260607329080830483411023517748354351104.000000 0.000000
0.000000 0.000000 0.000000
-1471301880593405915821845819237359879575740574790908057056132864004343630953185280.000000 -2091973345199484253963376171463149666284943657873055028999852097287976862479286272.000000 0.000000
-2091973345199484253963376171463149666284943657873055028999852097287976862479286272.000000 1205785984971771408166353759984757792146172611123708328221563541933936353929592832.000000 0.000000
0.000000 0.000000 0.000000
275553345056594512684289985524760106715862808491890894921624681666880320045056.000000 346421403464111778883822302690120616003762709415952530168836220749436759834624.000000 0.000000
346421403464111778883822302690120616003762709415952530168836220749436759834624.000000 157495036414911821447380692398088563708057389965825054961576851143847221133312.000000 0.000000
0.000000 0.000000 0.000000
3952805931709567916581934499042368014022044816393105739918007183812346450542592.000000 194887025719264872370629587652119509587084148063556815160976806847391524192256.000000 0.000000
194887025719264872370629587652119509587084148063556815160976806847391524192256.000000 7383935689474158270642510220235372380660001194302437094457080114086892535808.000000 0.000000
0.000000 0.000000 0.000000
960952345315211229810253743675648330586282319364408439829760824590885099690524672.000000 -112453572039431873572036491664860895871513742160404647634356222193219167703793664.000000 0.000000
-112453572039431873572036491664860895871513742160404647634356222193219167703793664.000000 8694188721070081673608760277750535480125236307421337744024395875454236131065856.000000 0.000000
0.000000 0.000000 0.000000
954573038824462475648363324556315160102763738314762738291130025788199342652260352.000000 344758876133628715186780674655147337388638166335444462268133023908508466696683520.000000 0.000000
344758876133628715186780674655147337388638166335444462268133023908508466696683520.000000 76533253641863597145328994911365334189626677264206988229863613236411521824718848.000000 0.000000
0.000000 0.000000 0.000000
-20364318227668468128808129629975947241038681374380677434852722893438509369855574016.000000 -1528072595939292343551927325641423230788466723101729790922582208362548788713226240.000000 0.000000
-1528072595939292343551927325641423230788466723101729790922582208362548788713226240.000000 222530422238801363415291708524196173733050813778864184033393160381911790979645440.000000 0.000000
0.000000 0.000000 0.000000
-555716759135598805888871320338728527861513287691199716919919914595041771178164224.000000 -260265474296140743148293228534672847122370485605862976724607963601954102480732160.000000 0.000000
-260265474296140743148293228534672847122370485605862976724607963601954102480732160.000000 143024195657090817299137120778434783012276651208978715343726246861650981440978944.000000 0.000000
0.000000 0.000000 0.000000
156817803694946655258797771630684781842329432304484574744121191600361948059795456.000000 233690187168464431664440004725312893285645555937549377193371885185785782872309760.000000 0.000000
233690187168464431664440004725312893285645555937549377193371885185785782872309760.000000 110838940654981390132674379507306581572373910828114595846287620100490072426545152.000000 0.000000
0.000000 0.000000 0.000000
7337968298420910573774378700504839732774670204940520536804952581320459621008146432.000000 5829764428068651969739527739471890938888834734158181793038210662698044201403154432.000000 0.000000
5829764428068651969739527739471890938888834734158181793038210662698044201403154432.000000 2222525547854350005747126949986060610666003156016097980331240118916992313549914112.000000 0.000000
0.000000 0.000000 0.000000
3124047820528290947274589970228518365041365847353395558367496778847210610303696896.000000 3576870267979791918225598808116767424729455661502466510934439943248979759013560320.000000 0.000000
3576870267979791918225598808116767424729455661502466510934439943248979759013560320.000000 1660293261556562909807459783465971793301609150475038516058161875168158983017988096.000000 0.000000
0.000000 0.000000 0.000000
1041250509586204754838545610781602706068547183138735742242307081229935170205777920.000000 -23628817294669110563566025602674907300499116900590847214189315207216074458136576.000000 0.000000
-23628817294669110563566025602674907300499116900590847214189315207216074458136576.000000 21278073044542867062880627243456221517150342154218190143546583711435740399271936.000000 0.000000
0.000000 0.000000 0.000000
-762151933467584450956599379019148833981069308841597731429930511757312340124499968.000000 1517874638265893047032773686067256900215852667393823922668657201969137688506269696.000000 0.000000
1517874638265893047032773686067256900215852667393823922668657201969137688506269696.000000 875769881144856614493180859576545702456714906308817229323066003120726744915509248.000000 0.000000
0.000000 0.000000 0.000000
93374151437727651290769416408097917943565630109559946896540511167202298200850432.000000 -6165719434165115220990919001175943508552317301048366158933368777794937623150592.000000 0.000000
-6165719434165115220990919001175943508552317301048366158933368777794937623150592.000000 34224809758191317070448243919963843785864813400825623881282357720408988227469312.000000 0.000000
0.000000 0.000000 0.000000
2252647982333648047526490248200176164762554035959356588726064847249492309704704.000000 2186065962722067202299748935426306026940054725475368650107498370545938153340928.000000 0.000000
2186065962722067202299748935426306026940054725475368650107498370545938153340928.000000 911160707241654588193184151376227063201664145021618821175492450850862322941952.000000 0.000000
0.000000 0.000000 0.000000
5338914129622685739834663035453896825859436150252524189214551650827625113808011264.000000 -15817087125963565964008372961541582797564672692211114136866827530426314557763878912.000000 0.000000
-15817087125963565964008372961541582797564672692211114136866827530426314557763878912.000000 8250063017649991022481428190795927104937084916807290230681718140524615265092108288.000000 0.000000
0.000000 0.000000 0.000000
-3878857504947631219929083257731099854536791380255257955459324578639148638604886016.000000 152717430940822010559394104097021059664314468374707489736615640977976229189648384.000000 0.000000
152717430940822010559394104097021059664314468374707489736615640977976229189648384.000000 69318649676570224058699027627945263454081777267747792443854965496577982317199360.000000 0.000000
0.000000 0.000000 0.000000
-432057479162785465282957562894832702587116521263543556891240344604099224956567552.000000 -764645849004033306664184255014915670613440116138783774731532838285336364896485376.000000 0.000000
-764645849004033306664184255014915670613440116138783774731532838285336364896485376.000000 450918434392019677843533523091739650275157417667629559454371548895242247364149248.000000 0.000000
0.000000 0.000000 0.000000
-618964851722034265885977020248277322487200025924472926644975923151071808396984320.000000 -914472204636865361473740421065351819279559003007294100941872305320663462317129728.000000 0.000000
-914472204636865361473740421065351819279559003007294100941872305320663462317129728.000000 527485763726382005545970473338488015738686497054699338065868863561957021111549952.000000 0.000000
0.000000 0.000000 0.000000
1317541204869930801888606829028977633723555404102725291510308907670598362540802048.000000 -2581206343196632383508861037811304617959244978427493242814056591733382928861757440.000000 0.000000
-2581206343196632383508861037811304617959244978427493242814056591733382928861757440.000000 1286173290686186046972707633941160625402882908072574962495754469048250895318384640.000000 0.000000
0.000000 0.000000 0.000000
4348416256155860512485922111426430590259006073499868629573461063995688736992002048.000000 -1591964059676967288219270383920410385311749928790070178959824391959122434764832768.000000 0.000000
-1591964059676967288219270383920410385311749928790070178959824391959122434764832768.000000 357886276129906222438164947176961547276398970382944249926332996965682688829685760.000000 0.000000
0.000000 0.000000 0.000000
50933941832891788091049403785923568223146276383631323951770949800770647621632.000000 35669520610745826412383393665986133116725896292098613340785184589841921212416.000000 0.000000
35669520610745826412383393665986133116725896292098613340785184589841921212416.000000 8355200652313861939236123677246309424028539027198701087043143420589536968704.000000 0.000000
0.000000 0.000000 0.000000
-645894860386123122338823244931912391811252964525855148538224212760934790746804846592.000000 -21034319306040359626471002152520213852602675280723031349227203346190305596111060992.000000 0.000000
-21034319306040359626471002152520213852602675280723031349227203346190305596111060992.000000 1362606540423504003686866834831817573339244716315533767215296948703814006572318720.000000 0.000000
0.000000 0.000000 0.000000
-61551538076325126409232583387290566766616383252144802614852728349683490198913024.000000 40915303736019779822958327103531138669122681047012942001558846312573105132797952.000000 0.000000
40915303736019779822958327103531138669122681047012942001558846312573105132797952.000000 22197481492570218624129743551186331560465398977872014848422510494792316574760960.000000 0.000000
0.000000 0.000000 0.000000
459109871502449945891027638191386677705509628665957930901387415861011743319785472.000000 -616376505465521683050807675235588940713969427642781147013744920844978378722246656.000000 0.000000
-616376505465521683050807675235588940713969427642781147013744920844978378722246656.000000 312135611123808190325994615933587055000901315867213719163029371549179566027177984.000000 0.000000
0.000000 0.000000 0.000000
-19577405907068443068965134586522053158987271127272645269293715513384439964923592704.000000 9285187253980103993705054982288676435154912473416648216003807779153237433219284992.000000 0.000000
9285187253980103993705054982288676435154912473416648216003807779153237433219284992.000000 4678780323581333426676579588839367491806914377099856160732132916896504298701062144.000000 0.000000
0.000000 0.000000 0.000000
489068240734762043789808765728452159536309845900541738589582078711867367562936320.000000 449563603882997112655546849451249469611800742939052860245948782639393296657416192.000000 0.000000
449563603882997112655546849451249469611800742939052860245948782639393296657416192.000000 183318924560494356278303251522587925901781863092887798099998732127061209874694144.000000 0.000000
0.000000 0.000000 0.000000
-8448137066780444894627830079885924118873634377788906459232448472488482854404096.000000 34900176006872629603189932708683657072564510895048840494550541980444495829794816.000000 0.000000
34900176006872629603189932708683657072564510895048840494550541980444495829794816.000000 19921337560807772576562940322477788024609602302921200557563453603607313838505984.000000 0.000000
0.000000 0.000000 0.000000
-35258203994154445029140844159551230271331922338294714271358013738588372104921481216.000000 3109104999135496970317708308091587378110626254344925625671759675291972434858606592.000000 0.000000
3109104999135496970317708308091587378110626254344925625671759675291972434858606592.000000 533482372802850111343746850230669566404424106946632805302939107949916911805923328.000000 0.000000
0.000000 0.000000 0.000000
-13308154014904237750587999182603881897623902334109253841444611660492536908640944128.000000 900076398107915039690697165853436985228256697126205284071682164706031855692939264.000000 0.000000
900076398107915039690697165853436985228256697126205284071682164706031855692939264.000000 119055812815757420784235448237614944481358173965190870286382432938448290553266176.000000 0.000000
0.000000 0.000000 0.000000
-72879803217087141301792778433745222356470002598527647854831146881493734986350592.000000 -44615119521051863715552459934346760186945540782045888056726644313429741005701120.000000 0.000000
-44615119521051863715552459934346760186945540782045888056726644313429741005701120.000000 23893424335223813004058585709657929045749866541255252733783121909418642349490176.000000 0.000000
0.000000 0.000000 0.000000
-3643398054781991207986499996019373509081726053497047418883772180105368578973237248.000000 -937730756609543976842106420742303774550505131918499895400553734858616424416411648.000000 0.000000
-937730756609543976842106420742303774550505131918499895400553734858616424416411648.000000 365940830897906106722684793593554879757494781429151698963794725497487021863600128.000000 0.000000
0.000000 0.000000 0.000000
-10393504024529133898597093455372025299365707677157059520593220591623339655921926144.000000 -10814752683221821662339703930292761563584284847830688589364611806797644223372853248.000000 0.000000
-10814752683221821662339703930292761563584284847830688589364611806797644223372853248.000000 6227504866821856537900486854291464270710064598658208252699102990353209541905088512.000000 0.000000
0.000000 0.000000 0.000000
770129524292025210763293368387948914570764316586237771709978986397618665959718912.000000 366988838639186375481467998931978938416979803032795367533559015826309318650626048.000000 0.000000
366988838639186375481467998931978938416979803032795367533559015826309318650626048.000000 105142737446779511105686810154957791938629981924326103585833615107058157483982848.000000 0.000000
0.000000 0.000000 0.000000
-1621794393019950451790949172087817571270548074468851268580131820786869398459645952.000000 -703186318090041272858599959217699539706658200271715371993318601223310919017168896.000000 0.000000
-703186318090041272858599959217699539706658200271715371993318601223310919017168896.000000 342469871565868157632414556228019360972817889852307477324315707203192914136006656.000000 0.000000
0.000000 0.000000 0.000000
-69923491080776125731054944126173282583624678909907170659782132263883844555374592.000000 -228819982906035216074501897627937870466048935026271134283115921282297169218371584.000000 0.000000
-228819982906035216074501897627937870466048935026271134283115921282297169218371584.000000 202777832535613425484976311414239608141366320768204654891250443234329631312052224.000000 0.000000
0.000000 0.000000 0.000000
456695254743899309358106422524645605285274890440155527228358841022020400552345600.000000 994592152420094405671000371073616802520456229643436889580513587120928990253023232.000000 0.000000
994592152420094405671000371073616802520456229643436889580513587120928990253023232.000000 502763426365377795361327315974716768009310336660295185907513772494745130885971968.000000 0.000000
0.000000 0.000000 0.000000
18549263006150255336983569419786981084070232749283337974199655840342904206249689088.000000 9539935033546787602907576044752485996678437256027365435378901082246432590449868800.000000 0.000000
9539935033546787602907576044752485996678437256027365435378901082246432590449868800.000000 2775592248906696256294704839611094868033355788162905415339477140838206608200695808.000000 0.000000
0.000000 0.000000 0.000000
4547977794887176613777990045703579729272204090950848542565590674003671143445168128.000000 -1376236938926943635593734496462535479858286570817983862933479661607145641632333824.000000 0.000000
-1376236938926943635593734496462535479858286570817983862933479661607145641632333824.000000 261810733606501696600841776638989628746068914779368414139274101321009596943302656.000000 0.000000
0.000000 0.000000 0.000000
376501411934902339932698144725248691241290144391024952663523999282622356837629952.000000 156594460655405994887436254960533967505826274425392896169551438199380242333696000.000000 0.000000
156594460655405994887436254960533967505826274425392896169551438199380242333696000.000000 32950209055260698361836755650515234720936946389155104475934919034299648038666240.000000 0.000000
0.000000 0.000000 0.000000
1297735623168711129969933752733615881787424905057898884543064428968176425700950016.000000 690748412805636533440491741842870889239952663698186254147651059720828429294108672.000000 0.000000
690748412805636533440491741842870889239952663698186254147651059720828429294108672.000000 206914368230424722453950125904274848508433091428432671089771344233004331677253632.000000 0.000000
0.000000 0.000000 0.000000
-110845330256396574095310400906039632070179534753003774963185359166861170237507633152.000000 5579323906817733170082540406509125306920631855423459121036637823625363090441240576.000000 0.000000
5579323906817733170082540406509125306920631855423459121036637823625363090441240576.000000 554985913543746551199416275389097696713831765884865395817691545282806200502583296.000000 0.000000
0.000000 0.000000 0.000000
2185428773616728902091996548560186159497246392101651141617830622275428280952684544.000000 4764601651461655664593491077073038157448624718053330020422162387073573618920194048.000000 0.000000
4764601651461655664593491077073038157448624718053330020422162387073573618920194048.000000 2409615291629593583561702386412555956392974998084576648464215575551874254933852160.000000 0.000000
0.000000 0.000000 0.000000
-9324978665120284536501603479190833030828754988428591319707031667892525859864576.000000 -84809724290979538760603380503044224667511736646825610924512214295558203035877376.000000 0.000000
-84809724290979538760603380503044224667511736646825610924512214295558203035877376.000000 44528072372435061952583221400713585700352386931029196649757060689261520327016448.000000 0.000000
0.000000 0.000000 0.000000
-128394133801422270612716004659702081307314740007529313355048989853028911039905792.000000 -170720541384544800221218266834753125722982292536876627247255697160593083247624192.000000 0.000000
-170720541384544800221218266834753125722982292536876627247255697160593083247624192.000000 98209051354276501008785692896718497513808011044694914598588600802238285763051520.000000 0.000000
0.000000 0.000000 0.000000
654794286790266812112993912401815408843035711529399127360533825069604565537521664.000000 -349441310603713504430154562272377683029477308349531073541492625473861252101963776.000000 0.000000
-349441310603713504430154562272377683029477308349531073541492625473861252101963776.000000 105215599613433732518651721389031247079216889974626693672928195466850220476727296.000000 0.000000
0.000000 0.000000 0.000000
-4572983769056033906486100147087547898498253966758806283646045932947252564168015872.000000 757725845556068733162241849651586504591226404162596970061476464852239293425385472.000000 0.000000
757725845556068733162241849651586504591226404162596970061476464852239293425385472.000000 224453099005084589232157501551163557087195754160694601379860978449500415755026432.000000 0.000000
0.000000 0.000000 0.000000
2394432999991826060706769528882221994664641043234595376214642736295034593755529216.000000 1168861860539853820230164182156510509014620575039535289149286810699552656524836864.000000 0.000000
1168861860539853820230164182156510509014620575039535289149286810699552656524836864.000000 330181482843170166113843198742918958681056681871834534361180976402408142446526464.000000 0.000000
0.000000 0.000000 0.000000
1023515933029179591837615016520979556099660495902971908039283188175710122057662464.000000 -1514837728302656029485304911324714256613295973583324433678192897032433598889721856.000000 0.000000
-1514837728302656029485304911324714256613295973583324433678192897032433598889721856.000000 721951249342897226100778481308884569734192623344738579864333151585752970250158080.000000 0.000000
0.000000 0.000000 0.000000
-9994471457465585077025910714225608354432649775042789967920042204488644725252816896.000000 -2789814864503683045469954522138094396016298607706361388230816175412521182456446976.000000 0.000000
-2789814864503683045469954522138094396016298607706361388230816175412521182456446976.000000 1132578773960634416613277460586989504874425613504651113210192395488056051140395008.000000 0.000000
0.000000 0.000000 0.000000
4608096566873669753409108865917527247522527637504321312775159835775399550129274880.000000 2116265092352155761857448227187852198900516528733299961511315112307235141747474432.000000 0.000000
2116265092352155761857448227187852198900516528733299961511315112307235141747474432.000000 586960368604585238217138699437140884925901253584494311473370794924928539769700352.000000 0.000000
0.000000 0.000000 0.000000
-384053102398617812592344085229737204898526720398015674377875114787404381125869568.000000 317479395607084003050222627888001212454454456337013716937723335904353166307622912.000000 0.000000
317479395607084003050222627888001212454454456337013716937723335904353166307622912.000000 320556417616736579388207395086746235542845214830548355084200056950167101885120512.000000 0.000000
0.000000 0.000000 0.000000
-10047115082312489419740267371693303139687009418720837722621365599184802254243758080.000000 1921497338204769000798577054697166473628128310878540438163906188575350785606418432.000000 0.000000
1921497338204769000798577054697166473628128310878540438163906188575350785606418432.000000 613237242714479218438938537271258052943916410992913175576484207301201897457713152.000000 0.000000
0.000000 0.000000 0.000000
-4405629211584207853303751140910182997107027366606038718284616066280340608658702336.000000 -1889090670852621174619695312739372454777496572513397111638837720561407447049175040.000000 0.000000
-1889090670852621174619695312739372454777496572513397111638837720561407447049175040.000000 918489812155359183439475795116219799981344623386545846063735362582748187412398080.000000 0.000000
0.000000 0.000000 0.000000
177768140878777937592362219061899429952820541939629316769383786448525237476655104.000000 -376024812556230550951739360650312406012666371922482154927905943852772818956582912.000000 0.000000
-376024812556230550951739360650312406012666371922482154927905943852772818956582912.000000 189407483387224934317008292987392169283878221291989764260701463285588243301531648.000000 0.000000
0.000000 0.000000 0.000000
-143167156036097544809256357828754241563795287122079001509778554660151273265832132608.000000 -5672350107158969407505491234416344403048377061595189586455535510708736746248470528.000000 0.000000
-5672350107158969407505491234416344403048377061595189586455535510708736746248470528.000000 446692299276403588072536664274071615491383593765806634141985164910073348238606336.000000 0.000000
0.000000 0.000000 0.000000
438163569454855684223207619905532571441986443031293187972312747721971088433872896.000000 116905757873720748921383936117725063329862856362026161002985986124982723834544128.000000 0.000000
116905757873720748921383936117725063329862856362026161002985986124982723834544128.000000 20144943670140431085040748164857745294119003135931639302362171641090022630752256.000000 0.000000
0.000000 0.000000 0.000000
-14802663596449255045586544467471871754085527202104371060043672572326465147521466368.000000 -12062415148442809417154117695406836743491632608600832060382561294445838170845085696.000000 0.000000
-12062415148442809417154117695406836743491632608600832060382561294445838170845085696.000000 6809580411866702271865614960544732258367672259417924723264950936808259594301210624.000000 0.000000
0.000000 0.000000 0.000000
1709394260692532227496404960015878941791373634171910630343325537188839125298446336.000000 -1508381547394770715690123507092294751982173197880110631188132333660948114377277440.000000 0.000000
-1508381547394770715690123507092294751982173197880110631188132333660948114377277440.000000 607134535392637645855785007428756811791470171454238875867690271635237719167205376.000000 0.000000
0.000000 0.000000 0.000000
2029827247355708430957234313060450047570951483427192559003189514035380493484032.000000 7752752163118844782355015686663761104858541324945434552017682399605877037334528.000000 0.000000
7752752163118844782355015686663761104858541324945434552017682399605877037334528.000000 4122418613471919425858791085885051877390081962447068156870733279726210562129920.000000 0.000000
0.000000 0.000000 0.000000
996575066129359231167472363724593242073858756040202220451248648689642212008394752.000000 905578417153298994541386648980317772165254213805749441660808951597176000304119808.000000 0.000000
905578417153298994541386648980317772165254213805749441660808951597176000304119808.000000 348921889373795161680223812114312135785126838858674764510668446776312271478980608.000000 0.000000
0.000000 0.000000 0.000000
1345629952999525048109535972132987492146014184264618184698338794607752357875810304.000000 -656345172177669799802928681631200341505341467195890445292109015943756588618088448.000000 0.000000
-656345172177669799802928681631200341505341467195890445292109015943756588618088448.000000 186038806422852517693084993930802644585775004278098768717530904779852147995967488.000000 0.000000
0.000000 0.000000 0.000000
-157421807351055932880366560923442970604190237319852986662268867987576345310789632.000000 -713061425017512507083925684419245190521388521397213509632559882260217294483357696.000000 0.000000
-713061425017512507083925684419245190521388521397213509632559882260217294483357696.000000 391593019801375142949459375172372242543213202612963610461090750971117088775602176.000000 0.000000
0.000000 0.000000 0.000000
204799763561785282820173211256096439604277566916179182456066385534674669288816640.000000 -311294365996501184523999343163931557519469106182781036610781872656948001935196160.000000 0.000000
-311294365996501184523999343163931557519469106182781036610781872656948001935196160.000000 148073331065736061316685704581187108566308315435475273891017287340615637183496192.000000 0.000000
0.000000 0.000000 0.000000
1135566512385034854618615799507394102709080143874639847245255039266811684849713152.000000 1558691533923254225050865005079593331660827867964436504710020572753659001095323648.000000 0.000000
1558691533923254225050865005079593331660827867964436504710020572753659001095323648.000000 725815953204429162635517303489106473620953269805515424635081634715502968324489216.000000 0.000000
0.000000 0.000000 0.000000
1033952361102424243837289010767091296313315895362572724515618335683945669746229248.000000 -1011777456663168565041464180860183507819941714075300305523631930942418941930110976.000000 0.000000
-1011777456663168565041464180860183507819941714075300305523631930942418941930110976.000000 423837129162274970439890076616048627622033228256967771012925481095313721244254208.000000 0.000000
0.000000 0.000000 0.000000
263779694069835633491851187260522513110404308243591716468313021609987108625186816.000000 676500078366664434533130501469260147452818023036113643013207931591549750188441600.000000 0.000000
676500078366664434533130501469260147452818023036113643013207931591549750188441600.000000 348574857168962861221981381823644566251682689802276940655326787903617306533560320.000000 0.000000
0.000000 0.000000 0.000000
3626550576594605024773592887432795093885803971885503568162986939121086351594749952.000000 3329709674057492679201729953351776142421620725606602690015018062009356464108339200.000000 0.000000
3329709674057492679201729953351776142421620725606602690015018062009356464108339200.000000 1357080161784274036881775056698550012323338785508326857368519210756659475709427712.000000 0.000000
0.000000 0.000000 0.000000
-41963610668017013992140802260428001604539252439232530727717121344654063276140789760.000000 4730743149482396250378776483114752083527633643750771733468743948543634994309890048.000000 0.000000
4730743149482396250378776483114752083527633643750771733468743948543634994309890048.000000 995085947881947204534537547832495775242691834541816604289414248743304579539533824.000000 0.000000
0.000000 0.000000 0.000000
-187168156684764968625268864277877913050291748414352915740578027617291331738533888.000000 -5861772844134692109982286893914390371598074526413589531840921451009002377838592.000000 0.000000
-5861772844134692109982286893914390371598074526413589531840921451009002377838592.000000 1182922507606535424608531133506824001879827380456438909201988703608305149280256.000000 0.000000
0.000000 0.000000 0.000000
-712738275630715364971527982271041111918784015514453852937504298270600064514654208.000000 -160421334894155617514309569867446334367612802724361480560648930158473431010508800.000000 0.000000
-160421334894155617514309569867446334367612802724361480560648930158473431010508800.000000 55483553344249438890573093791085892665564489509661454703969100488701037579862016.000000 0.000000
0.000000 0.000000 0.000000
2047523167142594743520795178418777673605399105672513029102255845718160970656776192.000000 76729726206371597018650310034312717484742826714368213888259405583093437866967040.000000 0.000000
76729726206371597018650310034312717484742826714368213888259405583093437866967040.000000 41534819254861747748357361466283926115510940103244954492570345600438475572641792.000000 0.000000
0.000000 0.000000 0.000000
25228533816163789751983114896811244089531745993481042690764055871312852978499584.000000 -134124201409973574967407407292233723905333084208767974414543141509493479593476096.000000 0.000000
-134124201409973574967407407292233723905333084208767974414543141509493479593476096.000000 122527653041691573197036544265619652702413964990200574974247947035209013368193024.000000 0.000000
0.000000 0.000000 0.000000
3856437342248680859435057714953842622903422494929144493669411889204447851132747776.000000 2777221430230222283128498770457588089905153580520383252231002302477770368384761856.000000 0.000000
2777221430230222283128498770457588089905153580520383252231002302477770368384761856.000000 1018128166197151963403339912579546213895165849002228386130734233154513689460604928.000000 0.000000
0.000000 0.000000 0.000000
190768253945556445460808916072193914734850170112412457450766887154340683656986624.000000 155631819931928344970039457342351534938842027355508762543831004087788494433288192.000000 0.000000
155631819931928344970039457342351534938842027355508762543831004087788494433288192.000000 66349735302823991828803825371201443472968917068940852690858985807159499184668672.000000 0.000000
0.000000 0.000000 0.000000
1718250056654342131609762242795470806660366106980521285902190916293490001783554048.000000 1914643691913713593438895111945149897853688578496339326595239318759094632337899520.000000 0.000000
1914643691913713593438895111945149897853688578496339326595239318759094632337899520.000000 838920491985566078540965715982008159773798992821496644729053002530488850462015488.000000 0.000000
0.000000 0.000000 0.000000
387615519376319526629492985001940172551366565943261909540341876111706193901125632.000000 -190739641682712333611599138397290189719948909358863089075981261517705409254653952.000000 0.000000
-190739641682712333611599138397290189719948909358863089075981261517705409254653952.000000 86104403962272898482441923003793684451237441748355583440009698905024466079711232.000000 0.000000
0.000000 0.000000 0.000000
-1913419376627798646519704923087447003512826829080275633184064470029590622161688592384.000000 45765639040304101456322602048598031252980760386038739067324250511726327100149334016.000000 0.000000
45765639040304101456322602048598031252980760386038739067324250511726327100149334016.000000 2181386650093613876429041302669885259860972672592451183233486775552920051511197696.000000 0.000000
0.000000 0.000000 0.000000
-1810854844259421663204177184353100205558351577163474277874469139930376073618915328.000000 -2755902981627602338421479393166614573887901528579427483654871307188822997488107520.000000 0.000000
-2755902981627602338421479393166614573887901528579427483654871307188822997488107520.000000 1589804144083705739766425140122422923440721496274573783558517336910808863473664000.000000 0.000000
0.000000 0.000000 0.000000
4600392471569421419805395776005349837057418409378911359799639718990810855558348800.000000 3821635375616239808977040502562686243442174033074846751691610457031541295100723200.000000 0.000000
3821635375616239808977040502562686243442174033074846751691610457031541295100723200.000000 1478409929091678128786193820097343468679772249512959410539858158426954655512657920.000000 0.000000
0.000000 0.000000 0.000000
279418613781969978165613053656763143924101341190051117731559897695616106638606336.000000 -283953599814257437064981828588513590148842944488805540333022269893889728861700096.000000 0.000000
-283953599814257437064981828588513590148842944488805540333022269893889728861700096.000000 121034949406349930373812321730222404573919471179967107524519766070543199447810048.000000 0.000000
0.000000 0.000000 0.000000
-35109867414161471259638568430028395891936572411465958429096392421339986510915567616.000000 -9687459499604804768416983899038533043087135314229909410671499510180844562005622784.000000 0.000000
-9687459499604804768416983899038533043087135314229909410671499510180844562005622784.000000 4023240875730714996003290837834715487311241403667833769176316314075930185825255424.000000 0.000000
0.000000 0.000000 0.000000
21358995382897210935625622715279918635396648658869462559460407466977605023956992.000000 78139859003290295940231247336478739478504274738538080472113868332234056975515648.000000 0.000000
78139859003290295940231247336478739478504274738538080472113868332234056975515648.000000 41366922540085216523008505891601201057305398420957482832859989058581494193192960.000000 0.000000
0.000000 0.000000 0.000000
-437763854739887495950835861211192069235259933940533499865132418921945711484338176.000000 1224350044135148695102833488254722772427449648210020344273907329194574322224594944.000000 0.000000
1224350044135148695102833488254722772427449648210020344273907329194574322224594944.000000 698413556900556582175026659082653273253102353651843959407167850212826518007054336.000000 0.000000
0.000000 0.000000 0.000000
-21124202934648124699244485904948283168417824288294070331821901300225999875604480.000000 123434505999948754717273677703610586386710661658757154458205495901182490054754304.000000 0.000000
123434505999948754717273677703610586386710661658757154458205495901182490054754304.000000 69966566460818398430379143124387866633042929145195189171859459675976545949712384.000000 0.000000
0.000000 0.000000 0.000000
41089112473641437203788814698616999629386652848944079355120952625261662384947200.000000 -9102968968088068488079529033247598060793326999231029682149056492239595547656192.000000 0.000000
-9102968968088068488079529033247598060793326999231029682149056492239595547656192.000000 1474081686757503780397009254536759677898008567106229842270850257124203675254784.000000 0.000000
0.000000 0.000000 0.000000
15682389763501777839225363047699410189683976017853226539671380950765549635575480320.000000 -8950775261203169286390399931249280164286611801551053630586678385826625326910799872.000000 0.000000
-8950775261203169286390399931249280164286611801551053630586678385826625326910799872.000000 2809488711600381931231834587868779221271977387305717743752578941460504484501258240.000000 0.000000
0.000000 0.000000 0.000000
868873652366051745463037877494677762862979041368190247370422253176311931729870848.000000 2210987871928275752007745450640111587940125110753749535871933492201479626242916352.000000 0.000000
2210987871928275752007745450640111587940125110753749535871933492201479626242916352.000000 1137793837851014738573488603006655407308970332322573749732539632331060265195929600.000000 0.000000
0.000000 0.000000 0.000000
-6472275817747186736581418877292077921359767298265195914678877134572048847032287232.000000 -6420046798234369343018354385227866305926361132998681624085560316473887493701238784.000000 0.000000
-6420046798234369343018354385227866305926361132998681624085560316473887493701238784.000000 3664537766943705038524558567347413336689989390443527297803091105908395106289844224.000000 0.000000
0.000000 0.000000 0.000000
-676027581891351005892021761195418384216758657393690205299064083103258385696398770176.000000 -27748273047512836726536799561881478402118740865255213962455932341447374983321878528.000000 0.000000
-27748273047512836726536799561881478402118740865255213962455932341447374983321878528.000000 2260478014707232404220464386930719098465487682798951354597598414479939437896663040.000000 0.000000
0.000000 0.000000 0.000000
9705503385230434863724370473122183850603057879894221075011234178545139604432879616.000000 4700288555986768186908284646141119288097233133676924924751267472573642414086946816.000000 0.000000
4700288555986768186908284646141119288097233133676924924751267472573642414086946816.000000 1316546238036632723465357930205584647137231644584115505887828082137718431649103872.000000 0.000000
0.000000 0.000000 0.000000
-7715200649165042720176986624160123241930528038743242938944640657952815888465920.000000 44214573915548638910679801066555488393368923225908778905333620521172943077638144.000000 0.000000
44214573915548638910679801066555488393368923225908778905333620521172943077638144.000000 24678498371593484992586172226873597788611100906175234204869667070995397309628416.000000 0.000000
0.000000 0.000000 0.000000
-6315692909623476172444752087436720912289085566830066612737742849396200523794743296.000000 685150331296051707169446657354322646879075438722925214761171573362848646188498944.000000 0.000000
685150331296051707169446657354322646879075438722925214761171573362848646188498944.000000 150309365419065564512077114241634005148020987554540374509697618328537010962169856.000000 0.000000
0.000000 0.000000 0.000000
-2499597958620521494879130527310482481442951439576424984678246527814584357785436160.000000 -1667591899543666071062315155140548174972528965418893088208356010345827236472422400.000000 0.000000
-1667591899543666071062315155140548174972528965418893088208356010345827236472422400.000000 907640823072244074593153909259814936341704555800835826100128590793279698079055872.000000 0.000000
0.000000 0.000000 0.000000
226963740681656179802046778294365133275593646707562610402528848158049042188730368.000000 127907055381836242118020947413887565138070590599795394610390527637079060910178304.000000 0.000000
127907055381836242118020947413887565138070590599795394610390527637079060910178304.000000 40148263295920177212587924504426296991107374988528791838573189349003477286649856.000000 0.000000
0.000000 0.000000 0.000000
-25023415084331021700422005954746608394407320313532799633329407567129629191101743104.000000 305126845856332943754686167665589700885620063266551778994210434178535217705254912.000000 0.000000
305126845856332943754686167665589700885620063266551778994210434178535217705254912.000000 30481803339963766853371002633656938920495090862616060602720039632936713471393792.000000 0.000000
0.000000 0.000000 0.000000
536140939891310078310799912165940523073332376735523852498401140533202737914970112.000000 544036354404459768228801419372661899354301204570020012472365984863065541139496960.000000 0.000000
544036354404459768228801419372661899354301204570020012472365984863065541139496960.000000 230687372936868033790714105625448594030915345005177484230655209613583779046096896.000000 0.000000
0.000000 0.000000 0.000000
374300219916019372439204197370756542740160872792892699758390595910678690249310208.000000 143085195672382546679009550448729328292570369358435601222419011231779556859838464.000000 0.000000
143085195672382546679009550448729328292570369358435601222419011231779556859838464.000000 32008938256048489316012563507848453067989055038754808045318018906385939263651840.000000 0.000000
0.000000 0.000000 0.000000
-149085360177924266925465018702794313839706334489809183706443923052370551143137280.000000 2765848064906567947621198166263740389599708267329784296313487374736431150792704.000000 0.000000
2765848064906567947621198166263740389599708267329784296313487374736431150792704.000000 253113424313134269955594664094140808064321699801962984948134389022225105682432.000000 0.000000
0.000000 0.000000 0.000000
7802576008144498422716170040336308436726417781128837957246847341856733736084701184.000000 7229298045180473871724361769498024203936195086577583165911413481695421824963182592.000000 0.000000
7229298045180473871724361769498024203936195086577583165911413481695421824963182592.000000 2935782780996821367014016622988146884721441467814670192365872306624418389552005120.000000 0.000000
0.000000 0.000000 0.000000
4489459785380158759347218402478625622824830250675798807945318999673956385721155584.000000 -23176966807411481392100778040562171289721018805756432016355515131126488409172869120.000000 0.000000
-23176966807411481392100778040562171289721018805756432016355515131126488409172869120.000000 12477201211152859838587190833656429268434873804185991860208451595518074918809894912.000000 0.000000
0.000000 0.000000 0.000000
-5104168140997279509122962882225027973011761113687644609833001640693722893747486720.000000 -6852608923853489533787972152591423418296582269575876161100547274570601396237762560.000000 0.000000
-6852608923853489533787972152591423418296582269575876161100547274570601396237762560.000000 3945247657285535144325665281302154954038526339044329221866207875361756439637917696.000000 0.000000
0.000000 0.000000 0.000000
784781739935503121088746755717482569049502154243227748915475950974316885938536448.000000 -429655320983273910102749165938855065766599885354729424355531820845340841752920064.000000 0.000000
-429655320983273910102749165938855065766599885354729424355531820845340841752920064.000000 131263964518665603408882399578669816247793885908815401893424777398510999218159616.000000 0.000000
0.000000 0.000000 0.000000
-4492524717367943052545854396134152290889037827261693924632944033196655584850477056.000000 -2602961321023678637191894721297435699006859306390865206753404758699647232754319360.000000 0.000000
-2602961321023678637191894721297435699006859306390865206753404758699647232754319360.000000 1571461444864965002941918142870231383215572357412476624471305273757639431707164672.000000 0.000000
0.000000 0.000000 0.000000
-36055097235401010482761434097662348478074293494782997671453101710766939406598144.000000 -180928667241255791308989372066542437712783592490405469882547849353395003809857536.000000 0.000000
-180928667241255791308989372066542437712783592490405469882547849353395003809857536.000000 124974649758608263991433647727189062359922732758586194227550059766359656320991232.000000 0.000000
0.000000 0.000000 0.000000
4412380739617801404107968497135473749401861901014767287881633013236783523204956160.000000 -3743730245323119902476752798949458195992214764271230479141145455410256354681552896.000000 0.000000
-3743730245323119902476752798949458195992214764271230479141145455410256354681552896.000000 1473361281811490245284333863129218977000609634221290595732335690692065270693888000.000000 0.000000
0.000000 0.000000 0.000000
-4307437883812008556320488094756051406736063172729051890002670484595404772026089472.000000 -757136560424176046960898410902572655768050415129081092891346378841259715179053056.000000 0.000000
-757136560424176046960898410902572655768050415129081092891346378841259715179053056.000000 228365849909033313233810649994187994518033061010150446686244747262078866832752640.000000 0.000000
0.000000 0.000000 0.000000
-7984428064522037861284928531748425477679933207501425268465347076074834045488332800.000000 4136843333265642413348053297294569354617454115486964808831062146890698700533792768.000000 0.000000
4136843333265642413348053297294569354617454115486964808831062146890698700533792768.000000 2135490225172740021525948265697904203114828937239146548241744237875766557776281600.000000 0.000000
0.000000 0.000000 0.000000
95861109658290827027345430451205948947569068512733795188730932942903332508270592.000000 33151353828238914363541492244412775883660069320619584818240145290624318048305152.000000 0.000000
33151353828238914363541492244412775883660069320619584818240145290624318048305152.000000 7173916290148866140890978671637370704510959752613221515465512396719658434035712.000000 0.000000
0.000000 0.000000 0.000000
-438201926151592093282428382212600728540839691960856456738110400796401313316020944896.000000 -62786577161575035165472689643879971841052168891717105183069478610294818757064785920.000000 0.000000
-62786577161575035165472689643879971841052168891717105183069478610294818757064785920.000000 16137824307722907757955118634260263777994290314203404249383006757012020008327315456.000000 0.000000
0.000000 0.000000 0.000000
-138626838095062266553203948891798505371211655069116185463968720751849858876309504.000000 -2668797346734572859254679488002377303697101392643836709587733378076329775244247040.000000 0.000000
-2668797346734572859254679488002377303697101392643836709587733378076329775244247040.000000 1495128522124765191865637478473293257676737925901680118665303153354056317530013696.000000 0.000000
0.000000 0.000000 0.000000
91987800686970077454302010285390650113139110020510003216931215535336250310393856.000000 162970605105862697245767387366098101858339026279451028972031658802739868946399232.000000 0.000000
162970605105862697245767387366098101858339026279451028972031658802739868946399232.000000 86144816962771629509381632194459393059145895466559078533149681717088807020396544.000000 0.000000
0.000000 0.000000 0.000000
-40163110099166386101331895949702747110795978229488009276103705457960713119332302848.000000 -9939622260505446318219154035806541986832769801453279394965710401473117399522738176.000000 0.000000
-9939622260505446318219154035806541986832769801453279394965710401473117399522738176.000000 3926651581812161674633525987644479577051868105718035829299556871385877560967561216.000000 0.000000
0.000000 0.000000 0.000000
642346294763380479657112428056689189087718809114632804898761952526820608407764992.000000 909277936578055740329293920111233188438227608152509524310909762510128363297832960.000000 0.000000
909277936578055740329293920111233188438227608152509524310909762510128363297832960.000000 293576266314940352264954254655674748306438721183268146470049205578685959597195264.000000 0.000000
0.000000 0.000000 0.000000
-752107860073630530446104985855110896131745509256485308528471438016974348867338240.000000 -6577753224819980546997161001782194358332621131269931309714328604276800110985216.000000 0.000000
-6577753224819980546997161001782194358332621131269931309714328604276800110985216.000000 457126647198296630286517060468469345476926202038670126029468609700371103744000.000000 0.000000
0.000000 0.000000 0.000000
-26185943870949194796719148317200895581631457865113005941675399034914615279593979904.000000 1435637780799423722327761952668674231759809859113894091751773400193537591291674624.000000 0.000000
1435637780799423722327761952668674231759809859113894091751773400193537591291674624.000000 156179363603391954437893877779689918584313497388898355249404151762476958931222528.000000 0.000000
0.000000 0.000000 0.000000
-2611350209242985226240749726431394630048702916159085622461633253191618540980928512.000000 1386024984595406301610013986657234944419023179294139356746454101644955583388844032.000000 0.000000
1386024984595406301610013986657234944419023179294139356746454101644955583388844032.000000 717235844441700637221906589899740276163736023785566619127439969600916636649390080.000000 0.000000
0.000000 0.000000 0.000000
-3740126166360073377940785456551574580615876735528260457933624579710191185491394560.000000 4124920080497038556951617475565844997101272914014045104498433774129269907036045312.000000 0.000000
4124920080497038556951617475565844997101272914014045104498433774129269907036045312.000000 2431386422063771779440082149540588550352883490961934716888102761037241755308654592.000000 0.000000
0.000000 0.000000 0.000000
60781009741049879680321459699961218442753467417646437812625974924800992819019776.000000 31267079028813800539818105843166659591309924854219704347683418899775615691390976.000000 0.000000
31267079028813800539818105843166659591309924854219704347683418899775615691390976.000000 9152467572998561759694572872097801172262971976233709312858681364052270968209408.000000 0.000000
0.000000 0.000000 0.000000
-42217956914302103872319216796020527151930467134298931556792431840058411023597568.000000 83219068582000096712016715634284908188450887157185093408350914948302780953001984.000000 0.000000
83219068582000096712016715634284908188450887157185093408350914948302780953001984.000000 48013083006135686009958459001774816453344496716003601309264159964509014750920704.000000 0.000000
0.000000 0.000000 0.000000
81623503473066982399459029555122979642036000718290412485301510057817620835467264.000000 -50427294672332889524290089469942542839000315814378722228545018449668743926644736.000000 0.000000
-50427294672332889524290089469942542839000315814378722228545018449668743926644736.000000 57818030368468148972662404630970882407706187051127871322746043711347973530058752.000000 0.000000
0.000000 0.000000 0.000000
-3483174324207804018066742086834881137288554695958095147340146674341696102715097088.000000 4486595056263027766522633615683663612329362017628417915301063182739372450026356736.000000 0.000000
4486595056263027766522633615683663612329362017628417915301063182739372450026356736.000000 2580624100231992293678746161151121460541468946318855693334423159075702098611929088.000000 0.000000
0.000000 0.000000 0.000000
-311527216856203789932397689833696525750790220054049341128145158276427564693061632.000000 322055533040681193031587711359851572260425604841650247479848802883472400081485824.000000 0.000000
322055533040681193031587711359851572260425604841650247479848802883472400081485824.000000 183507024399205193886902460847178984301432047341983210116342582680708580846338048.000000 0.000000
0.000000 0.000000 0.000000
5334377103775255616166594900739341356837738639647538792002871592385198002922323968.000000 1227667047183022979447572286354975364498000036370328039916055468307387913439543296.000000 0.000000
1227667047183022979447572286354975364498000036370328039916055468307387913439543296.000000 183289096252725347097365870885446625253537133938963483764274904377663654107021312.000000 0.000000
0.000000 0.000000 0.000000
-1148006710846381933638454853235820452832320974772183398725488083224154596389683200.000000 -1232724355935636324437633111330861076304074269779687205583269121906286047474483200.000000 0.000000
-1232724355935636324437633111330861076304074269779687205583269121906286047474483200.000000 700128996558485494259950095688158439863024216175893536614556906541709059222929408.000000 0.000000
0.000000 0.000000 0.000000
321923334317611311381683907539933059980744937391451142344870835165101517812269056.000000 92368109183199076985378682507619659140409983282649823097742036364440349288955904.000000 0.000000
92368109183199076985378682507619659140409983282649823097742036364440349288955904.000000 30633409928262084238931632630754166355454408354558628532472900464024065534853120.000000 0.000000
0.000000 0.000000 0.000000
-988816889559327994224365913239035295497976085371876176763433310260992476943745024.000000 -4326129065967792592929374515029573111395209305958117806186514262058195385367658496.000000 0.000000
-4326129065967792592929374515029573111395209305958117806186514262058195385367658496.000000 2473022142163679637242211232465851947203371862593327926315523761738155205213552640.000000 0.000000
0.000000 0.000000 0.000000
3620185926710885181227761395308686998256105529326086661209466041175703925091729408.000000 -6826588853852721614101643755109888032334467607775153100233533752455620590584201216.000000 0.000000
-6826588853852721614101643755109888032334467607775153100233533752455620590584201216.000000 3395880980962746412810337966713633818136648077290863031582140306321677100253184000.000000 0.000000
0.000000 0.000000 0.000000
6299615245435293582538167890275364980148410709340746652956194113558219879289454592.000000 -8715695520851139739817543276667565597585914587666543233420849428113190941571940352.000000 0.000000
-8715695520851139739817543276667565597585914587666543233420849428113190941571940352.000000 4064388719314040188738690002698570290143172463003596747525884404171358612054081536.000000 0.000000
0.000000 0.000000 0.000000
183227040025766681998980656741753744676945432461146902511300822821177111059890176.000000 1071215440445888772928260137730323409047483667810871170619115197791799018298277888.000000 0.000000
1071215440445888772928260137730323409047483667810871170619115197791799018298277888.000000 578255319832345773261780311953450076587433751913629649193985716888704438610427904.000000 0.000000
0.000000 0.000000 0.000000
-169630644833392697628793528578472562330315505047623183629469932993673822015062016.000000 1015398709092508436697543143388848278837597316730488284309477576077157562119618560.000000 0.000000
1015398709092508436697543143388848278837597316730488284309477576077157562119618560.000000 575654490272733706805166835639754448168124321109373975837326668655601080177000448.000000 0.000000
0.000000 0.000000 0.000000
43266775672079299723552064244656159137280031856536316781134885660943253986344960.000000 807574231433819388275547261996859016883677767022017174131699069546028966346752.000000 0.000000
807574231433819388275547261996859016883677767022017174131699069546028966346752.000000 250555232137932114490430790089795954811833945577026742957400679617159808155648.000000 0.000000
0.000000 0.000000 0.000000
1442619580769798978402289612252146747359536901611821408722791918406939921283547136.000000 -138891953296245143881220435300301845041379002655946098769783767590361403739865088.000000 0.000000
-138891953296245143881220435300301845041379002655946098769783767590361403739865088.000000 13257554259615210810018376111090141865920534868772941615546417989040292749115392.000000 0.000000
0.000000 0.000000 0.000000
1566968774684838930361902041440244005515012533058314932223482998550486378830888960.000000 -2793718872913866394575197274266882336068943641913515149183514717088520312411127808.000000 0.000000
-2793718872913866394575197274266882336068943641913515149183514717088520312411127808.000000 1284125274883409851818697362578081538280114534328933789842797577441430656161677312.000000 0.000000
0.000000 0.000000 0.000000
5763951581127164469844258486752712056795318718867125731744693465401909311438848.000000 1814952427130209837747089397830482753253563635863793784495107778209849259589632.000000 0.000000
1814952427130209837747089397830482753253563635863793784495107778209849259589632.000000 404177791069632594605725847487582647404622767478493145561178139377788797321216.000000 0.000000
0.000000 0.000000 0.000000
19325398433525923149083451184880909945212486379595688486183429713141826091594285056.000000 -22642853698734500273999325327586895644966307332071406111752338287280273615833006080.000000 0.000000
-22642853698734500273999325327586895644966307332071406111752338287280273615833006080.000000 10082970372110323535000040658392343163507332981732822056846858755674725544785608704.000000 0.000000
0.000000 0.000000 0.000000
437404529922683742174241375322992705767839665671103022871855747012523074781184000.000000 -39958678871494897206144114262020278097808469133475809378143173523070189471531008.000000 0.000000
-39958678871494897206144114262020278097808469133475809378143173523070189471531008.000000 4849204536348080992711738432816752127998834768237719752900777441778276612702208.000000 0.000000
0.000000 0.000000 0.000000
14940993473136167975715416450955197866348404177540916198061931668783988687765504.000000 -83752686725169605804196944160683924364380729500262945339053367021395559260880896.000000 0.000000
-83752686725169605804196944160683924364380729500262945339053367021395559260880896.000000 45637645762533701865764464694364045288596336834033352534378061422226566767706112.000000 0.000000
0.000000 0.000000 0.000000
161149734082896523412478603877713344860010910936269985558350637320915074177564672.000000 335618290325111375779234082293152260709492326062116303483933933643392132021485568.000000 0.000000
335618290325111375779234082293152260709492326062116303483933933643392132021485568.000000 167831816473578415405978028924654918512630789216896652704996923878668342329868288.000000 0.000000
0.000000 0.000000 0.000000
189313495162145814746753712936085416271969652223826076972070015140394722675130368.000000 -282850522280919973305798851858328044225695571910745490149812661086088666506330112.000000 0.000000
-282850522280919973305798851858328044225695571910745490149812661086088666506330112.000000 133243310753875981049094925647375130012572362449446820488836058548150292984102912.000000 0.000000
0.000000 0.000000 0.000000
-5685023006425444464338491342837005879929457124624921234384315676667954014978048.000000 -65774285667840670556305680707606148640037381975786518315784671149003485439066112.000000 0.000000
-65774285667840670556305680707606148640037381975786518315784671149003485439066112.000000 36895735999696611979711287921101019246703558625549290567875694095676429387694080.000000 0.000000
0.000000 0.000000 0.000000
137255689614845804983203145028158051732078790697197967946482158106793945153404928.000000 224797961931130747789761491490362216309540627071387582753137925036980378280132608.000000 0.000000
224797961931130747789761491490362216309540627071387582753137925036980378280132608.000000 108796794437762350128658300143345221735519232975218513572753959105553575689846784.000000 0.000000
0.000000 0.000000 0.000000
3916154973397788099430936364923353822357433343978655160999178533783986432376832.000000 26182181624826195286687422572243622162021332144582658566875478171899716993810432.000000 0.000000
26182181624826195286687422572243622162021332144582658566875478171899716993810432.000000 16229718953959140530247368089710448087629660876208598400944633167974885337595904.000000 0.000000
0.000000 0.000000 0.000000
-56960081774731225006028932354811573460660121504353300010991214962644346715766784.000000 -20950512610911711526029127910605343984144199514482590370727746208174028768673792.000000 0.000000
-20950512610911711526029127910605343984144199514482590370727746208174028768673792.000000 9609400657223742514268466141394841179023105156799897027130392922099576865816576.000000 0.000000
0.000000 0.000000 0.000000
-4358961068344263688888820881729091733541628462531270948466077187545890450994888704.000000 -213031287481321064978519623941585503988556865371504979935930576938378638401732608.000000 0.000000
-213031287481321064978519623941585503988556865371504979935930576938378638401732608.000000 55300926554496234102722838098292522585078813374784557153115993427384459084169216.000000 0.000000
0.000000 0.000000 0.000000
-1771691825350542930615474765922529551796170918054743407166870637439160607517442048.000000 -211620879322745774476215019277505453288631724900589315628799385496305812419641344.000000 0.000000
-211620879322745774476215019277505453288631724900589315628799385496305812419641344.000000 46683776271346792993862173582588698992766721850316962915090126906664306601885696.000000 0.000000
0.000000 0.000000 0.000000
-7802839532094461435152441053616558741456020767467509887533847870997680436782563328.000000 -5409912930750890970687943398781633997568919734313870361253910614219634407179812864.000000 0.000000
-5409912930750890970687943398781633997568919734313870361253910614219634407179812864.000000 3029393445049763336172958811869103249806779507894836603055095234494792062218534912.000000 0.000000
0.000000 0.000000 0.000000
-73774929877846514240616998533087209429169647424387209686635280902419307093295104.000000 -95010255571635682835050804059431891922670316114551970133536283241912883514179584.000000 0.000000
-95010255571635682835050804059431891922670316114551970133536283241912883514179584.000000 53896252549773105464709720151238377304529244340474825335245761551409021989158912.000000 0.000000
0.000000 0.000000 0.000000
666828044857381814902456923704529618962900910105812746997114724503162773336752128.000000 121475432486105902512128971283142080167412234406969991328607556574183942717964288.000000 0.000000
121475432486105902512128971283142080167412234406969991328607556574183942717964288.000000 14477875211893962802529514789119327791747148968452050687439941738002716798484480.000000 0.000000
0.000000 0.000000 0.000000
-1205553032757893121186718909440287079925950036567147991600108006064138567565705216.000000 237364830496328579360231933788760928623554464619113581651967120731073280278003712.000000 0.000000
237364830496328579360231933788760928623554464619113581651967120731073280278003712.000000 72526896910075639144376781485946639024132557812146761232375408981069263320121344.000000 0.000000
0.000000 0.000000 0.000000
629315442290834808338451197565581487040371485511940367033844591620097118587322368.000000 176305095484190935997367405965273008300291550473697659100392832472525450258677760.000000 0.000000
176305095484190935997367405965273008300291550473697659100392832472525450258677760.000000 55865925519800154115336934161232780300526914209437765927368050178305415920484352.000000 0.000000
0.000000 0.000000 0.000000
498661981782909416842754637317914995770309871298655838465927129209339355468922880.000000 454340913181355628698003342468393178332507262297090905727387243422852791828217856.000000 0.000000
454340913181355628698003342468393178332507262297090905727387243422852791828217856.000000 184635286969307630401341253631058519878689457906571767989515796633167934921900032.000000 0.000000
0.000000 0.000000 0.000000
29983324944975192661502582742484876896741446964545773311019910305164323224658378752.000000 -1389840641013907781010752477037023424883481901445560794695635334827548692547895296.000000 0.000000
-1389840641013907781010752477037023424883481901445560794695635334827548692547895296.000000 48151855774957834582188516606287328183976739244027449802888420413982840027348992.000000 0.000000
0.000000 0.000000 0.000000
1383976136932488881382398953783958351149423768954305976881375619005523857630035968.000000 -2326031944870011544707800461676510450955899239094133825664967292524476085804466176.000000 0.000000
-2326031944870011544707800461676510450955899239094133825664967292524476085804466176.000000 1066998214339961837973102777005928288773799555744070998826267568184462377129869312.000000 0.000000
0.000000 0.000000 0.000000
-288737700366457388368962802956533174230566843796327185337616366964505011541770240.000000 666599240144688550402359390823838778175139352318537800418042188064746908648734720.000000 0.000000
666599240144688550402359390823838778175139352318537800418042188064746908648734720.000000 384820398944077876501963309134745617047268505139186216528262964176540110310866944.000000 0.000000
0.000000 0.000000 0.000000
2140137708444707436469714359840969090088910394318141223578141229292570882103836672.000000 2885193211300130196884384341994914223248163555466232344289658075819840946382569472.000000 0.000000
2885193211300130196884384341994914223248163555466232344289658075819840946382569472.000000 1335696010675977526195131773140714657069137314921952645160737436190737985100054528.000000 0.000000
0.000000 0.000000 0.000000
39728737332453590444697345658548254749250487311228893159591897710630248898363392.000000 23504182771492777140924671251428673613021283640425499979244617204151676338962432.000000 0.000000
23504182771492777140924671251428673613021283640425499979244617204151676338962432.000000 6874314775822244146244407282332753138821929680402629877702003290659873695465472.000000 0.000000
0.000000 0.000000 0.000000
1913239528047013370338877200823515134728845527081464277235004331592523961199493120.000000 -528928190551577074058948049022018471356746575902592679416091597281278316750307328.000000 0.000000
-528928190551577074058948049022018471356746575902592679416091597281278316750307328.000000 95513704235117202795084501158667002307588334378607448035185293531553668498718720.000000 0.000000
0.000000 0.000000 0.000000
-1586663640981240448505811734823252068851016838552539984845945998549779563824545792.000000 7823067927611079513940428283573966492606274715881745784232895423623583288524800.000000 0.000000
7823067927611079513940428283573966492606274715881745784232895423623583288524800.000000 305394764171895827956868243689708653451190262833877657829812533303889746722816.000000 0.000000
0.000000 0.000000 0.000000
-3165141832160426464352431910880152493610169577512784606651120630820928057843384320.000000 550151799654699356968487333944185611753089705585077898417284421266806883557048320.000000 0.000000
550151799654699356968487333944185611753089705585077898417284421266806883557048320.000000 164844759539261168019242177404260968707643271399497773961443675690727666721226752.000000 0.000000
0.000000 0.000000 0.000000
4624745588890812351755630442999973630169331042998467445011755641919070870536454144.000000 -226875586937724645048326189366853079615847207702057063698583467236192403482214400.000000 0.000000
-226875586937724645048326189366853079615847207702057063698583467236192403482214400.000000 36930509371676996838260246906640899592796407258113241419907382868584161116946432.000000 0.000000
0.000000 0.000000 0.000000
41687804226813102323199492898388947595611929158544866328386535941693434199277568.000000 -222165901099530502755979495827619689612008937998894190238951683987972680111357952.000000 0.000000
-222165901099530502755979495827619689612008937998894190238951683987972680111357952.000000 115574989179093868702896706023178769463458973341137783877784780723107891452575744.000000 0.000000
0.000000 0.000000 0.000000
-100756974363474095679724814633884807084061120356748005798951219592013399335603535872.000000 -5433254392948071175867806337732847708485395618757980591012383509641262213722275840.000000 0.000000
-5433254392948071175867806337732847708485395618757980591012383509641262213722275840.000000 576534551247221265555545091388953393568271042524987394541424990418954469930696704.000000 0.000000
0.000000 0.000000 0.000000
-37058450925797061269165930999192811546949213579413910975664792439435549474614673408.000000 17444405071449447583957691452886992889188810862331478356807813564138202927466545152.000000 0.000000
17444405071449447583957691452886992889188810862331478356807813564138202927466545152.000000 9253634767844124089687823874938895295702557864375233727838284360909661890683076608.000000 0.000000
0.000000 0.000000 0.000000
-40040390356990851162467133068682553497010969538806046575524380946227096992088064.000000 -29814029227040510197125025406028790169329963314245060661362030712565084400386048.000000 0.000000
-29814029227040510197125025406028790169329963314245060661362030712565084400386048.000000 16483428981963255300374899034659713359533393918317027340765712474334850854158336.000000 0.000000
0.000000 0.000000 0.000000
5869751086218572018277083619140455144959495904895197048997294121350581204262322176.000000 7497066654118967390556697813256308120124160451560576618026314312690351527585382400.000000 0.000000
7497066654118967390556697813256308120124160451560576618026314312690351527585382400.000000 3423393640076314341556219691113769139743448357211578506459138877849357325623623680.000000 0.000000
0.000000 0.000000 0.000000
-2165186117992093826034112019551520104790560228099192364032340581990928658733203456.000000 4411527005891009554003200708016391744254048313925487259231797063081041046271950848.000000 0.000000
4411527005891009554003200708016391744254048313925487259231797063081041046271950848.000000 2543147404908289429207885156533639490213767177207006877922783945412195910017875968.000000 0.000000
0.000000 0.000000 0.000000
-26285402378864453217137108180850119865548349162075574348178372051084410466861056.000000 98178653050000498667812895917673471301993981126953904407189010317202798040580096.000000 0.000000
98178653050000498667812895917673471301993981126953904407189010317202798040580096.000000 56084351104249394229153778554364395930527348177595361424906430607568016691429376.000000 0.000000
0.000000 0.000000 0.000000
-243934081659605237779175713878564073072641578783922916614817644484605165699072.000000 1070326061754415864658340834119308342507608455804401252877929108057704970059776.000000 0.000000
1070326061754415864658340834119308342507608455804401252877929108057704970059776.000000 609970181406638812060964287301866264186205083296944026853355008087931217772544.000000 0.000000
0.000000 0.000000 0.000000
1227160441935213114870880701350318593417084652170170038074628146300133100329369600.000000 -1786546826392945707850809909285210105693422930410491400675230375214809289007824896.000000 0.000000
-1786546826392945707850809909285210105693422930410491400675230375214809289007824896.000000 803674311324184256544363607823511568218497361693057555807165543497265110369435648.000000 0.000000
0.000000 0.000000 0.000000
1452667807906321963590822242967624957557476469505211714701446336384358258711724032.000000 154872373130732523132250141023993473347411876795843340346915371833681237921234944.000000 0.000000
154872373130732523132250141023993473347411876795843340346915371833681237921234944.000000 11913959316566970570733919846551472917094024228744065991999967841045786428178432.000000 0.000000
0.000000 0.000000 0.000000
255709675032090312277986698622538240047148903067278590176724852640055750729662464.000000 -1580277137653352333610293508301796352369633839200065301632135514579690520513085440.000000 0.000000
-1580277137653352333610293508301796352369633839200065301632135514579690520513085440.000000 884810807504114105681375035093498847707115386518949416274406252630764315557756928.000000 0.000000
0.000000 0.000000 0.000000
5665041065628877454125382289321878385648681850556759614882718996975053978749370368.000000 -7399662894321244548307995007055053972059773466023201063206202094293177353726066688.000000 0.000000
-7399662894321244548307995007055053972059773466023201063206202094293177353726066688.000000 3399412544001168263680591989628190598629373458923489541215334371404519747633545216.000000 0.000000
0.000000 0.000000 0.000000
-21168621186753019804459255766195298994261314789102062946315377730798302418402541568.000000 5630427898735167618437397634644951815505352317485677507096681039981613517883047936.000000 0.000000
5630427898735167618437397634644951815505352317485677507096681039981613517883047936.000000 2316203536626470927671541072627321096548689015756858347225768746760803097417613312.000000 0.000000
0.000000 0.000000 0.000000
2372510803880378723378267374017151935010792700580966430854426459258782448877568.000000 340553615530901477191992478584301969088108112285999373421570691791567798140928.000000 0.000000
340553615530901477191992478584301969088108112285999373421570691791567798140928.000000 142030089415774944808106004728377392881001105266714542770746918954536273969152.000000 0.000000
0.000000 0.000000 0.000000
2251873773874499920925192848414986644023003879334198624791185522438301976631443456.000000 1649417076864159529087497971368721460375154994691395767226666479575329641085272064.000000 0.000000
1649417076864159529087497971368721460375154994691395767226666479575329641085272064.000000 603475872961957135464908791302573462732970249311990475536247294030874968984649728.000000 0.000000
0.000000 0.000000 0.000000
585830275851640179117696325243728872595391523840958475237502466085277411993190400.000000 126173211724241271448824282528795244239299230500021230747942599108723891597475840.000000 0.000000
126173211724241271448824282528795244239299230500021230747942599108723891597475840.000000 75212059386755601677091713463195105998833014637446604563879268996751113890824192.000000 0.000000
0.000000 0.000000 0.000000
-7472338488916671151128206020348038762719347536040738416145157228734161745258479616.000000 1885716529870797414074431342235540289072242689654255318919749416769988528667885568.000000 0.000000
1885716529870797414074431342235540289072242689654255318919749416769988528667885568.000000 722309693873430313703394740216355445129996953655176177960884945911466707537362944.000000 0.000000
0.000000 0.000000 0.000000
-32196093668435520003463627125372598361519771555965406037672996329817103509592473600.000000 -9698848552282937034434559273499938199501152738571151681937462376218697987455451136.000000 0.000000
-9698848552282937034434559273499938199501152738571151681937462376218697987455451136.000000 4088491989941937790575757914890489319098525377773668268733532509992087072601538560.000000 0.000000
0.000000 0.000000 0.000000
856394058078993344839545848754817849867223093026527067558236922707234580110245888.000000 -1739886575345498138964304924794910673732203937542807900985790423131856103976992768.000000 0.000000
-1739886575345498138964304924794910673732203937542807900985790423131856103976992768.000000 871552299249434890390838335457972563609169226864980126451942744563409611586011136.000000 0.000000
0.000000 0.000000 0.000000
-60638400769136187027101225153952845252900020284119528729765849988840688076193792.000000 101809724679786956088711705501703252249976387264639073860750827454706414933508096.000000 0.000000
101809724679786956088711705501703252249976387264639073860750827454706414933508096.000000 98258133513271587767241782511974139688997772304123037630716764393581909404286976.000000 0.000000
0.000000 0.000000 0.000000
108311531948991814463459231131854125916506819470759296013701262680096057870778368.000000 2206610011562834937896874682610986866934307274821194661151998627153617131648581632.000000 0.000000
2206610011562834937896874682610986866934307274821194661151998627153617131648581632.000000 1218224669614692999263705624679837593485884456403994840738065341234543175953022976.000000 0.000000
0.000000 0.000000 0.000000
-2410654994042065396789681100391729041085284853464408834438139845802968726085042176.000000 -93000659582953005969490549961075750257411535862028077525649440987444690884231168.000000 0.000000
-93000659582953005969490549961075750257411535862028077525649440987444690884231168.000000 46911711466839394381643610852358315678840703013747260110523928243531456807174144.000000 0.000000
0.000000 0.000000 0.000000
-11997143593586930838576837224258451766999519418790214357135748907806048446111023104.000000 9930729353770264768461150313796343165645880839059655609850084559760716688456155136.000000 0.000000
9930729353770264768461150313796343165645880839059655609850084559760716688456155136.000000 5559012836396361575293923473399690206637707263499602537276805093026726148701159424.000000 0.000000
0.000000 0.000000 0.000000
-76935380462250374296961514727134371233031985024008634729250286566378469266030592.000000 -333823725933931573583707594085808727742213781438000113479309644352795118594424832.000000 0.000000
-333823725933931573583707594085808727742213781438000113479309644352795118594424832.000000 195036732581582654473836287487724995874836104273742925369474873407975185866293248.000000 0.000000
0.000000 0.000000 0.000000
6605905515459755726899623604457530680031757871042022797720280915337589431468032.000000 -7198641461279193038837207378485381810187044973838065469035530454053375405195264.000000 0.000000
-7198641461279193038837207378485381810187044973838065469035530454053375405195264.000000 3111994950600051061969547009081151042630047176341085125601777337352266734108672.000000 0.000000
0.000000 0.000000 0.000000
8033880910076092279743404998046243276449318961493122024178514300228792197704581120.000000 11937445837999195445080629283917762390911615195535507712617708416119467656066629632.000000 0.000000
11937445837999195445080629283917762390911615195535507712617708416119467656066629632.000000 5757726812500479335958761269347742509840436756744752479107994190024014068247953408.000000 0.000000
0.000000 0.000000 0.000000
-24196177877239474779318071529422425280547342770429550991409096143303454068962230272.000000 17284090381488259054796613071344543547618883311066075328870712143990749669168775168.000000 0.000000
17284090381488259054796613071344543547618883311066075328870712143990749669168775168.000000 9502261947261673006399885229687159445220704152396997716708814341763894202115031040.000000 0.000000
0.000000 0.000000 0.000000
-58745115800322651544069867012893752896373475698702417840379976339248204801644691456.000000 5302544588982867318047847719455796207121597167479174515322785857406479056035119104.000000 0.000000
5302544588982867318047847719455796207121597167479174515322785857406479056035119104.000000 914057945710125615846625890733206520802990375133434452679984485075585385711534080.000000 0.000000
0.000000 0.000000 0.000000
-3121829562165487619596959885920060998139063814154416543522597240794246501929240756224.000000 -62145439429270262023754979907371118853255971338133419710769803528652408249380765696.000000 0.000000
-62145439429270262023754979907371118853255971338133419710769803528652408249380765696.000000 2472438765752462768889127623529606088218598989283873912936637933177030591561859072.000000 0.000000
0.000000 0.000000 0.000000
2011532679078860912274433578307463731232583372387231489187975317231189659911979008.000000 8112773422911412540792493745976139349045686441393149230513473801811819048529297408.000000 0.000000
8112773422911412540792493745976139349045686441393149230513473801811819048529297408.000000 4323169596565318502228775253371733786386742760423285888091495490493809346153021440.000000 0.000000
0.000000 0.000000 0.000000
-57028264430788485951127723207444746099249458671694144370088542964509012352561053696.000000 -16326176301894469996727220573779433780820629003525753083608913316264230479273656320.000000 0.000000
-16326176301894469996727220573779433780820629003525753083608913316264230479273656320.000000 6708834137824306810321783711930668875489026481432015357975150054922875672247402496.000000 0.000000
0.000000 0.000000 0.000000
1264693605685250511838976734346773273409229456948703155383516793715647893456551936.000000 -486688475622451230883446237888215052359948458042668153799538868116028659305807872.000000 0.000000
-486688475622451230883446237888215052359948458042668153799538868116028659305807872.000000 114492490937612848739726432871375150282121122856832310719253961466499708928131072.000000 0.000000
0.000000 0.000000 0.000000
-18982347743418590905166463830651046032843872885784605785431050270005957260561342267392.000000 285169121578510390229078720671342121873673630909060810799365989002865258401227603968.000000 0.000000
285169121578510390229078720671342121873673630909060810799365989002865258401227603968.000000 8663981112592697320861485841476020913152547734120047913166988624158058169061343232.000000 0.000000
0.000000 0.000000 0.000000
1880370533559303338298288245686041434996619656829153325733527912565134732877103104.000000 2597415193272320884219411264000123936565030081855771465707313769222807850261151744.000000 0.000000
2597415193272320884219411264000123936565030081855771465707313769222807850261151744.000000 1210454183730264611716273851609518153231319938258871448074074471509129728482082816.000000 0.000000
0.000000 0.000000 0.000000
394240192602072294041364419530494113137622794467898153155469477429167866580566016.000000 -420229123320478341598027521898003789597019689438961376653799943617651798899163136.000000 0.000000
-420229123320478341598027521898003789597019689438961376653799943617651798899163136.000000 137895635159216729817980982646069802866779520590719619644424825965160434099027968.000000 0.000000
0.000000 0.000000 0.000000
-222246296127833854190622126321369287008358356127571556774139063200155004504637440.000000 544988501950450085365667555827112962444047372340697659204108679652264448328990720.000000 0.000000
544988501950450085365667555827112962444047372340697659204108679652264448328990720.000000 313349337538657207043764610450167259687343444566452825172406448408665275651588096.000000 0.000000
0.000000 0.000000 0.000000
38522499434296756542205327659592463029346455264074672160172279639496195743678464.000000 85543787903803514183297883159361406636332088722042801117809567677356873059663872.000000 0.000000
85543787903803514183297883159361406636332088722042801117809567677356873059663872.000000 44398968249459254111714686818632265957996933935831767763762888494836191659556864.000000 0.000000
0.000000 0.000000 0.000000
3837119602473558607857161349741263180381999423996974469949022872424613224355201024.000000 1763584248296445058649920837109031736650987212079059078303852440982337826276245504.000000 0.000000
1763584248296445058649920837109031736650987212079059078303852440982337826276245504.000000 474486894906720867332130812795252333152118099170801720309326557658768256645726208.000000 0.000000
0.000000 0.000000 0.000000
12773937454175995910607401099383829972953957797792682775052749416120340646109118464.000000 1146108731252593682751523824992996670766921822991124851706891402991714799456354304.000000 0.000000
1146108731252593682751523824992996670766921822991124851706891402991714799456354304.000000 72914482833961279612786017289733773300268872140981596585228893999774543766355968.000000 0.000000
0.000000 0.000000 0.000000
3161773948675150451891499121446524517772933631267868491039204920358916937341730816.000000 8599027788302193557459621773371723751701543625524876852697798343472542834394923008.000000 0.000000
8599027788302193557459621773371723751701543625524876852697798343472542834394923008.000000 4583801557126791613262211122268913615606418127870731402848382552212107623445561344.000000 0.000000
0.000000 0.000000 0.000000
-76351838593743694539793352974302093363356138391497379026936775009845757534720229376.000000 -23737548627018125948308575431273444062552704672726895350903842506977114332994732032.000000 0.000000
-23737548627018125948308575431273444062552704672726895350903842506977114332994732032.000000 10155429002833329558178387624381255908701057747434526613259450723691793028072079360.000000 0.000000
0.000000 0.000000 0.000000
21599753030106248765643860167631109473463582995474113922970754146077741961707520.000000 66370471038001035212046471657842345831390044016319314179554034526102905463767040.000000 0.000000
66370471038001035212046471657842345831390044016319314179554034526102905463767040.000000 34721563665109201105166523119835547541140653733073712762544243456949380181917696.000000 0.000000
0.000000 0.000000 0.000000
-9624027765496627896274142747387112135158866900252181228852838066548617984247595008.000000 -12801611363270913056978831003238456422626657637509074342416644677302730418645106688.000000 0.000000
-12801611363270913056978831003238456422626657637509074342416644677302730418645106688.000000 7394027338012402257869970577032229862827171455737068797928202359524807850770563072.000000 0.000000
0.000000 0.000000 0.000000
2100780562893981813153502993947581644057846730599114169071936583377292967687487488.000000 3112309836980491458134878669735851962405364240528061342214775950017953753949274112.000000 0.000000
3112309836980491458134878669735851962405364240528061342214775950017953753949274112.000000 1473498802719730525738061240778463634672750671568399420315673779128851320530796544.000000 0.000000
0.000000 0.000000 0.000000
32576837970866187718730988984182803953944035579641463357829729554594511345156096.000000 -454993703550096767166440217069268022638016694652682688785097721583016914716721152.000000 0.000000
-454993703550096767166440217069268022638016694652682688785097721583016914716721152.000000 252492788489592077104346082152262996907526188187293622373433414740788714588340224.000000 0.000000
0.000000 0.000000 0.000000
28843905065312724443012046954639987995878781307551529494337459879326740501233664.000000 21472230950660808230401575822455929795184109018361341516047966751633642144923648.000000 0.000000
21472230950660808230401575822455929795184109018361341516047966751633642144923648.000000 8371062522626654134864272764205830688116240591608767081592702369029839799713792.000000 0.000000
0.000000 0.000000 0.000000
780557451543955934989329728096182911297495221661785696472417822183448760738119680.000000 -1250527177238911586223707757627924123257157684033826455191775933269668773092130816.000000 0.000000
-1250527177238911586223707757627924123257157684033826455191775933269668773092130816.000000 613860446109701321700431215291855927618694411047445344142505349007379244867649536.000000 0.000000
0.000000 0.000000 0.000000
2018959704356816312243659681499555119874789323708577215450793191834119041831665664.000000 2426879338862641553200089844284719946584935968361145592342298107214522956543688704.000000 0.000000
2426879338862641553200089844284719946584935968361145592342298107214522956543688704.000000 1089149822222114358604360946600808262505566936594848375972130675164218329879543808.000000 0.000000
0.000000 0.000000 0.000000
2677797636517673299985188337191167106181319713473438188108995561719469763398205440.000000 1308590904507469686827066847515926273957928706445840059726081198441887525733662720.000000 0.000000
1308590904507469686827066847515926273957928706445840059726081198441887525733662720.000000 363223239989575150696031174172672426870016231861848112862432252114972013597032448.000000 0.000000
0.000000 0.000000 0.000000
-2692724715236525242027331263795817821394148183700939732092706167967123349090336768.000000 1169733833835062349731574257511609161628265601226544904223129654794180094978949120.000000 0.000000
1169733833835062349731574257511609161628265601226544904223129654794180094978949120.000000 573682960616718701012929875887861343263600321605570873410213802425266907757150208.000000 0.000000
0.000000 0.000000 0.000000
370828496044773937124682647144647723429889924302086277411273203823672068394713088.000000 -87225810258036044227980548887532598552739065791790350053121745735626985926819840.000000 0.000000
-87225810258036044227980548887532598552739065791790350053121745735626985926819840.000000 13192422546845906579098259004841884213599399621019368947586683622158740391723008.000000 0.000000
0.000000 0.000000 0.000000
1478669162982286218425452494881226949721720512435059799650655839188825197034602496.000000 684250296832651946027304849616426498115227779254907843367934021915440266638000128.000000 0.000000
684250296832651946027304849616426498115227779254907843367934021915440266638000128.000000 185283068153832718181372789289037530178207027818436101664915765242690184880848896.000000 0.000000
0.000000 0.000000 0.000000
-342570326658918433621585869575244527902741652411326616427847127147969728336625664.000000 -815648554875060316851814431074080480270698337762158551318125427407099734685384704.000000 0.000000
-815648554875060316851814431074080480270698337762158551318125427407099734685384704.000000 424700870604251616601371957769530721122614709840903255645890007324992981067366400.000000 0.000000
0.000000 0.000000 0.000000
-3903263762494696106472655669784215051197824211077811406862924338746531658902536192.000000 -1756906373334621998224983190250018887255368221916874517040691523108239673823068160.000000 0.000000
-1756906373334621998224983190250018887255368221916874517040691523108239673823068160.000000 896103110949362194107941541991537734080529491410048820685686752732205452527403008.000000 0.000000
0.000000 0.000000 0.000000
1423122340294590087024120451348021697529394821035639166942439772905927907590799360.000000 1452072961641556987544295976564374048103395509202331760125771993884472756156760064.000000 0.000000
1452072961641556987544295976564374048103395509202331760125771993884472756156760064.000000 726668563896795213199022390766792162896471834704029061644744426066981178491011072.000000 0.000000
0.000000 0.000000 0.000000
10332179452700777397609855029648106114140819394126262418567527582364752744391114752.000000 4001973830274086607165483937173439292868936779244962870339820230906742660950654976.000000 0.000000
4001973830274086607165483937173439292868936779244962870339820230906742660950654976.000000 940384639786991686461478413530412060600708457611953367014254288567730402995732480.000000 0.000000
0.000000 0.000000 0.000000
2103547295624463516429138649819372985910595704398017838174200359410409195792498688.000000 1442119201054013399314866114537280505999056432373699802180041029074216908677447680.000000 0.000000
1442119201054013399314866114537280505999056432373699802180041029074216908677447680.000000 506173538095164417127877022496761968163631296902498352861134302957033183072223232.000000 0.000000
0.000000 0.000000 0.000000
207810957849549889606384694381485388595253323044956020977908535017736114651791360.000000 263252366783289289401904027998678907285593271384645715931076028224771701216378880.000000 0.000000
263252366783289289401904027998678907285593271384645715931076028224771701216378880.000000 119966296835948776428327502025313157318583718426734948361552945755174137040470016.000000 0.000000
0.000000 0.000000 0.000000
-26508162540480972504917391573077323474968086314305471332683889508017232502144892928.000000 295422759040583745285666961582481136609938857421516124568264458899326433436368896.000000 0.000000
295422759040583745285666961582481136609938857421516124568264458899326433436368896.000000 29422873085579137388642031157107608683618979220595995627320788778126254488420352.000000 0.000000
0.000000 0.000000 0.000000
-3805573643712547270346500365858509914427250871839624142056042559812082009863356416.000000 -1657758496357549726570289269265788097529195113220794552785336321040227099509522432.000000 0.000000
-1657758496357549726570289269265788097529195113220794552785336321040227099509522432.000000 820217273321592309178384588680620941027170086601345134384688445857225524113309696.000000 0.000000
0.000000 0.000000 0.000000
1015245158597294384330623563591782162656853128983773915204911119480988041069199360.000000 630375069431563916645780257697382589641311676588461856988933233687372930872246272.000000 0.000000
630375069431563916645780257697382589641311676588461856988933233687372930872246272.000000 206588431983192845741390576781078502453321182033316898519539948465025679127216128.000000 0.000000
0.000000 0.000000 0.000000
1682010732006764736381195580794767111824584188160186528464072644500869205410709504.000000 -2434573432433327993217905810763400369848458080416968477403963266167770548904394752.000000 0.000000
-2434573432433327993217905810763400369848458080416968477403963266167770548904394752.000000 1147714625351905997612457696687338234345995625761224683432369701463146286913945600.000000 0.000000
0.000000 0.000000 0.000000
4934985267576826537073610635654755343220359510763724725096986023394790078565842944.000000 6073563923988455493648305396587197766833097880558456679676290646483975241210003456.000000 0.000000
6073563923988455493648305396587197766833097880558456679676290646483975241210003456.000000 2744448639492807426777904694815281108018731279596555964709833673095188373521301504.000000 0.000000
0.000000 0.000000 0.000000
409796167688204712510443713789807864822812768232950578991025429527199187633963008.000000 -328446249078390304437552564011371783028783135040883664437703842432301191892303872.000000 0.000000
-328446249078390304437552564011371783028783135040883664437703842432301191892303872.000000 126068345476720642259054692090895174110688334191212626373440840273032850060607488.000000 0.000000
0.000000 0.000000 0.000000
-240495092402397117542674854240391806719107158619876973243621398772033660578168832.000000 -663575000041992596632623712448781828327793918225722152626644397523596308090191872.000000 0.000000
-663575000041992596632623712448781828327793918225722152626644397523596308090191872.000000 412287725641299060887185447918745158045445984083310716274309291145062264069947392.000000 0.000000
0.000000 0.000000 0.000000
97106161386830520706937639552626651584455507519171861591638017414373580006752256.000000 12857122688392110977483197210714240121260155873879602455384685754464867425714176.000000 0.000000
12857122688392110977483197210714240121260155873879602455384685754464867425714176.000000 1149162144907839767263474861639836302934089008301337756833687349685166022852608.000000 0.000000
0.000000 0.000000 0.000000
1555256690057061766020317504029574411787209532106497247834095318628720350362337280.000000 839715702896478999392957521417153901213632443636653516172736507728099736933105664.000000 0.000000
839715702896478999392957521417153901213632443636653516172736507728099736933105664.000000 267670304804805585395097166367279351441989475075863469624006242244774306477244416.000000 0.000000
0.000000 0.000000 0.000000
13332902251249922109772398561926967125812719529097372235099933384322992343875584.000000 2334353615886122508411432540443466323653156408116542321704002098471391253757952.000000 0.000000
2334353615886122508411432540443466323653156408116542321704002098471391253757952.000000 339920969849553894278458354716835562795688001792940515675765524894189659095040.000000 0.000000
0.000000 0.000000 0.000000
434070971362729235064196228643650622270726002507363569060387485294615636110999552.000000 443781442900800495055822868159817563891549660722005572485365504608930844177858560.000000 0.000000
443781442900800495055822868159817563891549660722005572485365504608930844177858560.000000 243533440988752705335882676603997609093836852018885917849441960406266722763407360.000000 0.000000
0.000000 0.000000 0.000000
-231163019560473277132711331237202258388583864159903816789326749378139517693722624.000000 774300137179722024678418798180031088372910928083414775529707165251351939033071616.000000 0.000000
774300137179722024678418798180031088372910928083414775529707165251351939033071616.000000 445398915681892485064773538250538305522107795697465131707236814828838261509586944.000000 0.000000
0.000000 0.000000 0.000000
3465841155156226651866310692774337522392809004715096210565349979121661261043990528.000000 3191910573574945975402670115247431428711763751913167253290735136248285296880254976.000000 0.000000
3191910573574945975402670115247431428711763751913167253290735136248285296880254976.000000 1314493247799160183524146277047462727373054895009211390387573854923292262350716928.000000 0.000000
0.000000 0.000000 0.000000
749397788858934047725628083587340597065967858407217231854033263883067999247138816.000000 1133829312337832402946777917224833620115398724638751022581813874523032572158541824.000000 0.000000
1133829312337832402946777917224833620115398724638751022581813874523032572158541824.000000 542025374967459704959538428503832610711477872917249397066673592144111877127929856.000000 0.000000
0.000000 0.000000 0.000000
-10831901202944116011174764614849747305076018654509759867484386068515257665907064832.000000 408409987090929295808288593993553670413140682866099386067299138354362680757714944.000000 0.000000
408409987090929295808288593993553670413140682866099386067299138354362680757714944.000000 42684379947569326364609581045256707127942998708881095937763171858066253209927680.000000 0.000000
0.000000 0.000000 0.000000
283696742671324711849137437830767335509205017413043059626075982411578795041488896.000000 -369383340712630922353454403965728107932907266909829588446196722645628541340745728.000000 0.000000
-369383340712630922353454403965728107932907266909829588446196722645628541340745728.000000 172372050785933804289177170180165536429817463981828377936167463676356953047564288.000000 0.000000
0.000000 0.000000 0.000000
1614029158767900788304349893824231238709135015303219911198869929861833695218892800.000000 747770099563042632471267629433669464127258051230328877787802080491906648198086656.000000 0.000000
747770099563042632471267629433669464127258051230328877787802080491906648198086656.000000 261566078084582337050120856765876156554833576727258697627505683380872531949912064.000000 0.000000
0.000000 0.000000 0.000000
27628263162957208121516487005102259250873941048596675045794816471231374185468002304.000000 607951429038214424922961460138024487753457830315865349560017389900911060719763456.000000 0.000000
607951429038214424922961460138024487753457830315865349560017389900911060719763456.000000 9948547271455574178410509858722522124191611591360475421057696217308054067085312.000000 0.000000
0.000000 0.000000 0.000000
-437511407151338151065042771928319176884477527378657151284815969858863845460672512.000000 683113543370770105054406150637316120193813659813558411407451661722454922669064192.000000 0.000000
683113543370770105054406150637316120193813659813558411407451661722454922669064192.000000 393986239063620281615690575518500887915964479271887892460078330430128678074580992.000000 0.000000
0.000000 0.000000 0.000000
370365141774352801394509659675392159615058029596957992952287842365410371050668032.000000 428509782713761187937694298198779992802429642301637661688796429283014882673819648.000000 0.000000
428509782713761187937694298198779992802429642301637661688796429283014882673819648.000000 186143005006961332352097848705185385062300315820154598439706384854016440053792768.000000 0.000000
0.000000 0.000000 0.000000
6360644892565877215750027893848882573860798984485524266707163201575940112603152384.000000 146364174631316995931786745979993768583708370826375576184881472105183073745764352.000000 0.000000
146364174631316995931786745979993768583708370826375576184881472105183073745764352.000000 36442609444461634293720843857957398467966688749020662931207801172107254265020416.000000 0.000000
0.000000 0.000000 0.000000
-1375553145019055671360664102926161340814295515732825871470903262834670609425760256.000000 701422066892359725050341613478374134488523393654854719206433428803619450643283968.000000 0.000000
701422066892359725050341613478374134488523393654854719206433428803619450643283968.000000 377960804296555082320830538522516396495963885135571855923268339898660760112332800.000000 0.000000
0.000000 0.000000 0.000000
5580816718607034954846151211993673697764111121184991825925368768174005023670272000.000000 840732174223239217916266589883909694962980470843943572110356976357289081991856128.000000 0.000000
840732174223239217916266589883909694962980470843943572110356976357289081991856128.000000 90254666529191324559130431378947553188281870827477677332028379027201356128583680.000000 0.000000
0.000000 0.000000 0.000000
-5872992255428139130232243712587957663516841075600081565690255073462205028499456.000000 9526193516989876625076236669860733507443095649271508921354984715698843506704384.000000 0.000000
9526193516989876625076236669860733507443095649271508921354984715698843506704384.000000 5518408456445420280317006095440017581146170334904989028991498123880204200837120.000000 0.000000
0.000000 0.000000 0.000000
4529696566446769973771578631204727149226929550761012836395927236243061057641250816.000000 -15964849886970462875917432453339003727898697482963081738094051164096971751141933056.000000 0.000000
-15964849886970462875917432453339003727898697482963081738094051164096971751141933056.000000 8433782665449436851374912205302804942798600964119716274809705514997785004066471936.000000 0.000000
0.000000 0.000000 0.000000
7933520545530373342247455959310305618861785518659289737551390041242246512174432256.000000 5272062727398987909924272093809814667830222237168044979242064920904616278442901504.000000 0.000000
5272062727398987909924272093809814667830222237168044979242064920904616278442901504.000000 1807864243900266019520975752625522607593803178365459691540345534641898252257984512.000000 0.000000
0.000000 0.000000 0.000000
983305272553927936357394756828381303430771171658430023509909743979252200857665536.000000 -503323933941623003545624212692747409444502564287987697401482556049936088769232896.000000 0.000000
-503323933941623003545624212692747409444502564287987697401482556049936088769232896.000000 146699750842716747218053479155587480953970605372344533271613215953103777012121600.000000 0.000000
0.000000 0.000000 0.000000
2681190959043589285411611756972920559496477912497160131006194703332639264806535168.000000 962284585449947034974507684945928828828012334747970010490424039672290943294242816.000000 0.000000
962284585449947034974507684945928828828012334747970010490424039672290943294242816.000000 214352591912959720466602828101315160981082404057062125062531391452594921084551168.000000 0.000000
0.000000 0.000000 0.000000
-37561664726797237566079793590098430402156846947326893376709975445642433074521178112.000000 8844124185393124118187258026960935958891364721765845453899489720209985112054431744.000000 0.000000
8844124185393124118187258026960935958891364721765845453899489720209985112054431744.000000 3248114281558794232710903371134228004766097184025490578908650349669690517254832128.000000 0.000000
0.000000 0.000000 0.000000
2170341178196820446276164703476796042126843435121853961761835450531455365680201728.000000 1772241315350533289084162438239137644278689666506246853303561596343320243794345984.000000 0.000000
1772241315350533289084162438239137644278689666506246853303561596343320243794345984.000000 684100373330602402352449423197102640317109226280484309217844263306789799833108480.000000 0.000000
0.000000 0.000000 0.000000
-10991471347048750252228791672354927435479300484647715318329512051173737841893048320.000000 8641871542081547945030408837097703020727136511811729773121168969815426657094205440.000000 0.000000
8641871542081547945030408837097703020727136511811729773121168969815426657094205440.000000 4811419082414358764349241509167232792544902476723947664581899987815264421215731712.000000 0.000000
0.000000 0.000000 0.000000
-358491291207692264846279612124327992944734974119799819285997067456326277745606656.000000 -187936438163507502802696770367312386128872597040809208425394022132445959268859904.000000 0.000000
-187936438163507502802696770367312386128872597040809208425394022132445959268859904.000000 44145262711740299651218221477654998263213415483932849828199046336996150909861888.000000 0.000000
0.000000 0.000000 0.000000
8588696429389816038906234943433119091271319226340460438004385175204435350800826368.000000 6145235524148650023224470425193270628785744493964132930823568635902333894474596352.000000 0.000000
6145235524148650023224470425193270628785744493964132930823568635902333894474596352.000000 2248207059979852430800261503091722358357597012754538038997452762849269815256809472.000000 0.000000
0.000000 0.000000 0.000000
-109495706682568050196021983304915121760531413110095542091582867869499197090223357952.000000 11372397617837986214504018997569684493536329283544048419399820234210127195796406272.000000 0.000000
11372397617837986214504018997569684493536329283544048419399820234210127195796406272.000000 2227939508703007242021556906162089876731634555234270319089192664117654587323711488.000000 0.000000
0.000000 0.000000 0.000000
3024260671496677240520728656447795861148123789198063711271868596761855935905792.000000 570842952027365335645149430091786810165867090931481031876272065905513807740928.000000 0.000000
570842952027365335645149430091786810165867090931481031876272065905513807740928.000000 70158706648686823010916775584221640605610879758205644945624687186584971247616.000000 0.000000
0.000000 0.000000 0.000000
129317169695736210709157012599515245493626447381913403685802155184453370331004928.000000 29266754521764982581539795720079558608349393089403140109349551541258551983865856.000000 0.000000
29266754521764982581539795720079558608349393089403140109349551541258551983865856.000000 4771884539261516661317039539057488510744889192391255348358523978065869776355328.000000 0.000000
0.000000 0.000000 0.000000
-49918572279975028897655709517894068366821240413966135235443707870419170996781056.000000 30403373809870970981135289493186185475035849564580043446134813098416566020603904.000000 0.000000
30403373809870970981135289493186185475035849564580043446134813098416566020603904.000000 16273524524575520412892639438867903188846840152299143242257261583891807250415616.000000 0.000000
0.000000 0.000000 0.000000
-634799063873146688436584518251525564955151640645026697898208512097994031472050176.000000 1390547549044344974438821168448424766334362788223256674686962406696960834523889664.000000 0.000000
1390547549044344974438821168448424766334362788223256674686962406696960834523889664.000000 821214264945552808552703306557246550432754366331667781055509467900066651845951488.000000 0.000000
0.000000 0.000000 0.000000
8872160437287013806920891330955408205480155618489339927950321555402858430380113920.000000 4697431369147628521224363536917224131401315786827540284302307272002729957950226432.000000 0.000000
4697431369147628521224363536917224131401315786827540284302307272002729957950226432.000000 1402430868438807055527187225175439588572688270550623564527669596141411335237795840.000000 0.000000
0.000000 0.000000 0.000000
-396043988194908273367829165679388512615887720974104771454591103902645558850879488.000000 45982989373581308936138553378864345828166950108023797813763410225521504517357568.000000 0.000000
45982989373581308936138553378864345828166950108023797813763410225521504517357568.000000 6464022360734820472988437701137168931923036683128524209621145151413779903283200.000000 0.000000
0.000000 0.000000 0.000000
7557011793006943778592651527936287362827644456083154292773742122483809540385013760.000000 15324784796023079682286514774046194867250435211960166188368872042925790031440248832.000000 0.000000
15324784796023079682286514774046194867250435211960166188368872042925790031440248832.000000 7675761195800661444022686094178778907182307708337107179303358837842603305036939264.000000 0.000000
0.000000 0.000000 0.000000
-1738621318333759273285004874425373550574861255810647585809073159300796431953035264.000000 -415594443432735718155098915039773055909375869050083620395979692356992515281256448.000000 0.000000
-415594443432735718155098915039773055909375869050083620395979692356992515281256448.000000 85636428129126461639435903222741506521816453967056860813031927788521254536871936.000000 0.000000
0.000000 0.000000 0.000000
-2175094141052826767652287912070177749089334273560151933639604168171943856330244096.000000 -4801137149106578040390945448889725400383793051185641323548683833840810327577460736.000000 0.000000
-4801137149106578040390945448889725400383793051185641323548683833840810327577460736.000000 2785249292541466995360397930043429483807666761267466953640787960548153603099983872.000000 0.000000
0.000000 0.000000 0.000000
-2992124207321788506179788959688092813588756537200992185762504544512292433879367680.000000 4547940406987030197338485395722484289286201289661376939467351489203567110437994496.000000 0.000000
4547940406987030197338485395722484289286201289661376939467351489203567110437994496.000000 2631502121642743330667761351358007814112913828778928965032701708403152687812575232.000000 0.000000
0.000000 0.000000 0.000000
22163575922513604164123211517824426333379548032445937911858154428047585397702656.000000 -6628387541836188385852606101473132856817910728511300383547063360772535371169792.000000 0.000000
-6628387541836188385852606101473132856817910728511300383547063360772535371169792.000000 1283911538374294083550005542925243771076226911448175604236395285630525227663360.000000 0.000000
0.000000 0.000000 0.000000
2409623858133596916321979380598027984706928669329486329168453585123856395272192.000000 6403918326524844743665770272113327272192078998377257217489935934240164184850432.000000 0.000000
6403918326524844743665770272113327272192078998377257217489935934240164184850432.000000 3906858988299992113492639561761853407510146428644400546733780606850096892477440.000000 0.000000
0.000000 0.000000 0.000000
-2277698749702091259931817916985089509441663987777901323532445023845865149374580916224.000000 -34295271983639604827291604079211008451723117577227265799688375034906448001492844544.000000 0.000000
-34295271983639604827291604079211008451723117577227265799688375034906448001492844544.000000 1031586416995092264749749209952659159218251143608731019014278061473796845863960576.000000 0.000000
0.000000 0.000000 0.000000
2105775355095989420771390143469444514323722662776408499610295436715221368233263104.000000 -7460947178659401547841894311951877074062973294630246425923842798156951676438708224.000000 0.000000
-7460947178659401547841894311951877074062973294630246425923842798156951676438708224.000000 3973859681814027476155222234355325795416206436261037542281932531541800740492148736.000000 0.000000
0.000000 0.000000 0.000000
10910271403689749722583164550253930790198263542798706809482426150991932131630907392.000000 5217809574792188986749101854484643737129602160051921641249539992704060016778280960.000000 0.000000
5217809574792188986749101854484643737129602160051921641249539992704060016778280960.000000 1447729963107091348264794961274874223375913722445824792288592257097377488222289920.000000 0.000000
0.000000 0.000000 0.000000
229754432333375329953656776214294110206962740662264907349870365272862481958567936.000000 168630578503785051734906648833119428086676771446468301976975573515959969725284352.000000 0.000000
168630578503785051734906648833119428086676771446468301976975573515959969725284352.000000 56257377077731144696310097869666621003143950118454047517163103727941279566266368.000000 0.000000
0.000000 0.000000 0.000000
4017852745361563477165456867172093051130826161704351249133824838119361425094737920.000000 15494476270379610917831611688892825136560600953489561140818780113361994640865099776.000000 0.000000
15494476270379610917831611688892825136560600953489561140818780113361994640865099776.000000 8229031580945647617185184147585208219105456362935436226743309906181713872044425216.000000 0.000000
0.000000 0.000000 0.000000
-1239847134039151849951312553543546372475706476062079380376781623815084890050456784470016.000000 1004771111125707491465997595015441866289264895536857926080976264381436559745255211008.000000 0.000000
1004771111125707491465997595015441866289264895536857926080976264381436559745255211008.000000 1628661576645679438939837377617455119380133358526242681612074331248359394460565504.000000 0.000000
0.000000 0.000000 0.000000
-291726451116032091858581624723762571042511401261880439589429012449665686553164251136.000000 -27065188807817707949351615132743826244008344190541169710935294003518419932867985408.000000 0.000000
-27065188807817707949351615132743826244008344190541169710935294003518419932867985408.000000 4773174847462287019829731107326211256074204621380295284989109810977559435007754240.000000 0.000000
0.000000 0.000000 0.000000
12106091937083756386744397308227211476414111384790292892046432375603157400635310080.000000 11878226493027789607791798483544885907616270191259406673395140318472558327248191488.000000 0.000000
11878226493027789607791798483544885907616270191259406673395140318472558327248191488.000000 4980774994828687770841986477695322043156194863903203730575896617040567673108299776.000000 0.000000
0.000000 0.000000 0.000000
-15375880767670881068673345528812227468648436299231774425708985974843415447996465152.000000 -15989785268828747130420037617487204220229362971876143279549837703912086649138315264.000000 0.000000
-15989785268828747130420037617487204220229362971876143279549837703912086649138315264.000000 9117477632261677041501879696228349048537731367931050990999483905157567898609254400.000000 0.000000
0.000000 0.000000 0.000000
-12692435893738895451959388334795626811266488840272597556012014235196050003460096.000000 -378784209095334902733266934169125838331884542949944810094124381200160675290152960.000000 0.000000
-378784209095334902733266934169125838331884542949944810094124381200160675290152960.000000 120525735436934760890037291664460243294801218965393820719168620541255626694590464.000000 0.000000
0.000000 0.000000 0.000000
4952557294914351977016473430590538701405921213399352472848955154004554008567480320.000000 -16418340139369826983053886636103748828244324981848434240509424672702896397980008448.000000 0.000000
-16418340139369826983053886636103748828244324981848434240509424672702896397980008448.000000 8637296202805095269588147946077018919745181610486346741632890619666685073532387328.000000 0.000000
0.000000 0.000000 0.000000
9267558232552891008074312728687360847399641260863042915086823774995566321331077120.000000 4808958812552183536401323467599153621060053996654116828884367420222088807045922816.000000 0.000000
4808958812552183536401323467599153621060053996654116828884367420222088807045922816.000000 1416939751109621192204117351054820328435485290648816231394198614312719554703261696.000000 0.000000
0.000000 0.000000 0.000000
263068792958304007193514358888792952588064840277947806065833414114411507062145024.000000 1023720245237978726031950747237317838468010285528886865920379019412701457502175232.000000 0.000000
1023720245237978726031950747237317838468010285528886865920379019412701457502175232.000000 541175376056467767015961079447743584118222364870950319401575435582341111191961600.000000 0.000000
0.000000 0.000000 0.000000
-482280514877692115171695733840982420563861019645360119862074421146105971591872512.000000 462752661923211270510590764731087441923379033070005198303381988059602246441107456.000000 0.000000
462752661923211270510590764731087441923379033070005198303381988059602246441107456.000000 287190863550064719335947615675269909443212999397618302826599664800930476041699328.000000 0.000000
0.000000 0.000000 0.000000
57389190326606774079839726488512266513023188079965820521084739935088913940480.000000 -10501001239153292515080162102200639469894951018948714703417963145459738345472.000000 0.000000
-10501001239153292515080162102200639469894951018948714703417963145459738345472.000000 23481647828249947216484253579595047065313935378597478443451788059444544274432.000000 0.000000
0.000000 0.000000 0.000000
34260988140794436417706667611170883957102034599435114481355899191741135041069056.000000 -399830863007105480988388834710777082339429313694397585339006011409068185740115968.000000 0.000000
-399830863007105480988388834710777082339429313694397585339006011409068185740115968.000000 219512990864616705916298947347926503108074930341172883553123186181900095912411136.000000 0.000000
0.000000 0.000000 0.000000
473895758082390954136267575666949710447422438841742622702561332333679356611133440.000000 -163780506789729535659337307755047200271772330264907939982685104190916725133279232.000000 0.000000
-163780506789729535659337307755047200271772330264907939982685104190916725133279232.000000 34969899212260007880051128475726987980788473630642894378335997959299930829881344.000000 0.000000
0.000000 0.000000 0.000000
-138915210654433351835328298183156819541767971938232428089003458816775281667295150080.000000 -5900070686016894472986646078271638123819250386443665133990286660516097831659896832.000000 0.000000
-5900070686016894472986646078271638123819250386443665133990286660516097831659896832.000000 495723562431576318364891481937505215140657697720360050330925989487606108384133120.000000 0.000000
0.000000 0.000000 0.000000
-3200446667760391469934243791786200634957166170223232022063555181116651219189760000.000000 4484475747736416043419606978253910467046373647871209021312282989815323243575246848.000000 0.000000
4484475747736416043419606978253910467046373647871209021312282989815323243575246848.000000 2618850917599472547703757081510306176180557709004101043874680505269229842694406144.000000 0.000000
0.000000 0.000000 0.000000
636414882523529273118285971101611492002904585347487912968561554731234992058269696.000000 -146862643875872026347436016312385329901833843779430741087981757177618824221949952.000000 0.000000
-146862643875872026347436016312385329901833843779430741087981757177618824221949952.000000 22009771812442006114583798420250441317497323103265106154934550477273529078251520.000000 0.000000
0.000000 0.000000 0.000000
9191358052867025953049375540836736024236717732770551660582186802855596672417792.000000 9352469560317285269106286788895719038256214894635916961556690912616328021934080.000000 0.000000
9352469560317285269106286788895719038256214894635916961556690912616328021934080.000000 4151230411825746696847136861307193183956475790080492276319459940529199990702080.000000 0.000000
0.000000 0.000000 0.000000
10748235437767029503388277408688892402327004221988941750481957151543205982703190016.000000 -6852310443726887560377096111727354283083458468276652952266614910796158310943817728.000000 0.000000
-6852310443726887560377096111727354283083458468276652952266614910796158310943817728.000000 2319549811913362001737415108207477687925008143449416365660566578996725200566878208.000000 0.000000
0.000000 0.000000 0.000000
24227475231830651392442471715666830114001511988123691984103030368413212408383799296.000000 -13600556059553851410178251358744267273181763583883751426115566336474485450967351296.000000 0.000000
-13600556059553851410178251358744267273181763583883751426115566336474485450967351296.000000 4226361442673747557944180766261241579690750854032128065132362129461112009306144768.000000 0.000000
0.000000 0.000000 0.000000
690358272357145365124794810198066380442446214792584222222861780495888039540686848.000000 878279623893163772255800367780223399570327679486141023090235330281508864710934528.000000 0.000000
878279623893163772255800367780223399570327679486141023090235330281508864710934528.000000 396260719422892348782841579114126629949330395981409982773302036311136383784714240.000000 0.000000
0.000000 0.000000 0.000000
-259045556706013581337074871910106454686838214817042282984916458284004278834036736.000000 21334014933834342537745458524775734613530885362941171527616850214422359031414784.000000 0.000000
21334014933834342537745458524775734613530885362941171527616850214422359031414784.000000 142344914113281571090254215864357691050650209181179377663977895442442073652854784.000000 0.000000
0.000000 0.000000 0.000000
-2445647775470492194717820823800284749229678748790912152903370162604831277567705088.000000 -54626327197823334050262238700958931884159106301395417878820919645949604407541760.000000 0.000000
-54626327197823334050262238700958931884159106301395417878820919645949604407541760.000000 27649259594595171801542874688919830634800899096595187532109215043522157017563136.000000 0.000000
0.000000 0.000000 0.000000
-2802761296399824008367277778867908947850837975286170011303734900194263952856711168.000000 -1093364756455097549042237948002873170933653567089683196664759811533602715454144512.000000 0.000000
-1093364756455097549042237948002873170933653567089683196664759811533602715454144512.000000 537823766043091736817377296347593080550895093423589607272574724498775381121171456.000000 0.000000
0.000000 0.000000 0.000000
7203415761977656763747344032572326378892388705973433750459502183810436591255552.000000 5028218231893519583897738067774739114063789135346456864406101894745328602578944.000000 0.000000
5028218231893519583897738067774739114063789135346456864406101894745328602578944.000000 7731724246363224761744325145580975788290223361305911568823473468424758189096960.000000 0.000000
0.000000 0.000000 0.000000
-209520401951585430032345593576602495466871355463579360455762418830024746056286208.000000 -688563119968473733835878794406784056775687667751377485542628977339005803339710464.000000 0.000000
-688563119968473733835878794406784056775687667751377485542628977339005803339710464.000000 510550687426286612962488491051694774480562127217012043032341891547780896721469440.000000 0.000000
0.000000 0.000000 0.000000
280314284768337362594863938629372916996249404253203335818423791682120040792981504.000000 -204952251499849842419147855849472646116966731044337693173029097666238381851410432.000000 0.000000
-204952251499849842419147855849472646116966731044337693173029097666238381851410432.000000 75260875402185259869964720156328219149218308248030435295940491106896900949803008.000000 0.000000
0.000000 0.000000 0.000000
372011524292548302997432847011525950878522337573839761299416540355696129151598592.000000 -133617787984879425663972594004659089613077357558405781954553725546923729769988096.000000 0.000000
-133617787984879425663972594004659089613077357558405781954553725546923729769988096.000000 31075352828325207303731308472929492851663756520151359204308086122437854757912576.000000 0.000000
0.000000 0.000000 0.000000
-16120931057161296045354722061108371780425590328678645411391045432350843736666224459776.000000 -173776065068158510559958573035356247847964075037106539163468705765234836854146072576.000000 0.000000
-173776065068158510559958573035356247847964075037106539163468705765234836854146072576.000000 3748169109860108718018565618112337415776423487966376220454084516729330770173231104.000000 0.000000
0.000000 0.000000 0.000000
627306394043220360124343992546060621776243267669313998754362814398788357943459840.000000 350199828680186263976093664442550177789442451894366400503638211487049252155162624.000000 0.000000
350199828680186263976093664442550177789442451894366400503638211487049252155162624.000000 103001464432194200657193998365171016270356075586988974328570439052735353479757824.000000 0.000000
0.000000 0.000000 0.000000
9135660393691028179330065895448540076306292351896735658131348906973680852126400512.000000 -6270671892265763973067289884759966901127060098926748529006711474235716200061468672.000000 0.000000
-6270671892265763973067289884759966901127060098926748529006711474235716200061468672.000000 2210088018296675097007858387652092827705359304649459494923719804449092106033561600.000000 0.000000
0.000000 0.000000 0.000000
513941884543629107650551853685922620990033097128420587943745260731928226536882176.000000 -370077908987632078473858605356567453257216726805419219895681138706313837723779072.000000 0.000000
-370077908987632078473858605356567453257216726805419219895681138706313837723779072.000000 134117634205011307569472554354191826297929799840586898720127645041611845134188544.000000 0.000000
0.000000 0.000000 0.000000
-5739547343890550181846823889455710909180301368087644603981373450779984370232983552.000000 -2085835676426417688162805560963319271605110786970260326434593386034323924927381504.000000 0.000000
-2085835676426417688162805560963319271605110786970260326434593386034323924927381504.000000 978971655178868566176849369063973728983157048596774285675340515443303740738633728.000000 0.000000
0.000000 0.000000 0.000000
69532150647549095973394206507076243663485780210443724051274653813804140305842176.000000 -49950419115769224773202336346265718593549064165098239624928245564096839633862656.000000 0.000000
-49950419115769224773202336346265718593549064165098239624928245564096839633862656.000000 18224243129606914741302477580008931542776876796189416589884097373522976967753728.000000 0.000000
0.000000 0.000000 0.000000
-282462243427221322113321953938790455552312626376645532553307320789124162275770368.000000 -251943058210671212470714024279522675506610622113967784850516030172314864596287488.000000 0.000000
-251943058210671212470714024279522675506610622113967784850516030172314864596287488.000000 143175657348796769063304292173030391323734010963715490879895298615438556365062144.000000 0.000000
0.000000 0.000000 0.000000
-543452358637658040803723228661181252721155895346474680496137307117287775796216201216.000000 13838109854497400298959769511296652574847860106859534447244421372654481975432708096.000000 0.000000
13838109854497400298959769511296652574847860106859534447244421372654481975432708096.000000 701791254969040809416798909158113470356704159009852009235678733358747967385763840.000000 0.000000
0.000000 0.000000 0.000000
-239058169722042303229541804393562697497562429816257454780678009610868248132492197888.000000 -5208378557447524639368983657489720783973906372064233514969804275233427278637563904.000000 0.000000
-5208378557447524639368983657489720783973906372064233514969804275233427278637563904.000000 226372809208418871967243712948859251314820822096457858024166601532323300810686464.000000 0.000000
0.000000 0.000000 0.000000
-24891632455211793640672485448734795613019861565015132695093378875252009077892448256.000000 2035738053272772346161564984506963300174747616271268965843414327170384300951470080.000000 0.000000
2035738053272772346161564984506963300174747616271268965843414327170384300951470080.000000 320435194629494188340832663681961234756986358984359379613206274436941522650791936.000000 0.000000
0.000000 0.000000 0.000000
1991722511966572224175473842221086577083379686959546879181693790561053707597774848.000000 812408676270391234551016515444630664456483035519188693171797956791319056378494976.000000 0.000000
812408676270391234551016515444630664456483035519188693171797956791319056378494976.000000 199257260974816422910622446926375506856363035529671155047600282835262145919188992.000000 0.000000
0.000000 0.000000 0.000000
-888472418856133908503707650512053890333682575073924100882835777749883854766156546048.000000 5696039990476736254350031701941850885436867585004411433831940704874858000865558528.000000 0.000000
5696039990476736254350031701941850885436867585004411433831940704874858000865558528.000000 73302938616431962389535564556101080061544657810235700033314034302786294448652288.000000 0.000000
0.000000 0.000000 0.000000
-559585398659206523832179761790838416840812797654561427782216000944305533353984000.000000 32423408606782019725536050949884535456054854122686025628202434767192550958694400.000000 0.000000
32423408606782019725536050949884535456054854122686025628202434767192550958694400.000000 69219869676749547503685850492478863308844240897104398228839599236854177654112256.000000 0.000000
0.000000 0.000000 0.000000
-36948731613487223611961858273585539786774845746027403715849442593678413067714560.000000 -19164546224704955283595432995389445205085738712089898118196469574507270672220160.000000 0.000000
-19164546224704955283595432995389445205085738712089898118196469574507270672220160.000000 9885716568548529815511452442629706901547305514303678058030223121598591962972160.000000 0.000000
0.000000 0.000000 0.000000
-3192706647160704921961230402754526987032686736570759242159573697069679384304025600.000000 -498100178288980350844712347073868894763958787478487124780019994765225723997192192.000000 0.000000
-498100178288980350844712347073868894763958787478487124780019994765225723997192192.000000 135971922851810342523723016595859204429493125718356035636255200809664693655306240.000000 0.000000
0.000000 0.000000 0.000000
694395574909309344507545797469734526804753925841031001912293153327493760019333120.000000 -92925548953726335011966709104854399686644936639760576771174487801228577285865472.000000 0.000000
-92925548953726335011966709104854399686644936639760576771174487801228577285865472.000000 14004078662201944100072575980824218679309775057894621138345445374259464167751680.000000 0.000000
0.000000 0.000000 0.000000
-1981882665993629855645783702935207166094860509251107226403769184932767519444303872.000000 751080563689199494880487470607016540133296926673625877441106543860377677291585536.000000 0.000000
751080563689199494880487470607016540133296926673625877441106543860377677291585536.000000 352747954671832215532952721174187391404983481539143452808656570448364268758761472.000000 0.000000
0.000000 0.000000 0.000000
402968624318999257897602293312951245050284602766540583023729653610448367210463232.000000 -495373972595154232780565304954151174865155632799623125688864037974021701652971520.000000 0.000000
-495373972595154232780565304954151174865155632799623125688864037974021701652971520.000000 219687712060648702321596339315929968267787304914693512028856944064924810790043648.000000 0.000000
0.000000 0.000000 0.000000
-37272613304996152717755100194092443934008710298790715893644664232278796548440064.000000 75175063978499576862101063201723800497246116040652377915413197443252809449340928.000000 0.000000
75175063978499576862101063201723800497246116040652377915413197443252809449340928.000000 140546388879366057302303038169243385500664241133582242637982291932631155911688192.000000 0.000000
0.000000 0.000000 0.000000
439167565959163090932521736719841396361232648581940579377871306268051046345474048.000000 331992448879204963554394151115622803865812433228027187332383332556980308934656000.000000 0.000000
331992448879204963554394151115622803865812433228027187332383332556980308934656000.000000 123849626281909350863777774903344368752138019946620146946307833640609362032459776.000000 0.000000
0.000000 0.000000 0.000000
2099205296062927982971511158104186454375065476539320979239572069016107381180858368.000000 3437855626924490084891594269866730575229207287929242399919412667617530069353758720.000000 0.000000
3437855626924490084891594269866730575229207287929242399919412667617530069353758720.000000 1662040421583938662051072952250802261953095166287336688626548689139634251839307776.000000 0.000000
0.000000 0.000000 0.000000
119034141132948128807292592720174394716674670897011364424274300230800170614259712.000000 -486045765078406697890264257517535791121912666916766155738424138386055235389882368.000000 0.000000
-486045765078406697890264257517535791121912666916766155738424138386055235389882368.000000 258478097518123721759247269202102199775234831000120690979833109978662115689365504.000000 0.000000
0.000000 0.000000 0.000000
-766167132885984709709220620264347807504399337773816103699817407289946848832258048.000000 -311152338974183248541927585745827349419293014936151164117934911877311366445400064.000000 0.000000
-311152338974183248541927585745827349419293014936151164117934911877311366445400064.000000 123544621527200999533975408129030442803026986663990653493881241867095244741279744.000000 0.000000
0.000000 0.000000 0.000000
-18174449403383809580444751619956471578673229132936533084725758853522704004200529920.000000 4233907063856954739251704745103345634651321644947308671715266153632220422384648192.000000 0.000000
4233907063856954739251704745103345634651321644947308671715266153632220422384648192.000000 1569300431043988460121671046906451208620100234076062317076976504128112496901881856.000000 0.000000
0.000000 0.000000 0.000000
-2093531369169651423292431776717385349503212607808773431424745089142661382156582912.000000 -4564902769258698242648376367255438089734744113427501062704739360759821645413089280.000000 0.000000
-4564902769258698242648376367255438089734744113427501062704739360759821645413089280.000000 2637864892006848355021615101556461778570588466824404952649803137118252789949005824.000000 0.000000
0.000000 0.000000 0.000000
347868952168377016392676783276105526263436023778969743257510149255787541130379264.000000 4496156330274094427179915155418097084664075573791869283370358106397792032419479552.000000 0.000000
4496156330274094427179915155418097084664075573791869283370358106397792032419479552.000000 2482601411291725406696600157658760804776541844373207647089481288137853835835080704.000000 0.000000
0.000000 0.000000 0.000000
26853658296227762741473833257799246060804980769820216885363671987911237268668416.000000 5783288972051592644949255226481121387566419600604373079647024957300454289571840.000000 0.000000
5783288972051592644949255226481121387566419600604373079647024957300454289571840.000000 2118638110215691858560800602078003766738778780756941643325457709684716715638784.000000 0.000000
0.000000 0.000000 0.000000
1840638483701249733491606256418650270510200849119715359181794413899224673587036160.000000 -795752307379800110472897836715781326357940083205552835501629477733378740990246912.000000 0.000000
-795752307379800110472897836715781326357940083205552835501629477733378740990246912.000000 220172306728322526134484024272562499958993307354271897017238748260802438344212480.000000 0.000000
0.000000 0.000000 0.000000
