# vtk DataFile Version 2.0
Test
ASCII
DATASET POLYDATA
POINTS 1437 float
0.000000 0.000000 0.000000
30.000000 0.000000 0.000000
30.000000 100.000000 0.000000
0.000000 100.000000 0.000000
16.400000 50.000000 0.000000
2.142857 0.000000 0.000000
4.285714 0.000000 0.000000
6.428571 0.000000 0.000000
8.571429 0.000000 0.000000
10.714286 0.000000 0.000000
12.857143 0.000000 0.000000
15.000000 0.000000 0.000000
17.142857 0.000000 0.000000
19.285714 0.000000 0.000000
21.428571 0.000000 0.000000
23.571429 0.000000 0.000000
25.714286 0.000000 0.000000
27.857143 0.000000 0.000000
30.000000 2.040816 0.000000
30.000000 4.081633 0.000000
30.000000 6.122449 0.000000
30.000000 8.163265 0.000000
30.000000 10.204082 0.000000
30.000000 12.244898 0.000000
30.000000 14.285714 0.000000
30.000000 16.326531 0.000000
30.000000 18.367347 0.000000
30.000000 20.408163 0.000000
30.000000 22.448980 0.000000
30.000000 24.489796 0.000000
30.000000 26.530612 0.000000
30.000000 28.571429 0.000000
30.000000 30.612245 0.000000
30.000000 32.653061 0.000000
30.000000 34.693878 0.000000
30.000000 36.734694 0.000000
30.000000 38.775510 0.000000
30.000000 40.816327 0.000000
30.000000 42.857143 0.000000
30.000000 44.897959 0.000000
30.000000 46.938776 0.000000
30.000000 48.979592 0.000000
30.000000 51.020408 0.000000
30.000000 53.061224 0.000000
30.000000 55.102041 0.000000
30.000000 57.142857 0.000000
30.000000 59.183673 0.000000
30.000000 61.224490 0.000000
30.000000 63.265306 0.000000
30.000000 65.306122 0.000000
30.000000 67.346939 0.000000
30.000000 69.387755 0.000000
30.000000 71.428571 0.000000
30.000000 73.469388 0.000000
30.000000 75.510204 0.000000
30.000000 77.551020 0.000000
30.000000 79.591837 0.000000
30.000000 81.632653 0.000000
30.000000 83.673469 0.000000
30.000000 85.714286 0.000000
30.000000 87.755102 0.000000
30.000000 89.795918 0.000000
30.000000 91.836735 0.000000
30.000000 93.877551 0.000000
30.000000 95.918367 0.000000
30.000000 97.959184 0.000000
27.857143 100.000000 0.000000
25.714286 100.000000 0.000000
23.571429 100.000000 0.000000
21.428571 100.000000 0.000000
19.285714 100.000000 0.000000
17.142857 100.000000 0.000000
15.000000 100.000000 0.000000
12.857143 100.000000 0.000000
10.714286 100.000000 0.000000
8.571429 100.000000 0.000000
6.428571 100.000000 0.000000
4.285714 100.000000 0.000000
2.142857 100.000000 0.000000
0.000000 97.959184 0.000000
0.000000 95.918367 0.000000
0.000000 93.877551 0.000000
0.000000 91.836735 0.000000
0.000000 89.795918 0.000000
0.000000 87.755102 0.000000
0.000000 85.714286 0.000000
0.000000 83.673469 0.000000
0.000000 81.632653 0.000000
0.000000 79.591837 0.000000
0.000000 77.551020 0.000000
0.000000 75.510204 0.000000
0.000000 73.469388 0.000000
0.000000 71.428571 0.000000
0.000000 69.387755 0.000000
0.000000 67.346939 0.000000
0.000000 65.306122 0.000000
0.000000 63.265306 0.000000
0.000000 61.224490 0.000000
0.000000 59.183673 0.000000
0.000000 57.142857 0.000000
0.000000 55.102041 0.000000
0.000000 53.061224 0.000000
0.000000 51.020408 0.000000
0.000000 48.979592 0.000000
0.000000 46.938776 0.000000
0.000000 44.897959 0.000000
0.000000 42.857143 0.000000
0.000000 40.816327 0.000000
0.000000 38.775510 0.000000
0.000000 36.734694 0.000000
0.000000 34.693878 0.000000
0.000000 32.653061 0.000000
0.000000 30.612245 0.000000
0.000000 28.571429 0.000000
0.000000 26.530612 0.000000
0.000000 24.489796 0.000000
0.000000 22.448980 0.000000
0.000000 20.408163 0.000000
0.000000 18.367347 0.000000
0.000000 16.326531 0.000000
0.000000 14.285714 0.000000
0.000000 12.244898 0.000000
0.000000 10.204082 0.000000
0.000000 8.163265 0.000000
0.000000 6.122449 0.000000
0.000000 4.081633 0.000000
0.000000 2.040816 0.000000
16.388506 50.179028 0.000000
16.354213 50.355116 0.000000
16.297683 50.525374 0.000000
16.219846 50.687005 0.000000
16.121979 50.837355 0.000000
16.005689 50.973956 0.000000
15.872886 51.094564 0.000000
15.725750 51.197200 0.000000
15.566697 51.280178 0.000000
15.398339 51.342135 0.000000
15.223440 51.382054 0.000000
15.044872 51.399281 0.000000
14.865568 51.393531 0.000000
14.688471 51.364899 0.000000
14.516489 51.313856 0.000000
14.352446 51.241239 0.000000
14.199037 51.148241 0.000000
14.058779 51.036389 0.000000
13.933976 50.907520 0.000000
13.826677 50.763749 0.000000
13.738644 50.607437 0.000000
13.671322 50.441152 0.000000
13.625817 50.267622 0.000000
13.602876 50.089698 0.000000
13.602876 49.910302 0.000000
13.625817 49.732378 0.000000
13.671322 49.558848 0.000000
13.738644 49.392563 0.000000
13.826677 49.236251 0.000000
13.933976 49.092480 0.000000
14.058779 48.963611 0.000000
14.199037 48.851759 0.000000
14.352446 48.758761 0.000000
14.516489 48.686144 0.000000
14.688471 48.635101 0.000000
14.865568 48.606469 0.000000
15.044872 48.600719 0.000000
15.223440 48.617946 0.000000
15.398339 48.657865 0.000000
15.566697 48.719822 0.000000
15.725750 48.802800 0.000000
15.872886 48.905436 0.000000
16.005689 49.026044 0.000000
16.121979 49.162645 0.000000
16.219846 49.312995 0.000000
16.297683 49.474626 0.000000
16.354213 49.644884 0.000000
16.388506 49.820972 0.000000
16.142290 51.090246 0.000000
16.381031 49.246029 0.000000
16.476220 50.570036 0.000000
16.567534 49.809478 0.000000
13.432060 49.919357 0.000000
27.959184 67.346939 0.000000
15.062546 51.587060 0.000000
27.959184 79.591837 0.000000
2.040816 20.408163 0.000000
2.040816 30.612245 0.000000
2.040816 81.632653 0.000000
2.040816 69.387755 0.000000
27.959184 16.326531 0.000000
27.959184 24.489796 0.000000
27.959184 32.653061 0.000000
2.000226 63.022103 0.000000
2.040816 38.775510 0.000000
27.959184 38.775510 0.000000
2.063520 56.953992 0.000000
27.959184 59.183673 0.000000
15.000000 97.857143 0.000000
15.000000 2.142857 0.000000
27.959184 44.897959 0.000000
27.959184 51.020408 0.000000
2.058026 48.891267 0.000000
2.040816 12.244898 0.000000
27.959184 8.163265 0.000000
2.119286 91.907213 0.000000
27.959184 87.755102 0.000000
8.571429 2.142857 0.000000
21.428571 97.857143 0.000000
2.040816 6.122449 0.000000
27.959184 93.877551 0.000000
23.571429 2.142857 0.000000
6.428571 97.857143 0.000000
2.040816 44.897959 0.000000
15.808727 51.356253 0.000000
2.040816 77.551020 0.000000
27.959184 71.428571 0.000000
2.040816 26.530612 0.000000
4.285714 2.142857 0.000000
25.714286 97.857143 0.000000
2.021897 52.958989 0.000000
27.959184 53.061224 0.000000
27.914278 55.273576 0.000000
27.959184 61.224490 0.000000
27.879705 47.169173 0.000000
2.040816 36.734694 0.000000
1.985319 42.671502 0.000000
2.040816 4.081633 0.000000
27.959184 95.918367 0.000000
27.842785 41.012410 0.000000
27.904213 63.341606 0.000000
1.981595 60.897410 0.000000
2.040816 34.693878 0.000000
2.142857 97.857143 0.000000
27.857143 2.142857 0.000000
21.428571 2.142857 0.000000
8.571429 97.857143 0.000000
19.285714 2.142857 0.000000
10.714286 97.857143 0.000000
12.857143 2.142857 0.000000
17.142857 97.857143 0.000000
2.040816 73.469388 0.000000
2.040816 85.714286 0.000000
27.959184 28.571429 0.000000
27.957036 12.244796 0.000000
27.959184 20.408163 0.000000
27.959184 75.510204 0.000000
27.959184 81.632653 0.000000
2.040816 24.489796 0.000000
2.040816 18.367347 0.000000
2.101567 67.270721 0.000000
27.990742 34.718564 0.000000
2.040816 16.326531 0.000000
2.040816 10.204082 0.000000
2.040816 89.795918 0.000000
27.959184 83.673469 0.000000
27.959184 89.795918 0.000000
2.098379 2.081372 0.000000
27.901617 97.918624 0.000000
28.130079 4.091715 0.000000
1.869924 95.908287 0.000000
16.576970 50.167357 0.000000
25.954712 32.689406 0.000000
4.048051 69.354174 0.000000
4.081633 24.489796 0.000000
25.916213 79.588913 0.000000
4.086221 18.371935 0.000000
3.897904 34.877606 0.000000
3.923124 61.572806 0.000000
26.128612 39.133691 0.000000
26.214823 61.491956 0.000000
3.871989 43.375621 0.000000
26.265426 45.355943 0.000000
26.372982 51.593494 0.000000
15.011971 95.726257 0.000000
14.987483 4.273197 0.000000
4.095212 12.258477 0.000000
25.904714 87.741449 0.000000
8.590547 95.733404 0.000000
4.124327 91.817489 0.000000
23.644909 4.177846 0.000000
1.898679 46.664421 0.000000
1.887660 50.867252 0.000000
28.104743 49.216969 0.000000
28.091622 57.507646 0.000000
1.793213 54.763850 0.000000
1.898425 40.673936 0.000000
28.092220 43.114891 0.000000
1.898792 59.041649 0.000000
26.349643 53.492500 0.000000
3.788008 38.504633 0.000000
26.348185 4.174096 0.000000
28.073402 36.848913 0.000000
3.770644 95.809804 0.000000
1.947709 64.759841 0.000000
27.961478 65.481833 0.000000
2.032166 32.492602 0.000000
21.409200 4.266343 0.000000
6.436167 2.135262 0.000000
23.563887 97.864684 0.000000
17.151762 2.133952 0.000000
12.848401 97.865884 0.000000
10.720797 2.136346 0.000000
19.279431 97.863426 0.000000
25.741048 2.116095 0.000000
4.208553 97.884202 0.000000
2.040816 71.428571 0.000000
27.959184 73.469388 0.000000
2.040044 28.570656 0.000000
2.040816 79.591837 0.000000
2.040816 75.510204 0.000000
27.959184 30.612245 0.000000
27.959184 69.387755 0.000000
27.959184 77.551020 0.000000
2.040816 22.448980 0.000000
27.959184 22.448980 0.000000
27.959252 26.530681 0.000000
27.959184 18.367347 0.000000
2.040816 83.673469 0.000000
27.959184 14.285714 0.000000
25.913747 81.628033 0.000000
2.043283 87.757569 0.000000
2.046930 14.291828 0.000000
27.956122 10.201020 0.000000
27.953028 85.708130 0.000000
2.051111 8.173560 0.000000
27.948877 91.826428 0.000000
27.877535 6.025956 0.000000
2.132881 93.976795 0.000000
4.000357 6.267740 0.000000
4.120886 4.222927 0.000000
25.999609 93.732219 0.000000
25.879089 95.777048 0.000000
15.649674 48.560769 0.000000
26.010158 67.277614 0.000000
25.918367 24.489796 0.000000
4.081633 79.591837 0.000000
25.916050 16.328010 0.000000
23.873553 79.584761 0.000000
3.481175 55.433151 0.000000
24.733850 51.947925 0.000000
3.652422 50.744354 0.000000
25.910700 12.249504 0.000000
23.509255 6.363423 0.000000
26.366938 49.758281 0.000000
26.399277 43.548901 0.000000
3.661711 59.758281 0.000000
25.957156 34.691433 0.000000
10.699495 4.264413 0.000000
19.300303 95.735157 0.000000
17.109994 4.256463 0.000000
12.860039 95.741544 0.000000
25.918367 71.428571 0.000000
4.081633 75.510204 0.000000
4.081051 71.394408 0.000000
4.082695 22.452337 0.000000
4.101940 14.313488 0.000000
25.897715 85.686136 0.000000
4.098775 10.200519 0.000000
25.900922 89.799710 0.000000
3.484993 40.079859 0.000000
26.104841 46.997441 0.000000
26.094660 40.880576 0.000000
26.217182 37.055706 0.000000
26.283778 59.646794 0.000000
3.394990 47.531927 0.000000
3.704894 44.917521 0.000000
26.589189 56.610962 0.000000
3.896163 33.117193 0.000000
4.081633 30.612245 0.000000
4.081633 26.530612 0.000000
25.925339 8.209651 0.000000
6.124956 95.705249 0.000000
26.056738 64.934647 0.000000
3.837443 65.195708 0.000000
3.643332 63.322448 0.000000
26.181899 63.192966 0.000000
19.294998 4.257059 0.000000
10.706283 95.741406 0.000000
26.301437 55.150246 0.000000
12.863256 4.267083 0.000000
17.136818 95.732295 0.000000
25.918367 28.571429 0.000000
25.922292 30.652514 0.000000
6.508559 4.176475 0.000000
23.491534 95.823372 0.000000
4.048622 67.346368 0.000000
25.918367 73.469388 0.000000
25.918367 77.551020 0.000000
25.918367 20.408163 0.000000
4.082867 81.631419 0.000000
4.087811 85.710574 0.000000
4.083002 20.414121 0.000000
4.090228 89.806980 0.000000
4.086073 16.326679 0.000000
25.912810 83.674407 0.000000
3.917278 36.754068 0.000000
14.878780 48.427563 0.000000
4.121149 8.218141 0.000000
25.878782 91.781783 0.000000
25.877030 6.294134 0.000000
4.191064 93.660458 0.000000
3.706610 41.587650 0.000000
24.360874 63.474693 0.000000
5.368991 63.172792 0.000000
5.674069 34.909097 0.000000
6.109733 24.502512 0.000000
6.088864 69.353595 0.000000
6.132398 16.325610 0.000000
23.981312 34.665250 0.000000
5.376427 43.319631 0.000000
23.882585 71.433605 0.000000
6.124736 79.588316 0.000000
24.776210 45.416620 0.000000
24.946431 56.614079 0.000000
10.752083 6.375586 0.000000
12.894743 93.625460 0.000000
23.836000 87.699130 0.000000
6.155926 89.782091 0.000000
19.248565 93.623411 0.000000
6.164366 12.302233 0.000000
23.886460 30.607260 0.000000
23.877559 77.543952 0.000000
15.993494 48.772633 0.000000
5.251211 40.260448 0.000000
6.178688 93.732220 0.000000
3.877467 52.261786 0.000000
23.990247 8.280891 0.000000
17.186835 6.364626 0.000000
21.413206 6.362392 0.000000
3.711363 57.087486 0.000000
24.548632 37.413315 0.000000
5.712568 65.433508 0.000000
5.793943 32.523932 0.000000
24.589986 59.837123 0.000000
24.813004 53.682843 0.000000
5.250488 60.030776 0.000000
3.697518 48.909379 0.000000
24.119046 65.396539 0.000000
24.581314 40.691301 0.000000
10.603714 93.717869 0.000000
4.068917 28.558713 0.000000
4.081027 73.434619 0.000000
8.607507 4.236797 0.000000
21.392703 95.762913 0.000000
5.512345 38.522043 0.000000
17.126865 93.618251 0.000000
12.870913 6.383653 0.000000
25.921385 69.390773 0.000000
6.123796 22.456285 0.000000
25.918367 75.510204 0.000000
25.919947 26.532192 0.000000
4.081633 77.551021 0.000000
25.918367 22.448980 0.000000
25.918055 18.367035 0.000000
6.126108 20.415041 0.000000
23.865516 81.626176 0.000000
4.094668 87.761959 0.000000
25.903092 10.196473 0.000000
4.085158 83.675760 0.000000
25.916212 14.283559 0.000000
23.851875 83.638664 0.000000
6.166237 10.285603 0.000000
23.833198 89.714059 0.000000
6.100145 6.368968 0.000000
23.899708 93.630706 0.000000
3.849996 53.640692 0.000000
26.304700 57.958096 0.000000
26.390976 48.299874 0.000000
26.662179 42.156926 0.000000
24.928849 50.372815 0.000000
13.812511 49.014983 0.000000
6.961847 40.150704 0.000000
7.220966 63.583340 0.000000
8.149957 24.495948 0.000000
23.871440 16.336385 0.000000
22.546365 63.639938 0.000000
7.533761 34.314286 0.000000
23.539398 53.218806 0.000000
4.879497 50.090533 0.000000
23.877395 24.489952 0.000000
21.837403 77.544605 0.000000
4.942273 54.893282 0.000000
14.042009 51.239805 0.000000
21.957799 8.394841 0.000000
10.796003 91.534377 0.000000
6.137275 83.658457 0.000000
19.389985 91.656620 0.000000
10.642977 8.412362 0.000000
24.862291 43.842084 0.000000
23.887457 69.399677 0.000000
23.901485 28.589395 0.000000
23.882196 73.469776 0.000000
21.816253 81.579636 0.000000
5.179307 44.681010 0.000000
14.210175 48.650784 0.000000
21.781554 87.648985 0.000000
8.115148 12.462592 0.000000
8.650546 6.363441 0.000000
21.350405 93.635979 0.000000
24.663411 55.112128 0.000000
24.480994 61.756706 0.000000
8.023152 93.717055 0.000000
23.611367 50.645005 0.000000
24.922753 46.689466 0.000000
24.939931 48.967472 0.000000
5.138432 47.437222 0.000000
25.210225 42.253593 0.000000
15.083357 6.376675 0.000000
23.974703 32.674592 0.000000
24.018641 67.390173 0.000000
6.071740 28.533435 0.000000
6.032696 30.572869 0.000000
5.838095 36.820875 0.000000
19.313303 6.356962 0.000000
24.567791 39.067474 0.000000
5.934916 67.348646 0.000000
15.007592 93.613408 0.000000
6.109735 26.530614 0.000000
6.121468 71.394012 0.000000
6.121217 73.470014 0.000000
23.877083 22.449448 0.000000
23.876771 20.408631 0.000000
6.132219 18.371608 0.000000
8.164746 22.457893 0.000000
23.879217 75.504801 0.000000
6.122447 77.547502 0.000000
23.842069 85.655271 0.000000
23.863821 14.301895 0.000000
6.125976 81.631425 0.000000
24.747281 58.245451 0.000000
6.161833 14.324055 0.000000
6.156358 87.744384 0.000000
5.495841 61.447891 0.000000
14.375028 51.419444 0.000000
5.313717 41.826386 0.000000
6.202877 8.383179 0.000000
23.796848 91.616228 0.000000
23.850972 12.298467 0.000000
23.897727 10.313937 0.000000
6.162642 91.852046 0.000000
5.223624 58.441069 0.000000
13.628586 49.241874 0.000000
2.786570 54.199171 0.000000
5.093535 51.130499 0.000000
5.387914 52.233716 0.000000
3.358323 58.372731 0.000000
24.678812 35.893973 0.000000
13.607142 50.739267 0.000000
22.941442 41.026261 0.000000
23.223788 58.324579 0.000000
23.506071 46.765140 0.000000
6.482216 44.584016 0.000000
8.099406 69.355946 0.000000
6.357803 51.489803 0.000000
22.132765 34.570382 0.000000
21.884366 69.430514 0.000000
10.192943 24.500200 0.000000
8.163184 77.547578 0.000000
21.829594 16.348760 0.000000
21.836354 24.490489 0.000000
17.181425 8.462694 0.000000
7.654894 36.253489 0.000000
22.760177 61.916415 0.000000
6.728181 59.905241 0.000000
6.727014 41.596743 0.000000
12.864459 8.477611 0.000000
23.654334 49.356826 0.000000
8.007345 30.508084 0.000000
21.902053 28.606170 0.000000
8.137542 26.525713 0.000000
8.177006 81.607427 0.000000
21.794374 83.590324 0.000000
7.186926 38.525330 0.000000
7.015107 61.839380 0.000000
5.338531 56.651487 0.000000
19.872151 8.442610 0.000000
8.073424 89.599073 0.000000
8.271438 10.346690 0.000000
21.677622 89.640501 0.000000
23.449478 42.463540 0.000000
23.325650 51.972959 0.000000
23.330042 44.183491 0.000000
23.482458 55.740324 0.000000
5.148041 48.818759 0.000000
22.916720 37.715653 0.000000
22.015822 32.583921 0.000000
5.370442 53.547470 0.000000
7.507431 65.450312 0.000000
23.896408 26.568497 0.000000
8.160817 73.433612 0.000000
17.111241 91.511375 0.000000
22.292825 65.495872 0.000000
12.895571 91.525891 0.000000
21.867085 71.444405 0.000000
21.840385 75.505773 0.000000
23.876297 18.366873 0.000000
21.835560 22.450155 0.000000
8.248460 20.346607 0.000000
7.751615 32.465326 0.000000
8.179687 18.373078 0.000000
6.122212 75.510593 0.000000
21.807868 14.311537 0.000000
21.825204 79.544809 0.000000
6.150539 85.692882 0.000000
5.134328 46.040850 0.000000
21.779006 85.615406 0.000000
8.199717 16.395014 0.000000
8.224250 14.413504 0.000000
21.795834 12.397585 0.000000
21.699169 10.521320 0.000000
8.336322 91.561994 0.000000
8.133293 8.293858 0.000000
21.867399 91.706531 0.000000
23.516586 54.541985 0.000000
14.453896 48.556442 0.000000
25.238225 47.787622 0.000000
14.195523 51.302253 0.000000
22.958862 36.215682 0.000000
8.144178 41.549260 0.000000
8.421890 60.301761 0.000000
22.353255 54.162532 0.000000
22.464967 50.846703 0.000000
6.554031 48.817472 0.000000
21.044218 61.921272 0.000000
9.470408 34.412306 0.000000
19.896736 69.445945 0.000000
19.808323 75.512543 0.000000
10.221840 20.423287 0.000000
19.779021 79.496142 0.000000
19.775124 16.420730 0.000000
20.236331 34.461634 0.000000
19.795086 24.491422 0.000000
10.240021 16.469720 0.000000
6.413503 45.848624 0.000000
9.056013 63.626981 0.000000
10.165013 26.527671 0.000000
21.835011 20.408395 0.000000
19.674844 83.449691 0.000000
14.297504 48.455887 0.000000
22.349999 43.088950 0.000000
22.951502 60.196152 0.000000
9.021800 38.116547 0.000000
13.488444 50.412650 0.000000
6.365724 50.317585 0.000000
6.104654 55.080214 0.000000
18.986056 89.489607 0.000000
6.699509 57.246979 0.000000
10.044108 89.521230 0.000000
6.601349 43.002505 0.000000
10.776634 10.563823 0.000000
19.201430 10.542748 0.000000
23.606551 57.055676 0.000000
23.283637 45.471428 0.000000
23.009116 39.542705 0.000000
23.832626 47.983859 0.000000
22.107680 67.447639 0.000000
15.057387 8.467088 0.000000
21.878659 26.546718 0.000000
7.788147 67.381749 0.000000
20.781556 63.691942 0.000000
6.822586 58.427025 0.000000
8.162715 75.507075 0.000000
21.851491 73.475068 0.000000
9.702112 32.457152 0.000000
15.011124 91.520063 0.000000
21.917862 30.606984 0.000000
8.157559 71.390001 0.000000
8.072002 28.525975 0.000000
8.189608 83.659761 0.000000
10.208953 22.458613 0.000000
21.830076 18.393231 0.000000
8.165398 79.588241 0.000000
8.204106 85.655068 0.000000
8.212602 87.685542 0.000000
22.247762 52.043814 0.000000
10.281506 14.600909 0.000000
19.858600 87.627281 0.000000
19.768295 14.405443 0.000000
21.235482 35.786207 0.000000
22.055492 42.090022 0.000000
3.552023 46.248317 0.000000
6.477218 52.631238 0.000000
14.074613 51.468753 0.000000
21.267521 43.206749 0.000000
7.623500 49.895400 0.000000
7.454519 45.456673 0.000000
21.425923 51.623124 0.000000
19.361609 61.974414 0.000000
9.742125 67.387394 0.000000
19.951424 30.585322 0.000000
10.178004 71.399416 0.000000
10.202151 75.508143 0.000000
10.215226 79.565717 0.000000
10.248198 83.596478 0.000000
11.433770 34.358749 0.000000
19.659779 36.124614 0.000000
12.179625 26.525518 0.000000
12.330199 22.397486 0.000000
12.379252 16.414770 0.000000
17.653408 16.572879 0.000000
22.785660 47.586351 0.000000
7.869402 42.860172 0.000000
22.191123 56.893194 0.000000
21.406815 60.365026 0.000000
20.149475 67.520403 0.000000
19.845856 26.522525 0.000000
19.833442 73.494494 0.000000
10.069707 28.525376 0.000000
22.416736 49.749231 0.000000
7.460504 51.703671 0.000000
8.504576 39.859453 0.000000
8.319729 58.828183 0.000000
6.142505 46.759018 0.000000
22.247990 55.335280 0.000000
12.138980 89.165857 0.000000
17.914119 87.426583 0.000000
20.501555 65.594878 0.000000
9.496715 36.254127 0.000000
21.453194 39.077570 0.000000
21.596484 40.733754 0.000000
14.940569 10.545587 0.000000
16.964368 10.537124 0.000000
9.347761 65.498670 0.000000
8.621300 61.895188 0.000000
19.866367 71.473464 0.000000
22.239990 45.093362 0.000000
20.085298 32.542839 0.000000
19.792146 20.435077 0.000000
9.960094 30.507728 0.000000
12.859253 10.560230 0.000000
19.755888 85.526995 0.000000
19.783344 18.420410 0.000000
19.794302 22.450164 0.000000
17.066556 89.326025 0.000000
19.795951 77.496775 0.000000
22.136729 44.061282 0.000000
19.763883 81.477675 0.000000
10.233900 18.523933 0.000000
21.140825 37.504092 0.000000
19.893126 12.404498 0.000000
10.186732 12.619033 0.000000
10.207936 87.508327 0.000000
22.312564 53.030694 0.000000
6.717193 53.961431 0.000000
6.742458 56.121620 0.000000
21.677005 58.660720 0.000000
13.589769 50.546941 0.000000
7.741061 44.214374 0.000000
13.464216 50.616384 0.000000
9.731885 41.136364 0.000000
20.771535 57.274625 0.000000
8.490613 45.067810 0.000000
9.770659 59.143020 0.000000
10.909450 63.350601 0.000000
18.269947 67.566536 0.000000
17.861750 71.474869 0.000000
17.779913 75.435925 0.000000
18.286676 34.422817 0.000000
17.740798 79.435896 0.000000
17.931061 26.036097 0.000000
17.751471 22.477908 0.000000
11.993406 86.711078 0.000000
19.799139 60.341528 0.000000
21.244001 54.730634 0.000000
21.388285 52.675732 0.000000
12.183673 18.409634 0.000000
17.904275 14.697684 0.000000
14.937172 12.623506 0.000000
20.195854 40.358456 0.000000
19.156221 37.692705 0.000000
15.971062 87.354230 0.000000
7.670109 47.668472 0.000000
22.283335 46.855371 0.000000
12.497769 12.516127 0.000000
10.099674 39.603104 0.000000
11.326083 36.218072 0.000000
7.587670 52.882251 0.000000
7.602988 55.066063 0.000000
8.205827 57.600085 0.000000
21.520459 50.660827 0.000000
11.200897 65.480608 0.000000
21.158313 44.526039 0.000000
19.917008 28.573413 0.000000
10.188569 73.446985 0.000000
10.107031 69.353833 0.000000
19.055881 63.775158 0.000000
9.979963 60.454699 0.000000
15.030091 89.429578 0.000000
12.063477 28.521896 0.000000
11.642173 32.450128 0.000000
17.710887 81.477091 0.000000
12.233194 24.486911 0.000000
12.348198 14.417529 0.000000
10.207948 77.534361 0.000000
20.813159 41.775923 0.000000
18.135238 32.534665 0.000000
10.231889 81.583041 0.000000
17.790086 18.857560 0.000000
12.268043 20.263178 0.000000
17.754728 12.524423 0.000000
17.695072 83.522785 0.000000
17.763346 85.427074 0.000000
10.264455 85.656827 0.000000
8.820647 43.882350 0.000000
21.139207 55.958668 0.000000
7.329007 46.709657 0.000000
7.262855 50.785023 0.000000
21.362822 53.706851 0.000000
9.152980 42.529334 0.000000
22.666549 48.546495 0.000000
19.997708 42.720216 0.000000
9.935453 43.443779 0.000000
20.298905 55.292628 0.000000
20.557708 52.296448 0.000000
8.413521 51.971256 0.000000
11.253178 59.742807 0.000000
18.344843 60.443324 0.000000
12.510949 63.822848 0.000000
13.376062 50.795308 0.000000
12.194346 69.609129 0.000000
12.137227 73.802319 0.000000
13.266774 35.914998 0.000000
12.354395 77.371553 0.000000
15.570282 81.157153 0.000000
9.276905 56.768396 0.000000
17.926610 28.516085 0.000000
14.066417 28.531066 0.000000
15.487165 85.063526 0.000000
10.915829 40.435770 0.000000
14.205293 26.529933 0.000000
16.356414 34.470521 0.000000
14.348169 24.430784 0.000000
14.300444 22.468969 0.000000
14.214024 20.463572 0.000000
14.338414 18.528045 0.000000
12.275711 79.523779 0.000000
12.276331 81.544532 0.000000
14.357292 16.475358 0.000000
13.104567 34.145465 0.000000
12.309176 83.595850 0.000000
21.259966 45.407997 0.000000
10.839131 38.035403 0.000000
18.688418 65.626666 0.000000
9.591784 44.777881 0.000000
21.296096 49.784683 0.000000
21.398977 46.874424 0.000000
10.083488 61.990333 0.000000
17.983654 30.585260 0.000000
11.650226 67.428015 0.000000
20.594933 51.387278 0.000000
17.935745 69.502373 0.000000
17.678127 61.994429 0.000000
17.793213 36.330390 0.000000
11.928024 30.489825 0.000000
17.714892 24.320786 0.000000
17.638297 73.445268 0.000000
17.756835 77.396780 0.000000
18.028161 20.703249 0.000000
20.255031 43.935113 0.000000
20.379419 54.313924 0.000000
7.933531 56.400666 0.000000
20.422535 58.893288 0.000000
15.815976 14.836234 0.000000
8.280065 50.838455 0.000000
13.284558 50.557202 0.000000
11.663219 84.968960 0.000000
9.078122 45.887169 0.000000
7.826578 53.942857 0.000000
16.006397 18.582932 0.000000
19.701456 41.632086 0.000000
20.094516 38.804836 0.000000
21.717299 47.786848 0.000000
14.020261 87.168140 0.000000
14.146818 14.622322 0.000000
20.499408 53.327593 0.000000
10.397307 42.274427 0.000000
22.646028 46.030523 0.000000
19.272818 43.494399 0.000000
10.673454 44.193049 0.000000
13.122384 50.744545 0.000000
19.519165 54.741257 0.000000
19.804380 51.985680 0.000000
9.137345 51.239811 0.000000
17.776570 37.947859 0.000000
16.704981 60.634159 0.000000
19.687352 57.729439 0.000000
13.368895 67.503124 0.000000
12.801308 38.087834 0.000000
13.971901 30.512311 0.000000
13.267924 50.331371 0.000000
15.989487 69.502298 0.000000
15.857555 71.451203 0.000000
8.792296 54.371752 0.000000
15.789840 73.443897 0.000000
15.750812 75.369138 0.000000
11.265259 61.323052 0.000000
16.003038 77.408426 0.000000
16.823206 65.659908 0.000000
16.322296 36.223027 0.000000
20.826485 48.485949 0.000000
13.529375 50.962152 0.000000
10.982401 58.231536 0.000000
9.990519 45.794936 0.000000
18.636350 40.995957 0.000000
16.003580 32.382339 0.000000
17.344079 63.825391 0.000000
8.645174 53.039147 0.000000
12.947977 65.530577 0.000000
12.049109 72.173263 0.000000
13.543201 32.471576 0.000000
20.374875 45.164146 0.000000
15.936278 79.415766 0.000000
19.614641 53.830879 0.000000
12.200779 75.516685 0.000000
16.007785 30.322203 0.000000
9.073497 55.600853 0.000000
20.676059 50.545301 0.000000
15.970465 28.419413 0.000000
20.208040 56.401263 0.000000
8.677880 49.988306 0.000000
15.853522 82.673711 0.000000
8.162433 46.155518 0.000000
16.115013 26.406294 0.000000
16.308481 24.505451 0.000000
18.912542 42.317302 0.000000
21.631832 48.931676 0.000000
14.286139 77.517569 0.000000
16.188761 22.980853 0.000000
19.181537 59.006020 0.000000
16.333669 20.834067 0.000000
14.306527 79.498459 0.000000
15.649829 16.853705 0.000000
14.968672 36.207508 0.000000
14.166993 81.354495 0.000000
11.558615 39.494344 0.000000
14.125777 83.266107 0.000000
13.333460 85.173408 0.000000
12.664947 62.258933 0.000000
19.791833 52.867707 0.000000
21.742244 46.088515 0.000000
18.526488 39.391355 0.000000
11.200639 43.178038 0.000000
18.266160 43.118423 0.000000
11.764165 44.063257 0.000000
18.695660 54.139700 0.000000
9.324854 50.532839 0.000000
9.480077 53.661749 0.000000
13.161463 39.922661 0.000000
9.621993 46.659925 0.000000
16.889712 39.283543 0.000000
12.324608 59.001106 0.000000
20.527255 47.512687 0.000000
19.162557 52.492828 0.000000
14.217585 63.483201 0.000000
14.557630 37.801643 0.000000
18.414413 58.011042 0.000000
8.578613 49.035985 0.000000
20.504533 49.751157 0.000000
9.340541 52.113240 0.000000
10.399435 55.952810 0.000000
15.896601 62.369781 0.000000
20.646526 46.265566 0.000000
8.565534 47.040842 0.000000
19.174252 56.754469 0.000000
14.857041 65.893928 0.000000
10.014697 54.758370 0.000000
13.392193 50.140757 0.000000
16.412445 67.592022 0.000000
19.870929 51.195965 0.000000
14.038380 69.407389 0.000000
19.528164 44.619035 0.000000
11.738238 42.135677 0.000000
12.812193 60.382387 0.000000
17.871425 41.886648 0.000000
13.827574 71.433500 0.000000
13.046316 50.463260 0.000000
13.243285 51.041841 0.000000
19.413704 55.740076 0.000000
13.809389 73.446906 0.000000
16.237600 37.670984 0.000000
13.725099 75.491856 0.000000
14.547260 34.291607 0.000000
17.703442 59.219529 0.000000
13.713818 50.903029 0.000000
15.827702 64.246442 0.000000
10.243336 57.146715 0.000000
10.495991 45.079863 0.000000
19.053152 53.276450 0.000000
20.873765 49.185248 0.000000
12.844168 50.664110 0.000000
10.962866 55.153057 0.000000
18.212182 53.494494 0.000000
17.258246 42.774937 0.000000
10.022217 52.847173 0.000000
17.062435 57.933784 0.000000
13.438753 51.197620 0.000000
12.212752 57.735694 0.000000
19.910058 46.859393 0.000000
9.916938 51.244622 0.000000
14.344550 39.419241 0.000000
14.246505 60.238021 0.000000
18.442936 56.041372 0.000000
20.028294 48.476540 0.000000
13.887098 51.109272 0.000000
13.275027 49.914017 0.000000
11.322732 44.937686 0.000000
12.118402 40.937426 0.000000
11.311346 56.895935 0.000000
13.079606 50.158378 0.000000
14.434107 61.763730 0.000000
19.715898 45.838173 0.000000
19.148732 51.732031 0.000000
9.238974 47.714924 0.000000
19.911209 50.446426 0.000000
18.510577 52.903174 0.000000
7.618889 49.023274 0.000000
10.323769 53.967598 0.000000
18.647693 44.261756 0.000000
16.480658 59.238527 0.000000
18.716561 55.144341 0.000000
13.678611 51.138782 0.000000
17.489815 40.503110 0.000000
15.572420 38.968663 0.000000
12.938615 50.968535 0.000000
10.305235 46.433776 0.000000
17.909105 56.974746 0.000000
10.980332 41.383933 0.000000
14.837819 67.821848 0.000000
9.511106 49.736871 0.000000
9.525661 58.002296 0.000000
20.243897 49.101525 0.000000
15.268937 60.893569 0.000000
19.103649 46.410052 0.000000
12.154971 45.109861 0.000000
17.748362 53.044060 0.000000
19.369476 48.351635 0.000000
12.622029 50.896359 0.000000
10.801278 53.241784 0.000000
13.009685 42.171929 0.000000
15.677880 58.131868 0.000000
17.790902 55.408661 0.000000
13.578172 58.771972 0.000000
12.368106 56.526923 0.000000
15.826242 40.323323 0.000000
13.587155 51.371096 0.000000
9.465277 49.091021 0.000000
13.509920 49.563275 0.000000
14.453948 40.783165 0.000000
18.590754 52.181825 0.000000
19.230336 51.021474 0.000000
16.861091 56.679505 0.000000
10.996953 45.809594 0.000000
18.941145 45.337040 0.000000
17.808798 54.014866 0.000000
17.899828 54.648482 0.000000
19.829731 49.695700 0.000000
8.326209 48.277906 0.000000
16.741858 41.573916 0.000000
19.707306 47.765502 0.000000
10.143244 47.322548 0.000000
12.789977 50.341969 0.000000
10.316569 52.014259 0.000000
17.735915 43.956858 0.000000
12.988057 51.205543 0.000000
10.202002 50.529327 0.000000
15.101175 59.457749 0.000000
13.855186 51.332704 0.000000
13.448983 49.765429 0.000000
17.527738 56.155788 0.000000
11.674613 55.813718 0.000000
10.893710 54.465072 0.000000
13.412345 41.170763 0.000000
13.783480 51.598883 0.000000
17.364463 53.590269 0.000000
11.417666 53.842825 0.000000
16.789897 43.677434 0.000000
10.934300 52.490514 0.000000
15.863126 56.988568 0.000000
18.405798 45.962865 0.000000
14.266807 42.004752 0.000000
12.545424 55.323075 0.000000
19.000435 47.808167 0.000000
13.279411 49.642049 0.000000
16.789912 55.565239 0.000000
10.684743 51.358554 0.000000
10.939788 46.827363 0.000000
18.010538 52.515859 0.000000
18.581720 51.494915 0.000000
13.252448 57.321256 0.000000
10.400573 49.775356 0.000000
19.255637 50.376173 0.000000
16.196094 42.645957 0.000000
17.103222 54.284424 0.000000
18.160125 45.044728 0.000000
12.516129 43.299718 0.000000
19.370757 49.027802 0.000000
13.230231 51.381316 0.000000
19.242868 47.171163 0.000000
12.531130 50.557141 0.000000
12.760049 50.035242 0.000000
14.416377 57.929494 0.000000
13.594321 49.422503 0.000000
11.704126 45.563787 0.000000
7.358242 48.350751 0.000000
12.744480 51.136130 0.000000
15.431684 41.700210 0.000000
17.218213 54.948704 0.000000
9.411523 48.545541 0.000000
17.627515 45.666183 0.000000
16.720551 53.797118 0.000000
12.236497 45.951709 0.000000
17.061597 53.149969 0.000000
15.945287 55.996968 0.000000
10.869592 50.329786 0.000000
12.278247 50.816121 0.000000
11.214068 51.824935 0.000000
11.124919 47.697222 0.000000
15.775635 43.530892 0.000000
18.463252 47.067482 0.000000
14.247820 51.629657 0.000000
10.331421 48.223372 0.000000
14.924007 57.145400 0.000000
11.749549 54.603508 0.000000
16.507201 54.836714 0.000000
11.566734 46.359522 0.000000
18.094408 51.903036 0.000000
13.212055 56.071862 0.000000
13.432456 49.395577 0.000000
18.603428 50.851526 0.000000
17.378473 52.665556 0.000000
19.155431 49.698865 0.000000
13.586278 51.855089 0.000000
18.790824 48.518385 0.000000
12.987785 49.637177 0.000000
17.331645 44.813550 0.000000
11.480348 52.973378 0.000000
10.138169 49.073321 0.000000
13.011411 49.853488 0.000000
12.761810 51.417312 0.000000
6.698721 47.623765 0.000000
12.464125 50.202942 0.000000
15.098166 42.826410 0.000000
12.439877 51.161335 0.000000
13.884212 43.176417 0.000000
16.909466 45.458920 0.000000
16.152438 54.258540 0.000000
12.026602 53.308837 0.000000
16.728017 52.668177 0.000000
13.345067 55.034917 0.000000
12.748632 45.430150 0.000000
11.749160 52.237773 0.000000
12.125708 46.728242 0.000000
12.278560 51.513442 0.000000
13.310444 44.113248 0.000000
11.918673 51.102765 0.000000
15.010870 56.101293 0.000000
13.041562 51.679354 0.000000
13.346791 49.144657 0.000000
14.464575 51.653830 0.000000
14.050930 51.763086 0.000000
18.377781 48.004476 0.000000
18.094125 51.300169 0.000000
17.932659 46.530935 0.000000
18.693762 50.266879 0.000000
16.512697 53.326079 0.000000
15.776577 55.169175 0.000000
11.262599 48.385158 0.000000
11.009583 49.870436 0.000000
17.625437 52.173070 0.000000
18.699994 49.145398 0.000000
15.574398 44.403797 0.000000
16.473062 44.560621 0.000000
11.305146 51.238932 0.000000
10.956304 48.899646 0.000000
14.825931 43.785207 0.000000
13.194079 49.382044 0.000000
12.253532 50.446858 0.000000
12.396571 49.848143 0.000000
12.686589 49.734069 0.000000
12.728755 54.431669 0.000000
17.900212 47.627262 0.000000
14.147460 56.774954 0.000000
17.646504 47.070508 0.000000
16.013232 53.678466 0.000000
13.822163 51.957059 0.000000
18.166385 48.680963 0.000000
13.378236 54.315805 0.000000
12.294005 49.495908 0.000000
13.032789 49.112684 0.000000
14.705914 44.638234 0.000000
14.874754 51.569335 0.000000
14.806793 55.132499 0.000000
11.458053 50.306864 0.000000
13.552161 48.977396 0.000000
12.814457 46.283695 0.000000
18.087277 50.799141 0.000000
17.071286 52.297088 0.000000
11.680167 47.125964 0.000000
17.197945 46.304635 0.000000
12.551339 44.462572 0.000000
18.590162 49.706531 0.000000
16.268439 52.878384 0.000000
17.681472 51.610382 0.000000
14.304831 51.851575 0.000000
15.371731 54.414388 0.000000
16.224565 45.375958 0.000000
17.904872 48.247927 0.000000
14.108973 55.649661 0.000000
11.669673 48.919442 0.000000
11.776850 51.646053 0.000000
11.896565 50.588524 0.000000
12.592082 51.787847 0.000000
12.631174 49.412195 0.000000
10.864279 50.791753 0.000000
12.944466 49.378276 0.000000
14.100465 44.121762 0.000000
13.444759 51.623175 0.000000
12.203348 52.729729 0.000000
10.892635 49.447408 0.000000
12.050339 50.060778 0.000000
14.541902 51.490016 0.000000
17.028005 46.911888 0.000000
12.708745 46.982619 0.000000
15.433608 53.769110 0.000000
17.710332 48.980041 0.000000
16.513923 52.258656 0.000000
14.874035 51.771525 0.000000
17.525276 47.940597 0.000000
12.844724 52.034340 0.000000
12.574891 53.124499 0.000000
13.438207 45.703477 0.000000
11.907433 48.324342 0.000000
12.604665 49.027900 0.000000
13.941357 44.959417 0.000000
11.917195 49.573962 0.000000
13.551008 52.162845 0.000000
14.603445 51.889151 0.000000
18.169011 50.291339 0.000000
12.380941 52.208700 0.000000
15.396497 45.260873 0.000000
13.275085 51.940076 0.000000
17.290909 51.864795 0.000000
15.860724 53.186992 0.000000
17.681259 51.082684 0.000000
18.167847 49.231634 0.000000
13.047289 53.626200 0.000000
11.448875 49.758112 0.000000
14.561679 54.288151 0.000000
14.044970 54.738967 0.000000
16.507255 46.065095 0.000000
12.155519 51.878763 0.000000
13.246532 48.846138 0.000000
14.674530 51.623126 0.000000
14.089140 52.065167 0.000000
11.916613 47.768262 0.000000
13.205180 44.893102 0.000000
11.383234 50.777262 0.000000
16.464244 46.696696 0.000000
15.106482 51.802148 0.000000
14.876494 53.769563 0.000000
14.105969 48.363905 0.000000
16.154864 52.484590 0.000000
17.757726 49.425269 0.000000
14.692530 45.454761 0.000000
13.868247 53.902712 0.000000
13.097596 52.884579 0.000000
13.410067 46.555587 0.000000
17.536568 48.543069 0.000000
12.878342 48.864047 0.000000
12.196635 49.176258 0.000000
16.810417 51.977126 0.000000
15.305813 53.230941 0.000000
14.877127 52.008157 0.000000
17.286803 47.444950 0.000000
17.323167 51.361254 0.000000
12.700940 52.515882 0.000000
13.181035 52.351204 0.000000
17.664933 50.566507 0.000000
18.011940 49.786671 0.000000
15.745309 45.934567 0.000000
14.351155 52.137451 0.000000
12.368087 47.429353 0.000000
12.118052 48.798846 0.000000
12.257459 53.822923 0.000000
13.496616 48.730532 0.000000
14.143649 45.676366 0.000000
11.552393 48.074286 0.000000
13.837969 52.227717 0.000000
11.376936 49.319714 0.000000
15.886542 46.576126 0.000000
17.192280 48.221247 0.000000
13.298056 47.154955 0.000000
17.314509 49.148025 0.000000
15.156291 52.061888 0.000000
16.329272 51.938985 0.000000
14.769223 53.188065 0.000000
14.422382 48.274796 0.000000
12.715137 47.841940 0.000000
13.346390 48.494870 0.000000
13.975922 48.602089 0.000000
17.602806 49.857908 0.000000
14.662310 46.179140 0.000000
13.607820 52.606658 0.000000
13.614280 53.184309 0.000000
12.552001 48.572004 0.000000
15.691634 52.716604 0.000000
16.700212 47.320474 0.000000
15.438258 51.517034 0.000000
16.987112 51.588757 0.000000
17.329139 50.894668 0.000000
15.248434 51.590077 0.000000
13.032816 48.554527 0.000000
12.385823 48.034651 0.000000
14.617674 52.157741 0.000000
15.164729 45.858584 0.000000
17.738220 50.162003 0.000000
13.710849 48.844009 0.000000
14.025666 52.403050 0.000000
13.968603 46.241007 0.000000
14.201818 48.109284 0.000000
17.439152 50.192118 0.000000
16.035921 52.147935 0.000000
14.893862 52.371179 0.000000
13.871172 46.880107 0.000000
13.274157 48.159952 0.000000
14.668344 48.456935 0.000000
17.328525 49.526278 0.000000
15.108970 52.774353 0.000000
17.195115 48.757354 0.000000
16.206577 47.154176 0.000000
13.787074 48.447824 0.000000
16.966761 47.792036 0.000000
17.006906 51.146006 0.000000
16.564802 51.680225 0.000000
15.381789 51.761942 0.000000
15.661912 51.466398 0.000000
14.220847 53.185255 0.000000
12.823239 48.168034 0.000000
15.325879 46.496563 0.000000
13.969955 52.771266 0.000000
14.065250 48.747264 0.000000
17.238427 50.520784 0.000000
12.908160 47.499900 0.000000
14.417241 52.554495 0.000000
14.410159 46.801051 0.000000
14.497148 48.030964 0.000000
16.903309 48.485442 0.000000
15.920353 51.534959 0.000000
16.864555 48.953486 0.000000
16.990874 50.779758 0.000000
13.749497 47.406380 0.000000
15.449726 52.063606 0.000000
16.984572 50.526896 0.000000
13.365190 47.696155 0.000000
16.992973 49.274964 0.000000
16.388557 47.701615 0.000000
16.722997 51.353379 0.000000
17.256195 49.877252 0.000000
15.720577 52.301053 0.000000
15.695226 47.048012 0.000000
15.923498 51.840754 0.000000
14.766513 52.740023 0.000000
15.336844 52.381447 0.000000
13.892488 48.189924 0.000000
16.375343 51.446869 0.000000
13.587189 48.303006 0.000000
14.701290 48.232690 0.000000
13.897011 48.808103 0.000000
14.418554 53.722592 0.000000
14.270013 47.287641 0.000000
14.574928 52.917371 0.000000
13.017177 47.873196 0.000000
14.955430 48.214385 0.000000
16.654235 48.701001 0.000000
14.721915 47.314417 0.000000
16.724137 51.019428 0.000000
14.260915 47.887609 0.000000
16.475276 51.151926 0.000000
16.673675 48.128505 0.000000
16.609672 49.151505 0.000000
17.045143 50.224592 0.000000
16.679978 50.715073 0.000000
15.973902 47.503850 0.000000
13.616110 47.998614 0.000000
16.007779 51.236724 0.000000
17.014948 49.585468 0.000000
16.191866 51.661293 0.000000
15.260325 47.015649 0.000000
15.708220 51.682475 0.000000
14.066882 47.655500 0.000000
13.730393 48.667975 0.000000
13.939524 47.926605 0.000000
14.787803 47.979958 0.000000
15.066909 47.960110 0.000000
16.259041 48.051144 0.000000
16.288085 49.068679 0.000000
16.550269 49.610521 0.000000
15.526778 47.488809 0.000000
16.510149 50.919751 0.000000
16.477445 48.413044 0.000000
16.487894 49.417810 0.000000
14.499076 47.691606 0.000000
16.734498 49.379297 0.000000
16.952568 49.882061 0.000000
16.470272 48.905752 0.000000
16.722273 50.429575 0.000000
15.080084 48.422415 0.000000
16.275162 51.232461 0.000000
16.274404 50.952374 0.000000
15.703288 51.966294 0.000000
16.154101 51.422461 0.000000
14.916264 46.867381 0.000000
16.400274 50.751706 0.000000
13.747441 47.736651 0.000000
13.589532 48.528841 0.000000
15.880965 47.849220 0.000000
15.476312 48.485495 0.000000
16.151726 48.347633 0.000000
16.274977 48.659445 0.000000
16.159239 48.902712 0.000000
15.282036 48.434241 0.000000
16.762170 49.673109 0.000000
15.096318 47.354117 0.000000
16.800250 50.127075 0.000000
16.521160 50.371535 0.000000
15.197776 48.217866 0.000000
14.895168 47.665933 0.000000
15.668606 48.354214 0.000000
15.347989 48.000647 0.000000
16.543975 49.959043 0.000000
15.871188 48.245665 0.000000
15.996603 48.543670 0.000000
16.704298 49.931790 0.000000
15.240735 47.726583 0.000000
15.526145 47.844476 0.000000
15.439461 48.259796 0.000000
15.827628 48.654662 0.000000
15.785793 48.500682 0.000000
15.642796 48.079589 0.000000
POLYGONS 2699 10796
3 638 743 547
3 887 1006 964
3 1300 1301 1263
3 1072 1281 1120
3 1387 1399 1374
3 1206 1267 1232
3 1315 1341 1337
3 902 907 886
3 286 337 270
3 996 1059 956
3 1048 1110 1081
3 1316 1342 1321
3 809 939 876
3 559 570 510
3 1264 1289 1220
3 1300 1337 1301
3 887 964 640
3 1001 1018 981
3 1212 1230 1186
3 941 1003 876
3 549 745 683
3 1188 1250 140
3 797 860 765
3 1299 1316 1283
3 743 748 700
3 885 997 945
3 699 806 801
3 699 801 745
3 719 797 765
3 858 913 822
3 822 1027 776
3 561 617 571
3 969 1092 939
3 1082 1113 1059
3 1022 1083 1057
3 531 680 614
3 469 708 616
3 1079 1116 1095
3 431 638 547
3 1207 1248 1148
3 1151 1197 1092
3 747 806 616
3 1120 1281 1177
3 646 745 549
3 1141 1151 1092
3 1228 1253 1231
3 140 1250 1218
3 1041 1103 1045
3 893 935 751
3 1375 1396 1373
3 432 475 337
3 561 571 530
3 949 959 843
3 642 742 572
3 1048 1081 1066
3 1114 1118 1057
3 1004 1036 969
3 1108 1122 1100
3 1261 1283 1231
3 766 938 868
3 776 858 822
3 1087 1111 1062
3 401 470 429
3 1405 1406 1375
3 1192 1220 1149
3 1419 1430 178
3 1294 1364 1323
3 372 401 371
3 1299 1409 1342
3 547 743 700
3 843 959 937
3 1320 1359 1341
3 1190 1217 1208
3 636 1294 612
3 1337 1341 1334
3 1415 1428 1392
3 880 996 956
3 1180 1219 1196
3 1429 1435 1428
3 1136 1140 1102
3 531 1117 680
3 1351 1381 1322
3 1316 1321 1264
3 1152 1254 1208
3 479 642 572
3 279 423 217
3 712 870 785
3 401 429 371
3 577 677 546
3 1415 1429 1428
3 620 1013 682
3 573 648 558
3 1232 1286 1206
3 1356 1360 1349
3 890 913 775
3 1164 1171 1118
3 712 785 590
3 1285 1315 1300
3 578 619 500
3 511 573 558
3 1184 1262 1246
3 1380 1413 1395
3 278 362 199
3 139 1188 140
3 1386 1407 1332
3 1090 1143 1107
3 620 641 581
3 904 991 944
3 969 1024 1004
3 765 871 771
3 280 465 221
3 1092 1197 941
3 772 826 747
3 1375 1406 1396
3 765 771 727
3 707 774 679
3 941 1197 1031
3 282 336 193
3 951 982 962
3 1348 1411 1351
3 970 1007 935
3 942 989 985
3 1192 1264 1220
3 1413 1432 1395
3 1367 1399 1387
3 1255 1287 1247
3 700 711 580
3 1246 1262 1245
3 281 364 219
3 1010 1105 1054
3 1336 1409 1299
3 1120 1177 1078
3 1274 1300 1263
3 1190 1244 1217
3 701 859 743
3 575 609 485
3 1219 1255 1196
3 576 610 484
3 885 932 839
3 954 1105 1043
3 485 609 495
3 283 399 223
3 484 610 496
3 1113 1207 1148
3 963 988 957
3 572 644 538
3 218 286 270
3 1416 1417 420
3 841 900 864
3 951 962 905
3 1217 1244 1232
3 1054 1105 954
3 717 792 766
3 619 777 706
3 578 740 672
3 1019 1055 1041
3 285 343 228
3 407 646 549
3 1303 1356 1259
3 1433 1436 1425
3 284 466 226
3 952 997 885
3 681 792 677
3 463 479 336
3 1263 1301 1243
3 1114 1284 1164
3 649 700 580
3 366 430 365
3 1036 1141 1092
3 1041 1045 997
3 809 876 841
3 1100 1122 1049
3 434 476 338
3 497 611 432
3 743 859 748
3 338 541 423
3 498 638 431
3 937 959 838
3 293 366 365
3 1401 1430 1419
3 672 684 619
3 652 807 698
3 270 467 341
3 717 766 716
3 1187 1261 1231
3 1427 1430 258
3 643 674 576
3 1108 1192 1149
3 1005 1040 994
3 484 643 576
3 291 372 371
3 430 474 402
3 951 1007 958
3 861 943 880
3 149 964 150
3 155 468 156
3 942 985 910
3 1118 1171 1134
3 365 430 402
3 775 913 858
3 338 423 279
3 647 738 575
3 1081 1163 1121
3 701 743 638
3 343 433 265
3 812 956 904
3 1086 1179 1098
3 1098 1179 1119
3 485 647 575
3 608 645 482
3 538 543 427
3 1170 1254 1152
3 998 1007 970
3 639 708 570
3 1147 1253 1228
3 1035 1133 1072
3 437 608 482
3 1082 1170 1113
3 935 1007 951
3 1158 1178 1116
3 1283 1316 1228
3 1051 1071 989
3 343 543 538
3 1302 1309 1266
3 1031 1100 1003
3 420 1429 1416
3 865 904 890
3 286 432 337
3 436 577 546
3 1178 1180 1116
3 1180 1196 1160
3 910 985 936
3 792 867 766
3 1045 1103 1077
3 1136 1150 1140
3 1026 1087 1062
3 1397 1415 1392
3 773 885 839
3 579 637 577
3 639 839 772
3 1149 1279 1195
3 1210 1230 1212
3 218 270 198
3 1059 1113 1074
3 883 961 916
3 1413 1436 1432
3 219 286 218
3 267 498 431
3 1196 1255 1247
3 411 649 580
3 685 814 760
3 221 269 197
3 1087 1216 1165
3 223 268 210
3 1352 1377 1346
3 1019 1041 947
3 1354 1375 1373
3 886 912 902
3 998 1029 1007
3 839 932 772
3 1113 1148 1074
3 495 609 461
3 989 1071 1032
3 1144 1281 1072
3 650 723 579
3 496 610 462
3 1121 1143 1090
3 708 772 747
3 564 807 652
3 733 779 681
3 1097 1176 1135
3 1177 1184 1146
3 953 1023 961
3 958 982 951
3 1348 1351 1289
3 381 495 461
3 607 737 648
3 841 864 749
3 382 496 462
3 427 572 538
3 881 977 850
3 1315 1337 1300
3 607 648 573
3 1191 1314 468
3 1376 1392 1353
3 503 1137 620
3 917 943 861
3 840 903 783
3 581 641 476
3 770 874 548
3 269 486 342
3 1083 1195 1114
3 479 572 336
3 1402 1417 1416
3 504 577 436
3 618 740 475
3 1362 1375 1354
3 873 939 809
3 651 717 716
3 774 904 865
3 160 612 161
3 1252 1284 1114
3 1206 1286 1171
3 1381 1411 1389
3 337 578 500
3 1377 1398 176
3 913 957 822
3 1392 1413 1353
3 499 608 437
3 102 279 217
3 104 278 199
3 41 280 221
3 777 842 706
3 710 1137 503
3 996 1082 1059
3 819 952 885
3 619 706 500
3 1331 1362 1354
3 992 1048 1023
3 885 945 932
3 45 281 219
3 275 499 437
3 685 849 814
3 1230 1302 1266
3 1242 1276 1260
3 1379 1410 177
3 1129 1238 1214
3 1001 1064 1018
3 177 1403 1379
3 1049 1083 1022
3 883 916 748
3 100 282 193
3 913 963 957
3 1230 1266 1186
3 107 283 223
3 1067 1120 1078
3 220 361 194
3 1372 1399 1367
3 1124 1179 1086
3 706 807 564
3 806 873 809
3 895 903 840
3 1077 1141 1036
3 946 1010 960
3 699 745 646
3 1370 1423 1404
3 944 1014 963
3 1326 1344 1288
3 176 1393 1377
3 872 936 811
3 1389 1411 1387
3 336 540 463
3 1135 1176 1131
3 1377 1400 1398
3 38 284 226
3 1303 1360 1356
3 1293 1359 1325
3 228 265 190
3 682 804 641
3 1350 1403 1378
3 423 463 217
3 1219 1304 1255
3 1279 1310 1252
3 997 1045 945
3 767 881 850
3 948 1039 970
3 226 266 192
3 1177 1281 1243
3 258 1430 1421
3 1308 1332 1256
3 953 961 883
3 637 733 681
3 1376 1397 1392
3 714 840 783
3 98 285 228
3 486 577 504
3 1288 1376 1329
3 899 1005 994
3 1293 1325 1269
3 1161 1235 1198
3 1094 1214 1154
3 1179 1205 1153
3 1148 1236 1215
3 1199 1303 1259
3 1301 1337 1334
3 723 779 733
3 1344 1397 1376
3 1040 1124 1086
3 1035 1072 1014
3 1325 1360 1303
3 486 579 577
3 1353 1413 1380
3 1150 1248 1207
3 1367 1387 1348
3 1392 1428 1413
3 258 1421 1403
3 1416 1429 1415
3 1000 1093 1033
3 715 839 639
3 376 497 432
3 1217 1232 1175
3 1318 1378 1355
3 776 1027 709
3 1236 1273 1215
3 1124 1205 1179
3 1330 1373 1347
3 1255 1327 1287
3 1203 1237 1168
3 1346 1371 1344
3 1307 1347 1339
3 1378 1421 1401
3 228 343 265
3 1110 1163 1081
3 1030 1116 1076
3 285 543 343
3 369 499 275
3 762 811 684
3 1280 1302 1230
3 1233 1300 1274
3 1269 1303 1240
3 133 1382 211
3 1356 1407 1319
3 1214 1238 1154
3 502 613 465
3 956 1059 991
3 1264 1321 1289
3 578 672 619
3 173 1398 1394
3 337 467 270
3 1115 1169 1168
3 946 960 864
3 1134 1216 1087
3 209 369 275
3 819 885 773
3 1042 1214 1094
3 4 1427 258
3 1290 1346 1326
3 1172 1213 1141
3 222 287 191
3 397 424 340
3 1107 1109 1071
3 1014 1072 1068
3 723 838 779
3 1357 1395 1385
3 1118 1134 1105
3 1227 1273 1263
3 1148 1248 1236
3 1159 1193 1126
3 199 434 338
3 130 1410 1406
3 1398 1400 1394
3 1036 1092 969
3 227 267 220
3 895 965 962
3 277 397 340
3 1342 1367 1321
3 1108 1149 1122
3 741 865 775
3 336 572 427
3 910 936 872
3 994 1086 1039
3 1295 1310 1279
3 1324 1352 1290
3 270 341 198
3 702 840 714
3 970 1039 998
3 410 650 579
3 1010 1054 960
3 1265 1288 1225
3 1189 1202 1163
3 561 709 617
3 989 1032 1012
3 1078 1177 1146
3 988 1120 1067
3 1199 1259 1145
3 1346 1402 1371
3 1265 1326 1288
3 1325 1359 1320
3 977 1020 952
3 1275 1318 1313
3 812 904 774
3 1109 1162 1145
3 1147 1228 1192
3 1222 1326 1265
3 1171 1286 1216
3 709 1027 750
3 1145 1223 1194
3 291 371 247
3 1245 1257 1202
3 1298 1324 1260
3 1204 1265 1225
3 992 1023 953
3 1377 1402 1346
3 1133 1215 1144
3 1295 1335 1310
3 1223 1292 1268
3 1403 1421 1378
3 1277 1336 1312
3 1234 1250 1224
3 897 1028 1000
3 751 935 815
3 1373 1379 1347
3 1329 1376 1353
3 1198 1276 1242
3 1292 1384 1331
3 1304 1353 1327
3 748 916 802
3 651 716 582
3 1130 1183 1158
3 435 473 400
3 1272 1330 1307
3 341 465 280
3 1139 1172 1141
3 1306 1354 1330
3 1169 1203 1168
3 1123 1159 1085
3 1111 1211 1062
3 962 982 895
3 1202 1221 1143
3 859 883 748
3 943 996 880
3 760 859 701
3 612 1323 161
3 949 995 959
3 965 1025 962
3 1026 1134 1087
3 288 397 277
3 1164 1229 1206
3 1326 1346 1344
3 289 344 248
3 1371 1416 1397
3 1078 1146 1124
3 358 501 269
3 1074 1133 1035
3 1131 1173 1080
3 1121 1163 1143
3 983 1005 899
3 1074 1148 1133
3 1239 1306 1272
3 1426 1436 1433
3 1394 1419 178
3 1247 1287 1277
3 331 435 370
3 991 1014 944
3 1225 1329 1271
3 1167 1242 1183
3 1421 1430 1401
3 1241 1307 1275
3 278 678 362
3 410 579 486
3 503 620 581
3 963 1068 988
3 1149 1195 1122
3 1271 1329 1304
3 1221 1240 1181
3 1290 1352 1346
3 1045 1069 945
3 501 548 410
3 1153 1163 1110
3 1047 1126 1088
3 639 772 708
3 878 942 910
3 463 540 217
3 198 341 280
3 1327 1357 1287
3 945 1069 1004
3 702 714 653
3 1202 1257 1221
3 771 871 790
3 210 678 278
3 199 338 279
3 277 301 288
3 1347 1350 1339
3 1357 1385 1336
3 170 1417 1393
3 362 503 434
3 991 1035 1014
3 901 1019 938
3 542 679 584
3 1204 1225 1178
3 1395 1431 1420
3 1085 1159 1126
3 1126 1235 1161
3 1165 1190 1111
3 1395 1420 1385
3 467 564 502
3 653 714 589
3 1320 1360 1325
3 1327 1380 1357
3 1142 1169 1132
3 1006 1135 1002
3 381 461 327
3 1088 1161 1128
3 382 462 329
3 376 432 286
3 469 562 421
3 500 706 564
3 575 738 494
3 1084 1123 1046
3 1397 1416 1415
3 1203 1277 1237
3 1290 1326 1222
3 584 642 479
3 1260 1290 1222
3 641 804 551
3 966 1047 1011
3 1195 1279 1252
3 1393 1402 1377
3 764 860 797
3 752 965 895
3 1229 1310 1302
3 1116 1180 1160
3 165 1418 1414
3 1162 1240 1199
3 684 847 777
3 281 464 364
3 1142 1203 1169
3 642 775 742
3 1289 1351 1340
3 811 879 847
3 1237 1312 1261
3 900 1049 1022
3 1235 1276 1198
3 745 749 683
3 679 774 741
3 783 903 849
3 547 649 527
3 1363 1412 1296
3 1409 1420 1372
3 1200 1272 1241
3 1002 1065 179
3 1011 1088 1053
3 1086 1098 1039
3 491 631 602
3 215 381 327
3 1243 1262 1184
3 216 382 329
3 1229 1302 1280
3 269 342 197
3 616 699 562
3 1321 1367 1348
3 869 923 897
3 268 491 363
3 992 1075 1048
3 370 400 373
3 1122 1195 1083
3 1322 1369 1351
3 510 570 442
3 719 765 718
3 341 502 465
3 1220 1340 1279
3 611 711 618
3 1183 1204 1158
3 486 504 342
3 658 776 709
3 1004 1069 1036
3 989 1012 985
3 269 501 410
3 879 1009 966
3 897 1000 949
3 197 342 284
3 1222 1265 1183
3 762 872 811
3 1062 1211 1082
3 707 812 774
3 819 979 930
3 954 1026 917
3 370 435 400
3 809 841 801
3 475 578 337
3 1081 1104 1038
3 1262 1366 1245
3 43 218 198
3 1259 1319 1223
3 950 1009 879
3 644 858 776
3 44 219 218
3 847 966 914
3 268 532 407
3 1206 1280 1267
3 194 464 281
3 190 372 291
3 1146 1205 1124
3 559 715 639
3 1059 1074 991
3 654 719 718
3 564 652 502
3 991 1074 1035
3 1073 1169 1115
3 1289 1340 1220
3 40 221 197
3 106 223 210
3 1009 1085 1047
3 364 411 376
3 1046 1123 1085
3 1159 1241 1193
3 549 683 631
3 1235 1313 1276
3 411 580 497
3 1012 1046 950
3 549 631 491
3 1187 1213 1172
3 199 279 103
3 475 740 578
3 1032 1084 1012
3 1030 1050 1008
3 570 708 469
3 1033 1130 1079
3 198 280 42
3 512 651 582
3 1331 1384 1362
3 680 1070 1064
3 1051 1090 1071
3 210 278 105
3 1043 1134 1026
3 1098 1119 1037
3 879 966 847
3 1165 1244 1190
3 35 289 248
3 1396 1410 1379
3 194 281 46
3 1175 1232 1185
3 1288 1329 1225
3 895 982 903
3 1091 1132 1060
3 914 1011 955
3 331 370 292
3 868 938 767
3 1166 1239 1200
3 217 282 101
3 1107 1162 1109
3 1044 1099 153
3 1069 1077 1036
3 193 543 285
3 773 839 715
3 1047 1088 1011
3 1282 1388 1314
3 407 491 268
3 944 963 890
3 1106 1196 1142
3 1434 1435 1429
3 1240 1303 1199
3 1123 1200 1159
3 1193 1235 1126
3 904 944 890
3 698 770 548
3 1009 1047 966
3 191 283 108
3 1076 1160 1106
3 1362 1405 1375
3 942 1051 989
3 1186 1266 1249
3 1279 1340 1295
3 197 284 39
3 492 612 159
3 1395 1432 1431
3 1352 1400 1377
3 990 1089 1055
3 1298 1355 1324
3 1233 1274 1238
3 917 1026 943
3 1012 1084 1046
3 1157 1182 1070
3 1345 1384 1358
3 942 1052 1051
3 1342 1372 1367
3 1372 1424 1399
3 1075 1110 1048
3 952 1020 997
3 867 922 901
3 337 500 467
3 434 581 476
3 1087 1165 1111
3 193 285 99
3 411 497 376
3 95 291 247
3 980 1016 992
3 986 1028 897
3 947 1041 1020
3 888 1025 965
3 1359 1368 1341
3 897 949 869
3 1301 1334 1262
3 267 431 361
3 966 1011 914
3 1428 1436 1413
3 1319 1358 1292
3 47 220 194
3 1016 1063 1037
3 551 707 679
3 546 717 651
3 683 803 631
3 503 581 434
3 611 618 475
3 876 984 841
3 1418 1433 1414
3 1071 1109 1032
3 1044 1125 1099
3 401 571 470
3 1046 1085 1009
3 267 361 220
3 811 847 684
3 1229 1280 1206
3 1276 1298 1260
3 1223 1319 1292
3 545 744 147
3 1000 1056 949
3 1145 1259 1223
3 1093 1167 1130
3 229 264 222
3 421 562 532
3 109 222 191
3 1332 1407 1349
3 191 357 283
3 500 564 467
3 1065 1080 1044
3 1017 1052 942
3 502 652 613
3 707 861 812
3 682 1013 954
3 1350 1378 1339
3 168 1434 420
3 761 805 618
3 1132 1169 1073
3 697 929 860
3 1237 1261 1187
3 1073 1089 990
3 551 804 707
3 995 1030 1008
3 501 652 548
3 37 226 192
3 370 373 227
3 1333 1386 1305
3 950 1046 1009
3 342 466 284
3 1146 1246 1205
3 954 1043 1026
3 697 860 764
3 1060 1132 1073
3 814 980 926
3 1106 1132 1091
3 1275 1339 1318
3 824 912 886
3 767 938 881
3 838 959 908
3 1119 1153 1075
3 560 701 638
3 940 1060 990
3 878 910 857
3 1215 1273 1227
3 857 872 805
3 217 540 282
3 1324 1383 1352
3 811 936 879
3 1317 1343 1294
3 1401 1419 1383
3 882 1016 980
3 698 869 770
3 936 950 879
3 877 973 862
3 580 611 497
3 1193 1275 1235
3 930 952 819
3 1099 1125 539
3 361 527 464
3 1126 1161 1088
3 1268 1331 1306
3 1190 1254 1111
3 548 650 410
3 1344 1376 1288
3 658 709 561
3 507 653 589
3 1194 1268 1239
3 1334 1368 1293
3 97 228 190
3 967 1025 888
3 861 880 812
3 1148 1215 1133
3 1330 1347 1307
3 1205 1246 1189
3 1003 1100 1049
3 1181 1240 1162
3 1075 1153 1110
3 584 741 642
3 1037 1075 992
3 1220 1279 1149
3 880 956 812
3 637 677 577
3 1018 1064 1042
3 736 868 767
3 432 611 475
3 960 1054 769
3 1085 1126 1047
3 750 784 617
3 1304 1327 1255
3 740 805 762
3 527 649 411
3 433 561 530
3 258 1422 127
3 1393 1417 1402
3 399 532 268
3 1260 1324 1290
3 546 651 436
3 287 442 421
3 1178 1271 1180
3 1103 1139 1077
3 882 980 814
3 1243 1301 1262
3 807 923 869
3 873 969 939
3 1038 1052 1017
3 716 736 582
3 836 979 819
3 990 1055 971
3 721 844 632
3 959 1008 908
3 654 718 563
3 801 841 749
3 342 504 466
3 847 914 777
3 359 436 266
3 1008 1050 968
3 902 912 845
3 621 701 560
3 751 815 778
3 548 874 650
3 940 971 922
3 362 434 199
3 850 977 896
3 560 638 498
3 410 486 269
3 1211 1254 1170
3 1378 1401 1355
3 1109 1145 1127
3 1080 1173 1125
3 1029 1063 882
3 492 1338 1297
3 1321 1348 1289
3 1160 1196 1106
3 1168 1237 1187
3 958 1029 882
3 552 628 583
3 1354 1373 1330
3 444 654 563
3 1400 1419 1394
3 1379 1403 1350
3 1089 1103 1055
3 900 1022 946
3 1277 1312 1237
3 760 926 859
3 1387 1411 1348
3 1282 1314 1191
3 487 653 507
3 905 962 884
3 720 778 686
3 750 1027 899
3 192 289 36
3 864 960 919
3 442 469 421
3 1249 1282 1191
3 815 951 905
3 652 698 548
3 1116 1160 1076
3 292 370 227
3 930 977 952
3 882 1063 1016
3 1259 1356 1319
3 1147 1192 1108
3 995 1008 959
3 357 399 283
3 896 930 828
3 161 1323 162
3 899 994 948
3 1127 1194 1166
3 506 583 418
3 943 1062 996
3 938 1019 947
3 860 871 765
3 470 721 632
3 48 227 220
3 505 654 444
3 1229 1284 1252
3 971 1055 1019
3 531 614 142
3 473 657 621
3 672 762 684
3 976 978 818
3 133 211 134
3 1402 1416 1371
3 685 760 621
3 892 978 976
3 644 776 658
3 924 978 892
3 552 583 506
3 110 229 222
3 190 291 96
3 856 968 875
3 1385 1420 1409
3 894 924 892
3 393 510 442
3 709 750 617
3 770 869 843
3 357 421 399
3 810 857 761
3 1319 1407 1358
3 1050 1091 1015
3 1426 1433 1423
3 1180 1271 1219
3 1072 1120 1068
3 1380 1395 1357
3 984 1049 900
3 1143 1221 1181
3 875 922 808
3 632 844 751
3 1028 1093 1000
3 1143 1181 1107
3 1032 1127 1084
3 681 856 808
3 336 427 193
3 899 1027 983
3 755 850 828
3 361 464 194
3 293 365 229
3 211 1382 1345
3 680 1157 1070
3 1158 1204 1178
3 1186 1249 1155
3 908 1008 968
3 1168 1172 1115
3 1183 1242 1222
3 957 1067 1005
3 1167 1183 1130
3 1095 1116 1030
3 846 884 817
3 919 960 803
3 272 505 444
3 571 721 470
3 1227 1263 1243
3 876 1003 984
3 1287 1336 1277
3 538 561 433
3 192 360 289
3 723 733 579
3 1177 1243 1184
3 621 760 701
3 1252 1310 1229
3 371 383 247
3 580 711 611
3 845 912 823
3 440 495 381
3 1245 1366 1257
3 751 778 720
3 1003 1049 984
3 441 496 382
3 1107 1181 1162
3 779 908 856
3 104 199 103
3 1228 1264 1192
3 1358 1384 1292
3 43 198 42
3 846 905 884
3 44 218 43
3 135 1305 136
3 1049 1122 1083
3 45 219 44
3 364 376 219
3 1358 1407 1386
3 106 210 105
3 41 221 40
3 421 532 399
3 1198 1242 1167
3 1162 1199 1145
3 47 194 46
3 102 217 101
3 1109 1127 1032
3 656 720 686
3 40 197 39
3 1030 1076 1050
3 107 223 106
3 644 658 538
3 1164 1206 1171
3 437 482 413
3 1141 1213 1151
3 1045 1077 1069
3 1042 1094 993
3 1156 1250 1234
3 656 686 550
3 1355 1401 1383
3 1139 1141 1077
3 109 191 108
3 100 193 99
3 407 549 491
3 869 949 843
3 994 1039 948
3 1005 1067 1040
3 1195 1252 1114
3 849 958 882
3 780 823 703
3 542 584 423
3 105 278 104
3 803 960 769
3 864 919 749
3 780 845 823
3 103 279 102
3 42 280 41
3 1080 1125 1044
3 805 872 762
3 46 281 45
3 1306 1330 1272
3 1355 1383 1324
3 380 506 418
3 1384 1408 1362
3 692 836 819
3 566 780 655
3 431 547 527
3 1170 1207 1113
3 1015 1091 1060
3 348 437 413
3 101 282 100
3 215 327 254
3 216 329 255
3 108 283 107
3 1292 1331 1268
3 513 656 404
3 1342 1409 1372
3 1196 1247 1142
3 1131 1212 1173
3 373 498 267
3 487 507 445
3 438 509 366
3 949 1056 995
3 677 792 717
3 1115 1172 1139
3 431 527 361
3 151 1065 152
3 469 616 562
3 39 284 38
3 227 373 267
3 657 783 685
3 1318 1355 1298
3 38 226 37
3 1034 1096 987
3 999 1017 975
3 265 372 190
3 655 780 703
3 359 504 436
3 1239 1272 1200
3 692 773 622
3 1266 1309 1249
3 657 685 621
3 226 359 266
3 344 544 406
3 1329 1353 1304
3 442 570 469
3 1293 1366 1334
3 1182 1233 1129
3 375 437 348
3 1039 1063 998
3 1048 1066 1023
3 208 301 277
3 1171 1216 1134
3 1155 1249 1191
3 1073 1115 1089
3 617 721 571
3 99 285 98
3 1338 1365 1297
3 507 589 435
3 741 775 642
3 1215 1227 1144
3 463 584 479
3 1406 1410 1396
3 693 850 755
3 1067 1078 1040
3 1272 1307 1241
3 782 846 817
3 1079 1095 1056
3 1432 1436 1426
3 848 965 752
3 1052 1104 1090
3 374 425 347
3 813 970 893
3 98 228 97
3 1057 1118 1010
3 1228 1316 1264
3 1271 1304 1219
3 752 840 702
3 566 655 586
3 400 498 373
3 37 192 36
3 777 914 842
3 222 393 287
3 1010 1118 1105
3 749 919 683
3 18 256 231
3 79 257 230
3 1078 1124 1040
3 402 559 510
3 1145 1194 1127
3 1128 1167 1093
3 814 926 760
3 215 254 5
3 216 255 66
3 49 292 227
3 48 220 47
3 926 980 953
3 1183 1265 1204
3 1331 1354 1306
3 508 565 509
3 1257 1269 1221
3 1152 1208 1112
3 97 190 96
3 1225 1271 1178
3 110 222 109
3 111 293 229
3 884 1025 967
3 1056 1095 995
3 79 78 3
3 1 18 17
3 153 1099 154
3 857 910 872
3 362 678 503
3 1405 1408 1382
3 406 615 552
3 1221 1269 1240
3 875 1015 940
3 947 977 881
3 1031 1197 1147
3 429 585 513
3 899 948 813
3 297 374 347
3 1309 1335 1322
3 825 918 798
3 1224 1270 1234
3 622 773 715
3 572 742 644
3 1200 1241 1159
3 799 825 798
3 1064 1070 1042
3 298 375 348
3 1268 1306 1239
3 1391 1423 1370
3 906 976 818
3 363 678 210
3 1307 1339 1275
3 1093 1130 1033
3 1014 1068 963
3 1428 1435 1425
3 508 509 438
3 380 418 379
3 1309 1322 1296
3 967 972 817
3 985 1012 950
3 1269 1325 1303
3 1232 1267 1185
3 995 1095 1030
3 635 799 798
3 781 906 818
3 531 1218 1156
3 589 657 473
3 975 1017 878
3 562 699 646
3 1166 1200 1123
3 1257 1293 1269
3 782 817 688
3 1117 1157 680
3 1223 1268 1194
3 287 421 357
3 1233 1238 1129
3 750 899 813
3 541 542 423
3 1133 1144 1072
3 582 736 615
3 302 369 209
3 728 799 635
3 1088 1128 1053
3 305 438 366
3 783 849 685
3 889 967 888
3 445 507 331
3 132 1382 133
3 1353 1380 1327
3 808 867 792
3 1153 1189 1163
3 435 589 473
3 1194 1239 1166
3 265 401 372
3 377 412 345
3 616 806 699
3 378 416 346
3 1011 1053 955
3 226 466 359
3 364 464 411
3 999 1038 1017
3 686 846 782
3 586 655 477
3 404 656 550
3 800 863 759
3 579 733 637
3 1275 1313 1235
3 704 753 722
3 558 719 654
3 18 231 17
3 79 230 78
3 843 937 770
3 903 982 958
3 1256 1332 1291
3 914 955 842
3 704 722 660
3 1351 1369 1340
3 747 1024 873
3 553 653 487
3 999 1066 1038
3 541 641 551
3 1187 1231 1213
3 623 848 752
3 739 800 759
3 1431 1432 1426
3 184 366 293
3 711 761 618
3 503 678 602
3 406 552 506
3 476 541 338
3 36 289 35
3 221 358 269
3 817 972 906
3 159 612 160
3 344 406 259
3 604 673 630
3 1161 1198 1128
3 538 658 561
3 1097 1135 1006
3 888 965 848
3 268 363 210
3 1053 1093 1028
3 49 227 48
3 266 512 428
3 1062 1082 996
3 569 728 635
3 738 790 673
3 295 381 215
3 1328 1412 1363
3 850 896 828
3 781 818 689
3 296 382 216
3 890 963 913
3 590 785 662
3 5 254 0
3 66 255 2
3 371 429 383
3 682 954 917
3 810 878 857
3 111 229 110
3 209 275 233
3 605 673 604
3 299 377 345
3 1127 1166 1084
3 96 291 95
3 448 586 477
3 1082 1211 1170
3 300 378 346
3 603 728 569
3 1241 1275 1193
3 793 902 845
3 618 805 740
3 1128 1198 1167
3 771 790 738
3 308 380 379
3 1322 1363 1296
3 343 538 433
3 761 857 805
3 1002 1080 1065
3 282 540 336
3 889 972 967
3 16 301 208
3 648 719 558
3 277 340 294
3 659 781 689
3 77 302 209
3 167 1434 168
3 473 560 400
3 587 781 659
3 221 465 358
3 684 777 619
3 660 722 591
3 1334 1366 1262
3 714 783 657
3 853 892 891
3 736 767 693
3 682 917 861
3 851 907 787
3 393 442 287
3 255 329 225
3 254 327 224
3 1084 1166 1123
3 957 1005 983
3 936 985 950
3 408 553 487
3 935 951 815
3 585 720 656
3 383 513 260
3 900 946 864
3 1040 1086 994
3 1339 1378 1318
3 681 808 792
3 677 717 546
3 511 558 425
3 1090 1107 1071
3 1163 1202 1143
3 491 602 363
3 692 819 773
3 754 892 853
3 516 587 517
3 467 502 341
3 617 784 721
3 968 1050 1015
3 961 975 916
3 492 1258 636
3 552 676 628
3 1066 1081 1038
3 144 1001 145
3 260 513 404
3 838 908 779
3 528 605 405
3 516 517 439
3 670 800 739
3 622 715 559
3 164 1418 165
3 754 853 704
3 696 871 835
3 405 605 604
3 587 659 517
3 1033 1056 1000
3 778 905 846
3 886 907 851
3 841 984 900
3 439 517 350
3 238 439 350
3 219 376 286
3 473 621 560
3 574 645 608
3 664 782 688
3 1189 1245 1202
3 162 1323 394
3 670 739 671
3 408 591 553
3 547 700 649
3 623 702 553
3 588 643 484
3 806 809 801
3 624 754 704
3 1130 1158 1079
3 602 710 503
3 585 656 513
3 790 871 696
3 1076 1106 1091
3 470 585 429
3 169 1417 170
3 804 861 707
3 898 1018 993
3 248 344 259
3 834 837 794
3 829 925 921
3 916 975 810
3 724 793 687
3 277 294 232
3 172 1398 173
3 1383 1400 1352
3 458 603 569
3 1063 1098 1037
3 367 508 438
3 754 894 892
3 745 801 749
3 545 981 898
3 566 586 488
3 355 533 459
3 596 622 474
3 794 837 691
3 1115 1139 1089
3 356 534 460
3 524 603 458
3 1247 1277 1203
3 395 533 355
3 662 785 588
3 396 534 356
3 661 692 622
3 1210 1267 1230
3 208 277 232
3 679 741 584
3 259 506 380
3 489 660 591
3 402 510 393
3 589 714 657
3 854 894 754
3 632 751 720
3 0 254 126
3 2 255 65
3 130 1406 131
3 180 331 292
3 470 632 585
3 830 925 829
3 297 347 196
3 512 582 428
3 663 687 566
3 248 259 189
3 299 345 204
3 231 301 17
3 135 1333 1305
3 626 788 756
3 631 803 710
3 305 366 184
3 474 559 402
3 374 511 425
3 300 346 205
3 298 348 195
3 367 438 214
3 230 302 78
3 824 886 786
3 562 646 532
3 349 487 445
3 1053 1128 1093
3 232 294 234
3 443 588 484
3 867 901 766
3 247 383 260
3 670 671 601
3 828 902 793
3 35 248 34
3 34 248 189
3 550 782 664
3 233 275 235
3 485 495 412
3 837 863 691
3 945 1004 932
3 755 828 793
3 601 671 529
3 734 788 626
3 1197 1253 1147
3 697 764 627
3 928 931 833
3 796 832 831
3 1276 1313 1298
3 873 1024 969
3 50 292 49
3 180 292 50
3 418 488 379
3 824 915 912
3 627 675 556
3 706 923 807
3 1168 1187 1172
3 484 496 416
3 663 724 687
3 7 295 215
3 68 296 216
3 95 247 94
3 94 247 186
3 247 260 186
3 753 889 888
3 408 487 349
3 112 293 111
3 184 293 112
3 753 888 848
3 788 918 821
3 924 928 820
3 444 485 412
3 234 374 297
3 436 651 512
3 763 832 796
3 514 588 443
3 367 515 508
3 567 665 515
3 514 662 588
3 1371 1397 1344
3 691 863 800
3 624 854 754
3 694 786 633
3 856 875 808
3 596 661 622
3 392 524 458
3 833 931 834
3 358 613 501
3 633 705 567
3 661 787 692
3 627 764 675
3 703 823 757
3 1343 1364 1294
3 204 440 381
3 961 1023 999
3 443 484 416
3 205 441 382
3 755 793 724
3 265 530 401
3 354 524 392
3 556 675 599
3 235 375 298
3 820 928 833
3 767 850 693
3 798 918 788
3 508 665 565
3 565 596 509
3 600 734 626
3 545 746 744
3 732 854 624
3 568 794 691
3 753 848 722
3 907 979 836
3 288 301 231
3 202 398 325
3 530 571 401
3 583 724 663
3 418 566 488
3 418 663 566
3 400 560 498
3 490 734 600
3 930 979 828
3 236 377 299
3 276 398 202
3 820 833 791
3 322 395 250
3 323 396 253
3 756 854 732
3 126 254 224
3 65 255 225
3 237 378 300
3 204 381 295
3 12 297 196
3 205 382 296
3 833 834 690
3 214 438 305
3 201 397 324
3 1039 1098 1063
3 264 393 222
3 568 691 666
3 73 298 195
3 195 378 237
3 705 726 665
3 425 505 347
3 940 990 971
3 290 302 230
3 813 893 784
3 631 710 602
3 1037 1119 1075
3 1106 1142 1132
3 862 973 887
3 368 397 201
3 592 732 624
3 196 272 236
3 590 662 514
3 127 1422 128
3 591 623 553
3 9 299 204
3 694 827 824
3 626 732 478
3 791 833 690
3 827 920 915
3 70 300 205
3 775 858 742
3 691 800 666
3 574 608 415
3 223 399 268
3 828 979 902
3 690 834 794
3 287 357 191
3 722 848 623
3 1033 1079 1056
3 592 704 660
3 592 660 522
3 667 789 554
3 626 756 732
3 1349 1360 1291
3 415 608 537
3 250 395 355
3 271 378 195
3 427 543 193
3 253 396 356
3 208 232 15
3 209 233 76
3 711 802 761
3 345 495 440
3 346 496 441
3 726 851 787
3 863 934 759
3 489 591 408
3 688 906 781
3 554 789 694
3 414 576 493
3 492 636 612
3 623 752 702
3 595 735 625
3 695 789 667
3 266 360 192
3 759 870 712
3 377 444 412
3 606 607 535
3 1154 1238 1226
3 675 737 599
3 272 444 377
3 490 600 335
3 460 576 414
3 666 800 670
3 345 440 204
3 1022 1057 946
3 346 441 205
3 600 626 478
3 378 443 416
3 752 895 840
3 232 234 14
3 271 514 443
3 388 529 454
3 789 829 827
3 233 235 75
3 779 856 681
3 1007 1029 958
3 690 794 669
3 271 443 378
3 787 836 692
3 786 851 705
3 388 601 529
3 347 505 272
3 599 606 525
3 453 490 335
3 829 921 920
3 294 511 374
3 842 986 923
3 597 735 595
3 413 590 514
3 204 295 8
3 478 732 592
3 205 296 69
3 784 893 844
3 759 934 870
3 331 507 435
3 525 535 457
3 664 688 587
3 294 374 234
3 173 1394 174
3 535 607 536
3 142 614 143
3 1210 1212 1131
3 482 712 590
3 599 737 606
3 624 704 592
3 129 1410 130
3 1055 1103 1041
3 853 891 889
3 234 297 13
3 908 968 856
3 669 794 568
3 235 298 74
3 615 736 676
3 830 927 925
3 275 437 375
3 426 573 511
3 525 606 535
3 471 567 403
3 309 445 331
3 554 633 471
3 275 375 235
3 457 535 339
3 635 734 490
3 348 413 271
3 563 727 485
3 787 907 836
3 915 920 823
3 665 726 565
3 472 525 334
3 272 377 236
3 17 301 16
3 196 347 272
3 425 558 505
3 788 909 756
3 705 851 726
3 557 703 629
3 340 481 426
3 236 299 10
3 195 348 271
3 261 403 367
3 245 367 214
3 261 367 245
3 831 927 830
3 6 215 5
3 7 215 6
3 477 655 557
3 67 216 66
3 68 216 67
3 416 496 346
3 237 300 71
3 444 563 485
3 740 762 672
3 78 302 77
3 666 670 483
3 676 736 693
3 412 495 345
3 704 853 753
3 196 236 11
3 695 829 789
3 417 575 494
3 695 831 830
3 829 920 827
3 419 600 478
3 645 712 482
3 195 237 72
3 16 208 15
3 77 209 76
3 556 668 627
3 485 727 647
3 555 791 690
3 643 731 713
3 569 635 490
3 655 703 557
3 648 797 719
3 727 771 647
3 668 729 627
3 335 600 419
3 988 1067 957
3 731 785 768
3 768 870 825
3 483 670 601
3 630 735 597
3 334 525 457
3 409 669 568
3 558 654 505
3 406 506 259
3 413 514 271
3 516 664 587
3 695 830 829
3 522 660 489
3 181 1308 1256
3 353 528 405
3 8 295 7
3 15 232 14
3 481 607 573
3 69 296 68
3 76 233 75
3 535 536 339
3 821 909 788
3 768 799 713
3 796 831 695
3 718 765 727
3 825 934 933
3 891 976 972
3 696 835 832
3 725 855 795
3 459 575 417
3 947 1020 977
3 630 763 735
3 849 882 814
3 471 633 567
3 696 763 630
3 725 795 729
3 409 568 526
3 629 852 758
3 645 739 712
3 339 536 455
3 1052 1090 1051
3 556 599 525
3 555 690 669
3 802 810 761
3 820 978 924
3 14 234 13
3 588 731 643
3 478 592 419
3 398 537 422
3 75 235 74
3 453 569 490
3 635 798 788
3 379 586 448
3 340 426 294
3 689 911 820
3 384 408 349
3 274 460 414
3 419 592 522
3 387 526 483
3 877 987 973
3 147 744 148
3 273 459 417
3 446 471 403
3 756 909 894
3 604 630 597
3 261 446 403
3 349 445 213
3 9 204 8
3 70 205 69
3 13 297 12
3 550 664 516
3 317 458 453
3 515 665 508
3 74 298 73
3 403 567 515
3 687 845 780
3 10 299 9
3 335 419 385
3 628 755 724
3 356 460 274
3 71 300 70
3 403 515 367
3 387 483 456
3 355 459 273
3 554 694 633
3 703 757 629
3 785 870 768
3 11 236 10
3 827 915 824
3 694 824 786
3 565 661 596
3 726 787 661
3 891 972 889
3 335 385 262
3 729 795 697
3 72 237 71
3 458 569 453
3 627 729 697
3 12 196 11
3 353 391 319
3 625 667 595
3 509 596 430
3 870 934 825
3 317 453 335
3 273 417 353
3 472 593 556
3 309 331 180
3 689 820 791
3 73 195 72
3 757 921 852
3 922 971 901
3 392 458 317
3 634 729 668
3 464 527 411
3 304 384 349
3 725 729 634
3 426 511 294
3 593 668 556
3 354 392 321
3 263 389 183
3 224 327 206
3 225 329 207
3 404 550 516
3 182 317 262
3 853 889 753
3 447 522 384
3 688 781 587
3 436 512 266
3 213 445 309
3 763 796 735
3 246 263 183
3 920 921 757
3 482 590 413
3 686 782 550
3 789 827 694
3 449 523 409
3 456 601 388
3 835 929 832
3 333 449 409
3 448 477 332
3 758 855 730
3 483 601 456
3 313 448 332
3 494 528 417
3 304 349 213
3 243 447 384
3 419 522 447
3 567 705 665
3 855 927 795
3 244 317 182
3 673 696 630
3 384 522 489
3 1060 1073 990
3 730 855 725
3 517 659 598
3 629 758 730
3 446 521 471
3 474 622 559
3 189 380 308
3 379 448 240
3 262 385 182
3 352 452 446
3 389 452 352
3 390 537 276
3 696 832 763
3 718 727 563
3 931 933 834
3 519 668 593
3 243 384 304
3 634 668 519
3 409 526 333
3 598 659 555
3 318 454 251
3 588 785 731
3 263 520 452
3 419 447 385
3 674 728 603
3 308 379 240
3 689 791 659
3 417 528 353
3 865 890 775
3 59 321 252
3 120 319 249
3 768 825 799
3 795 927 866
3 320 455 201
3 731 768 713
3 818 978 911
3 817 906 688
3 756 894 854
3 390 454 415
3 635 788 734
3 317 335 262
3 183 389 311
3 713 799 728
3 557 594 477
3 594 730 725
3 659 791 555
3 385 447 243
3 405 604 520
3 170 1393 171
3 452 595 521
3 739 759 712
3 493 603 524
3 594 725 634
3 477 594 518
3 472 556 525
3 240 448 313
3 625 695 667
3 866 927 831
3 404 516 351
3 311 389 352
3 352 446 261
3 523 598 555
3 414 524 354
3 583 663 418
3 415 537 390
3 818 911 689
3 452 521 446
3 537 608 499
3 529 671 574
3 477 518 332
3 521 554 471
3 260 404 351
3 332 518 450
3 518 519 450
3 526 568 483
3 605 738 673
3 557 629 594
3 350 598 523
3 523 555 409
3 450 519 386
3 273 353 319
3 821 928 909
3 481 573 426
3 493 524 414
3 350 523 449
3 451 593 334
3 517 598 350
3 273 319 200
3 351 516 439
3 186 351 303
3 303 439 238
3 92 303 238
3 53 304 213
3 114 245 214
3 51 180 50
3 113 305 184
3 88 306 185
3 212 306 88
3 90 307 212
3 94 186 93
3 115 245 114
3 53 213 52
3 55 243 54
3 114 305 113
3 214 305 114
3 116 245 115
3 89 212 88
3 32 308 240
3 33 308 32
3 27 312 242
3 52 213 51
3 51 309 180
3 213 309 51
3 55 310 243
3 88 185 87
3 91 307 90
3 116 311 245
3 238 307 91
3 28 312 27
3 186 303 93
3 90 212 89
3 92 238 91
3 54 304 53
3 313 332 188
3 31 313 30
3 30 313 188
3 26 187 25
3 29 188 28
3 188 312 28
3 243 304 54
3 27 242 26
3 242 314 26
3 93 303 92
3 240 313 31
3 188 332 312
3 32 240 31
3 189 308 33
3 26 314 187
3 30 188 29
3 34 189 33
3 56 310 55
3 57 182 56
3 182 310 56
3 113 184 112
3 117 311 116
3 118 183 117
3 183 311 117
3 182 385 310
3 310 385 243
3 350 449 212
3 307 350 212
3 238 350 307
3 212 449 333
3 306 333 185
3 212 333 306
3 386 519 451
3 494 605 528
3 518 594 519
3 206 327 326
3 207 329 328
3 332 450 312
3 246 391 263
3 290 369 302
3 274 354 321
3 274 321 203
3 795 866 697
3 519 593 451
3 671 739 645
3 398 422 369
3 673 790 696
3 454 529 415
3 312 386 242
3 242 386 314
3 386 451 314
3 384 489 408
3 786 886 851
3 757 852 629
3 391 520 263
3 259 380 189
3 334 593 472
3 333 387 185
3 311 352 245
3 245 352 261
3 312 450 386
3 594 634 519
3 325 398 290
3 333 526 387
3 488 586 379
3 629 730 594
3 324 397 288
3 808 922 867
3 244 392 317
3 314 334 187
3 314 451 334
3 825 933 918
3 263 452 389
3 625 796 695
3 351 439 303
3 260 351 186
3 253 356 203
3 123 322 250
3 520 595 452
3 62 323 253
3 866 929 697
3 206 326 322
3 250 355 200
3 520 604 597
3 758 927 855
3 207 328 323
3 185 315 87
3 87 315 86
3 252 392 244
3 521 667 554
3 832 929 866
3 633 786 705
3 461 533 395
3 462 534 396
3 119 246 118
3 24 316 23
3 118 246 183
3 187 316 25
3 25 316 24
3 58 244 57
3 57 244 182
3 200 319 120
3 203 321 59
3 185 387 315
3 256 324 288
3 632 720 585
3 249 391 246
3 187 334 316
3 555 669 409
3 326 395 322
3 520 597 595
3 328 396 323
3 568 666 483
3 993 1094 974
3 85 239 84
3 86 239 85
3 239 318 84
3 405 520 391
3 266 428 360
3 576 674 493
3 387 456 315
3 713 728 674
3 315 456 239
3 493 674 603
3 334 457 316
3 23 241 22
3 120 249 119
3 241 320 22
3 59 252 58
3 200 355 273
3 203 356 274
3 241 457 339
3 423 584 463
3 86 315 239
3 274 414 354
3 239 388 318
3 241 339 320
3 206 322 123
3 207 323 62
3 388 454 318
3 257 325 290
3 321 392 252
3 735 796 625
3 339 455 320
3 23 316 241
3 119 249 246
3 58 252 244
3 239 456 388
3 591 722 623
3 595 667 521
3 83 251 82
3 84 251 83
3 84 318 251
3 529 574 415
3 675 797 737
3 1370 1404 394
3 319 391 249
3 878 1017 942
3 316 457 241
3 834 933 837
3 551 679 542
3 892 976 891
3 251 454 390
3 793 845 687
3 628 724 583
3 687 780 566
3 121 200 120
3 22 201 21
3 21 201 20
3 122 200 121
3 22 320 201
3 82 202 81
3 60 203 59
3 61 203 60
3 1373 1396 1379
3 353 405 391
3 565 726 661
3 494 738 605
3 553 702 653
3 574 671 645
3 461 609 533
3 492 1297 1258
3 179 1065 151
3 462 610 534
3 366 509 430
3 123 250 122
3 62 253 61
3 201 455 368
3 422 499 369
3 821 931 928
3 1016 1037 992
3 536 607 481
3 1385 1409 1336
3 534 576 460
3 276 537 398
3 201 324 20
3 202 325 81
3 1382 1408 1345
3 955 1053 1028
3 175 1382 132
3 1403 1422 258
3 251 390 202
3 533 575 459
3 430 596 474
3 778 846 686
3 264 402 393
3 124 206 123
3 125 206 124
3 63 207 62
3 64 207 63
3 912 915 823
3 606 737 607
3 82 251 202
3 1249 1309 1296
3 832 866 831
3 764 797 675
3 1152 1207 1170
3 898 993 974
3 955 986 842
3 1155 1191 539
3 1242 1260 1222
3 784 844 721
3 122 250 200
3 455 536 424
3 911 978 820
3 61 253 203
3 256 288 231
3 680 1064 480
3 202 390 276
3 290 398 369
3 1150 1152 1140
3 750 813 784
3 126 224 125
3 65 225 64
3 884 967 817
3 257 290 230
3 1185 1267 1210
3 138 1188 139
3 329 462 328
3 946 1057 1010
3 327 461 326
3 165 1414 166
3 1295 1369 1335
3 823 920 757
3 19 256 18
3 20 256 19
3 80 257 79
3 81 257 80
3 326 461 395
3 328 462 396
3 938 947 881
3 1391 1431 1426
3 815 905 778
3 909 924 894
3 81 325 257
3 20 324 256
3 1347 1379 1350
3 422 537 499
3 1390 1424 1391
3 424 536 481
3 1189 1246 1245
3 1112 1208 1174
3 1184 1246 1146
3 125 224 206
3 64 225 207
3 429 513 383
3 1104 1121 1090
3 1364 1390 1370
3 998 1063 1029
3 1213 1231 1151
3 875 940 922
3 957 983 822
3 1031 1147 1108
3 650 874 723
3 1351 1411 1381
3 1111 1254 1211
3 368 455 424
3 962 1025 884
3 433 530 265
3 925 927 758
3 852 925 758
3 647 771 738
3 1273 1274 1263
3 1345 1408 1384
3 1015 1060 940
3 602 678 363
3 1153 1205 1189
3 766 868 716
3 1054 1101 769
3 1317 1374 1343
3 643 713 674
3 1261 1312 1299
3 1175 1176 1097
3 968 1015 875
3 693 755 628
3 365 402 264
3 1302 1335 1309
3 1423 1433 1418
3 476 641 541
3 1142 1247 1203
3 428 544 360
3 1096 1174 1138
3 531 1156 1117
3 1364 1370 394
3 1256 1270 1224
3 1231 1253 1151
3 682 861 804
3 1314 1388 1365
3 933 934 837
3 1125 1155 539
3 428 615 544
3 582 615 428
3 1332 1349 1291
3 973 1058 1006
3 534 610 576
3 802 916 810
3 533 609 575
3 1119 1179 1153
3 810 975 878
3 420 1434 1429
3 1154 1226 1209
3 1013 1054 954
3 923 986 897
3 424 481 340
3 1258 1294 636
3 1365 1388 1297
3 620 1101 1013
3 1058 1097 1006
3 1287 1357 1336
3 987 1096 1058
3 1013 1101 1054
3 1227 1281 1144
3 1076 1091 1050
3 972 976 906
3 1425 1436 1428
3 1112 1174 1096
3 1094 1154 1136
3 1257 1366 1293
3 723 937 838
3 842 923 706
3 1305 1332 1308
3 909 928 924
3 893 970 935
3 859 926 883
3 1156 1234 1201
3 862 887 640
3 1038 1104 1052
3 971 1019 901
3 229 365 264
3 1312 1336 1299
3 1313 1318 1298
3 1070 1182 1129
3 1020 1041 997
3 961 999 975
3 1226 1274 1273
3 744 746 640
3 973 1006 887
3 532 646 407
3 1391 1426 1423
3 176 1398 172
3 1238 1274 1226
3 174 1394 178
3 1208 1254 1190
3 150 964 179
3 1101 1137 769
3 166 330 167
3 177 1410 129
3 983 1027 822
3 131 1406 175
3 1026 1062 943
3 1151 1253 1197
3 156 468 157
3 466 504 359
3 137 181 138
3 468 1365 157
3 1293 1368 1359
3 1291 1360 1320
3 330 1434 167
3 948 970 813
3 480 1001 144
3 128 1422 177
3 926 953 883
3 1089 1139 1103
3 1138 1175 1097
3 742 858 644
3 171 1393 176
3 1404 1418 164
3 420 1417 169
3 545 898 816
3 1150 1207 1152
3 166 1414 330
3 676 693 628
3 1345 1386 1333
3 181 1188 138
3 987 1058 973
3 1261 1299 1283
3 1258 1317 1294
3 1034 1112 1096
3 737 797 648
3 131 175 132
3 171 176 172
3 368 424 397
3 826 1024 747
3 1018 1042 993
3 162 394 163
3 174 1427 4
3 1399 1424 1390
3 150 179 151
3 1176 1210 1131
3 1004 1024 826
3 128 177 129
3 896 977 930
3 1023 1066 999
3 143 480 144
3 1328 1361 1258
3 137 1308 181
3 620 1137 1101
3 683 919 803
3 1249 1296 1282
3 1070 1214 1042
3 1297 1328 1258
3 181 1256 1224
3 1258 1361 1317
3 211 1333 135
3 541 551 542
3 1068 1120 988
3 1243 1281 1227
3 1388 1412 1328
3 1164 1284 1229
3 1256 1291 1270
3 1244 1286 1232
3 211 1345 1333
3 465 613 358
3 175 1406 1405
3 772 932 826
3 903 958 849
3 1270 1311 1234
3 175 1405 1382
3 1154 1209 1136
3 1361 1389 1317
3 1362 1408 1405
3 769 1137 803
3 816 877 862
3 4 258 127
3 1216 1244 1165
3 157 1338 158
3 932 1004 826
3 1297 1388 1328
3 146 545 147
3 974 1094 1061
3 168 420 169
3 637 681 677
3 163 1404 164
3 1185 1210 1176
3 145 981 146
3 1117 1201 1157
3 746 862 640
3 1136 1209 1150
3 1414 1425 330
3 1156 1201 1117
3 545 816 746
3 898 974 816
3 1226 1273 1236
3 1383 1419 1400
3 980 992 953
3 1349 1407 1356
3 177 1422 1403
3 770 937 874
3 480 1064 1001
3 134 211 135
3 1343 1390 1364
3 1291 1320 1270
3 1201 1251 1157
3 1363 1381 1361
3 1424 1431 1391
3 921 925 852
3 1234 1278 1201
3 148 640 149
3 1323 1364 394
3 1335 1369 1322
3 154 539 155
3 394 1404 163
3 1420 1424 1372
3 1031 1108 1100
3 1105 1134 1043
3 157 1365 1338
3 1358 1386 1345
3 158 492 159
3 1296 1412 1282
3 1343 1399 1390
3 136 1305 137
3 1129 1214 1070
3 1002 1135 1080
3 181 1224 1188
3 1305 1308 137
3 1175 1185 1176
3 1251 1285 1182
3 1081 1121 1104
3 613 652 501
3 716 868 736
3 140 1218 141
3 974 1021 877
3 1390 1391 1370
3 1021 1034 987
3 152 1044 153
3 1058 1138 1097
3 1080 1135 1131
3 1226 1236 1209
3 964 1002 179
3 1173 1212 1186
3 1425 1435 330
3 615 676 552
3 807 869 698
3 178 1427 174
3 877 1021 987
3 1270 1320 1311
3 955 1028 986
3 1278 1315 1251
3 141 531 142
3 1140 1152 1112
3 1234 1311 1278
3 1267 1280 1230
3 981 1018 898
3 1317 1389 1374
3 1034 1140 1112
3 803 1137 710
3 143 614 480
3 1061 1102 1021
3 148 744 640
3 1310 1335 1302
3 1173 1186 1155
3 154 1099 539
3 1094 1136 1061
3 816 974 877
3 1174 1217 1138
3 1157 1251 1182
3 146 981 545
3 1374 1399 1343
3 1314 1365 468
3 816 862 746
3 1096 1138 1058
3 1209 1248 1150
3 544 615 406
3 974 1061 1021
3 330 1435 1434
3 1285 1300 1233
3 1102 1140 1034
3 158 1338 492
3 1311 1341 1278
3 1201 1278 1251
3 835 871 860
3 1138 1217 1175
3 1236 1248 1209
3 1224 1250 1188
3 1218 1250 1156
3 1216 1286 1244
3 1021 1102 1034
3 152 1065 1044
3 1328 1363 1361
3 1381 1389 1361
3 1282 1412 1388
3 1278 1341 1315
3 1125 1173 1155
3 1404 1423 1418
3 1182 1285 1233
3 141 1218 531
3 918 931 821
3 1061 1136 1102
3 918 933 931
3 1251 1315 1285
3 1420 1431 1424
3 837 934 863
3 860 929 835
3 614 680 480
3 1374 1389 1387
3 178 1430 1427
3 874 937 723
3 1340 1369 1295
3 145 1001 981
3 640 964 149
3 155 539 468
3 289 360 344
3 360 544 344
3 539 1191 468
3 559 639 570
3 1294 1323 612
3 708 747 616
3 620 682 641
3 700 802 711
3 748 802 700
3 774 865 741
3 747 873 806
3 844 893 751
3 901 938 766
3 939 941 876
3 902 979 907
3 956 991 904
3 939 1092 941
3 941 1031 1003
3 964 1006 1002
3 1083 1114 1057
3 1079 1158 1116
3 1114 1164 1118
3 1208 1217 1174
3 1231 1283 1228
3 1299 1342 1316
3 1305 1386 1332
3 1320 1341 1311
3 1322 1381 1363
3 1341 1368 1334
3 1414 1433 1425
POINT_DATA 1437
SCALARS UX float 1
LOOKUP_TABLE default
-247120734659767681524814586317307576903893310096329027216832444909669230243885158166215786496.000000
118091706286657564320607627733963215361383984004780287729642825707651203829676704095080022016.000000
-107586813527201161645682145115313323233315176328754624208409741706642527663696928785586927125397504.000000
-55410788953800090148297962050306154089127898880630089568127096111597636653627768130494267392.000000
-4335837364533355057372823543162947604228466818986414340799631360782289898177435357218229885594844650274816.000000
-184336418863056560152491949366881172388285534268910518053422217624615519715812580211304693760.000000
498844885644274549670299823825315193269040198965579749075736177889654232288761787941386190848.000000
547076887727273235032530742723135595673951539282832532549371679086566757634684102951353450496.000000
-1860928454173038926898853756639145835640867558421489908953269796240570560344194737927914258432.000000
1448193705259482384896538801139868083084772075876914023399251916293271973097197546163765510144.000000
3793458016059376492652813749818937105102342943773734359137031714886273953134229192702724931584.000000
-5411676593660918447810402404449914955404229457707366589341499721388224609606253662531160637440.000000
1777773628195108662473688528262845575504596400595379797819552483723801275603319426303509135360.000000
-524319849019694336926556941240983515417034172784643120781723362070994607803812363927013031936.000000
119220312689250080556078267131450575704846032875812885200081771166743999657637080067536322560.000000
142913315349083220327342750150653179121161308147180318418902795436949639208078744478422138880.000000
-313790739388485123327788981130761669763897526633508759717455795113991430886339523209179693056.000000
86662935343148116860328549166221574820352865286296646249142994242916652259731962254128578560.000000
2875343813223944453362242493500139646253783617611441344900824571653004261768782297645736535419858882396160.000000
6614818611489224896117872704779540855707783394189674382146189353160418305628349389403832642620383838601216.000000
11820412714281598887098700138035381702688754441196322369287571603842205848635187338641176399562326667165696.000000
28980020528188044669770381098892414678560944185587209964054861279251628432984308532998171356524881316413440.000000
30552382141912049453314637047734516106550546762283729810529571093545574524159991367487582732185001986621440.000000
27258390632707954219809457706827405455689295090258654769159511769925238972172554251144734770894071752818688.000000
25841970391589111703765285217482829929055359356581627091944151447693724351706966027827170225280168958623744.000000
25646497953579968468842926528056404901148159610559394225304746976997297901464110202303828984611809571897344.000000
-15283250227977922720101227927133383480013273304536385681022057175028781953300701147159694620378868289110016.000000
2171075570721472177922499630703362855836263531068269622545608051611422310831527155826031320179068452732928.000000
11516461677796483665199497731182890440679398140050732025718298022299650959635718037573790341437841647599616.000000
10913422918835240431075961443932427212741704961165166185980333436164231890552769247270648001529447503101952.000000
10836676459316285124091371929741131218273779734794574555850065154532928108668971442724304311876802500886528.000000
5934235259217985899768081573964420507553752081113057090344124225294453312956903155632205760591186572083200.000000
1775782803300189825765863121171189767430948417333832489715123352214359453512785208558997012465788758523904.000000
-1562263394657770374001392616054657740185892911874279663391299509680856727732581006328559421341303723524096.000000
-9086066108220592181452623414632528824484083942951188356823294529087278950382309104366819353010054730088448.000000
-4478858670494436664026843806560522500364173668932230246211120001846499570734472650371088851166855350452224.000000
-6860381170268342479246902705284449683682918972646254249882910982467140232882903110241424384802518900670464.000000
-7544243388685976753993409250228783797283998786011378992780373824613131535632764988574404314774858606051328.000000
-9619494474597871822665358800474600620605159029087551259684093918206524511775081008690723648737956698521600.000000
-9006348237900222171294468787828511883152950714943969671756783602740009072376064886037556335678855818772480.000000
-11881814649066794306799879608026723898093112632696310530246027603967869813252303893873614455329953425653760.000000
307107713894294637128716624500091683880887414345507633508310564628702893853101601910297808645746667290624.000000
12699824312904440714778096090938282471370427219692151616758752064360320659654447588873657241023767105241088.000000
27905894668568722019488654176901586262866463698204995749457231964783450854335039867660009056817228166463488.000000
-4934364931920983202771942380714484129105880162207079595299191826583666486741353682927807511081558009184256.000000
-5628758585356142553740048252724195611636032268382354480859735678337747911272543000129035572088960234553344.000000
-16631479286229832863699013359520298848061124611360700200962664833401976675747000905676183170008268419366912.000000
13299247210986179699698287590482519648817888127954426436471757183717368574928845028749810345144983331274752.000000
7772508336108877259720731396232845876387300006332564164403618222870646411985387920656809983509225361375232.000000
6640691090278635575238031865923188612522317160425588029682198044050239946749749515050212920836680325267456.000000
3628042641344588938256850954797560648565913141218264460931859603107265410086699936742376555662077916610560.000000
73770742278472412789377167465648898483980294686291929434640792185557668141987112923957305917976711528448.000000
-2358424976197194233111190385951525355574713516999612393208287351117304152738386255348914477850313441148928.000000
-3755408732001473026090660877034908298942308427440554384601724396738227107607515634832610948467336375435264.000000
-6512012774935734673937961114915271791550028826289719622238469016263013587868803253124939648001362632900608.000000
-4661830758639019759855918129281166229894659795497241480403341150683810924844360885597036328631542048882688.000000
-3074228997363534694320162797391584294246913310485562296945174189026231361896783188168564825355152036724736.000000
-2473042005544028122925201129694174215592836759220850102995755063690276207664000524958933677245794684502016.000000
-3292645003562191222717209568766400808262846092617916419286853141335929637478331050988005798280452720558080.000000
-5891610230079784434092977253123568304670065205705024434903467171357193661927826925098144297851582077206528.000000
-4233682554178565692931395804001973504326222376374053687179985060746189741529055691721848260359190254452736.000000
-3682312505891809861925164423675918864324081891779952729499691637771738725900476813747858581482349430571008.000000
-3768298259821554456402376300097403212189229288436715189665042592344479851728252977350753608305763481026560.000000
-1815107610357199476883548701523791787358957214761295795703043554397665783050874753984820649002883004497920.000000
-1485029279288426850400404471367775909847696977947990481147329782725089020567512150158469683438865050763264.000000
-662803571089919812190789023303890682265038407320879021533847444832338570590707943474779102256948572061696.000000
68207150595599415953887450129914568930806940858228388511394510408978038712068926082010298831601664.000000
-18275986811293573582647782298757845041381448627459302894812067923908983665408333060964300762382336.000000
4896828775944620606663784871743458196589683134702469457477479169777438197649170571079713925627904.000000
-1311232401072881323248585558093884980547505630723065731533049888130816046690427328899090009292800.000000
350880494636228395281558230896553988445539578066738452740719427108099369413021250478126124761088.000000
-93999044256724439473205551710723322745637076635583072819212135521843832066922702203471597142016.000000
25163094910197353938472915045937364941825683233483265216968174651981008445692942387691248418816.000000
-6704462261488600551439419618338309559596901928730497361140338521973098482260576223632178544640.000000
1776462271036602606733045658801810555970530892786293477446660036633239923727114434808006049792.000000
-736989734736010751771306834304018599631854655478495835742735952420959771900372772560884989952.000000
171236620905743382805725277833938944920056847276161697953613949467315835868316982148778164224.000000
-37588474779716199689271276463981945185295735301814506387402381255346867168309144862148526080.000000
106525409028626598250798435979506342153246435204004866182117626654639788281086494439135772672.000000
-587721607066036284307803727343317061366030145929269107710236103418085216677116661595695556924608438337536.000000
-2057481780138973793513192036784215412668920948756398835076877666329503307909039322617813758496656496525312.000000
281921540424721542050716959046771289791549494720186722784338643731243854078264238737158486417700716281856.000000
-248414096579361501784938312527547696419200571731432919627569945378905152720627159596052342687814769442816.000000
-2438867940698356973441754304610625319665901248109116775919772445987326722090096659569768559784747465703424.000000
-5152039361609950744633893001764784954435763972691378177991448995017812864617458716231227746329788686532608.000000
-5030052485239128526488328517267237447169931650803184221988449963742475599054616500759655638148317301440512.000000
-7877990174208220771797960951025201542587566746707046406696478266591854449969018125973334612176352932003840.000000
-7768036418047052663506870913594161569032266336542052328916530318081509849673595656889590791174525804347392.000000
-9337813426460370926160097896181272555766964387467199064222883700770708690555634034591695257394593658830848.000000
-8596668629250951424064312350498370676177322232557887082495519505436354379724621711261746255339148548243456.000000
-6427032330720524755284831943444118989527368434304463549851260217970503563799524442899236275057154349596672.000000
-6253000621619339178423964835676050834970709642788128383909292674821421797132852130687656457046675960102912.000000
2619477932027529519523418324742135153837453166633231551615414598450705407868239482474052463791214822424576.000000
-3115336867123391384201150416537580916514802303560810911202850626422062206587817994606225106518060535119872.000000
-4538990212892403565060275453593836999823742624603081260709193036558717892239945211643289752082617892601856.000000
4122157588700681161261729482690574922291504739397393834518769170868013610890100996291791822780640920600576.000000
-942522509882397099953675103365257963544145142010405944580366472029237773901339521083746121584107061248000.000000
-1112012186107970409121061601794999446948052593109709225577654499732194923276024340159920999097004330057728.000000
316354114913554330709636167843134349945095023877750472326995535207719352495897062190817883756333279215616.000000
116217147002587232144355817010398880342637099681834090267081507998194883396966211935195901672992700104704.000000
-762058584689266030163763119199357812568853171570342725194610253280541786207316273310741572711263382798336.000000
12020296884478989735714111903331110301469312075163048543073426347629275173455308608271545345938942819565568.000000
25500869063173690084320830898434666470144077829254736471582391749760083017393349861731507907138306432827392.000000
-13164990526343939297772796912993610635846346257952936636929987978418112093813654282950587040951154849611776.000000
-7277021965692402504166251828332949011245592024196696907948701949866719689725703397404535856670486753705984.000000
-5479253779830211617002523565447944219786343070806873121959089891398281460268145253537765703534585090932736.000000
-5980976764787173267574772746140831229468280618635569949584672360803261448202592352569540558975780310220800.000000
-16239806856381539332070639276490838390519967965683727197764427194636052947932845401645453638045759709380608.000000
-8575307351625326673315591189784253286891177588602806802345547705963588703269765866080592505600527178924032.000000
-8272889142033150560843728385862527585059795025698418614464326570085984757325341642985894533914341626871808.000000
-3123351649825770383695756511631084124651777987702728038349310177769260650291792979209146691058900402176000.000000
5450446024884801718106317597077841770355905573889732021265244986223068517846193837535706768972165802885120.000000
-2304617447122354125165120281258053129512197145368300824980704987165631977643248563236389694508198321455104.000000
-9240717603740665996813908699222117986821817642580226049494878377139291438208665749808094828490718154063872.000000
-16846902025610062392562928654545872161602944350321196579933455928254023259799528418396608339888674873278464.000000
8063909607310219543383586473587432664568070077843026156954442881330060180973005840905696864153513783984128.000000
-210769072793675985848834720115123061507428971334844375536907197532384666594773816976404725692195015753728.000000
16311449328977200155077364327864152901241277547833428431795301972212428564844802763576001395316171992989696.000000
9694934696181477268006606116070548600196780152036293335952174665836156552277457290720076434822172868870144.000000
-3398834367290143712772691434077563688741269162584109980293731627734299381996423199540830495306723302047744.000000
9933193186553052240844461590215804499246737371635208325948359335310283929030113166121293558361093910298624.000000
-14262076183105691025586256353350961696559944291876607486123759589335011830199989298558456638592046149402624.000000
-18358622551936046829376424620261153249179461622971028108962510027396445037914915147835635294508843031068672.000000
-9335621471954369807083750153180014432561319051240681545146522285188198592840249817621622207729373684957184.000000
-2440931777407350156363456720775934641672277430181665737673267304519914575569037315043657381976670816174080.000000
887450345870670078488773437756092401062187319953028920002575823106916401092476539151957573131459343941632.000000
59974673999247972056519254906628604612092804718722988536522130167665623763443289040191774613433707659264.000000
-3588972586127605957646400064848242394367305603706340601834640548870975351192301582405165590693917900144640.000000
-5927936606354674664402580230544804362583275232830072356607363023104171790641074185556130042288981676130304.000000
-10170157803175306619023711664098650575405748491973622896556155652605916059970883925280830734427331607134208.000000
-2939309354646314939811192760741964264920299476576961064017403381347647824903289744907100982607159035428864.000000
-4043777596295677787582922257027618190284686856342436517728602727752665640138380116943113331061749496938496.000000
-13332039185009605012217734495938933630162713982795039697754451648605359913552260064117242886709695519653888.000000
-8491728201060633510034842498162411539646339660465746409551412253062781932466801562769152593021686702407680.000000
-6226183156055390962087676128372967937029503427768457043258149069498651456924652919207643763669755486011392.000000
-12267943135422582054407003951561933329679618360022135495100032591011889546669669598739931982842066590760960.000000
-12788220418931444650024110341668053146084777714874505339905245732782051882828221558051513818172707051667456.000000
-6774407720556334720364379322348040681836465841502927877534731840437427435748166702492144896591169356562432.000000
-7747929921555141042894727827755084390196463141933610751802596062512662684902254487082312598140620722143232.000000
2760408520110028213971159418247073623378014912906929342333753026909349862227297673141872760311199890931712.000000
2424568267816126545652908680715966768581488728924961107547882618946936614721585420991013986706833539072000.000000
20712241368247788244248458306381274210190768157545798835373445403041477957345955203725582253716893331357696.000000
23819137459534837010168497705097009157172349600009008179612061411914938007807868885184824967564937790488576.000000
21345640804406394804643146698243536027040908036690870902797994185464815163360605434310781772363812143366144.000000
10162753812804718790855764855878059864793654423052331690930131924298416445699232849193146822780054845521920.000000
-3398940495590194504897310304788154741373873712710348949540313783080320478832835480760397994510216817803264.000000
1050513750825493380983532607379055951195126232421375385108367881947451763130159935454612287825126226919424.000000
1446942928508944251557192554959399966046964362571516464434408242159940768149882336554702358950780801646592.000000
372219068000980553725828748565811695633415696083992678612619531134710241214145658525985799242787531522048.000000
774596291719258189154412079306980983508107091317307841608219608692306791213721006757146717874881816428544.000000
364763770959091135837262807678362004956217188035108254946023151524932937320989583733770112641616830267392.000000
2300941137979538596157710140102793844837238972334116465509954799026537486734189491448806793384701919756288.000000
-687608794633407683285055766051507975681088422645767134296260949569115339799443563288919243620360522825728.000000
-1398055281792392614369303477456814538703810275648830337300570318138029617874112444562050592648953656770560.000000
-1925266624211558885889568142837755128500821627043019901250819343561927048801469836934189467130376103133184.000000
-1807385601488310798489544892725819992715765600646965963324034527014119982774565857321335452934839864393728.000000
-1269327509288725672268255794300816657575611995112851332559944168403764347142979638923502365975108739137536.000000
-2933361641759532143968984273712611630305841067473994130470468188269581488954014167484697373053957909250048.000000
-3402461618485532202081966474870429002471975253510643293069480167935451395242737318374131226765381372739584.000000
1109838957439683489039065969937375627089709101984750923000887686827715524298849117089998041956163499589632.000000
-47100674461632577318234473323105362440416482658607797706697209378330982367447304142676347247882824948121600.000000
-30684156848029226053243667870452470951922300394922497445460542328291707681451935498313118420100940432408576.000000
-43809660513280339587725714025946963690622976335716748558071902399704213163303562506739387230726893009371136.000000
-26756283331951412334726091771249792360305018979608400543060974205183572378650484784025324938911046189449216.000000
-19043959151253183093469724143601957326063495406767719527734179743666976389237366408340699329533318879248384.000000
1496039293525923554165349947395955151884149983188083880037909796680682120251737522186958979946407895498752.000000
3551281769022099199294262169205550758862451205089406718970439019793383999151381154619585327742199676272640.000000
5261802820699734137802458394269935522911421595505967641544594604871003308383067095023145132705736185348096.000000
1150612678207953676304439909282972090709094709521895298177631177950913019645990958613931446187372954255360.000000
-1361111944038008519058432404647730175305294456733726887575874652100077075526963865021694970396689129537536.000000
-2397323574083476044722829529081279778513220568062291464658485786388983135470255949658101731276595063160832.000000
-1958679985975669126755521872626064903791610220949959310925651542715233892985932710548017528349971458293760.000000
-1047365635904500229227391956984954447009807252044671274513379965830601618421679323290408099371912284602368.000000
-2083712153744448989182547163618441537384548338932082138504543864082515944170225824216996005338198879240192.000000
-3209326151449376282585986128840762153130446144909359978970917506050410662924262533847927220393500775284736.000000
-9548115200756549982027569263741465416004758253289116751398053392381476494408007645320225813963512859328512.000000
-2261128302063513637852347270306109281030542761010810575563367504895569325604159248415175053232802262679552.000000
-8069222230884069810440064734936928371576039278107981167888683635070288641505700230261372967508700653682688.000000
-3200320014825836536233578084528105471491286789220700423225512595039280672311565133797778841942554008616960.000000
2083826118288420005169130824614439976536543399166104467696229143727463890804953988474260535899157499478016.000000
617617684443527663753624689326879001303119171237408331649233828374458520490564070099598020025792872841216.000000
-10939530823562523309059828320381400346400930422297140344758580195623977349090215330851186293086577317904384.000000
-2658117837333524925781445020958097979823516591186538714322731877523825274529050302152233872120481161674752.000000
13197460960366613316997424892951615246683426110550472569323651516264904691883255949999382986613476567285760.000000
-1910916314257435048143182361931937353086588357824266327763780667385121916243879744313847737960029797482496.000000
-7331894980461973172027773658182079550001536468179790854085748802227226959455513483189634001917740129976320.000000
-2422416946670952139288077903313503724215393849721588871748461243211343384638327636406997300192659770441728.000000
21202894749280695398339541829868695592829470762670413060505429939499001081306984674117535537468386190557184.000000
11871511681445112951632741948587104603003320965860982576983322219015455123535102062468488370223924964753408.000000
-1658913829064163286161800145807297525068079904899367863842313276501890505336806185633684217230441402335232.000000
57832151109107503108452549705183236396922466953782615200816902771641976545938799854800231420029541810176.000000
776458595596690051757124883955487413459647467169609605542533544644102449570056406391699793945880290131968.000000
-10123869641998465227326216761883836847374450288207877378323726446071745189298001052720285873620100914872320.000000
44822170852974111599986463290077228684640147056094411718480759249737508573073288310035004295139087613952.000000
-6095011660178952854248901904171726578325818961969206631891347975456532363461098608293174411445471629279232.000000
312301612433774372516217855168267769073200756973791751812231682196529677771820984356751432327231749226496.000000
2404931224336337954841922616174841191551942435840584701890945226844041979611715471303214178693092059643904.000000
-8441925917895170793000008614716342728980749175126465690084253898462994702033424751106596584113449029599232.000000
10449985021955554064707694065869543855313380508496681817009419435312630602501987461976731373373874910527488.000000
-9620078739215784541283604344118215892647683538988303795179525543147035496799535975411173148046408946810880.000000
-3712138400125488409195766823056209072203910437631595930046769383042525434938664539579772851384110597275648.000000
16263510189713876464150499391286804746897043318129693818995486131289493877679895219776571980038029587775488.000000
-203268493995436406542275947457928987921458684904609219337457420347381935795740166162346725226363926609920.000000
-5068565727864129878957937116819502898380780788073234625383416398396788170027319369522899958830903060332544.000000
316300961804245395417653673900899765172812105057513913015746164917917523222781363564468526109162530144256.000000
-4287731043518414375068641132827170986771265861057279282721425236045321820322289688422570667913942841425920.000000
3117752594431681342342186442526368317497716410194034460807962535806775562743590159532820904055980121128960.000000
-1254381051198926134798676659339937006641343512589376656633007232857988103923300651281103856096259988258816.000000
2292420254206790829448605506996745773662359510090407013421379727709259129667391114383483218871105299152896.000000
811560690530581741119957552735144558171008423328070093318580317245547550241347369540899786608158240145408.000000
-5447960979173122619752467788573753214709114248521608132654429825110292143598202877898343840011544929763328.000000
-5417091154160785187426883184877617000338231657761875879096782649849858481553225367366127084920624704913408.000000
-10509745125851886751511468264908214835391367657456427893767224597220607440514640211774626385055420449292288.000000
-2229479075653564151402140100292902884551736031012647834939859960848534207825040116911610700827854502887424.000000
-16797390871882112498078533744339717510541063577470060828387722716959233901094459375253604945915366988578816.000000
-465169568353721070945019895208434970962041877990884870960479550780026102596221313402960070264829872439296.000000
-28688510526769418049756600468277482513509804190149255927036185714126794993779483156487419301464750686208.000000
10616282573859131195538199194745301867468633672670447651210131150029172278680781418838139703734268512436224.000000
805710119645847882279719377055250355084448546332626811310723832669878442368391837930662463232240192061440.000000
-5234840953056334576641015682834535830333683247515576813165276945502589525759192061429612499393554142986240.000000
5762814948175166179964149058878476215655712666163166053273874657028494685198364007652034958931678791204864.000000
-13930198076409256172670837351696861196292123943167295905221324839191967459164990213024587120078022051364864.000000
-8287553171946568420146878730238431377552117322055263197744726863358010064446441493517420070078338115305472.000000
-8258476092968603191794520016100609537773387714138076922726511310399295793769916262297049805181541356142592.000000
1559863552318299250647603309252708610186790772346352521667482707485668975588877796193995252292457078980608.000000
-1163693692005642530218125959644848952058312573514967317095244377218843751076395647988948061240547392618496.000000
-2863304061354103461003857264403077774450398556814154136288310408412620922930490718941292057390055803584512.000000
6346333027429696359009025576204766965913871885064499206680268339222696458552732394633607333906715378712576.000000
-1213632007209838441274556532247248495452923717119808604242612058492078414467062746500532953240964085841920.000000
497979144302958567901924866220581615418581765117157261572414232770299733152450561179790517330155774410752.000000
107337832544438086666124063105042002621763819621619015181139540710295205508939855010897181049377511178240.000000
3436406769419940746128292311451347762530373435927362480935945826813509317954600959856185199310642845057024.000000
2966496930043544728934784312056660354119721277397930797735980304736229945857056755454829955329108813545472.000000
5160862834714799853015283337772059369472479779087608635250159998980477613449347906300871058170461888184320.000000
2985961077839200928845382798032116680605395646353147819854350338561265107142150224396928321848917081718784.000000
5670209601470245798227781945014598054556351086209039921823984950867219372523083674887191987418298083966976.000000
3609771879766352148843252594165275029525973040966042877660090245006478795478400353899814603607410709889024.000000
-327941449864044933704424384895380052632262264477582853030593059397042769087089668981546799212549711593472.000000
-5847633680160753301249071884220716948175910090376038027982733301484185026346313278579624005014728558510080.000000
-6335261300283831424282213495875719464265546628288952962026456090478174473859600175439218997117559301472256.000000
6186336786493359883965411002031617467944115178126353622681341000772265058677982219451067670302051400679424.000000
19564060964067947230377799467567125038478240753364396016871486928825451818923567704469136589711468899860480.000000
5006909176436509380909896315938952027797784193498518524405428792446163360586761901865686740931355548319744.000000
-6471807522749979064403973818735225242096013312241763678053964588264437991450063333320038223770531380854784.000000
-3361483018466451167399399340516661343081968035169160161289759133233505390388807961705496453826327202496512.000000
-8348945862735247825701079546649972035177167965500989890490681726124782070468114033323733982703187889487872.000000
5803323237976802622529936339135168648226022353238879659453925524216096849931782196540971689963499944935424.000000
575085911521075211149782048099422468790551980519963452533824906802601562278943207836996369036202066575360.000000
-12091771544269917162252069295577162629338822407979409194541515330725498384020312997946855036013607879966720.000000
12960465505669916039881356144160623741193244711718886666247032610159255236011789413209308858746633168355328.000000
-8869862812643932074403711355105492691650395834437126826219245074822290979735352360413943244025804319883264.000000
-2462318965307606902904346823433721318782980959211987599870584959207187664529463852187728595191348164820992.000000
-6177356147057040611283559810888911807937873264749367529774886478515880755707822242768799309385584603037696.000000
-4676258440604028852625227586478153437668157474244226439832176901316238483556168650446793519950186487480320.000000
-961124977157911745617278114147823054448435057230809464199009838310784439035004560785093626280775075758080.000000
1014455508122408358360061895897838922212991303827210844837854130556834382425328989624971133990081658880.000000
6994714574173835319296057382817971604997501582537563926769269587136759586630568478195891139110610394939392.000000
-762072696120459553722441483876938327769867712291836250713493320280632725750091724480826108161747052396544.000000
-4615659366903941326044293708668159877427444445920482976976433682918055856962643130382367776526126534361088.000000
-2264827682770065809014492625923762702112206949651810792582418554558175864363260651056427531518293139521536.000000
-1982605880984510209342098050233414098014102809786908144711310283387779841224953406539109784783343543386112.000000
-5598153918843086425131500319813695618027220592885971968171463820133333472609439222134964483875711806865408.000000
3641695687157916129763224002621081186085235393064541671689404389270246404148140709076264239272398352809984.000000
8031784755404440931655039888810140498445331787506864873909613916821192979899289345030274540674028754960384.000000
1246661804827721522709384485908286539321779234660127756986196572196582778372567177625259422779598186741760.000000
-1392825840589361494957523335711581085649042225266712229208361587966557090712893550219602614878168506433536.000000
-9813657475467029753642436710931198838948271469477243899572871109214076124857595836427281682520097882636288.000000
-2063503213881876111484648935939683030755248141818098773819248192911925283992896045363944910546178303590400.000000
-6566550356110288194878658730687189690392395262653398068849603365016888606127198905725680096064195799285760.000000
-6824428379051321741713076901097511302372121619392897098140144423296325558990834210369737615157221465784320.000000
2999008212834829499846724750657162800176645540538987546410413698674678028079912016176407896848276631060480.000000
-759749492702781638182018087760404457894732840385203079571804381660878584279343151015369031928387957948416.000000
-3558872378937204996505658501993609840465598497383477458440811747139380216429196444070686828814581421309952.000000
8541981779233267299029107006353998705482355055359125056838867928624009289773993069808424998756172722864128.000000
-5325172058952755114888830353745736538577766241194437042393102111599754552496122640340949581734094858878976.000000
3441985182161690033316217842227799212569222307152498504845937277223301963148447041153486377697548343181312.000000
-336497439560155601904842123201799517897292238063922869281126021700923159839319870176371556695413169848320.000000
7666921293727798061054404088836383935526738003414468481468313322625407431274008221618489029049784782028800.000000
-5732268595588247051152115236461921174207140967798972948131459485461551585912759602448576219873546405412864.000000
1064648229451168195956519065559779823417625502258624699129645371727712769850808618815624034894594183266304.000000
4831592407415305067241480710396649774412901052969137856021089589649223764303254709497673950033541276368896.000000
-7887469811185542543030145622113615786182495061436871432359522276128554645369742345745605220061041240571904.000000
-1175361251098688593835532796747045341574363042573969152423715895902875522480216119431817961164887390420992.000000
-11083725406952719454716663161355444422204030246566135775625004898241822032476711826107964485488503683022848.000000
-6647294208659232363554601752737376903778561298506563322077117687569386379756297511795570444806683461943296.000000
171792439463742152269359162169616294393141483852726318990255485430960905131536221085768742277501402742784.000000
-1251271571353598831525641517020446413811170984946651992989943082533367709845828400992921467920584751972352.000000
1964043677710938285365397725465717638744210630758293437177143629040970527537844647356628620984559788359680.000000
4670990540318927720168776259681431422195846474226169728406514932116380960247492635430311046112021841969152.000000
-4709272717690885208308808268468105879242093890260857795784824182094102300680366390865411935087996377759744.000000
-839148375514361794010412588595482369004417079528927460962432153950956085980438420519716634397874333941760.000000
1894586068606497324094137577519828739444508691371660533303314153935174354774674097819581894069424421339136.000000
5781257654656459282940253742070385827055692483722315629075770512433105461334698550325480714596420562190336.000000
4841992829184413412844336561024586371434491469296331627550260759130961221401694231437227967153260176867328.000000
5395147870017291720319233283687809687802327059695048209122522348528780289858762508720057359112055602282496.000000
306531828645604534796364964047186277421128961570128486292702732096569131462342655979967262916208148611072.000000
-1628773648444710267066657237612984819956214506734780115051464397900748008461942674396253404058129553948672.000000
1420814469935227553317237236146562049842566914965812039745883746740771271049075609836674511199334381387776.000000
2954033398999437937649066565525125010350529681711431881987682016519047174172711342779043451429212081094656.000000
-21949385169366313769543010865991027980420268025914000162362620964184584535493953540299003052274405605376.000000
-1794086415682115218293774231260100057247045366894376296477056135754617154381299218096138482684784088711168.000000
5191543300314879971011063795330504768603387708845477120333603391522162109445864097132164938840774092521472.000000
1214460652372202352455878867576872787205367339441110792480189751574386576338634150507814501453058831024128.000000
-1588675337461932325989885502609094982271552765570159587648995144512603690725535968713188726207755554127872.000000
-3671750682167302110140467621425679758649513827871477530471146305936941177249629006608586799106393915785216.000000
-9088048905814587403645210699705988488058750657080982819230944998555324211694810645240053480053208086740992.000000
-9728144370765447039308705864435120164741113195131796459353851712398689887008916931891873162291789013450752.000000
-6687354251280351629939061280891585304822356852694679831593341621416831543342896438358910722841865011331072.000000
1842703979814283663412391840072699003686666172473635317283985991467399338738648222304936872381105236344832.000000
1290122091476405134330034945393474734227863460069130111613827423941877638251108591609399065027412009943040.000000
-3171568627681100751780821545649758573975418786497969529348778050928475300946949581539597355292132881989632.000000
798033200685743350560518854619386965527060541655449564719698877326934738864019834188479753839545453379584.000000
16619282107933654594429009904166247062556471194325317133919176779473239492679409349700368283117061855510528.000000
9328783122211274410202337374901906443473438359888838019460555892931919907970162488276646392910314244931584.000000
-7176405557294985930729110989673123130490192203700193332506094078094846833547129791218013646746495376949248.000000
-6927275662744425073721197335134529809593046222707260956847365472392483374403763822740611165737250797387776.000000
21183190479188723638420269415185182181887785502171486889133931122215355184626359291024399996479938114879488.000000
-13225998576255508109915739846863468383813594455360316486712470830703115752938759574519445918818773153873920.000000
-4409286679875704561512052206777040752529457537418513975106974192626379462576434457852394834820377071321088.000000
11632160861966103723696629261271969525153602220401721701029127043824573492460770787402669601898096442212352.000000
19807002186397722112199260680948206184474757099895789757709206784640842692287151204393798422646405185142784.000000
-5774291775655335788776812858570061661784556633199761095596161618437648955415173758859530800403019426955264.000000
-8637558644949858260129193112569451585302764325261538708688901538386438504557233807518095648553193476980736.000000
-2225577052463399240967807509453647281299832182288993154583790538619041573151939878736926418464528733831168.000000
6992028538573131942612820806387460049526977840427611342917181590785761406183104659604638730405128196587520.000000
1558854525762044411445550318866452459029751823437210563170901262158001199694140203398303187108427991089152.000000
406569306458820540972013615262025093460525833296902192996506212173875973758260438362014259171552795820032.000000
1671635021445725797976997210738123984147770978909477844609492916561569851222219163965636014780676686479360.000000
-2376472263193750601069808001258962272857446510016787927274508498191393817825982438576816918200029569613824.000000
-1011341612609663080162073368316564154682486323247114374710180570428878077150948016778994495596692015939584.000000
-941152646697214363703681389141714951820070184463682002702710015084011712949563650363738829806203681374208.000000
-334992581150192131451198113827857096336541550803096673911429332799040241951619769810396763566103372759040.000000
13657151940953094733451933457819633353359765946958896179137784667459099801627074289544788355989932448153600.000000
-9411610223490178288768706765304372000048996147526725996092693615016346120614716295263252440302234281967616.000000
10506580713876673346090994216255420937932125798291702484486794693639416238924236289349401865013434263797760.000000
700554302054006397369141636497560378206180823022590193468217661073471685331632546697463857631818177052672.000000
742356331115073082717989303471523872853092257572951030146468846507038522011061517739452227043501619019776.000000
-54142131935583929966296146016919541616123933186066687219794732342608141221174153630646632370435709206528.000000
-5867668716875421971257332657415622987872691786367732619093541149103314078020346804475401746866751697584128.000000
24111628426687762804490873831959272870081176224473971568639042817937495214782146995115547202663691562516480.000000
5951630526743784772892483389393072664037317822141477106323656549506934838724918528704040786987184121970688.000000
5401186405675011605999364889866488583057660961016351107998118354318748681929763950787662731230597007540224.000000
-6427927252472663071525149325610886180306531340213339715493169566395668585963751298239331280783834739638272.000000
-495587693352414432855272849122470324567790658693954869776450788866894823651888649770302743545289142960128.000000
-7163674105035589091438558512667833117310095177536899857960542015354918091227099851943393222973486163558400.000000
-4680682074242629369025177808339841098096783005701214788640982421590461434201708413910816212521847168696320.000000
-2332186021358483911995103192218112833836444658556452904299259816296231228312999242136984874279079373701120.000000
2053384904485083029521982283761586457061356501328552041256264124284373217056013010164713200673482529046528.000000
897944287065434420800942693929004196127204149622783458321286356057025082809353466328904485181497865666560.000000
-2770595280876393991614755102504724124715934453132442207160991227522259582707405222163528671055253539389440.000000
-5197882930371845595273269052056957237741551339927044591180441748201170756081293179646097455348423107543040.000000
-5160918493367848828716763035508106301583419451075213958185230628911780993410349875622252674409587059720192.000000
3021740114961896581290935524332986259464280427591516079759364097038938053415149858725426189798090553163776.000000
13485462656321262297749248046348197940988944034130067580874306758179329870219020833435347323998413099368448.000000
-622795695477075533599099289006514723940403117507000043773888733107326541779702746758532372692079956983808.000000
-1393665044654238195500526808423704866102189462222979279971497506005096814880399299251148988497380335681536.000000
-4943277534299787469766000402376602558185991777598740221604910314318458796813795246582734452292816157540352.000000
-12293383292172986436821932360002893013926058081295914365598488144984001013441476186680475119699503576252416.000000
-9796365114178104568169611018009232731514387607058369304411298620846043018684577775282657317834760503951360.000000
-3444427162513346560109841173904468800001937424168922128259977622926717734511555016798201647712605439000576.000000
-5051273012976686500529025182700135959743123551049610808702143876720056258306030563546680260249410638708736.000000
-5514600626746326770883559138367552046046935477034996268368069616290335521205048800545105813459588259774464.000000
-6733913553862084621923926160643659740370249240902399356034138476319289725791602818660843766316801237975040.000000
-5586431260920754556580763062830652453335211259501106385407407669587282983521918452108338369366743438065664.000000
-7651049752395029889628546370352064631622880831274250451040138720663694474248930664502186131259180237979648.000000
-1775543140045936650554539764031435360477624276992433792127200540380470179188339085049388202727833717440512.000000
72463424019394172308998481076346141120322832214812296553070209975004225057431396803548454616114166497280.000000
-1313652448329531506402685065468559878828573682117774283265513994855401589626488358687243680890905459425280.000000
26129482427472783768375855107592355116283558085905515322733211558384189800470867796274833280542986932846592.000000
2665990216802398754525316832941218749487601805149025918633199152514881018788369596474692917294148794449920.000000
5410750352156356010221278984931139873784251352852390542959869383859674731481548339926762128770573023576064.000000
950219570082288864654006709583656273267937848943824496399158643256980570839065138688125563929298376589312.000000
1144268468902074752601519018148031513706262038109578399089195494821754249790145438131545960501452226953216.000000
4270689437867995421089633252206849865093116347277658711536951773820102706865438702906042433031616421953536.000000
2035491965586225601274404618113981942177857530998609522146275434216659639673865574863763577112691656884224.000000
2606869961892372646418309231019083598299100543601666667235798516538689740730796261238086811663983787900928.000000
-5601237940303190527044542591856038046818073607554019799145414633296360092802365418526804661869074798608384.000000
-4655024150943179425686920533562413507286984744284734064077945739752396382665721420122084639243068900376576.000000
-1404669171646300370303879260703642743011956840026552970394696797030472846978083217591762724437225969287168.000000
4600826926164416928224619257159034805527251407754179620696861789857027791194961352537910612798890934534144.000000
1770498309837505434610866475405659270953480180230571537558985065896941405571118590673060031330428206972928.000000
1623206700402867969051205002717516923325271421674028570939580953127921276925968279978911377034880311361536.000000
-279370836753985559172431498868138492709585895058376525801116665446942636243592498275368061283491549020160.000000
307380261208624133282962114958409967088771181813941501604660561100501151308427298702532848139974962315264.000000
-6155983179822156909566194117327836758058473906986689123926237649236066629911571902563805054893665804091392.000000
-3832760675850976668079768856470207405405535690756276352492111022908519101893225761761009937322725861228544.000000
1616719508966847440797832015230572378273184565175807190132133668666181697774839199562053617657595926937600.000000
-6965818943331030210180123335521166489128088215974348262846499068017991213663179119379380443822168379228160.000000
-6339538246375997880840441370051685449431040422002308969609702010300708323329600676941885266667251739656192.000000
12834944381524558373857065814685100725294308662943449387509774533024238206364982672149069446639222886760448.000000
-1374777684902146883162082659516419441111785450383671075763409870026570171812316697211486993555398785499136.000000
25449024354504313700061744056349051682217342955828903596336235682832466960880550895658684057154719928287232.000000
-7385764097861218234753099319095282209709373288234225545515504563851839464820831017520650450613997135724544.000000
1778656077764778686450258312011898680135838954988709143222674205801922583268875444206804837074814910857216.000000
-11227453714953835963562057515774388091126794357210524144180677535925947837513369347540585771339726513504256.000000
-3371219787444650608817822372875788691228533393932907639476937307501209238628038123249161490362216092794880.000000
-2842538132722585252244980989276517440362189462436886441889665007422694565518380871851490733821790877908992.000000
5930355767709426901010987750162719510499164764460762018887838817470143962551425021975617351531560779644928.000000
217988670797322031009565296371769900484841045610443396310613994489275214777247506876149400126426642907136.000000
-8667553715750606330824284195036754094252586767026309195420374218098337401180955469798460771214390049374208.000000
494517876675464794218004122543172658472521684572398313315994509698599560696871882345909035505779830947840.000000
634689053396496717718256496570035927492352672647171937219394977079200098302434662577320044966215241695232.000000
1266769478636924941814791910682791002787961412893831849031037413200252919465235312985139712872165301813248.000000
6030338852432159386369691003310818981931145763667245468304465358470254219080019582402541764003610658603008.000000
-351011215809997878216998502068834871506295236598376204619458666699794799816811757289428238327536699834368.000000
26282329421334065525692453675718512468359341914424469527907801182254863598823464547742727870574379426381824.000000
-6632606490608795514450527730936269200265734465170590674668535141155066929790341945623234218120173406126080.000000
-5175320902445996624867734832528780504791058817781251846838218296985302192389044853275439119068627678003200.000000
1659645228935921939434303403497393347655468784673902461344201925453675985749149469319643227206243481288704.000000
-9096161309156071699894155158914104174268800360163078037102538736961330830496558469031662697471857599184896.000000
-2050998211142135408943789120397503744643571791264900465241644988810424919069402382537439321302690152054784.000000
-8097220041308412445849254605561852750248367302560751786486323621973484358196954470817188354155179675746304.000000
16066225148421456702760062954502030734527772256919955665749620680197980302852528369422438433828968859697152.000000
-2179750484342392053374339283822642363139226379189291886481855610836981247804597726570183681326034007883776.000000
-5334287377933948341671152551158614590016387533423060516607129013047784892511339260198172383529811463634944.000000
-1040200876390479398530877516129657781098707493536001842897763276379298042960453835924411315562397206315008.000000
-2186319087568207922496913439721499611659199465765028026692590089990179299075083390868880101390676691779584.000000
8905274381765891547136139018177850823954708203123019787041121587853009439479530597751080804517739331846144.000000
-1132626086437356288823205782481314904837705703011241277443725169020843239788898146568047209608421469847552.000000
-5269748659293609700296763047597918906766534029271634852453808298196112609636694549189711328845771030134784.000000
2745648590754735713523907969502193557009917831418766688349703117842476544890224601247656652861609644916736.000000
-9484243103319779427366485211297525247433245397204006916085228965421077066891546902436184292056142725513216.000000
1246723372573342031005678357501027613593780471402913194726543822941623985154560944274186352447758278852608.000000
1069119234331294034654146257500033219329228290460008623630167396568059255002690654636196550859902406361088.000000
5746683613032170023301842963901427318292063424596121970467067778494355963354375237573566309568564888076288.000000
5162259615693912692378112417029242528651556182133454868986276491459747126506384474557304168058897337155584.000000
5797464118427516228054573685018474504298240360417806489246506925861825028440358988022293956522702477983744.000000
-1894288895884551038276207882824206231530271608608982279304944554912212946043514869296899398202256472932352.000000
-6345734289775589229496054684793612937004533624327227418832895003743776052012823517641079159450514508218368.000000
1168566356709924755232393970568248610312386405370366521575342776071067953915735081449151551597229650214912.000000
-794229702218195055977060196553561388653919013268697961764598424823479536523822003010334225442310828589056.000000
-3569512074044071286379779435741820045903079249318614864820929203246071681526471470610497489874270128439296.000000
1297112616261233963241216075217048836464219035720165025361680060191768939727754855898254176288234954293248.000000
-286416057706926488389366419732932325296077774041679775716444357520970944876453515403616182385147725742080.000000
-8109954111222252175372039709748934776082121102954680288952199085883631231321319766473732088260100236509184.000000
6865738296640704192109637595237173890568332082738453149883941776695815325608522864588849082960403245301760.000000
1987559228211535404512997345476300221521071738939728553560581204713598122314778161534298144888827429257216.000000
-1843711586207478503271012628674321785280254304302509588287250961430252991881339614374814824068000159629312.000000
-1956551753169729594988529475331366299304153397602076838709989662376146380640380332014726794840820949188608.000000
337805065719962481334607234982569723039981621082278072278041579274209491718368104982851212754890841391104.000000
6487260130713477952134905867685781295438351109670152151957397270061735360727331960646819397484827509784576.000000
-2278394177562713007934302438506317952083701410344129027366683424910388446185625522072641345403135295750144.000000
-11766382788738685261496322832091041955275967901525869540326404345096578309017558074593637926638083083599872.000000
-1995212601652129265258726141868358005086266154761939509742131345003836314537330728908242505682650430177280.000000
-1862973845102072622402226627343871509542479641385844128417514492282031322184664050814842666082685400645632.000000
2828184989128913790536160675652931382914815730914933415659273580923611519085348179336310808623796040237056.000000
5886619820538751337757580436047236988258433373082654587432911310286062713949501578565209124839440185819136.000000
-6155385755654346299147966597000344284652035008581996010803259918849100228219757265289496154930435059613696.000000
7388148963050605082637765894371863664256338483334572594889767043121193621988952237269875043575476036567040.000000
-10247292209877843303964862268879367619860150478619332805083216393487733443246685530330906657477686840000512.000000
12620677321631204518795358116294789419195093898079186999971802858814907416727064158538240661860568159748096.000000
14123699240998518811154095724331626169274482231496174789847684222111955388395303507959529809150436442112.000000
14780710308725757794769535272455424964375826598096466266741718346194771060032273624335643464955809482407936.000000
-8641692315170742778695494521132645017893692066441062657123346629936953694733279947285575807684068392304640.000000
-3217738631723416121272378697608261880756817845910897362069468648738539855887989470174970457870171816067072.000000
16865594143700340973174740704185137332635787736432172515040017279254670729609900551272924551003905112145920.000000
-4762000771719736634591958579904805931343080566011219937346745046327189036621351099211460962632034192195584.000000
12915007141365410821444605972706230067375748447037230736628795482267250022605170274499461735208709223612416.000000
-9038848045454041875218302172708090555011315798440190923623830506092308261432237296136955972295715868114944.000000
3719665867297967956424186945974662896015765539581869095818110682910211401654043740306813140459893616017408.000000
-3991328926795282129824715802291682633266767380458671322349347801467166612591553252328444284472069541855232.000000
-675919410853585335767494320236980205781744670809724925859832508814854419243045563323642814419703284367360.000000
-2110706310740213811656532148261114799672539923250426666095557708574724791919827948166723058638623583764480.000000
8446968358570150635030506262592442044523621807918246735894328862927310850835178590305291299201188798398464.000000
-7576922101002358711415039895474706234834840893933736360243577930517434740874231067173258897178178942402560.000000
5938232514113735763246804970786182724370859163429858449355431125126829834897454784578519098699964427010048.000000
-5758247259298187326652574721506161588753717068331298696227340453335812838025275561870269148255670753034240.000000
6943134564985428420293231538661776519278448966669279805029681641112702042480248693486712745182667969921024.000000
-751648375556944340029059656952557383402075357159147765205235532760819613628821308702371182930195665387520.000000
-3105736690460023095185918784508606516039116031793459784651504875758192609617235438061149498271666588876800.000000
-377608396761573412742541069258421187714561721361875777958568654352823929575114779499992404505991814578176.000000
4420740746165781261105818239871541734036722073084484190781843593370422735635981573913854483267896844746752.000000
6416455422914118593552405663185648682142861062154488305405607229287675724061941003562886919452738963111936.000000
812272657489304109534155490500528354442419835361857990687534633208586425014423383461520991755714584117248.000000
1769330132007063637870469790635111309448593623156433008548166487318167690046959524704230227797271090561024.000000
3451894570954065004288900336402202417535003958041107749132722547309120931798635448416160939455371783700480.000000
-7111649995792482423214393430080701564250907880328432966502208625991645865310099868267116452775254135144448.000000
21128379949014028451642493082383929096528544020530679549178260707045416648640488250525190458626394950729728.000000
-4392459093702224570380604532985311608077613452872589955877850803456299235063087501169702659847131500642304.000000
5242930764589893644516069684853547636765729401450779743338586171949696155294812461487352524786321552572416.000000
447589653189875032325229219486335954635761794636533351872661223871630397518153531843274108775199173246976.000000
5822560554583008762472725591392220843374243727278032959954755753868795889238254661010074459910486190194688.000000
-980313979902994828763539031314760255043687401351452284768364923664550604337392211024426561762521155371008.000000
-3044962003502376066166351078544038906673833296389554080413765903865690847184483843430483863302652947333120.000000
-722249201689364323338433843654309670240050713279307692973523848973822147594381430549788676087200736083968.000000
-8610849273239836660280630941269170919333389993679679449023186505719374499793239249923538009482240286785536.000000
-6065527521234833812314716480306404581377364596313224492093858926259436746961387329272511706407029906079744.000000
4288596326923297537576204667834256338879608704184819507170393066598461969659368362829231612305802545594368.000000
-402619486246875939374791892302639833122507058559542258263773921072887680596573123118406268833905596432384.000000
-5783007979821039110658394948440199867313243825427272586155674626885010647263357931973735935155484892332032.000000
-6451550890283298362768897646874685032650387002093830962819536810750429312813711133589926277194977663516672.000000
-5272405833956046869548495589261279247033039634651551033518221996604721580092245081293355044238876552986624.000000
-1042578172598624055600319041301334792387214938611765302280845480715119654437439297823413866402584310317056.000000
-4505423008066654000357259594507900073641923411519751257957999248837878528478676454785906887742176215695360.000000
7919010665854586708408995420713529130999769306546056889294021766328530034368920254141523149259965831577600.000000
-641007651604298162691395575635542007128795282536353346334869441034606333549209989637826772414603521425408.000000
-1670890380135007842333170978279772181563627395793712182760339922074009447761424902714894513137930974789632.000000
-5463075039964967849526915353727199386466021322142579470901435125810540096399427845383195009615857465688064.000000
-4933942135149659330213607677648641371753391231188656818459003138275384229461074168117797699763753575251968.000000
1164403339700509747222293311211368236164749704863504356525560188132362560932194439588779706794517288976384.000000
-54772072392924462656985185286554406014571920804226895421270439467576538635395756042293089917651694649344.000000
-3152816621242013829698913103129488238883026055821879489891761106920976032629862313038270714072020396539904.000000
-5553873407725020654905734355285288743519493324256682043380833427307390959062801885601255573850939598045184.000000
-8311160982192117763752511943456693243213401467227507863279298855600951498163828678464504955013025471922176.000000
-5476649837620176767470208592992486217946227702964997255520406872841845364315946480565835569612911168978944.000000
-4467398998433768197748667280650264659546376412391433630030561532589036975119182103217906165039810983493632.000000
-3290573650939124836808973747645566606183485921326344951959111232902324251210295106833564411488444155428864.000000
1438705077276850247629371047466220163758096537831495356305671549147164185548240798178413405444181699067904.000000
50705793743572576934373152695321306959766425659359442890077087249820997280264664720409280511145637052416.000000
-1873053072071254323752578812491093039006883402526524768012072162682213365936315576109876329100699544584192.000000
436554351130290341253263822130947984367525328758762357553140130894455685072821167105804531819695105376256.000000
5149159695328980344147924547729891875794831952017969200959151650538469105183927504922171961351517417504768.000000
-12469044140977583621441135719734658706219072172165399419797018058281704377449730798297902750286888824733696.000000
-730558050971758890650457997007601617023252987619290622715359044681969601132231997769335923226695904002048.000000
-60069427005660208804186356652354323032609178525192276543451902155365415217054060270966175808355798351872.000000
325099488983564847900431317324213974765399190170376617767675540919458917649370501888728821656097778565120.000000
-5738389595291035886902462563641433211214031747635653087518528807816116147303001184705143001181369552338944.000000
-1604774788856869102943153911364167225933996690428981082408252340360205273881603321245439282936778684628992.000000
2636218181108838462037727781964022724865299573623504295129317531757379731971308764410431827127345665277952.000000
7192948013717840954017914141459437269538510342200443702454622758530277007586156378826543155070404252401664.000000
8539547029104625144476738978874426758906219341991192510629050653805173856422027202921613193145844276133888.000000
8975159940471609368195260860577492753284470291405087785416394530886651537856995303841704761131426943860736.000000
-6150825860504962053693455639047879721098704466726909491724114127356630775944888502657371063209976901140480.000000
-7153324848761158237512596662740471704013624996267914397326664539448222336504418900669362013918527383142400.000000
-4213378803362159097125317420755108479180892081873997388342357857705952815081370013526560859431501496844288.000000
8520068727498945532018437338301399749347205659711996388932971601805755843985806027243968444559059933200384.000000
-7047017596471595339934571872119294976340943799073425671881500609348279876992440611139354353592960737607680.000000
-7653205908957602701620972016406600275734820566912139506310730628741506662346631339075156583493414351273984.000000
10940650787858156567468500882872878603137027136357850209562354984983826297389316952087462677149624450416640.000000
-2990675645599947636891866575976617690619045148797002461000561853507228940996749713471586463276840853176320.000000
-1974410355743818957903625061840733988959591642531940481535513707971439571269173195119679557225856668532736.000000
16130385228171455481935819190679550971687600944160089371954526487938956253180967768035833496770436789174272.000000
-8522212033881227231105740232179666616518859728731046458020954512541184434368640204451399617412159974146048.000000
-8371140131491062230808326815153839992049263022823001978394461941252724355736312420082146003993960246149120.000000
-2803140174675641103922135502961928526543343760720585455171875828120125487028601616192209146819644414230528.000000
25760757071151648686743528080209032019456829367760183206983365545341127179153537374550869473889178171211776.000000
5415664020664954485319141016268291085756782898767018487838043245568453847414179200030102290381870081245184.000000
397507223533996015393964971922163758519128878528486266309540275441186723537880118914186046267859803308032.000000
-721320075600107027135772509592811061660123098069579797636984738795942912760104070279823566407526500007936.000000
-2022475088397048978005041898154114699133070421564386743274875145193881844800971640461160493117491801751552.000000
4606768287248145265640546660355556949304679265951619827021066741128029567372274396116434002094178741256192.000000
474021112725488414695241083657155742876426704060943404414265845912901438796353770228502187473288021671936.000000
-307055830036419287978517981587242004308032392875352589642662331167455436612568534769555836660560288546816.000000
-2045962193551183533709668633969236381375852423631779837569549061035346789028557460923647934665659921727488.000000
-6320868710037470135311352350102676381576275698720272847242607660831045370671062436696766830263511279468544.000000
1754021045885231248077520406764243891069237254605022684105952761108501858733066541029716055816361220243456.000000
-8762535252748591858969418264769844092596682585039910469490602282355958638160177733064066756278185854238720.000000
-796013670186405911861832256846835638137206029651316752301501897316920200410667075631132854483111391526912.000000
-6776578327150551144145705105513703925200538757877106946697191156118370165875339466296167863874824198684672.000000
-9309953231132542658772145289823272211404582389759377244523550214029007184146828188066540349574115881910272.000000
-1873621823578822262790399469192151458594332196163354923004668943527999726122007279466343791320202855055360.000000
3834923800464438469497093754315422738892447043254806099350628634603200977313931118715324823060737085669376.000000
-6464529143240764926197175839536820440684245054301840352978963121165219448043373101490679360106806766469120.000000
6055529461565522074703094135129105781514825966736989520390254894530241386212516496147860734885595766063104.000000
3017447784412781224567764191771016239573666684067709482299640501699125222680471094922647671105382588088320.000000
-5228810017795678578836968751983379821829372301655220067017100004525040572336612861368982001570990646099968.000000
9226816321242867552660977932781321719759595122016641446266549529418643947303788135311494718364512212221952.000000
11173117815170493223753751978876017339412083314504113306955184260843265063598492755777306628852593100587008.000000
10401450776847297592247801011240816023097284239351140356614612335961753693401472970059424322815069496803328.000000
1103893207987781926494643265115342272466214841865603665309008964831036843728548096760142251451279409676288.000000
-4402110510058506252435674572254135027657318795069672931261704297138251717016395877599683489231358004297728.000000
-1219139300723858770175583888433030524424322857600618481555667548666282313164970387654902731192365194674176.000000
-6898158382442264232198064054284820638295698127609463478110533761215464433869424957201397429059404240519168.000000
3134834832607986703052732131705773999250180460345024450073582087468170296451193770288409052958901829369856.000000
-6214027886621106305718971191661918859496926707656566888268510533792418141494417868138711959027898084491264.000000
-4196384902312306512088667121498174078244546749843636099205565330001899526217012077646554748382346458693632.000000
-370886631524587340813011580844473016126398794751445819915644893717687775898851898071120862411258089963520.000000
3804711460147070426870846141867566193942828619119995087952854292960071365289908218598658263020221600104448.000000
-7128221457089694908849604479560659500978110006291626932935174886572002450679523385634977486888504871878656.000000
-3913014465257173849926910349813897089814696169259517062611287458690052970540468036247542101536274038915072.000000
-5532430201703972573641705936230491284244737056457334967200010625680981561907646033691995182453125061541888.000000
-1395870132215829057751712973574253093952944578046160327998760539608351576333680947328646065505785872384000.000000
-6289997734828319398361536601711255521235331663130379019931302321211263276865055361638872241132266751787008.000000
7928174262461878387661663904610226638536816947211093029582660784415693028507047098737384021385380991336448.000000
-599134758781270051338936094080663956386471493266158045358571431665413566766307267005737183491676365127680.000000
795601812163081843019653289098538178142077014328449567205580496847741260126662304378360763953045315780608.000000
-4014183451736731396174453341984540886219350520416073715628913329405603485295925109552953179232748705939456.000000
-3560237007551613280913088573647073481183322343268746448182000321933110303998951909875568561233214866194432.000000
2297825895025447171163172483671852841474579261418980123212304064488942200904555408022797804790873877118976.000000
-6583746845107674833270042201479041121732971287959397301031383911017216145763396821138156789836072024539136.000000
-6716278514596144595551736670571133668309713558732235594355196622588060966958817489353527078612822191505408.000000
-8186281323088334534083802512869158313381368241613535175425821341558118824735108890328043186145515957911552.000000
-6984387075260276697664402247513452416348782150002010743552980181017378078558001077537223750007630541619200.000000
-2388245673336309323605776908592258373307451839982168662420351858771501845471846235515633640972952138678272.000000
7923882310959593806067703441828346638473138004659155248324153770407388633051569419978460207979014467354624.000000
800645925673283692165172417752495040238142238925743801738865833179661218086404953042330236036781342457856.000000
2469973039490554075387315998539341008826286180589166690077356525945045468000394303796245142181396042743808.000000
-5238577036929800340574332103788861145189440130969927297569288985421091364683046685476913766642401679507456.000000
1139525607260768173984213422235848417449120653835689333509078173229332517166597172083619647823911858470912.000000
5117138313261363429404247804006111073159674318471021298617639770204570489390272808976637023425394034868224.000000
781210983720148445284580252653527884355067922253940213113932136583809206877973207859543612122044959817728.000000
-916253875406195798904934971540117079594391546827490701463041466438052157315882792347747509182673643896832.000000
-3233871341539015825670043322888236685177669616842202657356841677184838730006168774272019591787529990307840.000000
5925279913733390658748955922962676072322066661764267536072557265377764315785653015358587698101052489334784.000000
101191055222599551722825371502765929440397832203152807835391090097680522164207038774867189115272023769088.000000
13950050092264134488324891509021207898018745217718562680764812966636109313370407023659353417093281906425856.000000
-944243839456469237624651324874088865306384183694346607591106156035601105952557515808782580297877570977792.000000
16469030876883412975352194234127187338359535306136067682304239539574762141952833290158652344044554142351360.000000
-6773016543286199813779010907764296762105040646078273158734591812003386443300806977991803579170405344083968.000000
14012394544719045815026624211249618310622754828107972605299297831074037840817507578851722465748399452848128.000000
52050793788099610658883693553431806033104242653942751317284863227681583602150235638455946094629034655744.000000
-6319035946803692646473142428637822392134499093839731209063728778803978525219463664419067683751199500140544.000000
-5373633856621201347257182457481100450902775303051171982645035216642069509805879668982463413695726722482176.000000
-4100488533179696891961227084021335715509529181274957768704971647581865751955387528026704279760741592989696.000000
22528289099501854796985467553046824313633988244375824410699279670073455098653760023137037749649987921248256.000000
-4764355299743403830035617985914808513387794143871127493242606402871454737808938444260661476900908098912256.000000
14294079990238699363372374986130862807354447372731808650247353610820169294389087098480612119153906238357504.000000
11113323144676506705438332630024302296883309181221379095707941497183603104252388643228632455611498566254592.000000
729517288755453336473614262554881815219050806848486987580582058081658558627674996245109157687678648451072.000000
-9460124301165113343377046972090251059499170916777941302445947079787828570085825057330558398440870812581888.000000
-3080336039760510990496169400746663821528767651617054476040800610270618509969990010264557201619712720502784.000000
-8884925024810979413252760503961124312537017439332987702998258321378391646399802795970181273563670859743232.000000
-35116393124172236007322409693348308111681427643950437788921593115751887899869941483571866351590263691935744.000000
2419120228721535183233363404576408816360645845030418254638236255469151374079812835144623747072403877920768.000000
14815816802299957418340335360861982511303420361408644739818763359312484574471271452947025708512977142939648.000000
-3473426815277018484482480447109782973030928663782606983315892670428867796333773253531507980346595441901568.000000
-15527318495179234682917176377838459055334308273711844004835046814640398659844359141054745964039962116489216.000000
-1999560313980500430339939778937777757901974399666827942878795209781566599913168111044424150143514781417472.000000
-1970495159457187839116220196038618579362096549504016354503489880298820380480516092726879200959412727447552.000000
1005455444298011387786395533866168757835398803167695170777421304610550425629161383850964189816549764235264.000000
-8540238988184565779790808305303406380667150163090819405825088028196376567886856739068157568183921669046272.000000
-3799691782884498077621235528833543509020188569388743570202018371473616817570826065429310737250610977964032.000000
1622618155412110235631566410225060507710446708390689019324683882542302014682658556731008171252507660517376.000000
5696744420453955019540593107573090068495670608750395529120255435509770798648484064384703035668760721620992.000000
-2960022582189080439420641329555903074109793404310292060869835404821016668003417631087841463971143344979968.000000
12774399816117864843887213504936526768640183966893614764711592003354032142379815638586616467453309924409344.000000
-2599687232595172555165916545060473596119604730959793122701309865238000883840454631838599280216110224375808.000000
11242313649102674949463629877634299763394169339750661954222721258297451678803138019465270070357411116351488.000000
-4516468503323583573355299602326937165968506197640779961931413757984958139588382058224849218791807660326912.000000
7086632616676376785582523302625832671761919738746890258205785519563441896108841404542076972512269773570048.000000
16952103948472567638045578886893235755791510256302991194566311690503847321489487956527746169135073771651072.000000
-6635419903131677144366108483212843184374808481059396121968140908819567864226981205863623719041669366022144.000000
-521899094632739749943055992865441853958584856296186787858341613924962259901382630711108611688325009375232.000000
3760210532289147499314750610861130473325471226202686624174566706915387651853465089635170175373204137181184.000000
4841587688936975818174174778561416088596487603496295020857720954289464729149595194812237142424256950304768.000000
-2873278044059885572346968685688274506824709395089059500782451869799881462158566473025358019431163324530688.000000
-21910366715374021105700696194761264381442173752242468701039185880403996898978881930341034562056017980424192.000000
-3718652033729983392735218525025513606383225816206345154778621089835116525970675903847715390128633245859840.000000
-4077896196446904382080145263609859951579945238589455565390419605746056637364280115761017934384828424126464.000000
-9259968894162138626009443745570251265145122223744085632536911828423173062025024942253524963400884034732032.000000
694178952833719650546760203281470331160710444051193239680344162819525863342104596623207079720375294099456.000000
-2079425451126809739406009522716876561436188292034151087083423235366997501445976674507109041677779356090368.000000
1589293312223806158535513582917851968084959649156478420022187932062538873355412163380485823458384896065536.000000
-4577007993465624653087285239643015872169497293973882622403232735657008215884918377602480872733178081574912.000000
-1189519878570373857551791668567074253825875778526980200644322173765478525127217509514535822069739907186688.000000
-975755937083111927099866320786673901646482795318307421843995880858311187482768480161578341719274703290368.000000
-8799332759683931784321119320835180626329499531256759234708566814688080151905296534073849320637008403496960.000000
2518161163091814153669415648811969774588429423714571031217669778690822852940559366112040741384020438286336.000000
9455360498497330628946269148310340856573439521876032303433583979924185129007404071517024904065216151552000.000000
-7971894183728550261577524507778723247449979374401671707361558206366106405955159906600291812569777520508928.000000
-4201715309094848387437140545480112298440977931629390541009248176139718583166122535350480915084985814220800.000000
-5645796695759350634056846141387524489118924903660052016435780055712617143833021133627638909626865795727360.000000
-3852209289384858963256250171194873224141369124783738062524280689466944608702882791816979017486710096265216.000000
2229815873632594578417775185350634560547812629220934654178656899181049365369707249317717093343043663167488.000000
9853704939460581322044887743383254551020831093518628207994572580184102400959839066777026741628060578086912.000000
5102894383593645399122766555720816794118834912414580317263185450190141706372569323856469396214800990601216.000000
-1484628586963984479398329480288512517548997106410910598072157208512171037666518164815093764460504730828800.000000
-1960597661185394749115382804480446441868899068140440358884948340813665390130648911241247859781084175663104.000000
986330314764171183929861380832242942121608226042871705594157018058973403591363253077310753859679947849728.000000
-5665323524959747889978571774320968882338321790919418302155874295780066055946209815483461829156033934655488.000000
-5167463856952314880731773577932454279732867782964660987633282759595151783234292160886949083014855489748992.000000
-716687664333182654539624233049062812733033167718594067163207426440854201388440015439549223669849714065408.000000
-721558786587864759591255266081530436655943917936509779877805563590356783240785364204066091258275881287680.000000
-2443299226068273675298851860930217340672723447335322942039349958009066263318080190595266251539845572722688.000000
-5357876618918156585217321449470497645007982353973459008437531450190757219727411953200529246069253220597760.000000
243625631822688696331767902936974025042312915791701504234975215415526480699311915552956775900487098564608.000000
-6906970855666720612093579818095171964678026337480869954127188663143390782793227434625446807445076780777472.000000
7194300642683466542578682518296360494360691170635258141629871239570555271493522829938045363904621223870464.000000
3832307892059320402630683024909638888239467199975361158061863010963915785051706813042231902806560466796544.000000
-10334230806342538251740435351730638381141761838019404802626176104312258994654395788742413170934298062094336.000000
-5631337141133144305218525772102520510102815602527192875802038977785001105304331544696114510397137758453760.000000
-3083218207835557897763308509517919972352946673565417159831864598956272798162133055933444490383468882034688.000000
2461203301360843396494163436058958135125035508842262544661703601131018169420773128555511910677271126474752.000000
-1123288774506871245735162507696070788037997945013555829236020323401004637424741566500027459741326824701952.000000
-3893004853868405433521859060600515321243387335515931395306190923735854994332529534331633579358961922998272.000000
9211121026202723701191676806857898296376863525506679328400794528227556444957142266294276768549928936931328.000000
-3752599480621233495191898136803715543619082997857247029245669216823507222189131956404566706987262472617984.000000
-7412643577957282623912573662122826169046938083292907510168386762948052226283879718475947911901567084658688.000000
-6219572650041660608956110076552790869758661442854418189013574012233057283627128510638950512179439256731648.000000
1041523548696967930692754767100436768900295775422288967356875316486311354740199009131456109035977875390464.000000
13875185597921004100981581501057360562153936987081482244826195010493754961400511348312163948005166665433088.000000
-15624854652107672975789542329208468529574233687978764972092665483219565549914060648295018610127773794041856.000000
-3857096226627772615750636314041016301499818580936024210739137778630830927478493472129700244336944189800448.000000
-9383789574577852669787148903213084809707958970490827219001129456877661858481326735676328941940662475948032.000000
3916632868251759165965237335438476894144493567127763011946021745443971989729381784535259543161444807737344.000000
-4206110514500616503250432105034341982073616948102536246799693968813398108136766310304356158093458529058816.000000
-1148986704582138140018462655864589865394016156961844604436117434939028591259657914906357755548264384430080.000000
-2509994642530272225483204923708871447115375739438065274095500945489072973123770401686271364730673545871360.000000
-3538228004743243989566383883006184058523976075371928689478670943856874883061793146540933790910314568482816.000000
-6630253125999789370611141079187222251542761015335976003952080784329165543218766139658559040189736276721664.000000
-8824759626393386407959776899676004395939979847479972440988220519371788945912960606300912551169801582542848.000000
-6764023908565501406000507325516481687431091273824871412603897760292123087131927812463548316090164811137024.000000
2786812133027853143453674574609015433237659512428124608897799522644853772047777336586166057831393776369664.000000
-2220920276742756630587979877438498159875196142960689382861482745707329227759912965062428765034195185565696.000000
7886667645366224378156785820035936330879679052996826034917637558274369206031960149328308471852283654569984.000000
8246758739623955386687535198456808633265917687010429207629361217168572022522220666287255885759321525452800.000000
-3854723387753663698604370511637183103828491031735307543854352556418473685840362987622010814205921454981120.000000
4788076223678868695152103815951226147740768199193149101130089134582341240664685713514037227954786334146560.000000
-4972558569528456162125128790138318897333806935852218769675223994436826630423443566129983062355915254530048.000000
-8901973267888344469155650559450173704584679663484316362431139088434887055370007480656142327686282002563072.000000
-8100769932566147564793861969729003531984326003841692174240600970762924589783126484391990351800347370979328.000000
-1176797227389587899768503722188121813303988178329455286974586835701964689125926296110652992835151749709824.000000
1778381607854889828178174001004857823338443632693114603035068582820541041696865758457306709837392040165376.000000
10681545263392928768976606510971884342650532821072415838447057322616487313262915474935664661385110184001536.000000
-5603201574085006366658547079942263554532428446376135526132251319416889829407071311667809692534856078065664.000000
5678025688426599550064891848989255241713891835797389672753908771076026311899545423504829065733172942077952.000000
-5384490782510277408040194893984123377797899917197150084788608590188727610032149750329547923774113832763392.000000
-3429574607713471100811620821837058286599578803484520926214210919716495603378924714779859797921188789878784.000000
-6228068097650416959995851230342802448600781247067919836561852214166743922593746732112251714201258901372928.000000
95400982078813204327272557191668354217443396539596377882006990052614377389230012671035880621833713614848.000000
-297748496803345682247525188548010212508144532146745324768607496939873569631410697281419371910422287351808.000000
-5801145082927932208447243444449330019324142146038482253943463754769314223280071591924143087736556544327680.000000
-1126652554842794176319498882311124389451601374575048563618068693180387103357295934049175030684375805067264.000000
-3821119443505174998561158975749109295826555128437222521792964251000599183352140324522576554408478018371584.000000
-3004734987980801891100724862400254782494280614872923979651676830972651192108681382940289216021067470995456.000000
2800921195859163864353917647504765799218342037714816986433845141199808196961737877262426339488641448935424.000000
4302754737957011613558992899931170859420085283296137488861086087086487000543925368467861213091784887894016.000000
-9098649570140972132755187048731063904382311475933145559416911628818075479789237205976666038863560508964864.000000
-974221498316112910136769070747930485423906804019440282377680754592215182425600878081659096392803490463744.000000
-1054230451284537745416597897985456455919348278521564477459248279251167286252603078414559388876539256897536.000000
-158079540811673036296361934936916830777909486909527045452840164102345603099385834821853196505113767706624.000000
101474442041355561870262846874019797840059884796219497505930493848272582040339657437924948337520875143168.000000
-2872124418389940920966059485936902027564313083286539570847325137659968923724072192058602761354416884809728.000000
-6527608951093760136227870198882005645897967497330164482695069082042414158506872766641627206995150393835520.000000
3514942271541600370235219474000563706557445260484007130597304691986884732024425426393892105062634926112768.000000
3546341073923207040825588633059752390545223886941841484601077106498902137232149230557530121126136764170240.000000
892352663611543789850638783327366326160821376538241971962842779721583545662947161661234755225010065899520.000000
-7573728728486336703223746679854455330376228432713526287265108352350496059081418968047571262224237179437056.000000
-3187767950012795149780982103494187982896977625289849570702667912011745758458379728615452672554507255676928.000000
6752053753151151158568731281930414348150881380465292167991874747173815693098926253743865823037609914400768.000000
3959819887920636478223847154173639300615938659297222568543083256044851109013284812905190915207668156071936.000000
-2688421176124421299842331438563112572198226525856667045787252111927605910502487628073460977518342811156480.000000
-4947506814241532443460622690805290944002837401414545938909830139239193456465879002667882194027123895697408.000000
-10049081472218889931340446470974827550560241508093959238226904425909428956390077425292988676912875407671296.000000
-3350158427512783437919707116734643352807423184175297565154477775240750592492934001830315804706250141204480.000000
12843679760958985020201434094233952059785857475813148767282338207459973509575947543336329848764407104929792.000000
-5236434673005886506235988252058560762184441860711389197963701109632809574336892786052409327069007997566976.000000
12627866703062782035164255704514642722967983089245866732782860366551691473646357464308598362911801344000000.000000
12587599984904794890627714769920733724716909555681081781312282793213579490470583751733452491271179195121664.000000
-3367283558685678389864685217010942831126921931032438691017437746775533653210218367142448678619503122186240.000000
9683677338209243511480652166897102721814765096726092755849480839810376603424804295157425540483909018451968.000000
6943058175298036869119805092213356666348870645146778110527270365920317371603641930262922309789182465146880.000000
-4140599624897222963329687491896950487323855879257488158119619643340901837499492529860044401171879983841280.000000
3648561620930899066685975368847498701835883961456653888267102718138216717812820001680273823129904141565952.000000
30740636762828144544531300161968277730523666962557013046656120605440819799547270511977910917378345009152.000000
-8126902808363589638748415949381090887481721920961777384902970974328055740023547653002231119568234814111744.000000
-1145131739121349693933935682673941282125333246383934508179309417432768173060163865637272137484469264187392.000000
-15350659449902286811366210827478895473346729886545406071971569071581667761402333407790989094708143756148736.000000
-2627496643661377504657469031509519756098061288702750757853611496528273908666675792946840163460673263632384.000000
-8932516052788075768512742227167204921515474667829453369279990920215958516415596247392493840088119258382336.000000
1489142248348334881688784926812990962730550726384112575690013302536251777208962503009359192064848423813120.000000
-2153118705158711138841000907078797328142705695672325207612663062734245404436252583150569236288989340631040.000000
4012354580352415535236431428427064749882973609985664459212860217408667026374768502858116028810283274207232.000000
-11080896883227197379454881462693085617563761420341143308007612522151390211722404309562916266633847644356608.000000
-4511124099510145214003493474473805661415065166548316055573493823537572768175965045436117755030407502364672.000000
6665060635564001116609258701391162271575128512036302225112292439122460826251203394763069723450196266844160.000000
-3450515023195791314138024756155945493144471759306857094052478805772912276276542236120264192203026677628928.000000
8217208354292865124866104867542894821802204865931715019733251043864164922107138565647198816492390159745024.000000
3792552360174998513370097968161708836306622141133406659776336912653064438570393338959860466595143004192768.000000
-2905904041833412659621844486013533235406282178742680080710515309447957018987172150200402347817293234307072.000000
-2090095784980028738625349091896343653942378296245550910894311799470451728088918060656188606004384602521600.000000
-17138052030254846012033757079362793508984064892846880590339979703529595357885214197139547313705482348134400.000000
7631665034646209506392695863853836947457604619843964080146373519161662433138748710522640223361744238542848.000000
14940127026625425531096468472185677506303498138370697001550217822877759348032103863434767733647926632644608.000000
10622354121418886678635948068938893439629681028901098685501158943446640832856358733488407728966142114398208.000000
9920815586611195183569282481159206472283343813748622242076783409469346541163773549338492340801938978242560.000000
2353040168195529041822235839483563837488451512035221666455935486473505098371883238986427910758319297396736.000000
-1007692397513047903623001360842050251699208766038699587570550504705874400138525924217415615722571111071744.000000
-4178103240190757953682539930321982991346282379889214063210544599167457548902381087339344653264202605002752.000000
-9497256172610855893708478429577022718509637549547026898898350541245667833375032822802837490238410058629120.000000
7301824025632889045337503334579429392522177073599456405174360496006965656341900449991346657398383232155648.000000
5807575123257499575170095421436758412422829031322164355396063900468174204739841317897700919572203231510528.000000
-10509334230244856856539355161226164608016505804172203503535277394355322692140248604777145950288391620788224.000000
-133792560527324588150684601596484482317281887446220959320422976253113391987882286207338868204626662916096.000000
-3351486653495289161480318999650284682449980857463164570484635896707318964519437191575061672682928316874752.000000
4011345137882404534504169928777433577225737616795424066132663742524856011087230030053051867926044168159232.000000
-78288508902712946762440103279103677426850031923126992888295852570841038056722579205643428095727755067392.000000
-217128786179619932366244501794240265463717895281106773352084762324292853644198794045744976093773706559488.000000
136159177778833057638179151421337197471806932268369181519678794928259910193160764294158599418887020740608.000000
-8950663367330665570801888490688183998605545473661244073097860398908116247668534032468525466412770954051584.000000
4641679023602171099369357246645817077514908695453637696075346353671008064329103535181093275295913470853120.000000
-5663719848695327338149963930662668908179314427004027214653231268076734461673774851273745850856401300094976.000000
-4625535009522890680059792068454843303698012954768103231902465680448687965563704199440468457815168901971968.000000
-1763493143648683314472899425193820630899845199903227319658677491819985410787295149171672150562209261420544.000000
-987348071146418809744910349645311576703536905080349908374361621668722037112128091046591717130862627651584.000000
-5186021313891597244203996498361017205774236619591711559630008441083952489256772364165756037497773067599872.000000
5480056164344514423992224911487226936655213735373866999960414907033131491708083416342630385609649126637568.000000
163433007364549465561107782777957331456869877367395214307555921526918977831501854587152773908603458289664.000000
-3216987806069127736427790524449183868712945541372005005195359249089852479044724981861006052207806728110080.000000
3822701018737320048595905423361347211476254487871727228033840795972404565160963665569548954149060591222784.000000
3355862683325179992398222968629335221104372269624516988190211242324517099506512222766391863910995251429376.000000
-5385182539612129418825344220934817045233413977964563368411035021887864922282791046161001659174164765868032.000000
-6667162475665448283981827287679214731970451875302990555871666568218451109945252679806501712004198573277184.000000
3484628549780525222298802907477734738786411575461492919754587392589086000364721333441304890366055910735872.000000
-5503356106551957807537428443165790229432424664261084058069922901505069036807940453321810853016147610042368.000000
6525407523887816813112492676056980300340687824363323073022525772085463399059091576561895050374097120788480.000000
13827573290814839734660977264113794261151510460982202449423466526730214073721819730464659942019184329752576.000000
16109865769295442655352275163968770382429407391311360349636274766647233965588410431143745729682352902242304.000000
-3098287542434962588248718199311801247365313754302295365420477536099051387312473841117428545144165041700864.000000
-3401271296897100067869911782083881074974055796099704241732315933145266169907728051872865918488873097232384.000000
-3417685707761170975110693431577535461051338759447179058663453820362665916598772554552583252929190486343680.000000
-14340595070763433521272218237073921420126494182590420417632356320084312652601206730746435051076265554477056.000000
-495814385057446029836701586121851119395709396386364048217455968593339899160988267001869795329840259268608.000000
-6657549786045673842173857952402879323084159134346682515175333107264181846220629790641240697417480034844672.000000
-627477154747006128670404437781821582567936087768858822095207903376560230374292766639071412401041840275456.000000
2689028653234550356620010185665556250452103529057096744974418939024771024712120491057215367821949732388864.000000
-6816386211521539207172977427345666913130406315294485339651070704516152334594543836609018264637473401339904.000000
-3693656454570789149857974674397661861947260714859773438491985390894866035901319008946097404623000015208448.000000
-13355418067898657825511891767223092854189396869471607701742404046750884087752992883630986901266056739815424.000000
-13387301426565791590813489678045465887224917875938515409447032687364522649736637858567857470508408825184256.000000
-7443773910362604157841901285558636733544918041045637368557783066286863388214693296753976744599729591025664.000000
4628063579292290492788412508931082575211718196324975396789895398279099577076075574117303224849587444383744.000000
-3754148906495931359551066291974042327483576992543467554977998121013588939593390779813578897732060391145472.000000
-19342460126877381006542394172700749452696967487465637750510087689648837894678663671562404453703447740416.000000
-3563662901998553704007078796101944705796090728774345119599913430730504403894312215640789447125792532201472.000000
-2577143077240219355811071058400361320866708810902494703512624824571716187950705166972695207470501814337536.000000
5892569293438683929271351169060869593165511789200914300474128759284182500922124492980717657638347080728576.000000
-3525895792522843053899216977054397254439152296320393309353064791642699408775700825877186193039601822597120.000000
-4168370651886614237398354848764336338867854255140165035834341504963322025650190307268410887240548964368384.000000
14375697452059651514472766013009658467507638901703143641101963066733317390252332393357934420524370231296.000000
-5748829851428480737634544024759651563125046990942014551425214451309256642094887621737254001253490955911168.000000
-3600203705060306640637523021692462738521157974169319133446270527888459628759977718964303515426431680118784.000000
-4802940586012808182417162350033473649128074525059302759400718466127279892898642808181389441435079851114496.000000
7699658330945450284905599474985994797244269902380391936262933949631451626292487145157012531167951717400576.000000
5776775313169944014908089349237862532229666292934103453138611905014020821664202805639515623187235817390080.000000
-3707534350857713008981173003478833080883570907922257450269051331412479992808604438275165063386124334923776.000000
-11224474201696273058353056236096802246188035475616750711850385843044640290811584518073927901531187271696384.000000
7129211432173728119068913289386853195367626900852382222036437778262308425127273058897584121610381717143552.000000
-12103317084018853799425449914983607421691834207312264727219970640466763267544740280014348522417666553544704.000000
9930735082104167367752055694339930117991485980039323204567618941407766536802292642408913582235775318097920.000000
8401154376604366253480595161537180505610936456146770027833540971362522943989687710567704132507391401918464.000000
924918283497357188239860458130935582439579778018569889782586431773996830611066574677145302379110372212736.000000
-1834050134495302041525069387033848493313909607897233905743984024621055925404254924138868882470592835485696.000000
-4633471513010469336738110299207052679398322979133977505319386293453728532088894757790165164551719798964224.000000
-2930252446189333459654469169556673207131400077785242180738343765971877527738741628429779672711238187483136.000000
-60782019931354175559710882752893333260839159445015523385729647945804056358107152731393364425566740021248.000000
708524831605512163354854479130517964012927188012603360319589899386742836682068115742387339639018290675712.000000
-4534225296759840410053394455969230679114743006355412069297011922043235602957847326599267657397042931564544.000000
-7539736839946942248611962177050733490425201747027091741750894199939828793113062156932283070282814397087744.000000
-9703948434782381329358765873281929605635365592823591663603831746407276222935628613628125031673054839701504.000000
-2309678085390598181425298073686067351688848507553172402068558556625512370258154175682717455010432926351360.000000
-16371005412270164831317298361237467528783624817466683009706672316801107476794257287491674974030552176263168.000000
-4532687519866901957314802095816312700352000049672283197865883021199938011087810531374182924369797786370048.000000
-1210271496064705205030475456042847384786088530281816046816379385105998153732760832259595683643880443478016.000000
-1448435775558572443917065459818960573104694821405719701682914850953346567909774625196635918182964392886272.000000
1241797915298283852706545803701075433191209972197443380700009494495106435541462755343998873114076409495552.000000
-1113739279854827839005394609839187751457301062367228399336883973115297812355494902729734591454806928261120.000000
2890580316052649241229135499252014192429376320125249120813110880161031013245840262130701183656264661467136.000000
3760880046532577302872596523864392262042893851259048357516293981631245420549459757085973671640000265977856.000000
-3550458201920894129407552416417179063983587263871555030837575015848326483713621268230188868878195348209664.000000
-5520436645897569893962760783255611362984056047359536267466303706068851502433900902132777641525774527758336.000000
726190291848136846894692715564217567754023588752281962270010878529675002344796888003182759057488179363840.000000
10409292603559214815841156762091926780737785797091218605244786535671004851465837341515072257002338202419200.000000
-4012677585839821514517293133921221492340052914340645968609206443232725051390068948820986404202390990356480.000000
5903480697255412622448149202579081388966985618282044590930550589749419514634066349008548532631675863040.000000
1584091450226472243941191658365783441018622688513829362772745064054193387692209093647884623257188819795968.000000
-16601475423605476198817039834548628832020255022244358086113748422499663727283963989584594723988082649989120.000000
20426214787229567135284570108299433702801600872882182299708034221281268712643434500527920798463396881104896.000000
-3851188384178539256444172820415118883861336912051974833384763375326561970737066793062199418993417906028544.000000
3832671719575480594314402012700735389025343043677120331953055317929736899244722782595376767507162262929408.000000
16175970366369130456113971616530759283999243703722460479776892826578042982331504616035412344029767754842112.000000
2611258983503358264864728115754498466713650413302026652030408667895903039594843072489143346399263569477632.000000
-1721427622796205824013790075544076027340833526112130209431811225384977898360129349984827435406463468568576.000000
-2825364222215802535933092574300395027368687344033102355646728306063061803800230580793342590072983528669184.000000
-11428963725865226325333680527938411355652624448017516384192738037581042951016190922826677821972361431220224.000000
-3251773508180635787092563188692405510762282867506494681145783081403728601801453985622108061117381267685376.000000
6032822462369704253092667596987994317403808688256985092551935926761513868778729677463863663718300655812608.000000
-6231036490721373947889083489829984969007189750005610048432574270030086506537301643722668316903633332469760.000000
5141965261151043374290144825809943211571819684477432301232399750253830807607274977513462635026090072997888.000000
-9072878858653116528258584713600963446416217315823205236841337597151425510920433837048355624690826992418816.000000
-3816519853845936237250449262607159027101986403056272841835593868127753338123241807415904865655500321062912.000000
10770624637783020709283738174724996944636477594238911524188231481280237248640577785799186844101488811180032.000000
447989997495526443847056271331070405791774489975923412121344802827389984350549104384125740066772084588544.000000
-5560190395561661745418246919710217448670812245498823640493077548056847939326722197104842687315895287545856.000000
-2627640384738821464968066690354880181097441190247161479891801922199515264261920889043170668652110853177344.000000
-21671025533550431243591237628285094278633914008798214345348383334775430241509391758351460792964172490997760.000000
-7389010781581892389007942280813136616546787914235950623683635280726152881424211793798747727149695577882624.000000
-304297745896223602660517742055303107337579975444146678395307022623497048791136883557785476180193744781312.000000
-579373042118304247078234386275251155419034281272962597686640975897894756295569860944094188231869539024896.000000
758007583530323024708404382907366637761280579518620940076524372636521147588182434993185617040593777590272.000000
-7218385946019536589405033942796058608321452430606017680886753895537824373497402262183433137346046442078208.000000
4770570318546882574532126541286385893662791456142309829454383208032647640977953896002451828132465440980992.000000
-3496356373614229377580082894272616281972141116960241087408264743663611170186178386599996212993957709217792.000000
3221366001751196298324849238281787052118774399876399125023406605900475206085822655478572433513302196224000.000000
355289149753240079345615045065699127429958324282710222943269350604181907992519285475967570959629566345216.000000
-9915946819727401407844570090443338744152245400324464141896544886166147273119711272612673119394093235961856.000000
4845339714730019651022346193326452959451391892158137764001427378357490567382530662793018135157498911391744.000000
629579076446078897719355078615575307846047120852310567978330667966717695812197973059404319210065759305728.000000
4083512422432549860189999679954737202558274543089493254943231775484210965877054577188839110569255157891072.000000
-7902626727149177059745256650156181103883854798128072568935034761824986456602249892829094845747374069907456.000000
-999714898087436562855080325775840566459835885603370701158080372502850565758858275889938159520898862809088.000000
-1603999342918078471432223460925490693514464428209466380525724207103441439505699700439829081276493183582208.000000
-4512533287549388513947959352123525144901139314719598991383288548045305748077659487332839187058289480302592.000000
-728828921709892679206262660948804930840091113247989216579629710612693071441390203946703548125926649757696.000000
-4010080048713666157394775714470804171885525793665361964881133864616028096247744477274258360990412241371136.000000
-2309075580433858043605166624717521097852381493946669949069986686867415950569912105555373972072310266396672.000000
10983378307776125552964785817238662810212260683625341464051926021775434618679046349437184007837459475857408.000000
-5917454178484146413443310183128297398095888234292667563230337072952195347500492967336369387414483265126400.000000
-359348059741134668091233507765056275660395972326716983518728036107090425700241338713431684350443136221184.000000
-419919918624380237798488568498787181828212554654444989950055042966858083182670234450238469723621762793472.000000
-10123621569278552948743396293130387196948944268943604763952964764643751846598120202872984435322745306218496.000000
-7178909575940068803919000832400914077289452560031017589495941054102372741621334068836444371951838512021504.000000
5046743220291358933550717715762038960263502793809277517678742393708328435040100409270270770079577988399104.000000
-3201073290534834619002741500129571079831661505636244571218919473082044312184292027117290920729074410192896.000000
-2588466319439828050800552566723958430976743925319037960178193387192280419807846005255548092852779182194688.000000
-234048320712465437896571785032724054436468841018715224676952716590952530873738158986654076118814118903808.000000
-10381121521212086857715019833072036321242549712270152844280770936287586980637918435557420995754298452213760.000000
2856654102694813577076145115640993845358980939023594706801513616306546140091755411614104502301379925114880.000000
-6986813746630530903141713937199981495566824169853323999598521814506381444153254369234685944710630226264064.000000
-2887560046185919725729238698078127227203892157252616964319764731771416252601389182146406553912476025487360.000000
27115216720207330578793090611134582073462411231685320455341570798703321903914720685725083099672990130896896.000000
-8149022621724235104522413638351664935195365649654816346877668178467244058659020466360651099493210840367104.000000
4327913689627604732331403805188904138515173976998318228586783513936894969698271081334961678790487625957376.000000
4912837436693288308384945265626037500446068022372969511136564514358518770889257208886514682684937672327168.000000
-1810108402998483430676659370441376125208616703947569021304975037393466282889291353868292547444826244644864.000000
5187716737059986690931313330466378871712047099136758109388943613243875861235212640605267140050997603205120.000000
-7607163487435959917306174150522577457916180662843603461458094249766366955982452827041691670638812144336896.000000
6997231058720442087910518869810504657902491274712720096904359484435668392105724434345403980560718148665344.000000
-3245840100802044866931083006868479561794865382415709382563020705765642892270987534399298805773185247608832.000000
-6394698096485365771630367175260307781018822546509256707135622443822190015553565247291215844400765507469312.000000
6791217991004009958530374585592180670083573640599301076724638207144506996544277577778371004374402428043264.000000
10013070949994404496463332094998729678373906649593764265036976664827361743901141951508918268643993219760128.000000
-16191754179255329138378148764039824989851546486078291530598410158626344619712867038321443679807447523917824.000000
-4236310557229642267557191363082391852514628391806423294848218325459712567305914958123477642065579251597312.000000
-3982459521815331449128660077577167587305724397261841974105616305489846420623886501225989181465979837743104.000000
10112664724668773685471307740335566416825357526166978370248400689014730891277668188182694614125584324755456.000000
-6231981888738529754863935744778669414202650032727998482406899051520128940865010740576541669297611352309760.000000
1174883958186159142285085373232045970105394501375711437118980923953309468972854181460228926343765297201152.000000
-3442808077442463629714732633936102592613817664962354211027978294091126026135095282767430324064686895529984.000000
671877982662439175849134327633026554521169063248473281366738006136401272449539355881704262237592930484224.000000
13229124677778343808577463877370956520034791792463203116358237843719367373159780159016967658847550157357056.000000
-3830140892741683693759710422068703405605974685468718753082689043772733688628202758299061787854057536225280.000000
-13583751598041280409519761625759735590392853742339069321097436609242739110715890589676327135670726505267200.000000
-2757003876138334379642057009168243441533997090767639557657992231422517974158447480348475674091712539525120.000000
-3709042899946177627342175356164233263894265107575402320177937353949171260803784564574913885214006466052096.000000
-1185287165765773118705104852775977743429349249234617246259071893709985322904997532685534900070045504765952.000000
8375696804446634763886458515811525697133399574037704543826287337974388102787782079263416416088220332195840.000000
-2716623875076811444985536028855178688675182327941985196979880934192260128943434012369240059408634326548480.000000
6360349253188278854732089806361934365496063720339135048862165422994896611309088870357896965371383248846848.000000
-13421977308498236335822372345591498829181725293019512692684716412391102381810952432615168629586205192749056.000000
-20100963310872560353574228929506889828036355717109041400246560238117705717254248730853940615007891445776384.000000
-9780337800880526469754545286034439065680165485523689600638840490876099297662005631349699959225220824301568.000000
-2949764767387045808336937682670185397912476744192917833246288495365076380219114787825838577516410604355584.000000
11453279112285052956973099370009840842073712830904476171196444743797165984991533086060955763611639427891200.000000
-2996771394694427880941072863354718538659922117127842221170612965963633543095295850122930278442154885906432.000000
-15556562679099447175739073859233953786073312566302303456141631537817181226408228666576325728179381583478784.000000
-7655419492133096582243424050666543233329335415538571306775831065236398570249157634690686607272831122145280.000000
-3960929433387062458942626960944437348667771962490328776214656465893300545886776777929292115063787799707648.000000
-225583781068923428702337443156695941181146004867445129015986234568517362062688719958033169952724062568448.000000
-3251365650253307432617009575827596383884553478546261272483258389142525203089847970925747756725388483493888.000000
6542296270163520849190613177158945403613635155933142487853352353976388580401515264481727325992679288864768.000000
-2860040198104144792464876036906900295972668750752867238635443530879936864773851610136561632074513468358656.000000
8050346031478448989933764585737010773036968860292510867976680716530361078053863607563407721165665949712384.000000
821937708940925958527779273495068896629502896766860036014312514946370979355388677813141982013115041054720.000000
-7087754645812973381657454230911817967436942051768731363082763631586884302274323139171069951791985204396032.000000
-6395950108997947306402632164685357705604151317133569895213472252015286954158840266346461637289114125467648.000000
-1540275144512614293931591974577016328312184770252514895680295271429811543937604778647661458303256623054848.000000
-3543660520252634498977422330584673964234018918697423393501635162021583558527568516069138107070174933811200.000000
-3307556340205784847826372609034907732710133843872414263309240900290837546947843587402391111468784572956672.000000
-1056352136311065386203795053952897365901183597220479182230104341836873597628736347920565544729586639568896.000000
-5815297772711849648783368826181743656404663332958058811049007860769981726849443717140149414576623875784704.000000
-5902897622461858268487296670030241119739811811671887935224763707362498208415589240556764848711043186163712.000000
-930816448810261265239706299100748988626473594247522933138201819476642483638032402247058293475961259163648.000000
1755865391479243255616997439510340249578825228173066259451705247166984712430767878948421273048940386713600.000000
682191318940284431936365812695001471143717258524876010634644692072827236325786092356152145392243352535040.000000
2298302022609600988893659728887860242521600113893722061923583941971421444692770243141209790031239875395584.000000
630512070424441733375563739067199703786797998296878178619151049817525091922681349279375936460298379067392.000000
-3610130385604321718504439847339910807736794406082958889940165356721077301802105045754817937157938950963200.000000
-9920006168148161497036897646437542883495520674290485508425049384627943210536584466711859185640468201340928.000000
-11009928012112037081192810131193978850800554290991824665512475534114945141522260279180408022415185631248384.000000
-3084279355900678627348816076835531676700193907701104037198573755253189565838474290705367845479789115736064.000000
-15665637635650899896787819443137948722700895859347199885828842033546939034674180854337823978702427280900096.000000
-5001442561148220620762381557276821038608525216485455896406035762057897236029492591543921178891648948502528.000000
787217418911292458215722835587150898209766342998321798715732109397473629738734323326680197595914882252800.000000
-1352681675559852474167499234837874655025587454003523474653159908369193414607290752448458712913578853138432.000000
-6578029348011314752194021044823412253868937622892921860820484313530296676834736972057328295184083531595776.000000
-3046129403914000218019684055555810994265342677785319736019879120105509522205273125182130199206031161032704.000000
3085441183285173962708563994708754228563080604190941957809601143114956303338198669214748319138417362337792.000000
-5421330627713065128821793865211798979648982407458187972124851525841250802958719541317780564477505687257088.000000
236809864174855335872107374497723059405874622132586163054800793171471339669785170102299215347517979885568.000000
-8220762771847013639232054153548138276465010613352023141561984585734081211704299549444724526076187063091200.000000
107617364995514693717821855392694201844158953034329577088596852550645847681518157871460505049067004362752.000000
-3022892001704268790888015747075990812846189880885725080154436958772304999121578555348449447361039086649344.000000
-6182403172097124537783302622829358880559060344702241169366863725178537144844609461785684307770842093191168.000000
-14766140173653091769677532806474911539503273587005768080700226180193324492808674008551388803630550313074688.000000
3449859458062864613820526531061873869045142186808824047151508341675440927515705785161967978150933125136384.000000
-1786995511399967862700546751608632205922026029905228627682214364406900195955422379428445442731513628065792.000000
-5679690353541910078175433704543139675065754745991025419229703416152462442011273477713053311282497087078400.000000
-1626357051728463387666603025097133530572003849279608826375077076375977886755149414878067845786767659630592.000000
565030784735031080136063385234756307092199591652743922784269434557183458022761441422969738555639474421760.000000
-21816173257255476991489133733938078088966125210250475948015682683983875286423472872722190397623502360281088.000000
-1012126133631009289601270390924507035070858221411030190318884262343366159887807343449421667350671760818176.000000
-7634816338449084193192127685525680705604267080172434531564849632435957056913976295786149065175693927645184.000000
6067213797723334719419265198201804924049049236495204186951798993773714249519726936674231192482290042142720.000000
-7581480732808600512978599019003397318228603675711799955701842716960770001512971589067421896282687649349632.000000
-2223153427135714698219914875822459699787378874096249869581291966700268248920998880499646971486034787827712.000000
-2176468985941888130438288874351741919624272820543427271301631177491352970115999751624512244872213868576768.000000
-17102490395338460822163697356044552268270714162193721688831864072580769785626974061438458063398008302600192.000000
-3217260282052981076377292986383189232919392667964918120358111513247690104657453051702512962169555382173696.000000
-10997807176928637022314484346136110053208348537098181417943681257287682739511795279812532531033704922873856.000000
-5159197623364947457739156223180810801325494784002276616151160278499435446342434426459697650671578230292480.000000
8071964654801717405601480423795453292158567370880443261920043430059852331766005549755292990053188798251008.000000
-14077014448918534750334827221878758537498017580027810049996282948273681770243450781928486452897800781824.000000
-19793006305134114299730396157355477432164340169154676164186511515935266266461460056325097537512702956535808.000000
-10990815490199222024466256206630231457164558203731430494812695666092887827996286569373908455864289227440128.000000
-7094856071437947852789592344029111624960920411627828276031869414709232784514973149520745471357888933920768.000000
1549170108732459919332190278248646062750753118540908032658870507625607863690362279960440526321460539555840.000000
-2136178007300708540306303837684024851640509632846589261102907739257010080916212052112061699403185645420544.000000
-5570459651255498401652987172776499645951707797389518006401370539069473006910081067530210667040202714775552.000000
-633044830828422767575552284568412972047158534220364636568563925611816190495728747250057151491047207993344.000000
-9239570798021995784963234595534778116350493956305330224282186139535370969567655639598430235963710450434048.000000
-1844526470917512209501152864358043356169191597892650383465359341210818467304052268942228007988192731987968.000000
993052356395009596723349352809675887141559283766026377051338668136756686424985178059001668631821797031936.000000
-7108457138136731026455108528219856972024182589603603929970506268022777002370892703179547808060561621516288.000000
2345446337575229553394258820822678698032006168810395365922057426819704666958290871990973756525970972475392.000000
-14532036874282501922574255728291254358185077133712652899091614312815857973313747730833422444006092683870208.000000
-8405695957249869985165770502349231665144192326823571248738052153633165847878672653351372641634657708802048.000000
1487161055069847843114101863165822206722708026458877656969847456368990051374283416312466698109895793704960.000000
4953593263707922446768449323068683964174406783030399574614139569772734918708978903073715560812884147568640.000000
-8272140449293257474637999809030867487519592218271946306858012868254358582581046435325060223647501074300928.000000
-9489383142247170204581473489187037547854492582931499269845769437093746225209443183385707781280909779533824.000000
-1144919623753754279324581290476335439659170584086033942133248995692171039959613515757969339431617260683264.000000
-8405036198030325654864108195359866440007059606835281730255011925723553534143377601061019589038264027185152.000000
-6011689937795298276428246844641854743826637973911039332586320692690342228844387245249876809353502247616512.000000
-15714426983101351039452259463493472890322902802659909403748099816423767702120752799644648690402314457972736.000000
966753107765578706399783098155705301615388518412260324421728912861428136506611395468699626695391260442624.000000
3379341394210256767838483181818369485377815364932981914281907647773989704618879879952854647629394653216768.000000
2005014915046524800773493958776368266660256221984869458879926773086674013338202649897573040441319944617984.000000
-863399747406657742105314676352048129692841366321199479419534067997984101301086249304022895143891679313920.000000
-969529567387976168585159113403690133037605631088419381377873442082428846083096909738773487434126220853248.000000
-6893419802196294277165480528183109308464355096105431711735019231606133989364722072234275269818526088560640.000000
-12650121770215913550367049509853893653540910808326384419238263099812757716708702746301757202021513030533120.000000
899770414779972788892501902378619430630989771874493922222561369635365155389253778806326740123676991029248.000000
-2816698925911855996345284489227669782502289512717055767770976676793067100273110868720135421667625987473408.000000
-2790467420046652392164926638639208606861543961904367561751714024014885956100591805286253319108394959765504.000000
275679081005909379482857432880317780672809733202639364505868643841913823125145172269522936488700541927424.000000
-12473028450111256586735790900380833702116558790031650236779804535912720226192731417433789988170810397818880.000000
-6475097587275789729617957010885252048614358751858539543612614829192300010355709982688474504295839462064128.000000
2314354764615958505342923639991064444428800087818590581773656058866476415598416828614112712897078216359936.000000
-4474227187678242496376093606039977761058996698090014842676701999180087923187960614521826707538699989549056.000000
-3012541416506965798420610594630701856442355314996196304932740857355196337066613065787598760326101838331904.000000
-13849093803184150016682961607246324445883580637086322985802151630261799388511902949525546479199458720481280.000000
6174712178119556178963477579698368717607978408098391430353343985891110051019597759030186829623262380556288.000000
-3358765250432755082883882015578173525644743552702019704049521538192867525456812024152857776136107539300352.000000
-1438581306020195094495026776200159931575274540117850942320840883095622057291105258684727082197052528001024.000000
-21099177662035215408457689012146672581781167733013524043462919143846019104665159680688819445882412842614784.000000
2880240407100372543325948491192813964527607640635144801076315768384885976965224304026348445576822609936384.000000
1422450406895587593666909012189396736643977390993747281740077488456047819046350034457469843719910582124544.000000
-6379301753707958273251315335108834790643169365615388267864226851225632528265336921390022213938752671186944.000000
-4431302400537294742780582075198293799794269164102725455461142582512494761841122941425519891283519125585920.000000
-7205724437184287649483396156100139813295570913803788481131321689281061529529865430851453765797054712381440.000000
3459709908218613432798999004313675662056153697506013567887952150932141431966196078289634077852118860955648.000000
5739411037488602783204228502306648728760445616453288839681923964233603855499687274256084797746490200031232.000000
-4376017380153142679902065070632015180008953527131944363864646194107012560211209330032591081979892079788032.000000
-10773996541710420489329752264498044088254920448608702892797708070513849470195002884058553263532812919635968.000000
-16612892687220040680827416457621919522660427048630631261438827896109259625694032181511974253671344509026304.000000
-812730231169638135964301448965473957925581033139552484402483489026742808156744518531939705525924947558400.000000
-11033407583274229143512754913286058888840926922663639105147152879841153701822605299989133783351621100503040.000000
6625042438626908267804675681025146454310623489444921202382206421868499450983095264369481221716883613417472.000000
-3006309837292996362741862192568237288729659588276905426867615835719189523511796362103065783023850626220032.000000
-3746453661198785866896964945984207722146985369150440582474597278956207427380711711817187574287918656651264.000000
6320183842060549044725046797046419533484211604886361597374313760120579008617514039888642930637123167977472.000000
9347946116268975584533554934814063889246351052260272919311698208183439963250503924501302087498200728469504.000000
-7246430006870923442848841518034630195533404038736307076966127156902899157059200372806424608542602733551616.000000
5903499290176673485912609849597238016134817418280185512116656703409018399935687355827936802761338697809920.000000
-1559037051053386956168144184292786824449534737406256748800424205731540934493553011054329868154317750403072.000000
-7830254087929502364961933274544865584257469294552427848542519588587549304422120474541440180252503785340928.000000
-2938944364403780143681949268056333737797996756519485717476111027129968006999929054716590508707780413620224.000000
1922679401656647270421551273832190700212718798769016204411487336456004972359362991315975052415447957766144.000000
-18983077592168303469311547271501340455691284222714066850236804366519739490239891144192998987539625711501312.000000
1862299877963610971196535844735519926436640926042501375432024717112078689649740383780051587381216019480576.000000
-148569295821733460957669752224310355185270053310318063763691858899567189282835938311320888049532181413888.000000
1924596840384056308981569027226704950018136192321360931043182639147139148204069733480423640029779298615296.000000
160774839130375965722458683209301281195661746848015257259391788516529644131764416355788617538078433607680.000000
-1590902203240316574562670564560210561605785331240001822045529355793868094311331464427116554393666841477120.000000
-6673485274519943618975644360695654145823902188322520143069074478859314262653571870505489155765841896144896.000000
-10677425846254350508044153996255079956580705400736447308506612546408702383745789477939204934089041487331328.000000
-13653546005051844497807166309060483009610483277344066070365914706576563667718441779817313141467129330008064.000000
-1538598355576130473000781575614800978657188798873468676242186577001682702997010505211671208625780908097536.000000
-1287053836907032925576816501593606382090544737958503990042608581420965571847525245530478977789007327395840.000000
-93181317833415898800479550302803745346726204717748193729979960878870033243767228918416705254660037935104.000000
2161502787939661528819521722699281926935269187603717116549477062942243513972127834508877335700567402479616.000000
-328558536028791206173939691349147006272093439508618588010385610507082358507691952489846883103244759859200.000000
-12187249164171446940383708364179537726808250254177729808822972103646695659149536540724692884040863656706048.000000
2290316993698750155283384945663169239872889993627534925734294654918183553597187450381293394002713394544640.000000
-2037907207682931824466196272269846034389248889726182612130478218046586321697045449220399333961832331214848.000000
-10527042292913272121584574422576026046288827311880963696285553262472809517443012919626935046283901832003584.000000
2713773724090728328238213932768874090488475567089074711332845255947875469886424739615119865131001207324672.000000
-2295126928251628790435823460274590399073225210265684061388132093560968254556698787786245450899572815560704.000000
-13918277869995709911531907344037493226208522050002394457897803863299998918617999775876706833789451124080640.000000
4998310922341455178994097610217774408323732896342690976585653384581365534830673502113130740573508305158144.000000
-5450219349632583330620699637926062478277894402952792093512309238661073242644811981213738835928021471330304.000000
-9149788870941771710166543198447218571936596052057413745213195988082451004341246211952907202173697706164224.000000
-4964791188300983964392066501339480099741326649256719169728244141392586303382762124918657283051663677980672.000000
9845225956285001147678544227021675451875736460112861242791108410500546501020759060803158960764465054744576.000000
-7771937592320286533750692840207768600330984220878758120061431442517063957515000098076495858182951024984064.000000
-5599767718376203387089285639925590023525097033190564345447362901897960430529744800397716683873941431779328.000000
2436034796972092332464104000867117319744526463205902429556552922654997610534524083478286480105436218392576.000000
-9935093369194513573292713377249358403580461358723264927149918751255999408103774871587529192457732207149056.000000
-1601923692801919087238163707395047811194491495104392560064190710399854389859517248305293215093439349129216.000000
-1378569474281857202777664411598732566329657658616816129878922188941939223677240821477367670276801565818880.000000
-10167809147567110586671053505572393998658927907081298890850170861796752072027119143477041730395648022282240.000000
8365021694024791993742706934185785499632047685877253107340241450795814403604927208655869330701728371179520.000000
-18449554614929862146828108902620331438671349217894408469440945063383965170775134743494284644759885913784320.000000
2770916202114610211485796131407750778801246143383978354388165050705844172386686271199859523295437991706624.000000
-8773683966284274303334443017714875389839444051272908163413013377262950201389998126234624666630221549535232.000000
-13105372802469323636820536928043912181627663024202360370385595181956593986179719759456030289569062265552896.000000
1610280611339968743917325003002612662550228887762951605184816528435146070615824960988109341404512041041920.000000
-9690102333440772905129314340485745660650053453909995093967304982527980949937778844976298052524496293724160.000000
4772837384472373164937164350104924290586702743725868433666485102477595443087273748957115122034499179773952.000000
-6051710753753569044534851590368872329263253182243410741688134376925085716428007384432501041075533434060800.000000
3635107640396797157353074895019282686062538235887768224070379778527587179489733596056496091208207342501888.000000
-3450605050904272353694005348816651146249395018505283451431665034607225228064727558483024330110643069779968.000000
-3713173304403122565325372294500329572204512330813422717807043906788733488903209004735626532886001951440896.000000
-9370178401250893495201179732976556370128088591839201914057152123778195337927635798774291012974385578377216.000000
-6877539224832805042714655581782555314976589899779234101845874434758729068740093574538585812749479118372864.000000
-7441798606058424058174925151365182216663435247887714019076503732963629863589937652587111529233182374232064.000000
6417520519518734348705723719016275922725683992219583084150155670531112408066633305953836553433871993012224.000000
-7020056128750391980212236007767425095188867621232179228773271625440485874271923037009971816904432306618368.000000
-10157545905221453930848379923912146153285420746085662361093988469050722756113134266582691732160816120594432.000000
-136721336646995925337396943540416359499366102316329890478199722744974891800649127437016741645879481466880.000000
9046007087467871930315400342119018137249316826130349217820457229671349195781079993494980687495291648081920.000000
-12903109753286720445225319875773375644513215882991909976554146197122538277663179266461251340996951586897920.000000
3386753365580777569139260676187274217244470421337577193712641993259785683393170605471462261123950705639424.000000
8838044211462258146436269169725103807669637233847347829388474079185942419989301763868976530054318288535552.000000
-1536204640173420458115363440760489853715654667003890423312292344667392382242643763393840847323422789730304.000000
-1461927125070379817300053038566261981777893184655301914975802216021308279813710100420391220188922343587840.000000
2339217631456458793995606418541513897559870042595760743404517744400442950092876442452050140733018938015744.000000
-3819745048601672014198487514501292685046907704060614486681105806909516954293658519940588897462489599442944.000000
5151721264511754572064706791283413863491190814020766547640694357628205693828809202401954821561742432141312.000000
-1438448588137085542340242608638083305781933337261203482586395049707735571441664021929309069087108163960832.000000
633341595417952439588362179019158692767488938134277548520298709448725942611157986175086038425283325853696.000000
-7453400844251221576161204167242311986354878843391365583826549902314655328806402621749258319676046152040448.000000
-462201652133174573357856995192540904820384241047328483798963430526358602316983878769259604645581313540096.000000
-1922397816099959124435557975128441227720216085469714261310971063522457812785590207994920751485385093152768.000000
1676121502993057522147660386389501373192140579724322804450007964306536793288287169573412568277988897980416.000000
3489435535646655259948696584946502644062180429639977475305217248805251409451066697172503206098543835086848.000000
-16304034073745468224379741918150448902893839367671298478890909941498194194110756684192496313058868760412160.000000
-248880797088510353540622510034004801522534651445883151734906825092063095922222063662152342166964617084928.000000
-13063431272833364079275237351272402871801291484264235464800123167791923562804179667616136007532623951822848.000000
6045179865044340612475257605096517815036514637811312310533009034631309172288227187200772857638856419180544.000000
-12509950627707143384000423279455222058171362276698322657409882812400977391482225151619089245187816510455808.000000
-14610784503354407307417434143156034609679654162959515325287623785475773159660955026769213498650346615996416.000000
2410461277481977351695107677990111860092113313877723139077166471619321549467110093081996487954023564967936.000000
172394003725177847575677219126782840053300762532082231681747829517570952055002869144708640527193548521472.000000
2432297531636131303481430106983304704890356146845326286617791759851397178712018084447611278570825571106816.000000
1923594560695531811776238735658140192095698931694966319134291987705682594655739608516847185071887119024128.000000
-10149109198474113937316471355553310900883756648402990588056794600494719831804589433993266953198144147423232.000000
-2536413317554665850253522864075632126033293132828970222256968166000303460178214784112565940361162213294080.000000
-8314081377182643885435508357581248540573723889694415443382226314834971030936648408693905512265799207747584.000000
-1357729140844821027024097931604903874645936232297921892128148110814889019868133559872307378179746763374592.000000
-10143961192648069372086321515782964867826026223818391279357205493375842103582177993564205003011180422234112.000000
-6719493897016004001360635955177341466841997668510730180298054430405772674706611552926680544973173316124672.000000
-6419734600701655116184151590126924356958383035834408154419716718640520200625784110351402708126990449246208.000000
2204810596371687606667563034651872088534311103657640923622771722263280868158204087724530445913193034285056.000000
-1439092854950239543811763921665579003608711663700308015847566573485392635535416723449465041282474193190912.000000
5324474922736674241383329066195149584093472923189015533814910546572849770110362629389886041347990497525760.000000
-3381075954206549499949088036616723026167441951796381245647921927900740458711196819236600756894935438852096.000000
-464993071781134435077452325238064088305359575959063716825263099612961400908847013031881935332170178494464.000000
-3255403843925346781844859440440317631494075045177576606226159849989498986686434111966705911297727006769152.000000
-7024113016889937140955660170744885238507988623310955696550496543610847920591374993858627867351322495811584.000000
-3865424948921205832797744260219890660345424450849771569936791472064425989056076048818476277066623734513664.000000
5260226641116740451719584973439332277091308614532075728968150298205611572905379927707151555874358684549120.000000
9226258339069072482354507997247994039108176991594601137339248670630191323554962457257928877227261783179264.000000
-4922994267920045373530471501403822565287925105519060558136044139973731989041195146803129079721802330013696.000000
2747019030805256219066479490760887487182383356411098256175202758577916955913853656789120410613272610340864.000000
3533495553525977132413280311279075323689254540358425353212337672202197519455149853910040652760701338648576.000000
-4032021988510776396748503608222700630132214531659585272946929002151689364897666823530940565297101753286656.000000
-5779591751072613173326980855553987729598026997985643623939521289541808763512728032279457006233606785335296.000000
-6231288258631034238296301620485635259339419581387417173911323779407005767345829291511851117624670034067456.000000
1777096156841503278794027990324105217953950261281601053903048136877788093860431054624175890029263835889664.000000
-3478331319963687207080328981282262358871574079647243601669110265889696908089593844808897694811700156432384.000000
-11664822217549026170088238379370685646857291498242814905360011162323456563273527309436036588128478183817216.000000
523595759626579563762861889161174860760598153520249808112031504406778965942628632879633943958252890882048.000000
4096682421751632684272766620527211295997508956004532002774561409969202414722341180949206458481790091788288.000000
1199692168180087254865853215944265241195566554101207665062174636774123415569306119240922445576696395464704.000000
1009308024179496412572200736689377184707096237539443995486384126785475251463894495535916310996677333876736.000000
393115151387165556544924455584077680139273973477149520947818988710355332043394228887585850568996479303680.000000
-3643057167373166961453878171135362807033621263657111224630603996887678550994475588777961910235439107670016.000000
-11073158612860337270907986728602321950479348692712992452767194630608986773780159310673315324636995929505792.000000
-10056035848882441497557577176430573677635149677648442674826283811959780076663946624595781742332906383081472.000000
4058967986621933761087387699148571173553450139521724859042571407717161764063887878091691655275572287766528.000000
-6202235696284604095362773802433422806651852461277304297940709311348269751206572207659563979330238275387392.000000
-2425393267177468278791787003648002807949707534342177038809994806324571568952940954679183495634097820139520.000000
765363100902085000759245214689184311894198404451307571263452340910983705063083305062109729178631136083968.000000
2436979516240794162321907746268075342009082346061258279202001884630523203802940749241306518834922301423616.000000
-1000433668272811003068603630302103841561400781591314680363239535835635101471827650874001635071904463192064.000000
-6654199711886664609708974955075083003725449710264722126416807398051706707704835979220666479339506325520384.000000
-8681168812677806804103885883512744428758329734098766598707480672543924319871513391085398036389760170196992.000000
4437088372261368418078243563847924989555672683930153303856744602277681229304003714782011592623787979309056.000000
4168567662043078806737164727189881834550920705250765015948284225160076207192499949910191296425537526824960.000000
-1009722710510594620104093022355283875870967677897713924764322185398527625784098635659054479606153576710144.000000
-9571555317325064176101870347531853692337090652451919343242287702939456844497303888532440094011449690554368.000000
-1292045491987685398291265897749503194957316642005861455272379763868447949419988210196656022074613282373632.000000
3278189130125911862199915401993368087826566650699344894311658779976523310786045100848965091080023083843584.000000
-5846951740914813120605376297113375199095237308643699760749480692364186549375423189906481884935214774353920.000000
-5170005230562363546935962797240747539104905598947816617150772890219790585404853032050523096936550250840064.000000
-10157042020773252661936487558636524983356775659612144817742544630394515069021405051899307203700910523940864.000000
-3536164183970899915698716638457746157503949467377490132150945045363600028084386870700521522708891419279360.000000
6487176285855260318431863699144019872758253294830753748210682606918614825437137222986387406450053093523456.000000
-2745609747870777517090985332711248883864340769539924363110301767508107860737179249431948581173483574132736.000000
-2773373769570254655385670144762750308684007302363402090921825483710009030953943442014258876381927672119296.000000
2792954486310415621275490943975876589157454652175321145186936501788214121965754014184649702204017022599168.000000
-9709079648578116689513168278562747802606956548802669269482071188495976575506695469065211502286620745269248.000000
788859039805500671436140179947330334368923893385004063197541614373842450239076071390736514755796051951616.000000
3613346216955817500550297033512268343819566565699338089161554370298496658471704639603118815690064914284544.000000
-1695162505480134275729502124062866689458661270118498411380690677748440140677718767570849670255024933961728.000000
-1571824903125630801067322981144165732768498710877594965319250545259590790491166349153483857347290370932736.000000
4402509894740229987466527389887180152085384925403206822064961612562840809497380563273031952633756198633472.000000
1179166281584238667058494512181006120694871729404357067267711506383115495499995215740233032986003555483648.000000
1771550483348993668214331984815144804621629215084385726312173598824023486350663554456262473258406403637248.000000
3490235901358628765809693282161298995700623697680682516057757874924725847196215870155347527885665708539904.000000
1009358553352261909332519955401697607176838928551928117411944531487770029787381632723260700388386137964544.000000
-7583739817020085863185627800184170967165910610690807760918706787732238244335832538460947563502559610011648.000000
1211590071608105696193963007875352438944663974509359016506540906736350157349693817610670526041243600814080.000000
-1437381765838235732465172784807787521909811348108644977127174185634731707611003502347525230872461347651584.000000
3242187555475013180385315276851078826306532880764269636750234449823609104176987205237050824651252072185856.000000
258567485640548739533440297444924056755651201533284639779966053208420130321281874284164327926273029439488.000000
12487915931003861185297771155227802132269894497985448067269652890493496139441977515926943013389356884819968.000000
-5624826626518785328672743657339742701256590754815761973432690207157769278703068500505552700387038897111040.000000
-8318938724324680595216957143129165994070734457548651864087588276071063291382991531685317702379093740224512.000000
6476744291349413378271016678144780718344499550806591794124169446654285970337681702155775718760215295819776.000000
1036532342377639966879632164336859445356758259854300274531886762360428519193810886273969597634285953613824.000000
4185854603746265694101335662710584564925846586065963209938370954005041246613437285887269844038482841829376.000000
-12297181073364277994294143741100827968987909857417379131702561690188953454201158141759088122976966641975296.000000
-380542341984470446971612334181920888627851778729975591180385766158353337776555916248841182843854712209408.000000
1892295237877999377505646940551029513128893826223316564665071564109555991861423873670854528057047756308480.000000
3522410681636404188765769368850089301543514830547053395886655957951255065805630378347706474200672042483712.000000
-5676396590079463074396984996915242927180022468936462479950831361739943894912394769290799989372124988964864.000000
-2769054099275707937185695028252342991855280135686157694485899932470123440871332566695999015133127456587776.000000
-1493122880191196903913957903749704947803703340331704572685142465144827299980397658996012568933939806208000.000000
-12730341280806377837161978417133448044884174355311720554871092446497930824353455970593117479344279700635648.000000
3504436808495694145123519073710403639977245101310981605358806135607361990476784979686341751463314794217472.000000
-4394321692414967342513881582449070528736001993118898518729859069230868934932410127036729841208418767994880.000000
-6813081654279862989553248716827298137214835525192502941713653754478544680160198251930041889080869660917760.000000
-3854547695665738114201129634156685535492386563691668901948125020729557975742078180951750426541921765687296.000000
680282275313149905170702819305966831132317874690968298894874122839279446995029596247588520447772532408320.000000
-10023467511263026557145455234777964686294664627863203756467216323125105440510637092479979346166790607601664.000000
3556756085870529818961464338093170702243274638574414244829807433429138262219646054855826814555499423334400.000000
4677778805509894898709385555204115998638243530733120932113392995330364780377840007956267719882338161655808.000000
9499815145565987463158562911992448941009083516894822012502582381054628718111988650882776612833059391143936.000000
-3958246477404491609120112632249644569293207061986304552870590781799160270880609072369818576028352408190976.000000
-3495675811595957664226967491526664776260418041234366359039828869793999650852038406740411565552230987726848.000000
6848953270283017467569161922778179092051893177742142148278751131247244696618112957674620821022424745115648.000000
2397695286553567878944514457415349872645508333394486390079832821873217422995868149152141142516208425238528.000000
6411159329209859040963797822380844588483093959064552571813849599829413715973725969505977009490448854548480.000000
4125218613238759222017359532896194503539691604587750192559520281089529628989540876997959347224356310745088.000000
-7886934719886815214946560566031779938729960039788783690012051838655745160555602908082371287111115170906112.000000
1564390666196734219086221441218856297689792811566934571751962562686764481515539302073824171045490211684352.000000
-683442205608966972048447319869854118339776486639629291294940242091993912489575193986618091076511231639552.000000
10557619365075880945269145641767151872070559339529875748910669057119740163380863070148992299551298078900224.000000
-3248516411822845667908451391661853153034298347273252778567645665538602103469915558184587051347621519032320.000000
-14261504422282149693475804909891660609467046428926032503732814721015588482865567292645589787126725888442368.000000
-11323459454207587682908181036961618288610977064581349436251107719635908413560880297030056700259886115586048.000000
4558157865310135294051654698540464413453637998076148912047032417052503418703799219710688678075401284616192.000000
-5729611512055926503721137638393751197623521045946365045320804771604219981696106739251215241078976702054400.000000
-5089690464327565823139473421810766222535953813825124455956423778111122895537382697694255399042795645698048.000000
9612393102497571888171785816944540250097848206392668660691830229908001711483657042554439510047636955594752.000000
581372524718159183011414916433894035140921898045327693195157888387101227384869093551346944116741363466240.000000
1885595516211917987270462953230876444995255098629771863595636764916490145754794092139401435407287490445312.000000
-6774789005288812610029258887719511003850823902145137062000410608329750889506242108018181494159151288287232.000000
-10616874510578419909410937682455075355555518179920887111954729963965698176150325718107041112730146441265152.000000
8372003308961419888614102669672123552670397119516214305978148371185836287360027521967474566110529684766720.000000
6050854552231768300805854589061396861362097798555663075202561465838934803751758084981664092467313885839360.000000
-11484072946120447626525512137113603415045443829555741459976528860184963979042700876845549309079386041876480.000000
-976560637261829606982034714885324651262355990543038689078192920846903075488797632284378857315656479539200.000000
-1841649057760306550615032484373717117214377404619292310280902121272144401646652224934250980039592161312768.000000
-1030741894032007805489692968826935399367041852839670811191271504179232553437483123367999717714686021468160.000000
7126906229139591412151180859715666907940042827976080250753016801687965616055063506791504670606480541483008.000000
9282617876410892123022756629292076672275680772598670100378471067387844713717814590337064820891095329144832.000000
-4784899139428714965871394986568331914626801915414916928104862224498221723833823183883540116072796176515072.000000
-3151364471714324982461505382220213624188957661143356325616802537531655985029800856707478649877055074729984.000000
-7810396917859437709307469559503995099038377827533285012403492048621253008950925233172843184570837502001152.000000
-4223651048900608359415597338889770790202100728246114036761043077515306332361867224755615265097452328321024.000000
-2209899121540132583695772415997567895958890892903135710512479317106309221383838788617763952517281619116032.000000
-2749943987350680571212069754218385146243302686427605322298952094519126806211716709485581052021192838348800.000000
-2481436591000066228528371974175476800236587132960018512709155814037270550570719519504971381072890196656128.000000
-15415856095514139961819229626411997016810386118920001456176374628946426314648079574432887742356367012265984.000000
-156230327274377077005107570053128130142766372146663645712455108009418377232830603802849471811950009647104.000000
-8579866720547839651952963339938929516036098897951069666639615143827718395436837996243522805011211140202496.000000
1593065583963222540687790035546127324252437185566923463078705093576243568777088224404916626415623654604800.000000
2348724151760988615465973833502361576678338580220064987236208455002667293466553010038298017983733111455744.000000
-5150557719205320162658622175300608712010902259254594407467323400233123230926275959493678180252880165928960.000000
-5880097193377303915468973959145217071010819849429051421837983005284297856502792247384268120004071616675840.000000
4177577729192266801218445358074889834948670824260503186997404027808793180213274095071743687922464195608576.000000
-4606882841310459476277374303603062712433327590544253234279643616002220917741490238774838507764975077949440.000000
1645890595034122235105528126175416611615521839437943461625806476733804116270034489892094798221518709981184.000000
-5321917312479184769951178350380195941631246635396017978584601861993295751193719661723131093935388861923328.000000
178606231974863196751683791739661954923361123653201578235344922752732747093657227868674827482615743774720.000000
-11775324398408964343333633091364690943439049694300810912748852211905507063587789779778225160813662760337408.000000
-27875843273675309447890230883933761493569912548236970854246155523791209735414101537370578936167959363584.000000
-1402868472759967874263816835310521735956225413888211351537460052032430013234559420954992291701656771362816.000000
-4038970886823153736758599111211276968290264124105324513633371786813836051973800001276294259473765642534912.000000
2319444546248794994199312814936776004671846808469314475978634284109711207523426589510920628781565834428416.000000
1642635493891462819482277631894313179473192836015152544734193983004008328804705272612835139747678083088384.000000
-7991452939147886495210663895025813377788604856899474974677779011709145947748826128390331565637088334315520.000000
-3958945931944435727664365129720576679913845275640020974812204715446334465964951954431073895228640723992576.000000
-3736321632892109814206168489986029625371426886556282660375685810803997286025027388987489220012840216166400.000000
-1495066111685028616565098950287333687112854862335393140627913896592585876973544330898783573372843923079168.000000
-294297196033824566373192636420062753825536653431613784644215237953840479511522809514113113640005072322560.000000
-2966003539955047380541027448317717376053473635020801019678052472223323552379319888088245674224739057401856.000000
2436393539428323137359780863197874511911751747605966083618116284367472225256576901473727477564954134970368.000000
-522880734466260848885095438389273601026426788040235791567870475853939592314870646459546546632975880028160.000000
6893829637469212223362468870694046104463363827574833892485633042625049990594976700237809195270343153942528.000000
-2424921291759377113891624366058860077480299950128061353630800314568914184873983573258242770908133592137728.000000
-7698372843285581035259936031051951927916245117630965918206509303425249073902904235367840740530268468674560.000000
-11584802657831579223433886334569895943707970911775492222578316267553759805273194343121977088978103748788224.000000
-5922459091657281507633744152770434585722214880541139517199156262782698852594847494808843871831770804518912.000000
-9610230349416979218914037659099242305190097076027643604497225466165813535460329684120753068251630039728128.000000
-3975373099253708825014098024623268223570751280491063197643126591976028197760223368930869035066520338694144.000000
-7666589735003546660767838186376011201603548513192115776765451107028549602894043143298932000248240699080704.000000
-2198798227768561263824577470793465865508594835210696254700538688327720045403773291012651864606275373367296.000000
-18248924657318756216443730980909775461545961827082953336223307957373590030264875757659788386508765350854656.000000
-846673314327101479932246310032469031672783989279633050653412845384103071966087009539911360104225436598272.000000
-3257703039868892637376220017488284293250235184496275963075402790052661615725037774716459278567286706798592.000000
-2070544217394891055944203005415331900489858096289873651507413881974035257938972260980656888565966609317888.000000
-3028316241808720043109292792702684199815120345349636686383960040609462559922349316814744319074409457385472.000000
-9633982506716884763099579163056795503536705940231632843346413920531385440792985335810635712904136881078272.000000
-913333126348230895103594455374380424672677920527188504289499613839520877904537128034480916612092247670784.000000
-3666669175373783135961019431343691671292635861481336556658782364243371017557842152649702387799158526312448.000000
-304818450465219119824396337124546325148251674076188138508648519439097687384825524407614795104224584663040.000000
-16948280663111550029791920855672834255506485890770793526721147376663288932985543170927057202777746883739648.000000
-4912230325724230959841707472178464180363004839214029897780340944869120037963192490775933962947976025341952.000000
-19087502511578875320928674034065020962881790291810259175248930914015456402423452261666388234441574139822080.000000
-2032529824151155044547745456867436344899815674960751767231594033565697935539730898215971104848737558593536.000000
9007018961177786679402788053712813476708036028605446304604795524513113058631123514686604550015633728733184.000000
1105772569603233052183123354926132043519627817993635278066617289522729318315749526918246072297444308156416.000000
-4155429176577540654876076373004754444067535487104482845297608463847640464736071297283619214932743540441088.000000
1573912645911634606260013995273588612973489978918961455177231796091081406234000113082904060088074345906176.000000
-2154124333477705539520412355536383033449082336763089519978168712181381796371877719148986237592058315407360.000000
2714614950160908588018977941771400183256304139664127957493273745914538946100068002777564335739743730925568.000000
-5364445509490060631630168407584502283427772244767862445652307092704580849075024125552280587916635971518464.000000
-4706755807228909384240095970912528778889605359185874034164545430800361146598960788122691613464232034566144.000000
-15337706908235086412195241883265262665222947140646151496897643053659846224366147628400701454198302484463616.000000
2235705014330435803251602158142057101507716960769548052585946155789296172216781145635026059501359421456384.000000
-4173583886289182875738762356835782504495343405805675014317762216510867630065399456736361836477996301549568.000000
-4192322255397213514946571724329163838575515492248518737574879699677864718811896366510425563549190114508800.000000
251163796466586077948213458902907466873042136787385831094391065635408412326842716494608113152012886999040.000000
-3585076112648459759238905553622342855857061554673235087306911075632116012694211361883830540025117307568128.000000
-2583984488714244047280971349699876271244818656213587619400897225446094014148400849438764150812550073679872.000000
-17000766986227767868584675950769448353191832376664173606915512717162955637242785776300321469140464362848256.000000
-964938249281826494230549967692234447718238333088841487548383929298937755535846872944495054540920223432704.000000
-13991385736455739481760240611365515938961097584246732768405331067425922075430721518777233821945454703673344.000000
-3618988158910326151175289303206167393138913427331828501914798237094435976620269564254944990927202520399872.000000
3434659418047614151588933701753214327476645604598970579908160387790072238241756279812358094947209650896896.000000
-11539739708430335023777476170099041151997339450430184073786928535501226556782205142158925150747717879726080.000000
-518235847991631928989314321932785142728703551898599188984788870481500401172030049902252980273495077289984.000000
-5357938743611040488952351587444962801833526241295856845813950078271632512665604710702961462504893313974272.000000
-8229314229291425731730506922116781777065295626108884653221791886238936598158815067030133806388367826354176.000000
-2409626548267905649569076535215269993847474446545052849464090165132948136607277519181136077839936371294208.000000
-4290644789585347834936449035432673717503232502305889625384705637324995932935443303088596366030629180014592.000000
-6545689467975427808862135508900124864241515995869426566979708332327660964174595887649894973071589449400320.000000
-654174683338244752976441092938155375667029377371369764575053642880470936865684151908896767483358786617344.000000
-3387434150805604677245994124773288545843485544043223422683909543088030509162080670353384546693375795920896.000000
116419442496777431374919447401929331256510623850042406155408875216275790971516002352000228131904908427264.000000
-1456825516137857208350851163270138640087030805874462495683246641470648113136513587976234821334220278857728.000000
-19915648920524516331291057252003973488478605417028781456142736895428479447490921176046000739107316170752.000000
-10679699441103666152606316951959156848282251309821143661678770415561718103944157300839092837544110225096704.000000
-749233742118344597559227519144038547101163395123230738597491415608413062090127045754757186072987412987904.000000
2382356036354972281842494625031837547580378543701783255524172635602569669896508428820539347906618521026560.000000
-512820354553229694615625995235054906969375921664011000839957640696609260523444830256365519799759585411072.000000
-14503704804536933370737245049105087268309512185439738375318934584823687679997220116449208531666334855987200.000000
-2332389344447018643186595340353836430412138575916603558545557504916760534858776064160335124226941776822272.000000
-7458378731643712472796624977111446648957299003500141607658415559450424333546570571382802501343398783352832.000000
-9346789464387250689727111825350260118872560500842283875445108518524169665252965659728756046379975740227584.000000
-5831899426926410879736630130490748890680405143961433921046230268714118599834441458301292414510893419724800.000000
7491218496475848894548793077468995967673162017002000334794380805301289591372447344790275693717833729966080.000000
-9779595165686668147526914822427357003862006342268532072129569448438497263892005091566967011647894339977216.000000
-2390338300188319049890431276668365600365319183038509162942987680309584584093177105032464043778327135125504.000000
-2196480289883982580549633084838791603860261109091906527256832906246258696111919284675623052773175574134784.000000
-6584230492876853333768763104425310055456498851021722952896596078296976795479570497085921244695943345864704.000000
-750750528215255167890685493610644841778995689378158354799611767943559141889609255219409853705575313965056.000000
-13989680843820852073236961129780706408363134185586867550431177257741321588912675629018801339589076658946048.000000
-71173525472230558132585620067875028423607036137869152135994890173741160629266528522149292221548608880640.000000
-7073706081769952585464174538242754206376881385378676626140258507675024488675383242639925053725975422959616.000000
-1138791028970506889146838356654963544836192079510609927770536327018307823697965945414368291036180584071168.000000
472417117801434891277536419939640366005106170648080305165042837573169025517249521244639651854270725095424.000000
-1741315109684687069721536061556019470604078648917429910270683697651845970979175371756777715289874315083776.000000
-3469318092459574790910853462325005008294962603602390063519774202187610400310675436331109913435173831049216.000000
-4972220991590535500823533119047521987823587957416425426591303190989780291202539151780311901867825931747328.000000
-4533432821925116203147498354781829514927762389188535192797159445276951170863356579584745516429489714757632.000000
-4457478972611348549662934623329706942093156262883379028190207699794844807356287920624028348399781414961152.000000
-4764171559323481860675005646798533947189113822672232370002726627104482395780592784446106523908512893894656.000000
-1864890706977007519230721811527259291866100639407351120573817790363687045377634356768177788605717037449216.000000
-4132504589450165144274869519680839218006775366355356616049064926109493506369444554807139149849245507387392.000000
-17869057486725113127868942344661331937537327727997600119642210963473876412522925363886783113478045844897792.000000
3819529900315926665358917075994216029617216511873324991726136013427357404768029576090461591996863493439488.000000
-9704583192043408751233004275565654686661421804275591638917186475263586251545137527348841892573015147806720.000000
-4032356544615024534905364928457868218125648920632422153059474998504105349892228680116371411855204071505920.000000
-4608996436858503442167284753895428642128751175509491140571512441978548619014456422916964413807845175197696.000000
-4695251687411950487112946637940848290159451351301308400983402455520625581383986853530917825274992643801088.000000
-10948148381758670695734642591877389550751447071778609585485252597035485729663445370737874111768350018240512.000000
-7663705458914404961278561241366222424908794767755202142383424718173444035051635743806317152600687558787072.000000
-1704654831012585486176838822489167249707839982266787595400879804688414828182704317243056869457928833204224.000000
-1889387587126848051613290278410388455566601028601365354560451463991418157016711592833432523736873967812608.000000
-4325503197837610908575982704961226382276590107849697262893767152362389067555474058359833160317103260041216.000000
-2159787666429121728415756835017239054908189866360730189816032230128199832883519309127573318989765687640064.000000
2898908157238334545867974130057336486115373126570521380455717082768685760243998975524396781064206828961792.000000
-676526965656340245181866001833189279347654050885362209478303721242486167161292210954344364305141137932288.000000
-5004572904893364208805016938206925755971540187391210784609397701327516695020946368514409532956190305157120.000000
-92272486179986860770444764380672290385419579716553250366654135973314389966814572585893445011158383722496.000000
-1799997432483729553282273817623840108058461160016347444443140175990045952126525221535572075220590342963200.000000
-1100293919736831728642696991823819313334127434617928130812527207297400524126076890576348316959624761704448.000000
-3826493144280217709342156186903788473927779075289478058494111775889921410612522977613228089730075918860288.000000
-5450527345405685463130231361542098861826866832403075914811049380473968217104554966865912924082652865101824.000000
4257295497530477368087776150744351606869715741933273206047352415505518123408907355360491722737411245998080.000000
-4710548375882561174430114115113836378896765462093831730558896298910423085360722529644639558211956522352640.000000
-4172334698735003647314696472719865601037753457031955347474211981709193490089552691640044137776025052381184.000000
-8836504490299470795813790298644723374280908019842882535684957905535628227488195190636296249075423447613440.000000
-13989181646873190907487806482010735332310037042345364566692841128460715195965483481175659147329672348434432.000000
-3061712902821317901078943669304260950831123052086267772342287747313425331882067533840655938498409711796224.000000
-4240600169832385382863851980787735933187756477553061835148268168460037211242332952387121559031621435260928.000000
-1345810898009805484568588288659658922498528375483758488879062556220886793530583125397323181705751598989312.000000
-5193525105967588187238540626690050281189716829317481066302575986843298737322439333405658908920185347899392.000000
-4370244518356011716995119901099789225940079899229695351417742653038538200825575257960914775743788327370752.000000
3726329008301865853486555950493785355497084945816743690622917208895302403571889996991690593021782116007936.000000
-619999166768594725697636643260116022743666516434255553606113349648117804686381614196840877228856851824640.000000
-356597651808628053954758202913890599797431544399109367994772721777863529615429047274375240037142678732800.000000
-11991314406885544456536497367304578167450608767674025926092624729692654874296897113343383477015355752185856.000000
-2431069776062673411584260807721797611989222151016064096739596439749638496026590119709970863037356246564864.000000
-17754188475990936681428725216389113662803008555361251311712606852438242736733179338633115826448027936096256.000000
-2921732434973619955933592610330071301195291573381797549375742114919947772495069972645135351392118987816960.000000
-3329382903733530627356964283467485403793959010927115674977772763454056538107474135376392190415375708454912.000000
-4651143587008989866907394225516951557991465247010949159016512739073815678290620290274995048504926956158976.000000
-2785905571178321807943571202068634429030643053622010493254587354218004348761840109904005926464494321532928.000000
-2168153173949505253295550390728215888793126236633461594104575805957746865895276207759344782706322939314176.000000
-16129824565914681139596252494644770840231039063547002938588583106924646910095522926315705618401829113036800.000000
-4123455780675083403321751989484028667243096887783064573222644282444577119176480867150019186916963280486400.000000
263477651849057250155087918823906409800728053120551265122399699505008444962274143290251844657111512383488.000000
1008659261208246644151506461917002455751944687784352782535606626123608860842672397241666416500939243388928.000000
-2613407649604480824169668757994742450452441830276797703529267195201853397825212669424119825893882935115776.000000
-188935672124372099285662667435953736363913094404621556567855981642385996606474630541223032159952516939776.000000
-8188565140040679939683220349887492921758502590938990267193909096639636256390868587345772430926171586166784.000000
-2484346609360120738157517028517729165250553319529382754771476825136456971157639083024413237750098823217152.000000
2421665641746651555295313343624975539318885964221620676251616593584596620547197664377679748346182285393920.000000
939078032012187846873893308395437597940452792853913677824780510530612628066690323633389383866547022331904.000000
1686480921506174633075189470522493306454221825455529863417763850763423021652192745079862891623039264358400.000000
SCALARS UY float 1
LOOKUP_TABLE default
1831542003289052375567025627259345699377536061826122447288361157065652553981227668388551065600.000000
-400057709718847619165381324565664924586452275712737668591602811042183766175592930025739911168.000000
-541877407659282258094867812999333219740550963146421965836245022661682541409247005341523116032.000000
36036970753675673459236945482261236178146868158288168120518579062582785533267377785376079872.000000
-5374462387153461914934211897762668688141143120510694688838163394733571833185738920304133421136180672462848.000000
-423076912054997826467428321033178285609097399718524288852479853972282305835984089043047546880.000000
-207083880460394110555472594976994554282080433543905187560375094911971349724425173386898964480.000000
-99032067448421093083748634557068688897256815552078715023026968756762879218218946539429036032.000000
-1084194528987720255752213321052783758227620198189111783038208328928665203600169965625228132352.000000
2329092453506951467292008733348725468394216396082032450576829262555025194737706308098529951744.000000
-2525741042978968737065474940563475254315031674492549022315758149252394072661246040091054309376.000000
1610416288401796812420576142612886234333994630907255252977072121698087155897720600448146079744.000000
-269957035988160725386130244666244653536462346675713101436351508978679449300308724358219563008.000000
167252445926059904860154990399731798650175211844939370466889130662706103489009852260873666560.000000
-270259910686587265662539671590591536231474068542196280917527918601880834400124034728138375168.000000
-392438804414652287217892351234632807789764319474439925055727738678347793440256122710386540544.000000
257175084476367940167875294042999106889221077803001634434166651469495599640002186402605301760.000000
388047955321413646983610694852450817963758677742927181169118548714652082590241196982994468864.000000
-553608219872721616725585882241910357441416259675238889989913675098213188707299773710194323940120878645248.000000
-177250514518688483104262671753142329795419364540407017145713395671045028433202667345475899655802645905408.000000
2183543753820021441502817706025049271914772121737820186869171179199684275137923580305883184503840378454016.000000
8728823091658963268147431241137170929750093955824407133207510523621908980049724059573609296087868562735104.000000
15593616287257165997448947537179203011604587062115920661720363060933467556332390376459553484816614225346560.000000
8023146533327484983553906698138023799972038735716119139053970924654173613610671367676015351549863179321344.000000
3893194697742552567617568078891102408769626583399891870410740398299333451691903824683341100652437297954816.000000
2468913000045210290695330664535593761322358612310167118182766814452559525707431607972953973547798244622336.000000
-4389633134973994054392933677528607403737099890396352567243518750935988836067798771425222331028833726103552.000000
-5754928601822558687842603404420094569945731522451041111709641817487448474066688709243466519941388223643648.000000
-3822445908901968493107022517874959447749716316369553954543695002479247632377451760466612930278069278605312.000000
-2008808685125774146235093806065271643835833825398280354662136466630432704994580051109127245320006307676160.000000
162254805682181988611011235465661995129205004886491594049113324190182319741111989897000726276212860649472.000000
-350220392673125857294220918055031431274504706675419155820596820328580626728135372326922067013822113120256.000000
650705157315405110428233086745246847740950491792655846626543978309193262002344761988314989661764567695360.000000
1619875425815364888968852737214183909291135508517686274295579639133509326820107944629491365961631853969408.000000
1769454056214444634327601072877565433998247638935809592871045033903496596273746879133704627542039145218048.000000
2258033683791117921718103240234153531244452171671832699683561785815381462446296145954261604366334965055488.000000
-2795120310830795307411887830146573013635872436980111653954228987906704328675611890851152018096429645955072.000000
-6461392085006005687514621152246487897670962280935442904322896172026443783244690204578741313403880531296256.000000
-5540338789957101382889085431214215237040962625982266332936488594865542041338440312127252999519224192827392.000000
-4451127636570325741674300548114816005586882581188301113222726626215771309415622058114733036010288552345600.000000
-5171143996982779614324663108642170525718610617723213842637233176349902325679470726669400936876924676866048.000000
-7299349787475918376700623533946168919899060783238159079274511283713060493803547481645218536021339865612288.000000
-12113002395404968633893233428057470270262016526798171399172557837328304559364375845022007622461673202253824.000000
-16955873426055233244603212677263648405932720893158135586931250165307749822995333746406418636910002870157312.000000
-2743348469313836402234934707367988249626719667954698203300820298197001380153537441751092117409641917317120.000000
3214907040904230229030331896193762566165932164202902461856331002657170050518315043460422802738462999969792.000000
12749910894256137976622306711140225105565300530199766237280710388140891090479199087700762164181924692623360.000000
-7006066588440615062492830606211557556821037193964347206967336700213586858028387597369791364112285178003456.000000
-8683652717750001324952072346126288987291788701851109396535391383179484572111272589563310549320609248051200.000000
-6981335166202292126242964768500901245907126268028786375091061091974458413505182841361346985889589639512064.000000
-6320264420240198962988788409869594852010662312161227667293881340985244838141194551539219110805025824178176.000000
-3319870513205114520136590999413481247943750957776590655915379488120509588666648536330463983340649856368640.000000
-1733602246352036878310794345283444939051868307274282609739393684623673661852610882576903653752310060810240.000000
-1818124146226488664917646718426990248050749117185637168156973281972486722167405155036882760374510589837312.000000
-3078060701382911966447497938642173826414125207188152179245474538689313635682307097303848919961045234089984.000000
-3058128381020449053152103337931368563468239945138338830115415353204501707359153313755399888194358942367744.000000
-2349701570492822436130465882626945249974058084758931058835380481632493834313911092111802178189544612954112.000000
-4413166376836790514516354954944943364325325027094423163165974470544339650425323964259937863866618669432832.000000
-6478438512267475606578149261630256672361808617226679764622702348426084996042521348023747837291771319025664.000000
-4283172903537726429316721791571447212906477300831896552675152933413169554171795585452630186502662104547328.000000
-4232200297029168315815434058054846083470047460677202935924948385408583933651948116103207736427961363988480.000000
-5362432595662292289862737887654372433638069354881522255222172195215061495710636405985849584927304073609216.000000
-4266746546471084811131391841777597706924166429190801039547692514764140807939356053388640506104740128489472.000000
-3622760553282889672539521217545293902626890997020069456530291611074445387603221042654891922471521999650816.000000
-2688029359670179916634600537126753036949294865714704261070854428970222244554048035256831542355782795264000.000000
-1454640144551064277560679152747654953236306789222805361457237931019840428829079382602915732313124385062912.000000
151624352579813693182503124745044748037846180812227683785344182242537159100373779363580084224.000000
-10220657512718225464279295136600898139417577582787469433479471293939892383699599663852158976.000000
-144643715832564036661938861117410667371261588177977723955964699796374810873819972102642466816.000000
530843909557086643247348534708209864014425522730196159274644200658758295591734622527837700096.000000
-563499319145435150425667559833497657388125050274153678579448052160963599540940682587690500096.000000
182650877879621017455022436272195022642514195722746186943908257303851235943077490280970059776.000000
-32099692356437962995544969920042548771143212591284972911503181160664901894897291188919861248.000000
-88498011348690563910691968182841779032139660779801769867472996542683491999611702277805441024.000000
55797365219439221128576572120683318459429873997406505409033295941482788014227578599975682048.000000
-537212972528862149108068569881418740626234365051567434941793914777452397969344325888455475200.000000
479791964689300546847830397518947790560836870099697862749823373179530888577533645652255309824.000000
26669631694544991615835446351570918671576385381950784691228063493475386026560734940264136704.000000
5774242665903329012726624624675139550982571397336505125716775028738011286188327268616503296.000000
2425506159125447087353635398222676861492006248417382998263913704360015134040084336586476998687922126323712.000000
4671256256044085723322225155001311332542253277496515275553677183010710414088005337418130143991613360177152.000000
760611460125045617099862647029874542702030881858134562798037008668613420751236831818486105640259507191808.000000
3570724279920494051559861459465435358030353439190575562730514081028484776877218612427080708574571915116544.000000
3601472808572119621404615868626301239744048683890255388822527045787491649603523597941973757253398957129728.000000
3861742708343808066914054372462840014268520212879954929268904336128998894088763982564110346508884238139392.000000
2429584590606852634936340435061259841165672212510366616856077656726961218415927370667048373359467072323584.000000
1154921556614568436588758469372320255362956768359841849130315508118212601368681724537886916997800829911040.000000
1770150344172971045595703877221842858749051298189946353890919078091909027958684362840244934761659861303296.000000
2204843944657821749629886452156749382911741924699953822571499584191760335713218244793413544912873492316160.000000
2002015399520388456457334931371747632552761152390753004661774809650448935662979874616086840327100516270080.000000
2076538739958639803282351364656604892815534380078987954232750233792030684373610580241668510427965758111744.000000
1931204403551647731687095051503218142072953920751845766753909982930530957904247605572137317274734548746240.000000
3160356645258045195815803208375320734067060449332186038667156921896959552664178741079678042894012948414464.000000
454161797512394347635191112189192711555713162586569710112094853610501593199709090422109908564433539432448.000000
-1300000235278551151180175056396018211188788935125272765427977066010394013227912658078190906545983599935488.000000
1172009815587639826574514130528276558569617410232548499193231666365426849116127579103764662154638332526592.000000
2377388372153554700060850000600090198537914288029807571998318643399772051932725052733402364941120458194944.000000
2079464000670746976864404532573952663009631470636733893562074280167505318939182847997726138297319434485760.000000
1509301042138928241640255760751466408139912541530953645861189698165179788043169636719781183476382247682048.000000
678734719029010843377182541307190143414283011709612190459932932680446035938038740162478448069517848346624.000000
-967159528055871472884697223050629290026876256192640127802984676719432515281055600098807446692158016323584.000000
-5338795436295713069514401552126606531801093526927139957645755483022082441249430167772388313086481385127936.000000
-8504496306704387757829984523511051111909403259462056255459999198797615050707224487237307780529234814959616.000000
2173049995987990740972725488919894960150535480127706077957907543927364689986902734454488003630924744884224.000000
3000705418265525999506305647653809446500328996081380352567664706350596426768708571854136872825722125680640.000000
1732397012679919134279794229812121354016133642772474873284190478144876800141321190080095068130953102622720.000000
20520981356197969362185810184707252578247577806354330358954084338322618852697842429646957764552958148608.000000
-4109820451611354138905001006589743797626372353326080114442743280053293807534405711083288885271167867289600.000000
-1255819993335904339331079713724819884385958847461106049468737342371243609745225543405930309475767100112896.000000
2256654027013167272220121939465821053148103900058988115678822059605119332554158316379907728382253588283392.000000
-253114516751587981303396854544427626003158609651871986036987547346898143758332266033379725262401767997440.000000
5026747786432137875024907059763741979217956256102871925499055146665819217366817664390969050560761935429632.000000
2066628877908910358799207988397973816548715333687820453421614558401297679103847171038426387609290180395008.000000
1075685982822338354097902155323601992857067143505871166797845205097485701021426987737048427938428082978816.000000
-3442538706931660511150292561677726130318555245901868714107946177941496045263536638485847182571791208939520.000000
7610774747603242112646910652706233718790193984641337447546515321995150661988180522970802432831899018723328.000000
668008044772493452085789411406328970970004914011735711246009037920389643530695888296394467117276514484224.000000
-11328404928373011339396518894517547780664034701499225458022005036087137088514150695455496951380578586853376.000000
-11463727776035929241288658813974687999238495267537746708200530614893014634449256008004814115808634839498752.000000
-5999954301582229966171111161116938364030178657811440832926820191500894055768607091242111511515236040441856.000000
9893120294706520808785456673198437653715747848224578102995977015032401728627558165888175951998601459138560.000000
-3778019232993689977795372149069641313840422470847070306628599660370490901734535472627113274631838251352064.000000
-2471789849353411124792037643723290945231718982061951840267530109397729612125353594448584072493206027108352.000000
-1310281016900786039373423511490799204526030099032438613554328856568520985908250884127690776292308585283584.000000
-322072906909227084980827592401851059057351907307613395440845530205590531629647349174858704437117934632960.000000
864137450379790784956557394804865787377978216571173852572420429681433967630193054797865422115806575067136.000000
8122442330925211512976245461268617035999170380419447081588767624825237427958651594134829628669744994320384.000000
-4994575190262882343476703930658344682800227208958462248721025933710188251279306072795520392510383748808704.000000
-1109955972985893437063506016558641166910649532741083791776966982406735199082570735643629838948242252890112.000000
59693761609534647157542462744266331322332494518688993787432218703476503556033164248155701766371347005440.000000
-931988169008894191000077481148907405884712716910277676628415779607455664229860108035299504308426358390784.000000
-4907196638641175730683344064269439574148642898114995690462861372207198870646963546471928138587724132122624.000000
-2567545732280239536896339083731091563617638809817114796662074027387830355246330734797688697346531864346624.000000
-4097268896536980428896260121938918495411912286458623512737939677099729699763829876273535676791883340709888.000000
-4380248051935566752504834171743893845869478028586254057079340828793466699907166890126103463710048942817280.000000
-1220744438257669120623823723737467671158592066038404254368104801625787459337875935110640263687934949982208.000000
-525116391379479310712308323607983591835091440529433582013871172066577248817305160891829034292813420822528.000000
7830675093343311420542689460202499167017063487286179480066496192348893729509556171220665383631947189714944.000000
4126776963565036527419782093266637027839277168283553002147303596093680296407697154603097643564049727750144.000000
168827822686232553587154774334566847370557312004701337533909332510214537864179131896618879095422765236224.000000
-10329932423280061714185466715116747619296520588412867044637157460260687029224290512109286150803244110053376.000000
-6495079257450994048367598056575015836178303785388995806142054000825570654077579280101203421530421551169536.000000
-16608410117205050057730688276064596001211113512518262026107987466560511205379384517072648371459664532996096.000000
-4733804438437457153102818234920210605065123841399065430534913349146979812367713929506234419900182672965632.000000
-11386276751348950548087874482678823438393262431663586444619431126165644362749040593548149592402191613689856.000000
-389242586038304061713506463522045911264323003889016642773845565107469533996828782467351089977250702950400.000000
-6543635905131073082400885556297492326157792741231918979984952466972442446413584686464922255527222538403840.000000
-5948798612754160445377422428282433362102445878341067197852692916036356365031027522705131708833502999871488.000000
-4527887993206144327296690112202867955730455641765669971914932060167571013914768004056341672866963974520832.000000
-5025529427246372756959633152804284290760877609262967755485649355884030453011785408843511891936691693289472.000000
-5041683582703871360314797768267851503375416930069757900152513753812394434935493923436754654536711408713728.000000
-5993129073917914565222962892529378076779397013918338797918208517266816840647085065045797927370442670080000.000000
-6867529886311448339610354890293683369721357873026157867510324124083618404284307414680379651660012912115712.000000
-6419565824678031424412326400876855195139500335837959192668565116054348657801471117620350031467079182319616.000000
-7542759587020250425671284803685786655110183326861009627053629117179265956154267889480740184394293957361664.000000
-7789133602793343455080842737424812758632282658303584662476813527287824273145120734318235848777974755098624.000000
-6998184596826937704690613642542202979230077337754272500762364420392794784573773630831933285087616664862720.000000
-6841389806306510522831084798668855891479647997090459131269248132353535286429941548704371665870055121354752.000000
-9344718196891804190081368901788461769573984857059097960053895648228900692674472725926693804970773793734656.000000
-2997726258808241552565416118074168904419538758431859880276109368658494852561948537435433784313978703314944.000000
18445476653613701733770322140212938189139013963109901522249244289623962920070961881392035283430371156295680.000000
8290474013842172945535617472466934041563305372224495488010168437304806444223052053069288996501920164085760.000000
40499207181815111487726920743451706512703218003307472416278366093686228023162932106243826309358590709727232.000000
-10206019543092355236020552660359260213999492531034738132635419860950302617508614924491844973944769643282432.000000
9045340516058224396951149464060115832202027169632603295736600099141334962716648185556792365014148009951232.000000
3712181367657030346832299270915813538218271053941135438516220533264419711447356047658005197823687889256448.000000
-733141558683690679293644932950742308353363351210034865285141432469714336138507958540992078786670916272128.000000
-4353549955496172770061503216074710702658738368605895589386314173596074372642120484109565880059904993001472.000000
-7196394399783517322099862826905020838525153763940989492335396967958550870906014713122831407798945413332992.000000
-5527960152760989340435728220523129970748358612927918487354892744395156944015902982471832345765726316920832.000000
-4571115961647619577546093698260015386368998992136994636448055858225079994338035502200169517067292995747840.000000
-3777747813987682787961821730255438791869969899256496680371425154429340364784667617305559582635823263121408.000000
-4501518727775733710843752736791328622059070608864769898561097598870283812373569723065254007142761621356544.000000
-4782893929367006964612124866600308465681309548872123067845907071687570818428986690033100937003295544705024.000000
-5513248746233779326591866088697233702513759673198284939641176936499317439867948475243108144337433120473088.000000
-13976921861784063471931083149743059756442899282566783310064310796432378724494016421411505093586472411332608.000000
-3667796420114308134156161383982085996302912409858088297311908596872704400885801301334793328491118557396992.000000
-5822416017811068942099984986505862526201958090827089062723687623606024928491375380633207856052800730431488.000000
-4263031851404621244289920035997768169112110268554024972959703689431388078002397250264023835717531926003712.000000
-4999365420846649365146103149794102377894503878209960553895464568593655397462015943543683648748582556663808.000000
-7661686495623484220779160855296471964292145405068734328857919731204706988484287564523963711931080503197696.000000
7419965684068185528586889002349653644885564428692165911246239323170563360367763636018275255239685793906688.000000
-3856493616967527414633245695764965155953769052788940714700294491164847917911844416643808319644158878810112.000000
-5003107936326299283314107771436207421284730008839131068422177747222287585426021386451244738874326267199488.000000
-4913781203594563636931487293773531543783812715630078489465551679948049473329298160423494629409243122368512.000000
1107552634112338406429911146632644450411926774004901074366989860256823470848256539941249968464087658528768.000000
-70212681292572153347695632543387566288832241346377284898111199917111219127343085418157190001140281901056.000000
-3194451632727621010238159018379168454974299949526581661668214162036184034285854440049500456948260235378688.000000
-2991908085847820483169627213129913547110097596837602190836062824519213447430365068220184064782268717072384.000000
-2050192573819321645735711078119348643482049559732239983515109698271687651160195678123942542229489177329664.000000
2229525474398030954065010550921364460464742956515450405811421012054309573631872364698935567303923728384000.000000
8933021283222708485265096365226756596157052112510528250306250187088499344433818674624224722248750424129536.000000
-2761886514973545741577204228109586841901484982231384295799890598659239270165175654305036933007441230036992.000000
1881086681564752362323042933523542369000880933974891689296450983896407953718801758145158927807723610308608.000000
-8392507589534646931709568466295883587749055007026134365669833952738979988471828725605563458285846696820736.000000
-207448826984329244340063606702106096129831856549308322794679253978677967535148148707155030106324319862784.000000
-3196827726642388749081551433226805557386306388110805334493355032231062425302808454178415547486651998535680.000000
-3541459495953367628811588313831376191313599146384222438742785138242580335631405355763843466166602964140032.000000
878004843790484012358658056314194279630349825655311285693918680984502939534813152905503555293290373840896.000000
3751163286387008438154596820722029546230843263406970439825161416709580733243903603318623343936805380554752.000000
-1402670036873310556288418496987347213228635031115525251447927885772941896823777046539438492830321810079744.000000
-3032115095972807338653178463947817900813014755865384634113197816047684086542060597441338731673251768958976.000000
996653870308276648092614031456198873967187690544916771427864785701842121369328952007232747361757307076608.000000
-2936603507406080250690650375872740183149802061090297480395171129343384511764695903235745635229033589374976.000000
-2371285076286705098989129685182045135397848676143483859787983280313196166303619855892829711131546952400896.000000
2397310853091540069712233770736081086433052127728697218507404304989231159647349329965730553940806578733056.000000
4525078882666801366711633006256715297171582322324005644815996667063798362658859759161620672286430280548352.000000
-3987568865934882412411594015344212217809417747574216689768638194293462807545658398599079836186283360649216.000000
-2749207579545934129733873123931870001567288936833265345061581409447883581045202795188742907121729043169280.000000
1818029023684969600665405633922678371921484448110464469672511474119215887083579467535873195351398074548224.000000
2114483070779271869853780464712471105570252795535220645926984533414402839206030718474363481945500979036160.000000
-4647152374672378404548865399379911744788261752041391427210269820933371012280939072728214033327875619291136.000000
3213491983802795779171725216130659692254037543836957506634399499984647092990433618402155041045780482752512.000000
-5549278797502965723520196152683850583681045119512657269880653932257000398724116350432661876039415041622016.000000
-8264514830675513424239538691355731349885223515814014411722430930741658749369595946757335202999087614918656.000000
-5217644028130545855929013887558828851957661512375626037914744065963611665909102732678294734565534085414912.000000
-47184491756271365847243949162244402095327191067718205595023886983913887611412345960381619727689920282624.000000
588709604792092432404090755822023884847339218211231513987978109768528889016137559569605249659271490043904.000000
3177295592090876952818496262153848804112921754549015192658598978977691785942013350291092758086021726339072.000000
-121835736291591326030094044046587100738461545545345619005302989776688364548522955433720901641015555784704.000000
-9559467946445450811736638710224858193643300910850077607731004397209012483638688750149490966104791102521344.000000
-2751807426413029978876293701433971482123615862390628427950454918613262242379733857314728607856636456861696.000000
7406961842371525468961267202237264061474717796794002773077545487012697278143407350736145788867026043797504.000000
2298356911781372168042738383694835125746250669783119397567557227995687610860301530669472789663639652007936.000000
2592884186405503083776579617241260845221050441502811279869447775998454927757293893714166746514232063295488.000000
-2235162100688238351182377829093935147734988045292240983129452794977712510958607386220775203970224175972352.000000
-2161867552612272554340367537688481294144852471746317726457366127939333864652433763584614336209534838636544.000000
-9504554793308646378090159148136311989104813335026983918926147364527109690409919535920495487590262758178816.000000
2201077542623008659733949382834752843696707864794598311797520060702994016386379149209355985719756842860544.000000
5470703827036779835799783725364701733993498536521947498458442646896181562312440492750020121244395007639552.000000
-165377658424523560135194257931141520918506636059172123393504968095972516110035073641669163698499484647424.000000
1942104158319143506710698981936269055568359725484566221005087378893068977425333753730992321580333067665408.000000
-2732781356388113895158477799886771411555603901023364361443989565001878078943067368746796508078769245782016.000000
-2793488843184228148650102004442632955733562485172342278030763253415705570623962669402033951097746651873280.000000
589280306659845415163824906728822091826342797629426383323784759261000808975198229461160398779120384737280.000000
368322695267457579056518423269050370301613783658340928349276499768444414700090124847233034720217231523840.000000
-3057720625620777496808991504621420109788324141915986545742155851667632635355655686767853562033293456572416.000000
214409029455067605839061546858112580201258951360182019889084869569600408624229064756109535805607671496704.000000
2011600119259598010176772239595624351128173733367693529130137936368794561875378828112994292110727097352192.000000
148018682456557110565918231224838183017543099146177404202467231471835223668231630479386480381567237619712.000000
-2730541509417080387227120418751064548549731998308462440343416994648954245071989225262411874598552346820608.000000
2121958507763015081985502523746554868799634732443247222808271182629237054871587448689741972740698068221952.000000
116003862952890250631486330348616250643475862449428543846775270362833387339391696587449555541156859740160.000000
-1389570763313453054484882343743804453644635062319387297450204114730825591125736460979461007852341186002944.000000
-3614591583594517609569981251103994765044826597772120756078529174840571741105024788576948618209911669522432.000000
-9766332927141729081179013987406637342017029658684701728038379905021044900700137319654071157477600393166848.000000
-13327057534444631132595631452139703727919565265660095932379587933990520763837910622272066645945915143094272.000000
1093734852786521394389291265062465301332380874281294372499169539684046163220545493825812884122422317416448.000000
491373241116115648989584116453024222912929882419654243944528985265926133396577223824993444153271055810560.000000
-16447006100899117748786674108262942271064210600194884018543481694000500938291137674152662727837717175992320.000000
4234696402422814929375069315223730606149979282038588261824547380791370572852899471496004309448919542136832.000000
966612216436492465848803881563625009436405927633369770860759028621400756676975406992000919705001188655104.000000
-2256284731831469188372684304116607106663565799390250154824729540067769722357135528835238881159525924077568.000000
-3371314133697790629368491419982633965551675380985822357909300205510265393077006278869890479077994522476544.000000
-3876299459040684657914292021477049753114474745149019129073365279606846137382204153073877803647116802785280.000000
-1053326365850690448569485098361490207526369569726160535054898031721763300089433722154866805467786183180288.000000
1003093891433359160594454374457072173068769760871376501828835629634355339961364959421436509610512134176768.000000
1463678986096268010377114260368942514845822653104386505733577609810995293843158430479562268195765067186176.000000
-6139109233986262913551360750102046561865407903440367010259821299821289482089966948121726407418936297521152.000000
-7142380648161712812026256195953053826639657522066772802364509088663577269140842058890783066720858850459648.000000
-1242278444908455103250357411202359114908157927336629146600414501053277519909963701651859374975617450639360.000000
5919838050279730622811643830175947563974299305173910877923048003781663697328973556355057413389676923846656.000000
2289616376105545722876242542926597787739661478391471883675515801459255901719040587533025120191515746893824.000000
8532421270395100661544283526106826811442753244085388732848169866782863096959405930878974905731516364488704.000000
4560197376007899180180873630706002814791448486377047011797307421491849668575611047751859754999352527945728.000000
2439032766634964176935288350633666201995844631217024920770927072056519561229792930516011346063438779514880.000000
-3303405812507658860385041947581001778181209985930035022872181406332212215528382713597599652281637771673600.000000
-5012951996334137036296347747580026754362370485789352117029947722039187086735752747756894606632313262440448.000000
-2977473421494444311070818965578245979769684233728999294904188331920003990378776571972213840485210709295104.000000
-6970635926900325698443065724968513059024965075711823036836162849995744817627428903326271358581720450334720.000000
-1422550648102430282193925795324783452666173887797492118410188295671733976488692930032163582323350808035328.000000
-1088947877354925763666257783853442290854389003980798147522118672104564749724219455650000983138381305217024.000000
-7973469340724867713833834668575598413716721494018089030602463763199423884741078222496533384250114988572672.000000
-1719673397727642381900352454907238360623953814860822651864673560195586214018273798939823878623063957307392.000000
-2026540107052762683388193398195416800497406280444909165400388101243935616198224531612660667288585152495616.000000
623737210989576258787833694147500511105419727657027801479818787114721672871518065475099521370268199026688.000000
757131434333524014054481255492891938013452403508440058857314033029410596092684219753782854890731367038976.000000
-6269002908662430889906995475420229820221125417613570414253794230955115710936683879589638773910719030099968.000000
2239487055603847927192086364079700091091635938419131084507172085407756869242256284252494460608384916783104.000000
3205274436879472754178226488778742249011117097468038345564699777655103494933733026692396938349325385203712.000000
-324656751917662447543618974026734318707886204356901171105982676746786130372729025269210011297994701275136.000000
-5164769651642444524955249373419654048960393703042510535538918665964674019741703796259278845410835739705344.000000
3911836570722119034155508494304115990202282604945022146357478099597905637450739401162020238656689517101056.000000
7328690910602362938812378931264431232697381493310092153259824754760199375333772934958059046277005787004928.000000
-3260038509338061660159346819209409827787412832647678065954638154426923050365208228587919829964820989345792.000000
2001617101466678927809490311980466297392238668744643728545697690982073880190104851433440960643389928243200.000000
-2609720587858533344268646385022166071364633168964253149965311344945191721049273986226265712341386115678208.000000
-4189296605116943452178234935724051547512038566035625287169214559625661460219218247044950449966328588533760.000000
7754658284720359733149761071732035972205167488734204216314695063230222601213672111348173796859448049795072.000000
-3287903967208326249484669569658486502945364731747785921701024862226877576523301355388771385771375485517824.000000
-20935795781631336132671880079031046651554775203305637910274405657074875090172314780440307163185278877696.000000
1834516301877274307476253455018431545727251893766440816820154488104902694431568967873265599782114994159616.000000
-9476200668253294997836651636365021116035790424591860939291446195145716618518031845960188605664812827934720.000000
-1262477268782506159597761909437317279567574011767680159578407263444516326194629981368536941483945472557056.000000
-5926393023371763290080421035994082183114129197030087899349264351542132741399144551789022628371671375937536.000000
-1270960558010883949210516937665878311031336405473500675367280118084890867176491537798730811252763191672832.000000
508539517752587347054419147940816393691043059343886679605021600639400995844380978633758526904562566037504.000000
1612345619317445486111059254517403212670317787294875484489091381815465953785778403205902150258465230028800.000000
-816661301659537051737555297205738686042414509667067585247406898265536569312675808677503309657008022487040.000000
8243679635600632769224900916816788447771139272017887556233020322249812917630280734226614264030061318373376.000000
-130546965899620716418890721191734292004251317380670205319021458396907611658325570081253310235755438669824.000000
5710608290037521271297895003743745969985180677398807811894751051093360901187035311011268545124787470467072.000000
1210954382188203403015649475921298033162444997334724686188471365416637857624499448215517039970722343026688.000000
1269550325348768320436183703532078041726263713293005042233070744745803369621104587327915048592004450615296.000000
-4485611314516158209833902518391698879779010264645843758078952482480741336054607080520328978766969163481088.000000
-6490646020938145314538495614228484799776682543730514980816305100723250490564545187002651512455990360408064.000000
2658671900448120777278172201205033631978784304930122326802755342334267235459769964505321095940915133939712.000000
2590295969745358089129363223349683008478794985018800614797523316790476264319427457185669946851879509032960.000000
-2773047454163818337465856477253507805579792384870153826630536074241236810045509487318794276637986590294016.000000
-6914165890733668119683988775965484143315412203717729675473548125569906150248139191833686942267673669533696.000000
-678138944368953495688439906909948500637647601682895643413563830119102018153779911988216073869835810897920.000000
-5857194013981806071684562671513514475812292602518279734849787909653460624559218982984501401069212078702592.000000
-1025570002680006129837183731194810465660565535543387626305400136783347417949634949526305408832304058466304.000000
-2771078331706729156753297491354156443400655903577265208225344095551230182281652670899031011294438739673088.000000
732838660999237711903164188208024339723629076824429620815738240683947607778292990472998539728359029473280.000000
555642487886486780269113712686682680793209706062363128444844898776000375915067309916423545839873299578880.000000
-1230661463969587387822231695044896313315562446033214639010045508740157068922967675201549900667818392682496.000000
-4282722375259164031693161482033501294972176295187385805632842975575393054333933223304538118513746260262912.000000
546648671426923407599386354422814804349053305140547910998147290275714494111893514837068666808474743603200.000000
-10184833612758534959900064387703635433240827293112770414744952305445380596404489171679391822662859810144256.000000
-2144363726997297754439371138133329085286913962343738478509560037054658259032257930470041505420230902415360.000000
-3200145967992403882973592768240841964873876435170668879948098687132435693749503047071884713481709178322944.000000
5246531244523440406091100041015207869490945119021468490239211867177851329326236038688371746469004718374912.000000
-3531843931413497498000486608015377529214009694941850718817694354512923828399213515628290031805833058189312.000000
-447661412400793673976612061987945079694615633186191122154191551589195938727153999042334619885824024510464.000000
2489738363943516051754942573433286498498836349953336881623753964627892722411749951443560901326980301979648.000000
-128779113308998431543161104929430445291645110179642704064577115783744857809380314669737048887680917569536.000000
950194272099304883492685328264766419374358356865104684511751749461577135879139480583434195064394962960384.000000
200173317665765485809430732815482995893126448994786613365976510583174435435095654103103471518994271305728.000000
-343822649861633336732659135134003148139376583773648804493955740889852108803345977332842820338787368828928.000000
-2185409143621008022214491374942942886964187186580640785265630483596112936809172355583793524491897563774976.000000
-4455756749488119167749779486199059231303725412608100567163224408590215878169473249346494663914642707841024.000000
2000328484500978348199005907842841109870733177373288525479420237431239002832170219897743223418243013148672.000000
3767813142419932919406814443843807063680049431277030310826141256885620399146746937597288988677310928388096.000000
9060841615656122338184892828793089675394918489501280678636300023878587709192731835536179539550178014920704.000000
-593847803074344473807483038421629336004615876157640816180662714399549097937559578137766264791032991318016.000000
5580421905220435688188425856725113101090194373645753000435087557334075601096574602282127494171695480045568.000000
-9547748803886921240110156951092678431603932860967969956289920081095155241197020731998214673093831711260672.000000
5992734887685272192769848969512704895000639272443341015210357252606190493637001875599426378508639204802560.000000
9414537208140281820449817351243745923710337482797848506398225314958562220103804202284634359490614055141376.000000
-6763028171609594101296475245836363289401238973588046973516849233469326008402889816363050421864311956701184.000000
-1152389128677090314248871179500075192867134441355037634926295743776407350501025742205217031866068680835072.000000
-6155882981956215449346970995080023248753900817710022671809114012644568162626827752673305750244442320666624.000000
2688031085936949923231846051612811297871421081226317111781554308696397626532019062298373392073497344212992.000000
-6090010935906226840547042405579521976654509756712176518036560408157020298148708438374566630937037656555520.000000
16534045660038099432867234873574970372453786292467476418115417532987702226889290685333564504445273717604352.000000
-100923009181142172518902243895378772544107314317002438032293892804500154516141753253648027917441736638464.000000
3724227979558544306653001064314736536646306857709832996483030057113956750420052597612915705902356043399168.000000
-509902392855964157256009306181059392901944538036515619040046478001770619674676386037845905069298929369088.000000
-3736693439948939155540893620628137216277369019677009437907598230340842716543369955189970382864769112604672.000000
875840313809615398574845421081680330345334557420454930314749574487610787839970387489431020620772502667264.000000
-3197139672037482612011856143866078096445683240953995510444063893584464780966303226598926206051426475442176.000000
5463530872671616934787193862536440748785187413619389561115316865137238454652091311870124529160295874035712.000000
4566273641461577690339527002399094889277153960134857157814005078047324273845926418110735113189488345481216.000000
491628393806722314138688700803066222452294093277474695181842305318054957432285241427237001300803231678464.000000
-4538741562210744365872544222947323894734603359934261300854818808638740554358832372143162907417116353232896.000000
-1037614644628140792266046067648360479420267503505665454733954139731946441285600126089376156020697859096576.000000
-4160276389091718536010802564004704673480381760913154794730874403811365287131169631107005205259544810225664.000000
-7045529901386070608807838435167179078986757886765474299993615537822637691559354283144370303682711987945472.000000
-3946065905015408766475994257698067169931541952749630097172383481886373499587938296401990635164167647002624.000000
-4875527983323738950039127615750091026105200629622358151761185795755658570672954304728779156721831040253952.000000
-6294623157250260979570706640544736466819191567934918924249371694412001051797450110394164603595453261414400.000000
2146556547550618007651356458847686856195248654701564302041535715469615647377959636693093963063768970690560.000000
180504386756708607474487968150327705310426121808440924594772259091433055698278355274639554878121592225792.000000
-3214183632631910927782601138861430687453975264647859160488206243150959581322738662654709480720335022063616.000000
9753321741353960376615610665174417771685775926144728567219033542543102141398734174292983802218802757763072.000000
-3202347383168084812945010982714919786973657562356361634429854581558425884859446158615570436665275551055872.000000
8552419544811151320846661643589939019170226563027616381610109839461423237079534917267850959245166874984448.000000
20245487942608744088987331357483527899674230331213849295798595054574844884347456235987909211828373369651200.000000
884216228610007423247257198377177364118972976398584666623813528585483067765911689275153657051070465048576.000000
-7896440122657097362996356740409049944725053431297447798415933882228412752502605555839572174309441862107136.000000
864626356372626814552087832058738346531100220986167037923667269136529151863955109633045707834942793187328.000000
2031103227187761006947479111556702160734417537808690072517131361359523925109001596112225717450035249020928.000000
-5901155793245697396066141634398567154839543056243570715785336049072945245107802940349778438802309057085440.000000
-99779505734334656543989172271132890265591139350129672047266772528538026768635018069292144897573391433728.000000
-465228336274029704390371073412078450453712291029206379836011638083639268574148754882690856870096075227136.000000
-2947323457723754307471429345518585581546025572605425043750376392937864095702015884663499552230445659717632.000000
-4728497102039930473494520198579579415238620895701689523326058058057229324399311327561434450758780999172096.000000
749057028958154895854305904024520285134923281982195184191109714445120379586423351428331305974770589237248.000000
-4183574617812649193351562809547430428128685666716756764766197509879176891163965149336905683200065799192576.000000
-6213470609116929863299257813249285416935822332548153487902291659560832680693324106549072744209912564809728.000000
-1636655802417090536967840118379683254232225629040725783444889949871287294655685561802416186549946856505344.000000
542732879270964519230825439543957337060336539041184038383982815068098248284422024899743389077977132171264.000000
36129829663515501349360468022988037781342668458665321284709195748000065719739773083403778900890587496448.000000
-2419623634188774565449002122748856585507725088150660695757157033271941413335939886595823199613855706644480.000000
-2057255811608443590383662270148997959826773956185384177729763971732241691043562185813025053263896195891200.000000
10708692951972495752685418025421048466186640374901832153644934924976283303577513382750561072468229672140800.000000
1171554105027932786475238066333357277991468897936097084233607102120541284104156246113926187406573627768832.000000
1737925602479394003723031017331123539526463314897688054637496954408401211338302489156073474131236122263552.000000
5324295478003365099847544377436073229631577441776281665774784105159218290444609762061902836642492467642368.000000
1691720796958470324891465951749122129710406661485249911301360103808345499819396916243305359737319076134912.000000
502914977555840937677494792211414908612689286960337199250017746618657211656850718727202045047046498418688.000000
-2249230608670933468112915192711455197132014044090900623980977486090678387381973844716137934306041179144192.000000
1303898713211965140396728855421195735163385388947946968250086518624536666699395131361757302171114055663616.000000
20474809980712283178978264343259472906528599008647740158088273826312475304675752225770896823537592627625984.000000
824636533247330560327684721089309742328047634078344472619940416177332036593653642141090226876853132460032.000000
-744168631981034835171607483832485586475591049917428653561730723967447523082424423800368076412741966888960.000000
10930352230182835581107637477197200411686987610159264341989505705469119647771294478065585400797136026599424.000000
-680458497934172442342230364766476534465839767949704489888006833015923851672441646664364190305047191486464.000000
3131612728330792381188290752443028429570717943861189934191682015223894783119284903927864160591970612281344.000000
-4971117811899199851317203465283082212745775239915350812702297963870434664644059118820716679991660759744512.000000
-314216120770948023686841914750775033381414755505069217434468846866649068045789891818025170457320553971712.000000
2577235310832369966781467271328750591137048975963604565849716883715154925120396930224373889810092437536768.000000
1714933086804235990091478638913555882168894673027769370181760716615341560844198876682504578726785653407744.000000
2436581384096861969845488795345841069860256910516148157042235777924757027696247466134213224441540260134912.000000
7182233231399587633739520355709253489197377052448798514903354154656968100940111073993514511835920716529664.000000
-4170332386784061018732125091435048774355982230205324443362360884989206270184653403207050205081115241218048.000000
4715109579567067109692245921559776313510305814349340979022673695296157561372812141178812519783555179479040.000000
-1262610798178626344234164259434775680600823353570573129510532703996041063582718808725467480814767598206976.000000
1142020519319993516810789604407716956253946474831664735304076376658709561842591524059806546330916910792704.000000
-4760107962828085910941900757760703830617192809883513479979154826921085963864999712952628611887954791497728.000000
-6704317482255642216652785482443528657144492979374699533307597752901032919395921131580391269348188773941248.000000
9341902301157520867963126294904048510127148758330163280722104666103409930898561451123908497947396268883968.000000
-1115757563820070412212718920147275243758344684924854550029463531392070738467358732509121753546440195440640.000000
-489101496124833520549963342724259401106334286556210504791518710464168390224891761842989970521394790793216.000000
2256471052539326861515984127327856296538795913374028721223709444521968593459835582787553778963927057563648.000000
-131746274679386727566918999607873099891527241939975197136901280641577709589780522000151849357012239384576.000000
-4983150637930455198007106683105432654019746522063740954054493523267876728861980361293106912280583625244672.000000
-4799790942967383446827492002703881347064189709491128509885969282137057471002051803441559856389868279037952.000000
-741640164041731385190172262920807106844335871592268893421771257250796603700474543571521264489058445295616.000000
-6519706249656766380408022746612946151177505284762368884432507560533224725864975976815358559261627753955328.000000
8126111582850088556699829634541872156188128074333049944572971898299225782663233320641115783399394315862016.000000
1614774521976828464712265567446715022174158999829681968142955884489740918342844187303758476078557140353024.000000
7573526953581446004375936972280844895541080442677453037373881797119294920813374395303200135099274860953600.000000
-9514384165732924214655861025232602912148362325621437288307716460626433927734743556921127430477740995772416.000000
2677854833022752707128032216719531675893422756939993880760473147406564448779248686936060179017088177799168.000000
-7626495425186049050882897348915673569353947424687182720785965338041757949409701480860155633393508898832384.000000
4187962927130935616279293423955793462791277837623001182284721903194556837677666137325736791263264399949824.000000
-4762917583516639760123277118673448085375097096277804472221367259083911849296174858183575571473099527290880.000000
109632574320697849616208638778969028168014030319790675236032336717679137449168102024523747665302018588672.000000
4986817580326969185316143411967155099477975580814492036434397726048631109142293650733563115631955444498432.000000
-2110899587826347362442237765968788320983476013700797123473432951173865857674859901800671683275317374353408.000000
-4891839922830910973800183248503534045032065546474326446553049529865162202122944216909358415393219124658176.000000
1554774996241857242685319304236012012051639064529711905275330358060309669350650282352147230601290341941248.000000
4139985677477399350020073336323591818640839366048028323970424520028241908454659274923112654126852333371392.000000
-1340283372068286909559284770925279926950885244610640205022617808786214188648046932497952763423953535369216.000000
-9253828647254775682685830766220731024931825017389642202183201904936207829369694498135476094288911591800832.000000
1230823781225463962142639323114616393961551714274035826296497699785706060458916270205816694239659359731712.000000
3786538973032460241291462438100412381731112865660216733356244700857307320001896463152355311033518280146944.000000
-62008222278191235399002057447492015167660020010886545708121697026140672758031076595826169632568394121216.000000
-4128508427013018465029075710019954117713046203183337997398756935076806115807335485339441768286273098743808.000000
1902094402267524303481585332946413862373595219620352687279213464405376728288237590477047890942314825121792.000000
-3874362357791695548776981889243015010133403315422380605682948787335088054553086009399569461439028954923008.000000
1691656814137476163881893879026395723224519021564574622992380568801580169798931085252823697790443274108928.000000
2647879384137191915930954552845071304628204447360745509151214229275991504598751381163139577195022728036352.000000
-5133684158955126129518889338887929047873367678630066241922629669201860271687841227285366958219548210233344.000000
2869386706708506798884679112638955514290246992528264613935006379725955487361535832731354028938533957271552.000000
-3049355279726174649926477315708290560122988440632319484237201392155356765133551518219150370321246166450176.000000
-4420207432070517601620227296758042851443648588110130871811515097719420774900474523883025975826685546725376.000000
3494204992074399197021531950871308665492591296076457424214671962256284419368968157861344097205857334329344.000000
1443921861738084390121728987321261205067340166990877251186633667131824174095285183780769734755301355159552.000000
10784937194940340746516226451461673469468586430968151364515721750038195757507803917969164406987548683927552.000000
-1338882335133732104927404507594190229939675685497646139343365194911924831554916427300534117759283514834944.000000
-153340946632647069546193549297193051002453483402459618110450671846293354568726920806765653094047034638336.000000
1804629705314398626595003197954323142450910882426397446681533265654345090803479977044788918159598097006592.000000
11709343196827489535482519951449285123583416227677115496734521360322592492627171467211866523453360462364672.000000
1489600391886196020884603741953902194507581844302693390330349869190234795589306614050728376030871265738752.000000
8983491255334451268954045966900804167783012679945246033906958734113289820789382855960713970139283429785600.000000
-1425947312260033303689531583001698854751954534506140691438320268861842937382512357620165560169868000493568.000000
-7093769482192201745666078231666083875864032805013469237688841360383968262357800002463383395743111713914880.000000
-1536819564777687117890022651849873171543670768493147073613299966648429851810259949243053672070138701021184.000000
-893344727275465268335850124861962624233808821551453793099832848905878816517812295414226894961854147198976.000000
415576422324598361814531986348172667331076334397697275809185616456709867291158314967174880254667792580608.000000
5546701358874208096457733185565358346615300737955873372912318458381572452984604288653900906152991026839552.000000
-6627491972265491314989150610335166869779957943614604634478634106102749922917686896580662626942957444399104.000000
-5207173473257152823517367890198326889384924268002777811159762277954011991207040880595580239751701120155648.000000
-5231098192834754505156235957289041994295779232002418474943226738382912659478306184644923411150024772419584.000000
-11049624224836005127178004358757653306826906030899552380599782324988328449582637638176252504224771724017664.000000
-7971562158401099881236534666130266621745588918823663863227924492863123992508356342487848454165975057563648.000000
10739433845279913687494792768806332578503474263209980767218163254327446843455777750465296197641808522510336.000000
3600960790020304870311575291277094158344126665061100125486679762409716271636386659534210257608470700228608.000000
-406349243595270262969276343985119140415223099644195634621153716947849081113511098880088113939530437885952.000000
2205884216510510499251608397905890965953935314060387917574637320554073371970285251684450870255848267972608.000000
-772869535710346389206551588180287771452029840836541346457289909126019322749134464543557065345844719386624.000000
6117633518183325739455669109691661364965225624983550839898726798969370880870998331148272811846350508392448.000000
-8048603709638747316108680439262133285964502389534831343191861957057611437733082573848884094785949400039424.000000
2826326759527268946785799986348308696418160051065278314091572974599416321692143370701182329140717450952704.000000
-3809246809097624010635188904249358815759295262036709839428758637255634387065787511012560219185931700142080.000000
-5479820922811138981862784182735812688177852825603479683665812276499138653237779373222616832526072667963392.000000
398360966227365970029911644175158627573649982049155848964347371750917895283403031630364443918721515257856.000000
-8372111113272209865352534891575056111284233717893786145335000530210900479347707516070515778757506113732608.000000
-6003578655513029679229127645518164320679665659609946954410719930380632581614996579054458011001061826887680.000000
-1235442439407550265691866993110152935827788274473600294471249201504513755498504244937240794010889737994240.000000
2536410561959209555638838221677312362609684708621801279067380089215672257068201786319085316484094947753984.000000
952557868819887498127314711454637116287856513647156317704199455409803435693602071896518026524625565908992.000000
-2660017682297835330433184423791936594385369622783748382541078366447882620904919073909526174341676769738752.000000
-5523428200156443499430385870483732041177014827768732769705871963783104872795919007083719113263564789383168.000000
-743098791815808503475508119972616781366808790406340325088347153017421306006484918147166340464167075446784.000000
-2658762846547646796983170955620411351961722074058794330386000129301370390894351498586279904830553541574656.000000
-3547025803000673003876255791421487643905216630999214528233133998180646256435188749365048680254431024906240.000000
-4939571772131688945652221014034143263041485124856531588857909152305098821026307521540694453380816113238016.000000
5433942881687006323094323373098173816652032618531293388647564278278243548554421834139126321854872790499328.000000
-3860323129327418356836981475408836463072399521257544293573086839448961075890670631967455090036559199600640.000000
-1274502249434338909732513415184860015952707112117202955772497564538255240903068785420044844516249379536896.000000
4995849166088281647331428261978308574867647838051189548292961022900524850840982662694087063089780996702208.000000
1600366541641889911718590373954283854115121478222601764454302768027896860935967911690777898769455721218048.000000
1217224341301991790967028674655253612749692445190613305168036976932637635837109805116733592499627071897600.000000
-6247165154039543847240192923225248444382912148485985606330215683130409753359355134090990870918060776095744.000000
-7241876363321598749068126800659034699452118103029020051602323950330684805405619325432011022106387860684800.000000
123278509169467782916654824846916748426868673032989862452513862171792948767723547538658834852332418629632.000000
-15134997646640528837344736724385998086642954338529993986425229293692373433680197260747610846726072590925824.000000
-6881012704563062297625703089358930124387601302378951783737420832319778211345536333523733471314100883554304.000000
-12057605502206194127786796064940196559635071750158419268132810550912275138183433780235644787373852363587584.000000
4357127663765479946768312348800318262917638896445419915123769169240050645090535136497987604341075306610688.000000
-6117704551767431445908306423535309471030933888037653055724770951723763169828542248812136952936113979260928.000000
-12259073781368224208158662043402577092876923791698777742511460637532359849423907507335280152246630685343744.000000
-3862773814328866045916943914589399681922377918786356620401593079281077994378198221411992225008341668069376.000000
-1556136352793626101298058614118776382036373018606491781672929531703426625211814328876733303652981799911424.000000
-1629616561529525416821134088134184776720643258762049381959187329385643874336138647948561532127218572984320.000000
3181949073176080131999890414969527695071099237892539864348935089093967406450352817319757688595009559855104.000000
1410485161620425038014226937850654505097846438603713909538375410936812134541585972062721980507803256619008.000000
-568510083979247686781753042159514212555940695881929773184593783865715994559553179355941467146204653551616.000000
-6838077229839333042023727410317379737615006819430364640887155782858084549803240146935151633460809873489920.000000
996047384014572891338763806989041511777836562406581352921528297227024374242330098689742697766801266180096.000000
-1774848005022032743309335797915374665605811912244479080875850844628420450961465472148908946463410584813568.000000
-6138270004134997464281873749121212571223658895962613675727500140407175737549543305058023426801987070459904.000000
4361308007161211749314066505847326694478789034649729760862427927227149144717816462964784850955151907749888.000000
3044652190842543104411021675913345003836515736898619137527362388868720797679295753138540174362517769814016.000000
-3742065329764548552531991310443627444959028388314160572117740625830547060479295822132692570771126132670464.000000
-7953113542039758641822721303284289484626383280526867915298022005599950203192281787517334092447085427163136.000000
-2100924261395333875831896928666953176752354690969090865750085017455478725518538109278077639046303987007488.000000
-1946049749580948967714220099974327404399774809104273387675990080490340948240612713937113924081400363876352.000000
-3058235813096353318832722050624991235466301758562802106438640884997216343380027622334923099525818466959360.000000
2478895611538065196339164860834600633278846906549172309005786950768183306881001222787839331483042870984704.000000
-1711144898738304624528315193293689991465246314039918349953221107734969988587713800609723775931289721372672.000000
2723596062101295851454187607294411490551104297960834157987736152945751739668131040761429749202708414332928.000000
3414810605409513772412263334967026078548964041853584785347851129897637095617861982293977491909322817404928.000000
-3095012933845190594149634698265750942883552921730756573649870935740792249860867069158872930405035657920512.000000
86514429260564308497679865129915808588966598920291043541017249725959595347274424254369276201457455988736.000000
3047770721645587008276332732646876788001081242519785184372784098636950423863584433281499952809482272112640.000000
352281264469452167154713149685645840165246732036214429519358463244666730080584842669519200297844557742080.000000
-8113694966888121280583091543429163439219344478199613643751292298952887097412801892260778230776801764835328.000000
961499885633661683246911038902475470180622336805450816782210212235253101067377176647845741171209375055872.000000
602743703175802962605293783732741355245361581528305055801531033133030206275710759439910928203935240945664.000000
278707208926346685907601809340191782421507818160431417134025060895515563387115643853529866317786991558656.000000
-4740833035645817169523906360817701602953122129334561689308286583454051727921191664125886760002761034563584.000000
-10362847560129117467447898234593161354475512614432057738631499271087755741181587247173282095158550681616384.000000
1933749944465660890505187874553311583012532284898444153717920031243740996338130472663207781497993877782528.000000
985508971810515388257717143182110045240422631607053719271258083911931712700713631151956224261904580739072.000000
-7781716981267815650766041674460573054392190529049730095312362640546774911337052686448198538624693757280256.000000
2270975185685855369184689093471485857218804084520277536248323182115146755574741841428962422499204963237888.000000
705397419054200205141610430284647589438013142636390055572980381278817620410342988589364969478310246481920.000000
-464920013617771451797025736094483995633880264887218041387084583345147947949633251893593463935615260164096.000000
3669249280422448029167984681574224107036071674608361340045514584849414421500963393348729146266029612072960.000000
-3182237278564154606887327694041790126559799849923690181047491289191733643628082987777325865510929254318080.000000
-5007996641443505582558270258916922506864782213034800611608877837594287370522291789914811560164617502064640.000000
-6243748637660569626109756011282257303499928261731547963311385972400717765104399334821843158798079985975296.000000
-2864035897747228563761142986779561969292273751734894051640857689489169460205078638681476406064162677981184.000000
-11332509545178910337815079400364164221075962605368634986823521666144104564952678903100706572916038765117440.000000
3035724371312343560519344605213126238073953982233162824340729131789047833053311225963904469124171704565760.000000
-212214772961097111059035566833047099709573666085906670325644237946809055612415089231629103569570512240640.000000
-4677669056276588678751509313090267852609211707544241671419390755826339269715721790210807996954198425993216.000000
-5133070415697234772110125430434104201354543663837646951543190515348564856291210756914831410908052206911488.000000
-3511749958374260407274403117537983319698252472367384334252614599351390061052535210427863445284919707697152.000000
846291267051694669281601364697781478952597394827297703146055217481578712754389490588813476903508594655232.000000
-2159919597003273970751381159241260501359100602372035387017878322666066341861274141544246495403135178113024.000000
-5249638598515166627626137562281068893883207773997713233989736002760875578743832844078436893172020965015552.000000
-2354711161280949956901193449455423869739976223791998455915834439120530216792443180347949131510451391168512.000000
2705080401914579504974050602039863591562199518624990106347631563361949045487428633377617547922945140064256.000000
9513373973070815419621797092082908505561346762365294165638160741389038992122654288317298420475967534268416.000000
147665224940329668701144566571814643702472238077478781513817705405839193925525500384987799318162283954176.000000
2731587919988339689129105287639562659938787956733538713726167012027567832246931769934357260162814210736128.000000
5265704695223688288744127402512952332016289992017812561441526022987833779407405218295315421048965330632704.000000
11898376427039945836301450447383371214681796035391376669470808884365425000047767184619123450400527462957056.000000
-14477307987676168841230910986889540865885594185775675462894012618841066436071412896337141013192190109679616.000000
3173249278375365874244086446844352240084195714570365116453970889043703908728544583723745229266545998299136.000000
-3388115237269064835154165836014285273936219392947600495526579375132397384313566789345985293899275662524416.000000
-173580598966493222814490955503303071871320112535783831699451138091397125737425647392997007871493460197376.000000
-80509133673192136913969666993041605809192368622385841461444830058805743525776002864881193320222447108096.000000
-3709685744657746203692320044649070370128269881406679520930442412322574845886775306667149060005693505929216.000000
16646740566279701767894937700192001911308979149174125659431644610051936331648008740013719754674767738699776.000000
3659604429541671211081441365421578334506093061151803637805556217760467474229566795022015618209882656735232.000000
-767737531307668411059985914775906779588530839490266728230899757535426966392579881821780176309941797126144.000000
199719460443409374658552432376545548383098700065111781407757197774452836331567811626440303979653031264256.000000
1182447037170044819956397879762383280355410840767143294452262103721684380608928605562544140969532876390400.000000
11001771379623082920707256065544496361181596308203133112483160566485734699390856398334411198299972564942848.000000
-157568651975041600857262057507182480526654346036451936834715363754367448375989289405530993683511042375680.000000
-8684321725837791077092802704678129418580108568855728535483528401903743029957839500214539136492103951974400.000000
-12977429764183154448917642016425579108681640697151186847385290623646125066538800681778451573539370302439424.000000
-10790757278186695724334179298666057090088057187431635658128877279992373969671652822042318493474106999046144.000000
-5883497274800149203560821545200322636174612988804368758221761822896666374258846983494732491321638651953152.000000
2892471336478794151266347467089948787748223346851849094776628449639896414759166261466279675778615400726528.000000
-9332484262075815178807484501518024806400779891405407618334821123669867672683164985494244113080042207051776.000000
-4671108213848564818953496695517321789618768415488313712320005472516825974081192066732806602292586809917440.000000
-2554238220257590972327765260804664929914603982793755295082771552179236372981123566552775274127368006926336.000000
1780387763404184348327085972778716256093480496363009377014911506200262738405588699697012323689979587854336.000000
1657585842331530946050602760634516030661298837728302643107974126313767273841937298711534727157078854467584.000000
-2083010326504992763552276345993679961720769453963904253453228515867685686544719545879398913269145639321600.000000
1463978706600033569717003860877704190018273444979312034436176700838842398658300108920785061846564227514368.000000
-474080322268866755475464870252125666322405816008280287748234778353927883116556345159447541033184570376192.000000
774620365730664861878571488448216415322675919513363428874264132690143629054025185243535030170750919114752.000000
-4685566739370282567106733726409334099933997975364562160483026546583187786439119906550319887748036483350528.000000
-5447252576242321201483441299163116039669624074164496829602275257645304236545420852507408053264305855922176.000000
-3777373002119992383628773826597033987724714154215234414942438174714184778155530801270549075772514873901056.000000
-679689706332897799402323837344806280816945777867437482819770935249595518854567030801119278833139774914560.000000
-1215715755434375629389305353457789484333607697809785538491424033274972219550560819676969795590612773240832.000000
3668044389569107193051029998663905624518466021663442730777789765892002647805390889212433640004032070156288.000000
2027536828239531888573140040354551772514912811724930337560404297689836049738045425548022626003455578210304.000000
4283543000383658005472147297379965986016444775184600963199515933656321970398402394364269683532701989076992.000000
-5322712568927840149348953709122971469159405231659167293405867188247575455622546363784551647557516301172736.000000
-6411060481039268023244217673087630191943009649082777174860039158246246659794319303038821022968428428787712.000000
3305163670221232997658491630684521647247990914347175900547158902691571904136073759138483595104658483314688.000000
5019787556401364208607418290778336680893623335270207509283600267905767506635544001012284652634713807126528.000000
-2267041690428579768705684408485790181789256950411166503387126939636220737416930642002025658840038993035264.000000
2858380905196557834463853770014504633379617542853389775379654471309454367755591814401946515971031816994816.000000
2316411578939373028427611289490330972721678346393134440051485564510411466962053159930173459516049602904064.000000
2053378262894577220600262837153911640114130332722105764841592113964276384341090233077016176312501588197376.000000
-1005696467954487821538210999035064342406642387033117087632984898045375806713527873346358197190543408103424.000000
-526562340872446211769570712763855236890970093128294528954316619494388727826982066278330925505307803123712.000000
5381030852045674838728790914793586505702489792815361747575521176674287337425830622110746168036854268428288.000000
-108838398821608791405314888700673402060176358293705628650859457865271199279578997629758806375680803078144.000000
-7305798049558966775363889937627863431425856354334547622705377369091475910308436220153595037712894111252480.000000
14573153507401610500505261640464001971767750802662364974382759640458358487202160742319926355781664546750464.000000
-3986822877064475379062318416363240840875903050432766391603387433186542147847405847995335902983395607576576.000000
-3603428188880230200709073028454689517551959849170297245517923005635253453088821504240168688912103328710656.000000
-5952448388836639935253541947549989887907894380727506887104587308314132248505025279425279070568583023034368.000000
780953538781928272936337591087772356434089493592142820234885618978872081448317535095323143828513780400128.000000
3355878041962886827610360307147291553578223997932043212044459456615962387231085129431764411658947547627520.000000
-6121033677528708600744932174137165541175497440000905595282985750413457666016164197738279397800211394854912.000000
-7218280242152964652145706035147981911517844853391390647778725702675422647048722784488364452156325238931456.000000
-945406906603825684224145562223493532130482906435760124058546184589554826190725495691037488200454500253696.000000
551564726455746926318323443946236486537175305049610468745929077461971755604942811825235216476398361247744.000000
6366208295346876380553219787109015248941327376898018157237146350227914757263111684761592183124956993814528.000000
-6717344084480440483886644534180730161382829617772742591785124922201352457390452643432787973537489120919552.000000
-5382421726925294980492847386763173176738189398000592315672178784213113258664416976113884898243970882076672.000000
-1328924487270134689334234691113952474386844841027407229990807483611154237375819024085131437936268877496320.000000
-5518674178379557326112635554930282722587463579659017548272989993513020732790775572140150950547553020542976.000000
1669050831091339640875536265534268648144133936649147787760313494243964561754031871147738629053688720654336.000000
-1593489723410845580071952025172593837350540248710563856029953659465427969811781368478007197720875779489792.000000
2502706634974269181114316487315869989958623550994516617488140334213817645011802285990784673120394177150976.000000
1713141893526771988048980895593779593201980384175458456377808942925653872217683588031376860683336291450880.000000
4739664415148867215720660526269098147626515088334045253261826990934590290914055737247025551202547883048960.000000
3023484573227159132867484892537095830106878794052233871111780895845241287330870461768351911900231092928512.000000
447073220837054101286857253056552980219618100543584149386252977495476013839909346942067284973592076353536.000000
-1632874605898233009492782599534103473413033955082654224271738313277532855343855868491962823886329973047296.000000
-3753676093154465119833915670922445536317696622770059009091960685136984603788655928731312674964560544792576.000000
-4940853695803469828578203113260473873462312229248886622717601579821236490318606268682246817196524653510656.000000
-11082725379618780261666716875688457866694261694344430362220230216183486458896978044905742726064285084024832.000000
-6086784786956700883661745235691447572914385403852223520949975215330161623208214180263329846431663509209088.000000
4082288959373576864539241182767353880257832559102157085134466463482365402992331938055883973528653116997632.000000
-5589281609888991480427265286776958235856007488429446182807518188437415877475801062142522801125567567495168.000000
-3196210775292083012500704791938685710866293875237540194499090089641585995426965924423796834962999179476992.000000
2002463367773716543775802862596845322049014135264413614864905581348158059151697111376643798747838549065728.000000
-1128696042105390983402497033789229222481648988666026906546640345798288281523991736967538632536423286177792.000000
2496192659158605399199858029840755467422772683430390783765682537707714757267723264646387009405248973307904.000000
-1978860676531592708577505470582518456972918330374391051392121314265560619707987787387049835126945468121088.000000
3868511951504834767098627124931665475357146781392468428215530450848821172251629362254670802608426638639104.000000
-4382928442016689800892383081089527557244011586499919754563275807530441548479441818148679186473446040141824.000000
932353363119621673760726494557205021125419809250252350307032928910893861054746476556982906578043817426944.000000
-5488178248294962664223780281715331977853483725026983047314055006013424214844390004075582218178782119854080.000000
-12292015125235691699376207309287666520706309702362326980620877129936997454569475938569935080966546689884160.000000
-6296744000424408727982358504430298123652305067952479105486108149330485260563481321028324166945388508479488.000000
-13359786720976905814415753876220137640539461134647737235327060723644160756391784066797917347150290361516032.000000
-1934125794556129039586982589154379224605345146254246057470602779265020392534594901914752034450396504129536.000000
-9466841455665438206257612748031518563806630761788152709131985764536153565423018828725555542589840589586432.000000
-6359230790428538548191037519838950131486731961727348792179562493790625954774619585598045823148667852292096.000000
-375687806307809498874119290219084657195694086476418282211967057031272213979219623257158043675282630508544.000000
-212347482725243489208989683865207044018649855272945438710771511762019953119499766026056943074818744385536.000000
2458170359404130312677274187329886897415333230245113800163246459987484737915893200240556372004812449906688.000000
-3867963581458468836749351425633266462244737604537867384386059410124366576770442499715497555720962347892736.000000
-5753488669634709969840445719369160097863225994247258186963826199193418632557594678766833400097662266507264.000000
3348177237998290735696360753572583170928661262677744914882355614273936466166293593210121609702855514521600.000000
-732750982756237474819894467671490729909384780312873236232587532860816743346164603104352610875706947141632.000000
-5044368838640331826138472540424357935487483847229763737394836442264157298521141112486372603552279230939136.000000
-41900791581141201061968880170086900836836644636248549889988418839019526514062191617197487179578417872896.000000
4102133456281006751156368606619276438841381809930186889607939462484142688554539675361590915891479978180608.000000
1856802876479762996284155235034776356385150836850949358585518931601703270598542015016109636490886111035392.000000
489790377308721669801085504173711380400834999488809844609135102205593784302213074004677582871909176967168.000000
-2739752699906767892902997132409643246785764627373672884005573696459217877365516740292881604938183965933568.000000
-2623453331715561618939497418662487471703239159363480363178714515040691232561331660282570307367430845890560.000000
1630633788320163817219547882559983630358354009122273086612526712749959716380187132500107459169588072153088.000000
415911877758455346550095686441015725545500068120472886613656149295482716049857485135188171874780393242624.000000
-7062462929660390414991934691004815987601071625968805277054709782945882945795453407806282273335903912984576.000000
7880671884059620307897349484727962383817151823056248299396880449271315392616766084817905415884813209960448.000000
-1406875874819692284093909437672830064782030447181585011707474214158137356589024886310670611024613765808128.000000
1443506940713824014383773875651902212888370280245258965526355954490360916416197779774897963495837216538624.000000
-2543469781264747524850963428460737417236924130002981153033119127083306230518164560786161394422376904523776.000000
-8641301045629752585169360541765480127021139051436189378906640575568315862363052974868217934086606598176768.000000
1068158741344171378448277643041193345807828591980109209350076300933140493375809979920542593628174408482816.000000
-2107880776569708358986206774780500176812731791724164082502392109483240525327524647051519091639783442612224.000000
-22222618089155859352853424585553355191344059631375037765575745835479819957745195254355316887145255909982208.000000
-10208814165709842509027869914648822996071714991630127143117549316145500493152322028685581744741140010106880.000000
-3102898486523287702162609760787991927306597894035275680365080018424562150599080972975897907847544149377024.000000
3910883687600824397856952339688705263760093838074009479273822059925584151632164082103264278131123958054912.000000
-5857938176049438133603892879962994771320328918722558261604329624249964133784382480433148952361442358591488.000000
-4520456257502549941781064150896587343721528555252465828932836624433277994403039015853481316511503861415936.000000
2222959054050141172686882963030269496544942514788872897354026654600210968023814329997120097931457002995712.000000
1253735154135948703935321718761755067835382973435910238369736052787152918757366463135585777216976792322048.000000
-112656953716292368526492977757593756736976336526529736414679210522976768498563476944370796557936489398272.000000
-135440816357723464142139234321183466473000091279073974287972016397145986142692145577042026752547892494336.000000
-2826270892142925742638590085725311009530194329034239006147953969116169750167028362109024005718069183774720.000000
-5060965032654134102026035411267031435499959851439557270202693589696358777339630601482406940040491547230208.000000
-4107284517800388801098465219837599005744479260807437638972331049114093859823502852134869756943222660136960.000000
790567309396170815212474137527646154105497335055431084814210390532961147753100746835974634521554522734592.000000
-2759523513925998672345929750278360198141981628096206139423019611867288583202730982972839547372740441800704.000000
1202748246026304504363027616894103911608771748056847904233304307347413659561028265282815551343566985887744.000000
-1017794650700858805483655237399612035602711191754100231144228072831602045021481536487392296581626199015424.000000
-4302231072159222287747684469993019033805992679411940458555900736700241043763276314361406386445357145915392.000000
-10651373860716144090508689756745348139391558786843794942595800186591100873341940573833214508180608556990464.000000
3061299410263734381473639127866345445685296647184992102482385973280671471406182142853444723312792952635392.000000
-5280067249683172161326522318992256058430245529369956596154402004257282023127047201311132436333486376222720.000000
-1102967066305350669702670284650537183133879592992304971460293483342671915622750034232301823190740072660992.000000
-827769889946953077396669033836566723803954274008922192046945416062941274552517602047043085942312249851904.000000
2104702701295418882282770880003785026124200569935902551099400339108158308214709909761789485129739924406272.000000
-6397781997878660356350213643840912187684869152112699647591845712826127797276946577917744716805521218207744.000000
-763560049408760166762865352954670775552777090270194183003106562253360902837855288187119097870915926491136.000000
-10306766991143303031441798722217763800468485804761675532803525375603884845584107747462059210078751335383040.000000
1563450353974199198746544363195931878658817230185921477312029747916222084588533827721735575284555179884544.000000
2542651057358500051489106009882963496546074181543473048720085704532425573474250977051570140744667132592128.000000
2320263937123041884420086466928687124942809883038931232950190870868409949014470367734196032975669213265920.000000
6367785844761575764699172954418586793163683431430697629913891931471215763270364781323982835794693538709504.000000
-6921809380215419987332117620078503281184150391564241876196253092461337933920807543944047849413961989488640.000000
-3355989915573738763641987416397594755545401440369248537064473685498286959134181404942142317477636064935936.000000
-759387815620564902646921105203975307456411936114493323639454551349735303503368289894098002312137527001088.000000
-2289595720753140174339161406384721042135419467401489460793993114479244300488395930894196986601909168111616.000000
6007960349468615316741914929483785937700636786557089717149845235309182159012208847632952360498692997775360.000000
-2344464376488586717574794615568167871586770944191568570072625068146444181432070810108963867140920042323968.000000
-5649163412857991704424605577814704830761567323343435015327025584342395716769846719692476738358440091451392.000000
5840351421754808105356158644281896477332472867587506598337623795597934253991364161134002020254560177618944.000000
-4734408388869753554271369156183260203482040423632090087763232441685911274288903198981880557845907150733312.000000
3676385086941118677644146430013499496207616740612223103520032643522336921028299318843261023867478072098816.000000
2070605904892043676156966390872067203021614209493655456373278350284551925975253744379611623047875839131648.000000
-5838599248488210230244626365572938908755206116436626974346965362824753969491328241958451226273000869330944.000000
-11052306752114128836806722712104983363092021859753574785611361062728517732903501814416704276699188681506816.000000
129314573659519606736455143520648102584029069039683209265961415759728040525816788737327867965830307250176.000000
911754734313336867927027512606360456861529686099562220841891842938359604821936499882529810327845189189632.000000
-1033095206211145162059975163486007546976101211683993250427288828811795931118013622570076238759070902779904.000000
3434022617926340048347780176133531444786328909104530336508338836757279739036955827261225077868248128552960.000000
-2517800180908693297970064966174105347858311604171757135979739601120102266829316510285369098952578359623680.000000
1666178790593903844492232535938085469334388088556983292040746020450849941833015918773726891532736543064064.000000
2129050542066681525433902505786873706900171751761080616340661834367689442874631730324433026216088112726016.000000
414248898431184924658256181280970369696234319801732286336329940528018074338234716430311764188948905066496.000000
-7102077738532062736982057808886077763384279110160502352351562495318775544672498536313682619581238091972608.000000
-10912789283632364669578287930120051670580735866757715481527629163544923840053164473593164957030853975736320.000000
-4664141773847457423897794330822365662014107540650541089274211418966328518934169801777809873067860473937920.000000
-558744717641747996064290050401457690252388812679538143162261709999468895970947123084573466552668948267008.000000
-1671954204238501107421487391178296459668681610772577624681098450705891148630421488532458217719580000780288.000000
-1840552975478654592456526652501390317787999354516089882810026624529119944253286343273354087170179365601280.000000
1987194966750260384830578453219036221286180596642522448098401837420044594400699712025418453820300599492608.000000
-1722431559764958842307925924951612317008395705894883949522478793306489588668942499585417508009681352654848.000000
-9034168225681945380129438699735845130216084231313622060668824075906007655331955659725180598040305044815872.000000
4879438892201373370588989819236687900668746244780535009323763742015712476854615104017674977560366136950784.000000
2858744658700152352178581838192958885059466244773523863878200236753029251914056665660562759191235842277376.000000
-6485404656219211508997534285537386248531040027883412063520139082997250842497931681619276540403861807955968.000000
-4273995392045919334310119093359169176783688030862813579207622175496273661101679785057304153141179400060928.000000
3967298204055189032870369691049301578423278530072354245619180020930489429511620783127774070422007799873536.000000
-5969069332065548595655927770603330672643198977912192711864404834905455694857736696071485373741998884782080.000000
3614743436734927269561641048041809490753548104221723237371439450800366571179246120210345467150259646889984.000000
-8518462371059274089536709517891945540035174943044410813163800137531502276442346489632310566248080700604416.000000
4200247217692808762549444258090501293144671350364120345004963172205623444583770885894204608624662948085760.000000
-4596917214046325085194801582692669329804717583615351945307012433961020963212276863887724359540565849669632.000000
-2526553678083873655115393828959645825130624509474124573065058190028540025882220635425670017110329731842048.000000
-1638104467298235236052999193178306210727168329988502077124214665614304719576964909012483030182145847984128.000000
-848077585700914213221540827596817072240077053890452377536969694848295376093341781110706014292793249234944.000000
823213957599276141698727781086487525826383009842205442167062289947227519953471344650013520667253678276608.000000
3492951275029729578952703209054682145679450423533805216224591745020102065478451497155466263762100878835712.000000
-1297837442601822988867360556736924640616754850509606257226419211606585898783344549757892312909299765477376.000000
1701870338021120618538688887570367695894928926574916829033512119529511937468812809880735769089264463118336.000000
541544341309397894080110511444726311248678048572863107917906628720667315100810533625011248611940041228288.000000
-1785272536103933338227698387588492200080755675766514510288684463899200111830335302885190930379003039580160.000000
-6021202278129575844252146823404279464309738201157591660987233066047960064801468374359096220966319718137856.000000
-7177896575911614792197868839616963368586793060816212660339544561757643381786547999661663153551833223397376.000000
1466905493495031578850673179943318669331345653178072031580188022913245807253110187631386723242042734936064.000000
1591999620886653497509573477727899836653882207224484564373671524743532994008568339453884175112388336418816.000000
-814396169963830737629329334123688578093494634687433400423407218916830147705073242488111259524538916929536.000000
-4841268893322999850397258784396341009995498698350838315437623428981006061682464520334183223972747041308672.000000
-221911906916577753854767462576352586432774311491493898820689712333693519091224921786779792364420934402048.000000
10316284901148409496747507439425482471075069293017475263528174039277674805228450329452780156697012103806976.000000
28876900855697352069644263680398760963352640318445011817494294834883525792905741493323032238483644088320.000000
1582138012851739013062742245637055809243809346866699841522379301352491353430193848027769302085828874338304.000000
-13347886967746999215461201351897681035959702547030841637455253112815279832064320845814102481596826095976448.000000
3260467570295467419627828157525995109235376638173858747740948482090915244085958339848194266044783002648576.000000
2614287114846617573718170395067712375357462203314471117777342457817236719998624093403142302987502395326464.000000
-2338969773260325181364621686675151567675549569123921603377757355305499579599374641567728276437525906587648.000000
4956610585362879297997210449645891940197450340428008167788913699538590585573781266347736139590172325969920.000000
309990838492909313280764347106400052234898468415778658901080829787910613214364079300660645481364223688704.000000
556183071771585447630345233448966019783101713406292360689877671511313580635076401955704726196349030105088.000000
-10803049263607456163970659821897214811684332340519315206584917288075087071653825486452765484915573787721728.000000
949401616715174887009782721502628767468361701120863745227372001351304519518407682503376015917296820158464.000000
-9612964573964204446525417998796719237112824545144489693471532242566189511381981281490556524869958733135872.000000
2358428449602090276555157039987783800791481558634624111033726225673451677879042922859034381151109237440512.000000
-868533386908073499771360089312821655641506092767857557458011835088352661695324921730901440769693482745856.000000
672720392526348961322107444315903945356036042760403573899181692017350051520331389765023101063312424566784.000000
-5755909811151082415171708802446560962577111685930703089363381623692451483386168168791802265581116572303360.000000
-1475762181808879078333243039602094572441446281480376739847572515367654133488127273573169430635580609265664.000000
66195085200643885864338773546031119230777905650876718075486466267077073444055773945513109111706168066048.000000
-2815946119967082469878944828305677910965955376279131228726086853859826163545016211396361016394517795831808.000000
-1785571978124923581924196951392034740170443071717349126137954499035102862884116091489179638214725610766336.000000
-1512248661329982880788057839642906635057768553728692305095443907853879732667014862049120652405207430332416.000000
-1484820739094191026852728699934090428176527223703770678521872711213121709784817632333972757998170720436224.000000
4126448113674236048913201845761297202331565723407080159401998318653898631031031945742691446812237077938176.000000
-884824541472726342596285904356851106316095345774900732459273757370998997617893738991060855255696486170624.000000
-2876072812781576721313876981744369667381832021653462672487404441269378058954632555154700815086502778241024.000000
6131221937699417467950688646285702600891407549051947906903245866872852243372490538521929488541878677667840.000000
-3003368745462766387915532929700290461661273814319881755614890876083577337381201847651590657355542194814976.000000
-278575693072179918838712547069248150021614437816344280220240566781696003569331301255527580044220195405824.000000
3035274753349095301852590507372261907823153519526622010163867847861175919173081761519976281449272327536640.000000
46011078738784671379318193816290879854854526117409669052768989691210301089176443126163757114161281105920.000000
-780598477655083229485007392274814400899443762551462016698378676699564637453699500543775984725757196763136.000000
-896282334949264751840475553893814444847186850221685335041989507460588396777406703742322786163092659109888.000000
-3829901087538313807702064083647051134015947131276690762521852775802907863188989524351070500182636330221568.000000
767050662390821611752823288562960972593940113527294640894401038307005412374821509266015385230328012472320.000000
-1879122848719349343536542420804127186326957595013917063783903641298974582656384795613255829896048767139840.000000
1485710231098531267013860268625751874857576733707292509497174215137205283007673322144489816933565454090240.000000
-11031732260967488093907522039655105663856118883088201315426532984323012278367388725810485584597529799950336.000000
-7067253550973593239666455933278826570118907787638448782943875990184187618349676555871012578492846453030912.000000
4032781564329477753274760568808782307301198857551426377802313623123028393493897617711052928204535750459392.000000
-13193608388286131857475259276959175927459656871344226924422824607571524771618323910008089782259592065974272.000000
-942102229399137626844338870390716951254427673810090670469747888528085528918799882971515569752995037970432.000000
4251393137490382834933449167016869187797173916796930588481972140443891877005821865844550036834078131486720.000000
-2224322617481054385287488187896310886716784518323986133639801504761296583663022536731707733269386515972096.000000
-4057977155045115330491478195503658172833475309207079133820338302540668024042104307799057732625046234464256.000000
2961926152325147456964136545379095801367427526141239378878880214481062716042140272121423685901809333829632.000000
-1077415902893416198581375806306551489897012574779595928032079638127757777521736815790346562204544433913856.000000
-5416305603891562289095681660115823033241144159309720919336242264302697263586546630051866411767220026736640.000000
379678087683790616455071049063059426935083601123431320768637406330870522567940335249808867483135628017664.000000
-5743447219392269863104519964614367535927639007249212763765395633264629940973002795498640896101050665140224.000000
3500182307044935797839144288211057863822208184476243482688432689730807482852467753346008438474246732120064.000000
3553409874903981997459964682773685677237983340085760179026948229112264007226688843546466265848929247559680.000000
546254788376709895712800776398537476089601951832088561636947793495615739500083303545710573987035942486016.000000
3449466504935033300993867489039054338107232361566838467071350748439027140669720273193304602709350202474496.000000
297551256498050328429328358479884254915060850776730248756848920643532947839573746645118926914032236494848.000000
1058249445027279678289138952501614656549827184805868764035673214061005423920746518785577021286374271090688.000000
2759803316062300368421787630214178095039618968302469426705411299563187236922789465564621897372846738374656.000000
-4071234952259445370087441518631936061493635803525022063853058129558260313072274471127633783144603600289792.000000
-892952935913756675707058975557272978120343389196815733601481576906293022530532730411378906685577896132608.000000
2358609477303683671099823699468010079069747430193220077849786139645462433745125324261209453821350201262080.000000
-4218945384401202357837551052921565438073202103423656172050797032764406671043392341831844889071342873214976.000000
5059296242976069140392368915978007227304589326264971164548476560985763169674945568668352931863664489660416.000000
-4741218790156852976547207385755859451019843411977037139872529208675168186198464524224354117633674659758080.000000
-7266877056249523402030415256577055750892121614480571662042475785544363031510402176625312972341438488510464.000000
-5721189024470930522838376585892368652814613034021349722897474999987549153855158507189189668844937341304832.000000
-5146897945841345234083651149262692748865041747058600297334932801463878838836517081776123503509935073787904.000000
782965386060069221846652132122044876527515254381373001969178434913339949426434070751415107328276573454336.000000
816073764824259420761911203906676907224510803598595405948772205958046774332133782725440442501115246804992.000000
1567391840911351100106835484249395179973439562304503401634775121053655050921880723007997844252635609169920.000000
-2866840908467906474876598980310921249802216860850164738735734842258234807927769424636768823546894096531456.000000
-202708000611743326105715126507139074089293078258469805592138911416982068786528952404290996491422640635904.000000
-7596087444195900651532101660140534686595828593319399068721905340167350739022086885427438953765049003409408.000000
-2299974479065974867549082932529028689829508703231989294665369233122161585382380803944692488004477944594432.000000
-4708367090860241768757729873932316608993537052113037151565606191819582121904367614692173978147179345215488.000000
610829630567755532550712673070684457781051921905532828765565907251602907211615679372351130309642204217344.000000
-9972743339247222806888869371466718856112464153909239022066613105094949442711568925327358896367059045711872.000000
-4911621628258368232658612261152919610131860965386451457634347784449429720712328621241905746182689444069376.000000
1630619608840319257284622873305089056725662232337087062058321197448436675447552816527724120196601603948544.000000
5055556409313223702550535221650828450854837576983965149197561210248189280655990287102217679773982886199296.000000
3139470726638599699590932760043018253009902193490302854424590426981726027065773892790871690778997914861568.000000
-3414857566395698320126400877150030903978974219362658234860986677900918610594073763303459258601109886861312.000000
2324910458439265511713488327232937536072884927084915299856108899198838455469972169651097445365238049275904.000000
-4335083782139040603530729685453035565357524689108753979702917623841536722540918106399761227585084979150848.000000
613040880572795368792242957561240319700932165589015881109667009164276886896206991427075853871602013831168.000000
60367695268461275577768019255744963860063842662599654388062929159968257510175227948526544383685118918656.000000
-779174598441743109600003832499627836953921667594313638438231983645946096084927147405123505663648838189056.000000
-993253857630790459520922188446984295807691510565195679815228765801603779561543250034773481483891732643840.000000
2288533191780157754883167293702086540354193054654612871494348072662350498578143462927656827837746107121664.000000
-267463702707724823276428858988364736111943151951359250183317627147341155069284029246009702216352441303040.000000
-8272017547602049114460015930701065052357483127490162070731050560172367805470979610446891452733147758723072.000000
2591583595279331119664868032038230062853347806273987491429672684450406451296310880304176795823295717965824.000000
569031570233255849609654572750833136201076393554850135583115921771300158846232676236806767510496271663104.000000
-3958566692878875974574552725175061833525067628622887554929285137002293811907183423151998738524151308353536.000000
-7991675391018164497785103048119281771825401185009485813404918445729505737969128925386704788173919596052480.000000
8149566488743199689737761784347312797161888484296027356503028001689714363663306763531851627425692655812608.000000
-4948649060506310969725003148859786842470328350616430722335223396302978752572639741916266293669189348491264.000000
-879726115311758670298589737852597294057802485902320776838143118742496586565405790233489466046903509581824.000000
1567180363426066647993180545264543996768864525814951994681488708127706985356795436105604714983012834476032.000000
435186169908556965451496935228315867345647591778710401677267496744494086892887657719815008307896106614784.000000
-5418039031303360184581797381750837742112568067113788822073655415271140331304068811796006601328635213250560.000000
450705600817125135446521467592454775250551946143866390507648829867159296499552234810120314862278528729088.000000
5801684561830597465158920573549822741590775062582057387539860243332577141067803435511173449003077157781504.000000
-15898433631759085718526744736252110062929099645657288050810442617994632660759113005558334064977830307954688.000000
-1339561183724568954832232347867500875822029472394450334557166455276328425616614485568912596470675359662080.000000
-3901701227473166462177935268725445205658130953253360046521761790086660351922665491207279521054826392715264.000000
-2396342721544526580220327265248895055558406549004104187968713219387017691316335612860648714000907777343488.000000
4463445880556989689144621898503219623880529548850179896161636531948054933934066271686189927277985057996800.000000
-13614161956109202432453588447245019175440197803224986473095007950296452817585296263215068189200759715266560.000000
1362806286907128357488278748962825070997642684300222755391157800188141674651904307029566031052964089561088.000000
-13247271337173710862899379168446028369074760181950742390306357188623622858702495286844649666234453835382784.000000
-3239826434912487990876935072234264331658972380655912588997451020613546598921104103739909408538726718504960.000000
-23828132639320679994954260834580827222768541181291815840449952068396454075043304069633944400257677275430912.000000
-3543391512687712345003941395850883644000728614539308284996235663480652493245212583298246608996662750740480.000000
4469179927267799832996201702794062982320809625961250459541744711213009517910464734268622454809345340211200.000000
-8562009061364400515561422746546423558534593968409769458585549721505243189256503852156646503295100796272640.000000
-2031930358915300338065470682277741002502882883010149741984983187738181155858653579074727552837014261858304.000000
-2717972911268554813250094177794914348742812563552262452493315446025223390695030623302637788117282293022720.000000
-2012014952065903928261073267055570732672679077133660769567980831132317940283518396511660177373824953614336.000000
8535738162084219779440403385829408596539590734066385759550065972419164633861143045653297830647756469829632.000000
-3729181854828255147204594148276625048321226814475296249098293322369233047207281814281662139043671093280768.000000
-5355738191696855282608214211043901360873140321448118152566490103963424862509881168408137732134587714240512.000000
2659083805997519369708633603482061012912551316234237492858597223140782177064482968195197004041220698144768.000000
4761958582450388013800470103726925491603036280996743298095963850868875305598179675459728510252992167936000.000000
3168602143432459684428513721116002583085570134545921937795713537537022725647852061977253583639187577372672.000000
6879041986134803921657863920019929686312614299290888323176030216917319076760500142486381409135289545261056.000000
1325666436440818794091491139629360680368857422326313619974002067480449382987878641507425058936961311440896.000000
-2641791231481827898473772649334464115655903328525895647360226875231614582965985424557055877899935694192640.000000
742991113774992174999255804682838206322243395068395728292287031646427782633379873012376441879300512153600.000000
-3933170386174555802266821014275980554656465624863636302602369959225465937741447444442376701080285778804736.000000
-234562565633958008089890972778064614441335595579944112597696280245354208548918219637128052839160215502848.000000
2413145777345569937237543772046022489263156613378315854346096905349760725975809252513578767353552562028544.000000
-2425177812017384388786274239250893408336299603338862686965373347923205761981692887976485248802532997726208.000000
-526745376916554180349365403805682497529298359663122541537368290917104733369874171416943715107784640954368.000000
-6561755677172560433207967171326141392690484508496089129351863696639007896425724304011471603831663618949120.000000
411033951039691518900754184935352365459638859518582522844892648770855605705833480936103261554405776818176.000000
-1429126609785491690680433854844421337133018632691578503583625188363089446317412124635394404450973780017152.000000
-4564322903944182670922647479331399865327940144559886577805429759123166218958671236450204899663643817279488.000000
-1281595987414842863295454999053905392779534607746835838402278457522084158459693042809081140787594781523968.000000
-1250811028515861450176279185406399047506559773401619147548986517174929189157228315535559245920559924510720.000000
352389216534712203368692742267923538927544723752790169903174245389660238734705218439985019733668177903616.000000
-4051358595551435578542512719902464502645599886503515743207119146702814411260900083117435244513012129726464.000000
-3992503452844771454919031224777416701393235340875759428728190898918140068133465919758295032328181507948544.000000
1141408685450172102479483768685618742298517019620221522371935299790466321892630096996983151615445584314368.000000
-9757350336077029186709916112910751539054039281592564228695732644374668049783722480375523104620352353861632.000000
3584964256916355319141748727342251150643026471136184087290505849012159585899532809508820764686119495270400.000000
-1471774453829575317512702556483296866141520335704299064322280036823968473411405088072679690864109465632768.000000
2272354386633786776161016842193498725101518095596310164024965867301267680027668110217312045470118590808064.000000
-4280839176653857619632325448059910605038193156744375433224545811774903113911147046141521007784837894897664.000000
-1885276509340720124839089507476848555321078609669818787818639414362898175313443535112083649099782464471040.000000
-11954487870924148626321690868594499697002083794699594631644947811447713438313501827287369095696861041262592.000000
10773891095346805856904410056827681212482203316521195321518227042774474038097095650467783597372066613952512.000000
-1176018499456825490646847438573706979567109339133969420197411568165190084023826506557034038285775902081024.000000
4689358771974250520119336194113875592774158116888719420577654374541745424786604729010639594263611361460224.000000
-1137265504581229792569513973318732890761267535845689997225767920909639955575891136311151913669466882310144.000000
-1794228208560928645916085217690399621748926330490159134921463649213027080599132336375507666040866683748352.000000
537132141531554377615595057557130186116041157072588076731625350234493443834549557693162652665451177312256.000000
-13388763948730533990623770144678343328922045000975776701142435867040019596730461916669439435622593394114560.000000
1140382138243418626124854371803420105418289439331654211613675843661529477069387877632440385513250162212864.000000
-3715689071546987382598690502329070094787229471826443618171376094144070026307109887833524854141132281479168.000000
-5228228976798515162909480965607330807649745956076921940526796120117199768886953035439705254560087781933056.000000
-3301293515963740111991266364993041200991913053294211432052011612794927956793531323458009910846011897544704.000000
801152476726810116783952118602851491407698738839700433406008558634231764055995703587326161335330208219136.000000
-5112405976828300414217655790699462391388642790341490371208838049691166341681219767870139495784754247106560.000000
-27181863035641591234539074463356767752490068247128543764744939944904140008059288118926461161554156869124096.000000
40019832705470143641506514334163900336676195864677352683443557872681709107152595614439727660876769001472.000000
-719169973032301291260730491023715528158893404844847571631728694597514095184512747451891548469627547811840.000000
289606938038625811147626852885075328776148314761069682627900238649595285888646898341993347430220950405120.000000
-1039832718442544552152236292701110742830873723918149505439074161033491684184626121923051598841610309206016.000000
-3596008019653980132033128345493968836675884353970253674787071520999539166885459840331567127465119895781376.000000
-7960240006654578979584302412776497301220578177820005112313906869464389420953474121557487750503411105136640.000000
-7291942888119082690667222248729837343870938335638885545799764433263622216344637383984805357437880434163712.000000
-5833134513328994229610288199518279704642345765310953182197966272002530139695997606127720881887865575833600.000000
-12953623847441328400497687722381248721993801068497193861486506429956250585690985146478615044009302427697152.000000
-972359376788828549911976285516172408413105644906026626980200797361990836946450868235900234895635270074368.000000
-7711556696041399327051715559930367644045534416754883004183797388756237604245179794180340021680249006718976.000000
-16067013227923867514530211600043679903493708176221565828149852671109400353708572495734773530950314905042944.000000
-2120263669101930605866777441442300394727657364616755778357605903934298528061359579388404383202517031321600.000000
-1762099057487662606847696207067667645765299306204323845824440689123317363666308578563384881185620416790528.000000
4031109685444078544999092406808977871578020965815099365580728080243801540059183002896920643739634305597440.000000
-8393578521927367459182784279222792014693406274901017599386663529956132311696605407295850194576704823885824.000000
-7588487406142585187336312573423470788221957867848046232229222637961726653925417783171786326099118958575616.000000
-1143836126887752861848453582146251714287594447611361871010759326322725605862927253339082937658383129378816.000000
2902752204147949257219505090884872077481293587875070952055739854936726862457090467079916673468459229642752.000000
-9683524361387850999097866792543059709775676039314195038792834336373040236436669354067435764784010356588544.000000
-2855479894941844993665177133190552218423845867247343916506005220771781293480512536422593021578298712391680.000000
-24150604109605968539706022938548866228118399469299876671743834191011320094216450577732242117664140225937408.000000
-6964032515511473889509636956632739140130757247310557728551682940275093804526041747404378218869102701707264.000000
-1661021537266081270891412799674890468591609146410501584667246525952962728058975340547645418067704137383936.000000
-2201378326008057572995889264988802059514172614752473936340247625944221629466969153902919347032849893031936.000000
1311771359772024545188674943818616243806860941404653709989824051364619300020984913793190368463316775337984.000000
-1624516037234648004361295150183224925275138912253234535985467051004943295902042358023374232243938734899200.000000
-4485868187152645285191583466483023835459709146874620187984575265938666732624553918370186122962337242546176.000000
-2515014957869033109885868642229236337028932018764575835358533044985800215579960635662960069673945107791872.000000
6890271923434462067293983141712488084985932766725388845062919475853632515553115699906734619696071090110464.000000
-10275417202790035991826919475365219061846283183786048206488809090833812031158130625587582729052894124834816.000000
-1963918433347518895584562808954374966986956465500149750622155658743155736261991488546114544480865585463296.000000
-3157174245525009655597806885557209046136575816410578331080803043390083641501212184066767041162232094261248.000000
-4940889942416637379752704988255506131950511050609874774232158617697917402600613585001849093992874864803840.000000
-641286061102305955276743920744818578011231539600228307906255547321559914608987782171630298215617122009088.000000
-1694187969507640603771263776890091732599109350690213217822378696245691019287126254355260261009056377864192.000000
1445586585812551694532575705691377317466280279944224779473763650298736979798489349498068503148200248475648.000000
1191105457479820315006157767724672536047737550859006520366525514290765081268026545248461864202410919985152.000000
-10420309717788817269041822820398507776777047543902037606031131180945157962395009611195396012147130968834048.000000
-344625387213241874252175350210474341803796107524037557275658715473105842040223131341784419880436733313024.000000
823639421290386233073160064025737278675204828606634454756398567695043580041790776031038072413556528119808.000000
3288961933778870555725467795903376220566524210022643564902131844731592625812767506806893832888020279230464.000000
-4962926242865946345644281149309186782095745549655656460920147777417402880570487759778624436786256458809344.000000
-4420305420631363494213868623380828680873529118440456990285489718070825596663599857989108770971238732398592.000000
-3540729192104114054016949695369853877631858873212010001278216746715632759151698159106020496215711214993408.000000
4098126123732506493442651085684108581380425271173605374759523170827313569686000404660095579474717038346240.000000
5476207649418484349941366432613216865998261551387486262006432179505654612005813060932878618334001845239808.000000
1020572040807341652254427519486739375475119204239613071035088419693536426744295087151973948393750697869312.000000
-7819552880650688828165090996411965510834928128513232591620185646069674828152848798809953341807786622713856.000000
-8573430899669026156958035787412126686400238618950073540657004305315536370101965988366564960025107884933120.000000
-9896497731226359904467992944939487965982056275740174584467429020663076188743278937930419473386778352680960.000000
-3646047755445662974222591352184130118981009895518194627379163075981391711859387351745427108218219534483456.000000
-1884600525296507698828461719502835211842698267063104874003797072201878571691785047934989794146098954108928.000000
-6084383219489944577037606495663106837846926539709757861570786200550582619173078833478713226882619327643648.000000
-10327779561303446437860836504929374607878176152677385739214448769272077748837453838731934739143366532923392.000000
-989746001384878416562671212702245608082994221596856559918789496065546685682733899905246390343721684041728.000000
-3864960983758293240900028270059312280548801341170565723961952100937481403250668338535128298959323032190976.000000
-967079226606621139223285440763834906230647260288861267639122789373060117390703138006644255402679708155904.000000
-8991066415486975411958652733897206831097121992757407962313325133073512832515028731519776193044363486429184.000000
6084197466646049661207956584994150136625399570633586215119834877094801818731023799159274050486028361269248.000000
1194583644781884281980055057848813330557439484091368091526007664506510770216682779118555130157276680159232.000000
-3442021536563529513536676523790610857464900117303015748805490240521640372087810272026626722055621863014400.000000
405521649815480073976290942413899528789086004033581985558392265957512719241602912745454156640467604733952.000000
586488271458605365646166611326629128283047542240641733850519364613798065521234154043189751426981925224448.000000
-199792102974285508861402468228658398262685100836449645826633762587143475639128094106545935756076494356480.000000
-417194307277850150775849476913927803180765919076697423230693520717300487561527056568448864246496495665152.000000
-10716558212727916774808102147431476110541119305856110044700050695673277756012521775451710933379256187617280.000000
-1445121958495945558554157800948949489616585375101477801942652441998358354829591617415784245043696551067648.000000
-10939016662651892343787640075446678975034920627162864813574102182079143134027901277916697625317552276111360.000000
-1409534024612939772859015723195897204537842071222662776520370944996925463901862227923436912122380943360000.000000
294540907041841209576711620300866902589864983953656079824986579847526793950833911207456128264132305616896.000000
-7231297873173805137525768475485485494636382265107691580797232537254624594686292519832986788196816991027200.000000
-16565777646450807210689603681038348609242783226406262628237286878536127701887388402738797444931501535789056.000000
-6815341688062265649090325845234409799545686005488067634699588193834568530373136249842256709614403376381952.000000
-1451798974468589262344283006255106419938226366244200426500234269401900894656872247993362369845767792754688.000000
-7091165619837765036843611817811113034429138589079629608432881175222295684262922652241162068815762958581760.000000
-3831718054850782575412717355015900129252013092686893477972558624692604923520528846922678443166984828878848.000000
-834786488725402460052950617025857435241013795497400993830880487197121497363606075730350824582826376036352.000000
-5988921978248687490136533086087876783013592262810086688692792216493728301432279343829423847027005712236544.000000
234345870544806244431621723589950238868565094909063529274055230712533877794362758847238747970785962360832.000000
-7062658957607877586592340185710125898675473051325776095849533850323442609219063564268895625794680170479616.000000
-6179561272012372557840397989045882625841213492170207637818940311062975669111172084579983211590126216937472.000000
3359592373481133678687582031960124139719740094124277835090849226032851900793233167160743940467814563840000.000000
3089249539546287367934271589623255787503355737508093042918526041025766725914650175964867077481850621394944.000000
-3777411496904917717919668615486206241392626020065328000126258801974461539729234629314105381912230238355456.000000
2410241295318385156681014348732450054414039194159935870082965861784787929775204896573374973401801728983040.000000
-25512861595823175808584053927087131565397976087413876199997095556313934889274633381149774137064108314329088.000000
-6341099298398219917177698324012871490567668787947824657843368711849857671682394850776361455366915301048320.000000
-5397236808448127456619755723548233363901284433881127375268120431020739264341525508966756960819046783123456.000000
1478730032566543893342793439235533785991351704403174336030905335945478379871351134504127707800987714453504.000000
-1216479809790619184986415541536923011550144993272327419779639236273236237245176863294317172201841334681600.000000
-10704932361856666623229801078131393760192459552012685860667300408381584515697318885082110392296268703465472.000000
-6338145118099708232173041221325018867164485983113720699763188299819113018104202661336423915898015406096384.000000
-1612013020451169423777831694676786989265354800146614593324837828549065392792459817588664910048601757974528.000000
-729495047063650672240216014495396598480752560587201052243361484429808848291526548305939549992289210204160.000000
-4865716320184871862416152757699311043001335830599585776152085485849248712730534781936470526035955462176768.000000
-4336436139238197986834352175187255130170421254361774208930553652609809265173099609974445315644843322507264.000000
-3918466011325291322605768090086236894297886957337561481567059141623604825898059641719566320354633644507136.000000
-7668001708963448566579252069867452845548435168126239035007200342806401603945835752563770291686639470116864.000000
-2692892070242225369010741543846556579105003156101796202782196967189536842082858085805724727260700611706880.000000
-4521527554292104659802613025034931152565058475541506193049230720447868487396077924728337626990645967060992.000000
-7518790768915068179685311391811226978740137244942500461932085474381218013720670604793411550293606487031808.000000
-2202495115685479461735342760402774139852732917453016850927949388327239032814642553422434698334654699667456.000000
-6924765316699170544568559014715160713274229264082104158667517576991415601099803631662392856512916644429824.000000
1814721468584245621473315203667960451613880041262173417019246474053792278972186407837366756759645173317632.000000
-2507440650906959425331139453755721057617482464052199511086785304601737788378841476166491123478418153275392.000000
588265945691568505853580183957267857429857264203697385306062272206277931763919385580308678646818223947776.000000
-1688616321146279159955626391935636918764136311678292120199225976828902488411484019975875240502816866828288.000000
487425187898671930035226866441041814863880246723870607896109160595803518760291057127045451528484037853184.000000
3156587208719584883846108218450439964555395829452501486782869306180640786952572090031680654621058644574208.000000
-6782827213948811470295936241639257119084808549409757336892072403684573826857403224859224803777948818604032.000000
-2766363743529331042799751654414748121024121671908832011173711672948155563171661869153883981384523502845952.000000
-5076127989831734016601052447038260898908583031802376468478819726487142009648248033616311388036694970204160.000000
-6537186504192210566347946680826673365425528722588716626367145863866953526234372217686518106142555999567872.000000
-4924144537630117502736528439252573615066451835821891538613074880425022891163864646137650421528486465241088.000000
-5416301447907894587088849347185436834906892098178859852171613083131185860023141891230525356867925600894976.000000
-2325253445143326540168737392324673685616999630977391919188826107701692419878335928186062722395739456012288.000000
3226507644503511301646160700847866380964416136181563523420978525276662264147514694824508709368533474082816.000000
-9850753801192287754777133159952460467973307478314126005918796139151362639029741139569790346794610699796480.000000
3322033384221100779397519465103081900931547027196915575346445387021172494505652266385490108270977510014976.000000
-4447308318999560588653430538277243433919165766744063807615812807315687249553225886051288059074934258794496.000000
-1599114437143581390464228211766206345125670092046745051702822561495545062053266340235891872177389161152512.000000
-4692781822373957233994954411873365420094805704785314383981755638453079754198968358798202073543876301291520.000000
1860414959579786961085390563415771582232109863147456134720624110197549643632282311633561015780227611099136.000000
-3775306783658824353718466630537252196004871708468079807164353980629721827043042479859283855808856420515840.000000
-592980904429956975625122985761290705995550606338525102229367069112247108769846942310809745380549328896000.000000
-16727091832106920499528595865964933316444194451260339605305933814189491002264177482542403669876250672889856.000000
2139572469026551975355008722920847205441484319784076250936038595817699628875669560559938961281370942341120.000000
437815977966168888778710204083275903895752773561623363702450993243307909175954204792757750004303234334720.000000
5595720593029785672607928841830317554482659581472113711426147061874454378095681932528428812792341089746944.000000
650462648153281799014958358484308853253192480783603201527092298876237980469146919718510678162389312995328.000000
-3806174846013051145404644212339052894207614950289494866029695298439114377566767216058887828224125121331200.000000
-6957654370710384620182957723443339416316514256025324270844375020611554399492132223901653505173940038795264.000000
-2255720177903261759691161304359205417930119186918015339995239345341894793935467860308703111057587824492544.000000
-5735410731040555963922514901902919641146030341680420376513651573370223224564096470912597557023860420771840.000000
-3493280476791583686958399963748322207917662895165792115811663636045992305348065508781115012470421369913344.000000
-1273565548085762657042199597517616953589324443104526039640775859709639241413727788553964800829165641138176.000000
-357902887559508974829405443254209866218160717492587188914455676135373586669213451840806147187153018290176.000000
1657074530930989803772889310319807628611673734203814191047174026956754623223927166174791124948785842618368.000000
-2098483431629457071494639940021790701265828652845663814322130781845693155334443082800274997941348918624256.000000
-6629496622179147656932732521836877114867028034424367093972962457003782492034689295701027313246212601151488.000000
872580731900422560276819111104027267857326644641942216484695702114648127510531715881988545677224669347840.000000
-9590328298167086255044417391461558385789789609072030147579608339016143710304229844018333217747984046882816.000000
1365078686339029059006065681903757495460644925690423546646506834879989721534271545596715679173934560837632.000000
974508221056483394206747013577242608267543813286450432496565226666069514817096300603418027511204169121792.000000
-149785484774948421187612360340659386855748596087585144278685732406305310912879870818771689099446919888896.000000
-4455996286075228878360591721109273374368715098820212629303085303512409647354254776454807937387821344489472.000000
5585644318607230952406013579823795942292465544776282931973343903144876345229014294656694859901573779161088.000000
-3065080417096560957911297354798113331508144466749471057422774461288513919076675711672513445746971594719232.000000
-5954480077121594011280683867615707425914899947286074201359647752411175419107004323462139125101195335565312.000000
-896052921308965774060136912070215709664959159454580010097347438687997309648754944086498734130249791963136.000000
-760725954494396743720969710200211548889381736462353231557563373287075960624480570698482368874358673244160.000000
-6337731845350030210361584439300389613438781229327276169930453849032387290287206317788706241479237515083776.000000
-4848004647353100515260056864056782244674681502290925216742614208366122678553562393782064899556669573300224.000000
-4215638313471821937664322117173863628178366908762638917536067113485009699188154308533941326693195264819200.000000
-745189606013570092456730896596525503803520246149809259572496655779507654129067167571152609849905619402752.000000
-2640273753072825309564235478165121177085896817544670601225774878210027989487314298289432637799419992866816.000000
-2047733959051256366070127533670925908454021840942404068524254169283131454215647186316071203586881685028864.000000
-10124454626332375405716077566150083737939826677238111377101460904757916241504984803526970352494513917788160.000000
-8682171763043077837916810386402586094207477000640264863117676691614049803695403705490488074755939221110784.000000
-278046937253236819106428933105690944264733462523417197571479629602170748248428470443854103885603326132224.000000
-5315351672581560568847398333116405381517965080939402988493723761484366103560499781879767295303911051624448.000000
-2647804556731344139534140758809125550660178643419333951804444280965217439592522438593406129913961671294976.000000
64430262911589983199327405414028644645010922581373368357519807800329107136833080155596461290548344389632.000000
-3577653758787295258438540694553427578322579744397598262981188802526117148170382400943875325395241644589056.000000
-4027953593593787129198525839343636504413417545583523747032139989040018772066095991682778005531339614322688.000000
851662814952911930493103223253574314067072257861606118656204004460060215356134104559419711022911178407936.000000
-4536954948827046429342106451071041521649406601932337118732026221129644813197266221834094020442356256342016.000000
-7056791978632520423663974235788016422602515189808607661034525547997159164813712410158640778918225386668032.000000
-2563835610661982081641506183461630203329116687642734285375647851806396857446147230535164950287658336124928.000000
1058680917239368059104992561129347439014953918311846573858442741243334109003827606243226175358835628179456.000000
866538181962912285671526788824099903587561431300745934920068885469941610499228257508760314492715110760448.000000
-7303293321430429447560568401611496938851841375754191562384035496282533083411548376866410205614047273943040.000000
-7489991638114429464599333383018025068625591150894836080423429075199324013293382802212490647571200491913216.000000
-2757352796770340235546641807745642501778462869395161544060857347544099994741567259980044558975528180121600.000000
-434273572574558053079722788760112437064570668069713055193835897743050415753121112429201345596017323540480.000000
-6619975571202763297073951150993573943615233442695438574871896592485201986369707091974299602318445177208832.000000
-4970954109216695259532128259680897272505974325028872712772442797563599087921796989343311861993080468013056.000000
-9919335812706503509092069186465842712436158006791471442489074756838443479867545106747403355616160562282496.000000
-336087935684676714516684743589366398146642055574353190173482091782278575355989152196334287900576501989376.000000
-4270811659727075183244290705899320529330169587807283898462271500156658829825973206557459449305796964253696.000000
-2723495793374462770606015838924808710119278328731660061467489635192797298658755896827364629000329558491136.000000
-323088534720780639936913146956876762721069900349011905868515392242143470507713197513323020392749017858048.000000
-16147946769901050859015037218383868228748197332231612768095014253902944682559283226873256415903819841404928.000000
-4589454166056764541668568311292730421588612845171489508754035180225228045715522843598627532529017913606144.000000
-3880086147135913784379041178154726862245984715816039893549549050940116087488022450230164158688122944618496.000000
-14380291425597028310265490569762341403697743646754718797806328471656726505106122859779151419502656518881280.000000
-4519118801049117596365289124099169926247834106374537414319318604643249851776500569935930314737582113554432.000000
2124621719375556582290067082808621594499812003160300156604865999840335319133474576404151839664301936738304.000000
1187936769115761463799189746051114658163421182750607710035128338416274290365759279997834179664722983387136.000000
-1869177183796026751742268314502360195353997722455049998839504924693915839252705541922498759792133262016512.000000
-6190159684059454976001880976270363570614362042487930428359052186199397129341348340548257179934313148317696.000000
-8659848367985640541286290029937143461464943500517106931728210292263634804062795823990232802405602111258624.000000
-10122967563068623253508837461602379990611712246018341751898072561681559626958220239634341921756849245257728.000000
-6666758525422859098875193405120070380835045357719894397388246537965971543908839440729732329011865205080064.000000
-6036579886398775232513367110937819809381669483729162949046910851448176786997591250943029674282226959777792.000000
-7911359160763551139021389306124166796845383170875636089956189739877303959113521171626285622862519444963328.000000
-2344907035158541009993221110033881756498294341702066101551347204632644544782023698989913279319288101994496.000000
6784771416216834729323501008714597305409398021315296909141569886887776110488930817858433834140639978061824.000000
-2996772360181533291460864636704404570322587237583828039085274797917987436243367195309623150201057707032576.000000
-5060121984733068699730141938939480670185974141594017263377496797041940417061495063817254423346791550287872.000000
1193157613953414827944750500569628666278175899368265892747533217822548180894150295027265504621210661552128.000000
-386332305968839055643108726660719693114483214778939177901612876129838066691846943842723133753899572264960.000000
-5983994421954095136994357650962160888595982990360809205431199117427115202741922222221056251259116272484352.000000
-4395647928045309969212512852319374449147512910743160062197832313719812082500746416992358697314030521942016.000000
-1002389526445938888114436718997677806228078124528938206426583656949412991256484229610619832825289203777536.000000
-1071805559683143178885605734811348160516849405651000698360987596121064436199383917160908754388322080522240.000000
-1990698809666896381885452397925045844006410127104970555585282430554290863807819538312679217638239463538688.000000
-4613227768197095142886829920305469803578551012407102306026458720323824962914777029011519215479622415155200.000000
-4246005924700661874975046150369693780583606739596193130483276121294092346373606639517975852496743793950720.000000
-3565783662882296848052543167917498825573171949357501225358138679408553477008547683143091561184102868582400.000000
-1806543012669038004518578834798896052935717479614357695836665496967607323341041448066934330287622484656128.000000
-1501097850954240450782682980358313675637105936181258474429705635836477213530084932563695828479705964609536.000000
-1226095132106206277445669706210853705574833971377099482337492410346202266643969552847691805406662091603968.000000
-6076002826130795132859811901907593659292373579958116568375959354859472606403838739614045365787803263172608.000000
-6431548950624859838529012661113664097979669933664407252857357176738873266200961410470577883673785396101120.000000
-4638038702994055283042527100714013014847931947769497495572727897978968565108106990465126574030387314425856.000000
-3105449649678022107079374976646600024103434804421660455611916972937728650441885246577838095391551303712768.000000
-2292197247500251966477100656257731733317520571685921906132959769944023268984221396374985464471328481345536.000000
-6532446092535975446453497065106324389383071222791638787683687719883345294479879392881598802743041185546240.000000
-6477532459324263769811807461978033932907906268542122028132677213541399620179623334771113063661801547235328.000000
-5634323102629023259720394329172443963053434787741928030177831058171692435625925081640407411961502724259840.000000
-3625782666241274798076305824367043820918400227903497131815369050372225227846846704899712150495287738105856.000000
-686357024148834022863138975371400512866073683476586140866881774870086514517034570195599294194351484174336.000000
-7408306710162250980672073011352504607810605340438465024729193866116055979105194837824627971646392597741568.000000
-5144643202019608138089321730498290143152055949856344270906408615334722577722175817478649345735671999889408.000000
-18102728220301415085267703574553465265049276610640676674331997218119455886698419024468655283949317748948992.000000
-2637262140225966248410091062869138437811760724344801294229503775369582905920159510738389678289049689784320.000000
-5136457989612093292591558558462335071982525913825148856952387993522005844372401735256111797179903943639040.000000
365172279500048389471501897052378477447212424463899787188723839924856396838954455243397104932424253440000.000000
-2790759750434092971376099218097609089598930973477216555854769969415347447289436640401700617410871864328192.000000
-3799809355374840751418282778532699313927297487663422863126653708613274160157645160076374042909854123687936.000000
-5405471622092401446281572902388353442691569000940464509457933500982502930318735500758400967751365071732736.000000
-9061038265237322856679812428477642846467933934658445025211492765634456512205594839317249503830361237356544.000000
-5022737846910666341068657609752458615111586289607151064549501835991022315738967208306099650637536910376960.000000
-3234836820882014554084582445553235335539633072509772526645313484446504318079509727644080082971296647872512.000000
-1761853938686308562629233991829437689527877695411828614485530380309833478131335125944529374192704400916480.000000
16364952941474859847246802359477515781863660803306892876052195544802079112714801037741609028619534860288.000000
-5682951900466859275669736201186401939832972433204737073614209866619093720241012492088164680746551243440128.000000
500428056748652656706304589334140584755967103670584986469426364582108045163989977301306485010808340217856.000000
-2687140569781460027768112016774243806920405295022187587410017650134018377959157875023352698838885460869120.000000
-6169083231530025496003800251848737574188668281844201857838925442142824570969915268156985651123395449847808.000000
-5484316314322559635284889833415281135856682296701696921266124986370790361259388759141829368758533078646784.000000
-1646850262650760398149421340179421570831178112859681621590730250171712261375461987542481881406273107263488.000000
-2515895960565920080259285185670313502040084649045552787937950062923452008325110141263921944245065899573248.000000
-771440630517112519502235858268586671085846619689418956109957703111420514594566819523712758908047258025984.000000
3679682510876779224155566393571337767959105414054590390892758682834436339061829586193145421660047575875584.000000
-2569185743407738863320341262504454999303364811491450385627990910503731182923636215467237594268397857669120.000000
653534251237838878679595886363878603261766031022971695549599310266202834599038744362815152527874507931648.000000
-1314369541203897670545429783510603439686140616016438133258826306136523016363885137215373995893502488084480.000000
-2684364007320494366844595340583429746434861989334347508123896725585261537236163686398730365698436761649152.000000
-11450303529743184589823084723566064090616541852856158623691128298024669461990566682257772286520813238091776.000000
-2702597938314727591242106537694778884061754016728408053491265166713321082302646188233601944957492605747200.000000
-3603270054189988991560746165789571971712636970199871882023821509618520320485250808678731521611251587219456.000000
-2172500879531623982135674550833687396958899553007608709734531703025114494827503802208920039051159408738304.000000
-6609999754371558406897648390025351813620279520430088859158961335511691940474071642527759112959498819469312.000000
-4568449314778964252724432023824594511921971570078902902366749481769651608386794471540380724708672383483904.000000
-4953594028362052895747823446877631979913921848254771584049315524521377857826079392463378232304638793613312.000000
-4904465675067193967101564653328144867619641411224212412741328425112327338361423093878726336167926378266624.000000
-3807898372148887685339906355840761218712257309933968461919699058504897220706809895989876351915080137310208.000000
-7716030117094288802597558962909057164985235401677642780820271208864759159371276833769672256942686590730240.000000
-5786418615897620627339103592827425784782531297557929730985224603339740549590599086491226439827173094195200.000000
-873930838337220390212668533234030990989177490945343994427347545901619662837279291008233523254145906114560.000000
-5009240125421443000337994457682643220976394056976057716108524735708143064687455215017413445649804644319232.000000
-6918323270632468281887219628175559645837086041630668279076810759486538772874238785205101616887436087918592.000000
-4308413244970246960914776273343688245845175233399042740909215628074450265193203443693646919113028958945280.000000
-8029154478241236238699267749819753866856057652491862001457330034226663791750668636042124137669428015792128.000000
-1928768662294801481123526691643782141037083906709816313437173288406202351476156729886121200973767063371776.000000
-4250137395123515690318280117933926284795069602919812245631618933502199435193012408295606586908425588834304.000000
753630534370836567214155930824782111456891366358654671771952412958221764529879221638151319658733242417152.000000
-18866369932111235676113330764967941402301264767986551283556368072538082402794901575510127900106633330556928.000000
-7052550413591172779764407935611472658159126181084501415534830674993434028686120095235703409516236670763008.000000
-1965105293070234857429821253836273891500938768125420893384865521013545173685175985470260459777490075779072.000000
-1590340915110091671700753966503624261497716764536762697816322826399577307155895915788993178784345108774912.000000
-5755876161656059003216395120875349978425271673908252362293364647711513571219825956160735065860298214735872.000000
-3741252949218564054202574807055080367756299740104475711694784677084841971457842751489041933917666116894720.000000
-3807174768542154957550548652823196995683564880727274992619680229937919190755409668527133724781294150221824.000000
-3380948313267193398709509865025296024210580189033746818881807199528965615539580348615713240473886324162560.000000
-3710902415004542659508301224734343933848856431874490977526230409400789966597334661429444065503924772143104.000000
-2322526750497522278505171775045207755032597379158156827396692548436342436011513563352433649285741181665280.000000
-1184955286581985019703293215628116423417192819294271031867767314624248989184771989475763280192337627578368.000000
-6232324951667675444098966537760696590647306432860048639906043212912733198847501787214109618716959402098688.000000
-2628886846036041621963878005212432757389249077929330430726141732294223058923328887392704596093408339034112.000000
1466227173278012539866070806817703085386306719069523044899589831394677346256511228303232808759742125047808.000000
-4409729905472817538861064187326157495790559846035572964277821359792977139412799537240920574363785685368832.000000
-2632026111114297339677942142787105304598186834107930673814779681806866255153910441066448283141451448057856.000000
-4946265142150583504632812747573707715522402639121454638349200945538994336606667793844596090102609803739136.000000
-5411249321853586340602031752445478621904858646526071943364106758404734406271324813013260033033770350149632.000000
-3393680546502787697194832161030348307703460351805806047578966061842523908233453209330519952056756631240704.000000
529627028408182328304004980372544382173129572797069552871522456536689120885883232631142124568774902284288.000000
-7253460482928330681599959040351529016375025336541234142517471140378152658300883401106375818546700800229376.000000
-1713829172743644237746053278301431718426197359886847812009893804552903152180166329423480732868737826291712.000000
-5400877050412647927062147013188852021412761280743197683590752634498383316753643157000754100213717185593344.000000
-3399425423383411439323639297660413788957770093748710055958076635624384661946777481403209327440114944573440.000000
-1707976910025792801199162599456062843709768068159520017928054153263703868130394840527298394805797751095296.000000
-5795761319543643677553502852815457804145261233977057494222965051194684709152459132686651839261244630499328.000000
-2240559985157324418270124711957010549542205295040099710578449987359240197610626461525811871774020948983808.000000
-5926004187867546783307187627422934276578596988996077687311044462414748306995583696167329804315969313570816.000000
7431097941136360055892393533818194119746789682034473010251380484976251156674854890291246630363884318359552.000000
-2689783281785265947251513427836223081406012754142570051088064492019686527094424490169825137709131294048256.000000
-6307586290160367536509392184874334821081469051849432319137034330301891777862716488385690458809236040187904.000000
-2876393872489604588735991937970522425382662657465205518232370663242512692468393795970753083103403640356864.000000
7555742721206947882695606235610972862096572682865068800026273216874915672079296411406793122425156260593664.000000
6271713051557662589981666119344722702421449919137795937871887653734721668593665838784589002227422232313856.000000
-3121352315547753180554785205173862076555045514333590728257117354726188647803979661140448514202128911171584.000000
-3675180817225740289156152391374880482057545256135103473401689676046230080938165578078643579413916804972544.000000
1586288149081583008148586606303582880266117592419519460317517316264921882584386543613383027332923523072000.000000
1222415004515408955297426748334881898837372812241440188884604526227451777153209635013696618693348646977536.000000
-8401949096602795411674304844640225450260159063218568676108550212502714051447685498595031551360527805448192.000000
-3873023664171449119966567555354471538592508091468192888475236850649522926180999657083409703028051996049408.000000
-990648861315717234809710449219218360080633272472338779587637704428668831261910210970020431912087672848384.000000
-2296532831764689409091832533713474504219892520752170192694665653730413177106056628537350957295669736374272.000000
1657760906609497209770120454560587969548099168533669902845317800471391962656376477248458637012941225852928.000000
-7168252492831857478922332212947474010853030145112834509267564525525385336026638573302431024991858512101376.000000
-5219416863501782198815737789112134783774564086155806382063887134017002586925141390377722736404994036072448.000000
-7189270184045280418964276656829309701751603006440651576273354798847190596685606269621894977777324389302272.000000
-3344508238505541183528746128600968754702159691123482577810095826845981193741646701039189612073315247063040.000000
-4135018132128146964203903068211912129527015407224347694320075187971152642784277944583079624752748818333696.000000
-9109923238716000685305757121426398416467298452148061872187667481269712893797068601747198354277438651891712.000000
-4458337683820392384576276750164542187662603120599520888661831767687554369057649330410691947511569872584704.000000
-17396834822213591798787609883590020950703047628391362602908897900775099910656821783226590355960989134880768.000000
4592600350572498404830761591394299466336961389013730917443522466254952987641668372045557561597009015603200.000000
-5693441512755613481307977835075344631160772017710015958558708438271709652385679605564064328956787636043776.000000
-1885368170361847211911188387068236363346918086782981522794528152470932330363791064818091479168250995015680.000000
-3428836112033470306565851201861627205430604066022009294763138356271155049334587237668059122630627747168256.000000
9778529711023247355261436961607242192294145048983956557233764790270345872924261490717169163589911014539264.000000
-9291102139882030578823410564910203852031015008071212582193923922363103019897577889179617583047598523023360.000000
4110731368678858229663096992125600302935734128945154607444256405485621291480501379566954098118367295569920.000000
-3812534809005448351706451079336952051060538250268289772487469436418910835902058655632324385358465434910720.000000
-3831747745526385990573502750751913890596355913529389226010160285108920485111579525889418338710530969042944.000000
-6049439672463635030455991992511169302511045002806852256501402239389098305078565098768273869470161992417280.000000
-9328579001593772737136893825361359774016577520283804864889978615783228989342619213039189303512389814059008.000000
2553405223989959409747097139074819937026388376103581009205287509083139441332830669513661148685800990310400.000000
321834064863124036730781817811565685802563737546577755099002697795156807484761027488475828258481658396672.000000
-1299989030488085746171562824851074737278073881179926363509321045439375103460132725985757394197092847583232.000000
-5239635704553111685806101371003329865516973505871581085964401089926614287595758115494044463927028359364608.000000
-1029410320694726977152460007790930368929762077134996712671987794635992617502090888755852797308536749031424.000000
-5751972375141262479761544200796354810644858379055268583068453736160490045303601520096587055970142298046464.000000
-6837123611675155130501521386796933101363547244013665077852798807761836326199668130855891704002662253985792.000000
1830374116462950970404831464720020506234425775914596262049131048090028888414614984974744827713803891245056.000000
-1582369821955587931994363125159799392875507473987013929079885390394392614971940940289072886978146694332416.000000
-2537130154861003239065013686091158579914983497640197625120967675263277183825107578458446808452385835319296.000000
946305825515856139519379704010677869024893351046639859354997721674615679499361146223517697946721038893056.000000
1355123874700210029463702560982535183476741181168769696412734031484102714620664699152978926133792324190208.000000
-1278364711554177575804151846596573961641112918886341321926804951442746701477512503009760889580221882171392.000000
-1765280952054864570988379520804148645604662178764442971708549481988010448058500362833550036874320093904896.000000
4339667768687172097597850166388370726278019565656098118770222727751688521288942904828609527594068350074880.000000
-26380432560786834549401162640543721370094821485467327062022882512567581588358604706433834810791574846308352.000000
2821700566794263982582364164587347484997295040947295298056783958763134838991995394884826024475351716986880.000000
2122155718762715163077526858129372541338369275582677257700595100926156429888265965735460509181880578342912.000000
161819260144639094675014213447020316497002710494461882155874265792557282438713404210071820756405685583872.000000
-12116482670283514632356227591786773288589964901845015623813209787795313527966492367173112353694629043896320.000000
-9396053243869981085193749466126634557630133843395583970189181002134486225073157142857012494375672545804288.000000
5946396807249546790863125066980095291945906320125812933424980339744329426425621202644106418193202795249664.000000
-17104775882413068710040024855168820716467161732249201290525852167653371367326584274468060557529974036234240.000000
-8668621695194176984894421881582623631890236264731710048603174532162620429412311471874287996728573108944896.000000
-113904050655160080098371682576430116142124054765735678369670069130200578344606249694430479492255729057792.000000
-1524112500083820717970352314898664113977551484338916604212578601887806245945110483671033565437642296786944.000000
-3244689414234217947372836770251524493596266501538170850313592506844972475031720820477004339394369994883072.000000
-2885300714072022025303722221666087048483450924392117345083828463800362403848719329884613414730038996107264.000000
5190990059155229268492506942254234600750524293203431479990874806379054356518785144958668961449855263178752.000000
-3477636783113960876205157309772176460536196942542631010901758459657497665207325560702921645672792372281344.000000
-16762433132363227181294486238905646933702372351618944051469534565232672201066950912717316762272976907272192.000000
12651664062499411725449069033229150671086853948494864785026866851156396852872757547605460157804954171473920.000000
-1036663431280456053587163502787576409439874596211996318871841601563626208897061736865393729851843070132224.000000
-7641979174469743953338124159034864746550572260185739899866181201724492783715404795923164563861273508315136.000000
-14584640921672355066935142811889387638889907345507473831698689350246425491558224074667633243282250695442432.000000
-2410014434812312584358642920711484190843743943510705114630430061962243144216401684641191115431936616562688.000000
-7112023015957795967920339659869994412538314801931654693440915177672167586232493529646608500690177052639232.000000
-6029705799819311746601306882718152350138196320220988222392559578548908568034683177796619384212803096150016.000000
-8023507248433955788043814871640917765488122385805166381019183340834312820353568092455836732346830075985920.000000
-1227738690821558760336086132669692944970312309161003788379370862613395430628516413307868111737667746529280.000000
-3915849978254060901962123241333802907067604010811443463204573220236739465890657180637535123320198175653888.000000
-1816672338054842556697277047922698723954398609130045353063343464852289719632716476443207057346880803438592.000000
-2386449711525562297121815954576029500985819535168023465403793670493998238681938273306028222744505480118272.000000
-13016044344095825436171570625856235086213761741611828576199639127248862377056835485542724825250866921472000.000000
-2350942148125416083865710251266177034956693615337496251378342147092256652084831682622703971118130604802048.000000
6529173996892677114947249995676503907119235497670209687808414203694148596159440865327986704189559582752768.000000
-8628001923152781065926605043579531501508242803821883867647737014200724939026805960905817595395222972399616.000000
-2992692916478583149873415272035276445256525684137998517383702157280865989243627852647076465919700932493312.000000
7120766040839599062565291626703488335058254211686295136532954147245837454572398126322238421446652764094464.000000
2638231759638990363353143096327489258237944286360577373161997304262194128325491544293166735975422407737344.000000
-2582311935919075471972246042843572355005239031043719254820982698650285034800794873023769096067773657776128.000000
-7285450753735723151349954876352058822666023238147599065328588293250210937003338377540608801926725612077056.000000
-15730546645313694097486183235143293460728904144920805778446320416536249635484800495480102689174281600892928.000000
-10000625469737355723801301023445788243836797920158865207252675747605343091291307127811367571283052924502016.000000
-1322951833315450200081953169098429791533195626490194373376146570272182217897026490980068887568827199520768.000000
-883766241819420996312340392073219897708684762825213398215748175559629768418759429759086584945578627563520.000000
-2416194920919431835382084390142868244196292862732382365006252427490256840130293427049467371800477369892864.000000
4569237413210037893358531513139855142352614776747228131822230092176627520809458388438329554887989071446016.000000
-12911700323626562683104486431066601438803688139120304102734987442635726311448098068489200692336398979563520.000000
-5253972741161944409162865640289176569455662242644191649046753845280577528504873146935038443753607566196736.000000
7729094756914699170322922989172279405703444641128662992410630155472192763533059346062881593172327045005312.000000
-1291056113217857538501443579472986011934198884896435891570507438323709270136356435898569582303904222150656.000000
-19074892620683085317743496811891972620295691271722742881378670822161490970731109939978396105900250540015616.000000
-1064838705801705461625122154155073446950086127137674569536840308130374291102573769701371062169249576386560.000000
-3954409365542792192502553216467804869688324939023643877001326442042517063234780636686210957837985854259200.000000
-15433175429253063503472351316479844948295346404843590557748935816026585935097287665196158731848377004195840.000000
-1114360292435594771513757261577571474101841899125130508636114924122391474863988156452799262673792812449792.000000
-8690777442161339005677867027937848743286730170847841863961102793949865150813474147269842740090752427098112.000000
-2235605233237749316273255266453381513688040299535392403202268026602351500963628103850842087012543911428096.000000
-222829460700054743251376030034638193994345368664265666178302798835171745753297035997383537196256330776576.000000
1061249543458903609701698557417648237223795026137931175174517889841206883318155859982573735101352948793344.000000
-7200154619841834236349764101195103375124525252577814427990168454072116176151156215915696348537879649058816.000000
-6744739696248193534589344267024787603316280205322273749410554173069783899782654723629015107058868701626368.000000
97718664991846825114147009639355700397002995716558158564091160422934729046679944601930478570217280634880.000000
-14142281004574724963725284461629949711821751000269593752018147754344234228456089539514137516610253299384320.000000
-10085895254908743354078922106095817175722920119886169066137157465155982527449047761148233751830887699316736.000000
-2902068415322858835375181859813858630479105735748270329865603246581663673750886493931692527518034060902400.000000
-6519805476680456885245510633694733174571194690398293721742132549299275397957959972003026995296770705063936.000000
-15930081038834421923513227185782620627039139268500372324498007562977056370636350769179136845565895039254528.000000
-4450440972388706709933157637007211085075377156948320759929299519322778422068122294903221344322725311676416.000000
8573937284765851612431530849174720861014165942478670181052642760790031882419384487000634898172217099550720.000000
-4198752336844148869642385987658063174760081722884525481202134887326218715480029528672283416860271042363392.000000
-10001959430981500185067291102132751503384930781414625510475545001239051720731990899773362774337393577164800.000000
-4153719492707080168193457393573569598416289108537043746007458930591993620312533565435478651515386539802624.000000
-2049759537683286838412307948533536963749419146114448760457594569834143758241664659017244856239041795850240.000000
-8784615681683351623214888345193763272693936451256844158601538189145678568556853880006365519925623841095680.000000
-4697369694030882199220797375546874349769828606308302056472864500672086932558174402158944698689591648976896.000000
-1641430352054030427619119298482906035048824317523784317366177750236360444367225806496139838574129064181760.000000
-4646036564482693455521659220357429135267536404035909578973800836271145562734867052004432561771329045397504.000000
-3373398801120811844784236788769129605503527931222275323075728508242946105534209376876405043921198912634880.000000
-4725253861755860143362934001872718559871821581066213086729405304695659101098107873941004947949174971695104.000000
-2323797795374342336399505291082497400970063357246780855120199922627745870740490525536984609332946928664576.000000
-1737796933877016580472947812951323524246427976638753251943390274728961549137452769977379856498289583063040.000000
-6297317237512511170965210248179536008926345848684251252560995370142321106382188002100745226899126946365440.000000
-4665736370241293907170390591275833310724148339194122287076394326247711037082346152253414348638741669609472.000000
-4853623525660104211864026734223340690046515158815355904362771914162719757909068753715774435456923056734208.000000
6974441366098427627371105308383945171390674308631062986282166111862658436120035403170646047610930508857344.000000
-4875265722545923036525529713214812503649246184338464190857023791994979595374452613029007694963334807814144.000000
-5082614216673410961132364247584720545484451938770103958355155938121607119205159858484917507607631457419264.000000
-912370115712360462320382468091191427376751033476904944275691831824501101467437537109038447965303117709312.000000
-7097846264888554672721235523503778320464618669395396772643394380894107189518259302164594722939206765641728.000000
9098665840886394812493685164034789497779472354390415853134923069023857128806396258081735837219067361492992.000000
-11107485720061279493892391532439773044504185295097576648660833229629045115698948984620279598076665280856064.000000
-8785345964756718932862919697996286907081843440091269748868008899827393378291738251613160587419846176669696.000000
-1224380053944019182951130029519954014593579562974317211541064742961173277476698099945116508321295986851840.000000
-21689073419590280082586339242875259873865629134001657956034282109530940179089117024694004978238228923416576.000000
-4883476227645001551344085137516954719823925354206472034148538996065734567111507077284751253751084468928512.000000
15074394427500245711270897388215517413803517169701913149028046008491521757791666273112601109233596673032192.000000
-1542255988881633707179571900900511547708691172774674373924887657207392869417301741461558678154733900791808.000000
-4204761640067733118687588257097610379493661005570545632794494980309733735213587990469903017987193601785856.000000
-4210636503160089396989085863130612390264530496224865617854858775090566960210692982462887418973561672433664.000000
-2538262541128198776874945134341606386981982107951562382911552683528552765890396581587223041961220361945088.000000
-1851794904342922097143177341368359080006734204620291431166697620205238104927178368076182881668594745212928.000000
-1166127351344276997425952695133290213967866942594315508212796646527352472706680124388648613521458775195648.000000
-2802993829977018335024148101646317677306662003807849083015813621054201042728539877852217582064444096118784.000000
-1368209205329795862703798526919854361882711163216754016270423583335184090867301696048315963149448541896704.000000
-3997537757105598184553356632695608422478323516777778431278172404364961361202640053065899785523434300112896.000000
-6198565236312471092471532081521429227397546697686869325192769194290224870160744919488777313901865332637696.000000
-4446126990083941585051126871806623303346423130069947504435013111514507820083621423568815718796903028097024.000000
-18317606057592230480685466597976033811777481122036507499131172355582184143091051676747195487235163692204032.000000
-2789625962120833602395322841953567414769452160635076601695054893017652920326333564930848617034744760107008.000000
-4508917289283841451013724022165268254102628482661176368126510494259894285020650475397141030792736970637312.000000
8255181351114608145101215780631058079595003896333728946612110711610654905292728537432394633138941290610688.000000
-9853356444121758873349871412258845859604591018758396724187852163955864557588627111278176004225539728474112.000000
-4146383743797224475974997544385511064240920269816503930513263689217050712672380797517199828817567310413824.000000
-7562200063716985523152779257288251162410070212444590041811284746887163429677121566582487849787572929691648.000000
-6436704305245364118139189302824693468394300473127611936242358672060374441683288427246861347051150692581376.000000
13379204649618001419841841834858199752667462821681250417711239002673941084904349755290445510627406532050944.000000
12065563731492199507157981411089113264284548687167039612723400018441204304997372393468287269113321316417536.000000
-7764452080796015450340851896707610403233391611342714908518881666230465939631173378426719162601269119418368.000000
-3126526938819405307726041221538003699930216193699518101149087228254457936789688006037096347506901407236096.000000
-3979607796339086933257829673336599768894172956433130066569238753988130015139876781604361916157665283670016.000000
-751153535735443905825041064558671460621020922891760350770458166065422262647046645314296617700990952407040.000000
-2385790568704176076951369299902214991074220044874181284263625086493947695992904276164499756460955945402368.000000
-114913302861889044377581282836705085346335073229541756044418665686093142302746297530398597428625914462208.000000
-3633337721549810395376151037788987312701201895991583237555112112657032069055832777362180635787290558332928.000000
-1801807976311571187792059604602237942383873417044100201827860505254934214725577878171080890206703014903808.000000
-2310996257744787112128128191956736901118160658395127170678405891808903463620909630065817273462295474733056.000000
-1758268511342677558228382680849224784066075198788614918529842319270006353591342919450620790375921861263360.000000
-2097520731956868513691572366838328612720607491979098143537805333619929678402236874932999122650785149616128.000000
-3621827989499329207980474857778530839250131753748103762195246469299336107792628254962648518833281335033856.000000
390257009801726600585362668173094703579924831296709008479571145935794971553431017940601917881420951322624.000000
4487660169641064657592046596832197108380952822432668472401906826397500472396317112487796619044890439843840.000000
-653701485183427615807830469572670391210231696090125060731561940583890960824509319435018932685279873466368.000000
-7571408962256449013766934196025744749761412015953496261816877668855810032332898287704470516492074525655040.000000
-5234428995294614236440570557725897790469659044136551902765396152083642501175128086969000770863670163931136.000000
-4338229091348735199950595820801334199898963431889301089926428111653371233519694758364467017589453154680832.000000
-2741543136734275808239624429472393357200353799733096921240720552212790773974842181341321345246660441145344.000000
-6478380902695526287804949206770509680333067005925619487815544749806975743311126656191308952176833469612032.000000
-10089291384278822251549817803244413029854281970067473328391342494706243627191261049295769494616725396652032.000000
-6333092246807380815455808525591159274004190081895764874901257523063048443349262848679377784062819860217856.000000
-2247355345930058114971108541179790861374521954667486743695126838657303632354197268951222199202332295561216.000000
-4034798514428599465637436539370426594225789433981004532087064713641924653651041416024828350798120521564160.000000
-2255911872633210576705344128410385268773510037462884573168537594381151234967090052620833509138321660444672.000000
-3798357458771089139647184919677201319531115022279540444919981278006073128086944232807997570135680218038272.000000
13179368188690783490145064001484631288013856829773680778332551988330671370245810248143632758181944377737216.000000
-1860769792323951897629362895291856073065726364951295837602006036161785810259052543413733859649623626350592.000000
6470700221274477349353930253918825006764179119669578395340652331147400725173729817977296223285733736054784.000000
-2254296087225243672620346519186554213556710566296296815796917339163825804431770554992626556891266520449024.000000
-6257084407521973066959967216837793322763884663743734335595999298382637580093882243219500941765653303394304.000000
11006555957401592481871210340045049483895081996794535314225102928176204129554351741111249361903603932987392.000000
11572120838457864307694167234172217024434411379113064136494579026906434394368182681277084220049956316119040.000000
-3272613254486187224411766444594899796950671162666046084641795921437702216256088292876685130594665017376768.000000
114277038876444218121507029530280880402021965938157503368014497572732460278209259571586203431841006878720.000000
-5539061834000518303999877236907449141638457047482032308299929351583107380606898778173391576140275972571136.000000
-5781652169413997626627318313923902282895394783000589083484323910385382022275917686288356616362860602195968.000000
-6128329696621375800835452197049128219574977140794255760138284732522929955142490118178700555366362840563712.000000
-2548363273514403251750004884310097435754830543014912010840577273431561498757584359310863117137441275772928.000000
-2532248960464481041495215929266511088273486518147029529952804068227653011241464025815576655237436776906752.000000
2918935683723118488267948581249521699147578353227133215381071795407209606991951572201856674155303188561920.000000
-1246721331404683635480529999222810540938526367037269629968765951241528040020561984058691092139102271700992.000000
-6537992587500076453068284577588675472290665140073886643991171994486780125266688114575022112707186954076160.000000
-5381486203611915476550449585092122206299971322744442977444573330370075328535682467346125594463115726028800.000000
46771192152832922366483612332158900573211423887763299578436400676417412619671821834699582831926112681984.000000
CELL_DATA 2699
TENSORS STRESS float
-2338047234810749102652488346499907225974916605671262852591808884342580268340036343538931557666834612224.000000 10362285033409696387636821040227977451271795918564075918006192009642945100052396356369970600361773236224.000000 0.000000
10362285033409696387636821040227977451271795918564075918006192009642945100052396356369970600361773236224.000000 5904327936557239473268867855027476980853277864918274901011680552984514378705011679408429940332801556480.000000 0.000000
0.000000 0.000000 0.000000
-290589914497963457779088394273362308605993366409131930907156290034868740356254105440824086797476633247744.000000 -136584629937458824217529702636471301398816201819627962892848596914041729571509022101257875784686481965056.000000 0.000000
-136584629937458824217529702636471301398816201819627962892848596914041729571509022101257875784686481965056.000000 68648827841812669999773991273827602643124055221493834204648035039074864917180595922288978220275214581760.000000 0.000000
0.000000 0.000000 0.000000
789091163155176853446461787412766905877255710655373383521443611943220391311549902826564300976766844928.000000 -541054560806178081061141977214088995134147981544407643389108324778684703630545293519417731866702118912.000000 0.000000
-541054560806178081061141977214088995134147981544407643389108324778684703630545293519417731866702118912.000000 190621130303558315102436704349689603489383638981494912276896527396849305203836310295905824479241043968.000000 0.000000
0.000000 0.000000 0.000000
280910663420683444850241227918499521842114695898925909479315495496321494787851795788759672690424414208.000000 257479135991171225445167134823205673683042655154315864206733894931463819725537558785813191292109193216.000000 0.000000
257479135991171225445167134823205673683042655154315864206733894931463819725537558785813191292109193216.000000 104840150714850879093953862653401385334148167371329296858401456523577260470343952569482289253883838464.000000 0.000000
0.000000 0.000000 0.000000
-71165387964226859353387235115925712451917902354248683286366960930656526476238902455504854040845685358592.000000 2755180139099327687039775612595569792658576874078201545773757069818333824167704515966496997060152131584.000000 0.000000
2755180139099327687039775612595569792658576874078201545773757069818333824167704515966496997060152131584.000000 209692613793295349342150867881319639795855867164013466396694789770053348458639370971926061862015205376.000000 0.000000
0.000000 0.000000 0.000000
215360879133602916956048879106387547006697516863336720890724126938966781736194954926047519718518592372736.000000 48777530810533172023392539566608403859248407992435311974626114817830026127964824139080192028169130213376.000000 0.000000
48777530810533172023392539566608403859248407992435311974626114817830026127964824139080192028169130213376.000000 7120988886748576790960028671454967970136200027713441734670090884111560802042943806276452594539688886272.000000 0.000000
0.000000 0.000000 0.000000
1124577806656092461987154917565956132328703379656511145762747194143344020386929878536951550760022179840.000000 226020492164943282497544891347857829762612758488750431180259926346450454536850225175289202482238980096.000000 0.000000
226020492164943282497544891347857829762612758488750431180259926346450454536850225175289202482238980096.000000 29609848878880044417694402389231028715472524907349896156522266115872013273403096318979422372849778688.000000 0.000000
0.000000 0.000000 0.000000
19700467533602439083545821600979981745646806972629818451528046788089050327782833571277231644298006495232.000000 -43988660903023129773318377070542773575385353271828825861347870286242446333097806898372256523054017937408.000000 0.000000
-43988660903023129773318377070542773575385353271828825861347870286242446333097806898372256523054017937408.000000 22312068363101682781887411709715233715954531565653589000688684573581874252926351464683739139420245196800.000000 0.000000
0.000000 0.000000 0.000000
-3345715815034484574212119138610411422732110652125484430619508165953921372401209068335390443734315302912.000000 521456590094249647117791826432123183867235417901915390695716966886896846893809986025379451850694066176.000000 0.000000
521456590094249647117791826432123183867235417901915390695716966886896846893809986025379451850694066176.000000 82751821464958144546117853882546579682543028439364896927198354448407217377989368107876567271881048064.000000 0.000000
0.000000 0.000000 0.000000
8342919285971192057792498770650784221239465149547977791480825509978240147640634366877182442375835811840.000000 20748827404645952318873942781304032383692814912899579500824338366193570708465944817468065445158632554496.000000 0.000000
20748827404645952318873942781304032383692814912899579500824338366193570708465944817468065445158632554496.000000 10646971956406024658034675795520074765985673161678658936876460243089202562979244647894854931771415330816.000000 0.000000
0.000000 0.000000 0.000000
-17276643507618443802136350965409896765485710342447847178085824535948476621219418100552597754596711989248.000000 -19684674088331313571734462946840269015361426867394522104587979282672603278755582395243451749049066061824.000000 0.000000
-19684674088331313571734462946840269015361426867394522104587979282672603278755582395243451749049066061824.000000 11275612947061674027447808801861888976806424749332822430405107330534331561766979582563792333838517010432.000000 0.000000
0.000000 0.000000 0.000000
11681022286988824893021246657893284615616184997465482805551674641387414283608776489068746428248359960576.000000 31591374658599787522651693033632333603282072661758579757925342544143272576264425801340392024654246576128.000000 0.000000
31591374658599787522651693033632333603282072661758579757925342544143272576264425801340392024654246576128.000000 16432413136262066490777235855264391891638840397422171024750955801825104746018498437690230366067595673600.000000 0.000000
0.000000 0.000000 0.000000
-1469828160474422153415366095738877765366426893539069754537492038069302562582969066863025289939824672768.000000 -1153014852076503676039687335985422518152254571428678977163662583064682184951809661843603181952900792320.000000 0.000000
-1153014852076503676039687335985422518152254571428678977163662583064682184951809661843603181952900792320.000000 641754336455841852689875991404089790194001719808544103886039709793105563270282784212361186180142727168.000000 0.000000
0.000000 0.000000 0.000000
6166299698199523258083772714846760233858876178047591927417303769609733891745965139545567333272325718016.000000 6778412211718907521259659224995102656181980915062676888569789331183629727972519568530797313371467153408.000000 0.000000
6778412211718907521259659224995102656181980915062676888569789331183629727972519568530797313371467153408.000000 3067783297916809855430497189987910076710293074495087737320586086070197610269789268851325095927324082176.000000 0.000000
0.000000 0.000000 0.000000
39725834191051666744430995063838772887308636557290565046506808936825978776773194089532353440259898343424.000000 81442215855963395610705120991154232112196475447882363940370761962854014436556748346294977887790029602816.000000 0.000000
81442215855963395610705120991154232112196475447882363940370761962854014436556748346294977887790029602816.000000 41923391383836803525639388782606587257789732798046728221925428191459708414700060391982474988736577798144.000000 0.000000
0.000000 0.000000 0.000000
865593993023968528911861056727773802915750606380278545718592517435288240417523026750969992839511932928.000000 212817851997873807754067941981336963132409595383416047168885406026743487842125744851103983130172719104.000000 0.000000
212817851997873807754067941981336963132409595383416047168885406026743487842125744851103983130172719104.000000 33529355800692523709948119555410345004741101230015458306566317887165304202127946171650539586236448768.000000 0.000000
0.000000 0.000000 0.000000
28950243853478331773822081378850371139607451457631840846776446345493080036573912001989233170040496324608.000000 -68035566337679470311605476447880557305491156317842409431515350401195004103954619625647152336489158803456.000000 0.000000
-68035566337679470311605476447880557305491156317842409431515350401195004103954619625647152336489158803456.000000 37932104163804419705246074589146412681557280783256814615009959870879167963644972160308760736787117113344.000000 0.000000
0.000000 0.000000 0.000000
33607374459466375203722912604445998474971246834060924164150087892456408248117381931488110514197095251968.000000 16972444969808185802621775003044553059987584552558135148503734454881980350268747244762791690034873368576.000000 0.000000
16972444969808185802621775003044553059987584552558135148503734454881980350268747244762791690034873368576.000000 6995160036432949625799602358998270525409713357551485004667112977551035051978267042011717212892091645952.000000 0.000000
0.000000 0.000000 0.000000
-934446034514082755010269373194641856434125663644607167473619562746440000442590864132505131778957274775552.000000 133841253526143990528125708808517035380872688320349726436869529246745317355253994105285531975822547615744.000000 0.000000
133841253526143990528125708808517035380872688320349726436869529246745317355253994105285531975822547615744.000000 34418354088762824005719531623491055727604578288123598739836425140495245484529799272090326996625167220736.000000 0.000000
0.000000 0.000000 0.000000
-10718485235001932609048409994068437457570077928234427266474773306654652260577917542705568270048106119168.000000 2742208372799539059604109130350905105835524049773095778095419061437921690463928169693102862964283670528.000000 0.000000
2742208372799539059604109130350905105835524049773095778095419061437921690463928169693102862964283670528.000000 1058843473960550776152521767052763477421185149210916161634104242850125173668859413229112859900394864640.000000 0.000000
0.000000 0.000000 0.000000
-35138741884643262789724279924438516104269317391313139219708902463375798638972832239699352401480282800128.000000 -12438035679564075128042232207993630364880890039368601063201798566772904409486631193120815695190244196352.000000 0.000000
-12438035679564075128042232207993630364880890039368601063201798566772904409486631193120815695190244196352.000000 5648472151853888997769078704713764363426542796575590598479038504522075193024709607792388791754192584704.000000 0.000000
0.000000 0.000000 0.000000
32107891963854221796921979436388364846216575853049511943249242778642385616946722205863147990786406088704.000000 -12002878903417908965191076651721888989113277194879514198447119003650832749305106197805493966439266123776.000000 0.000000
-12002878903417908965191076651721888989113277194879514198447119003650832749305106197805493966439266123776.000000 2921829467645820709101971733424738321659423301729665684847968342699690713109034741675703708340352712704.000000 0.000000
0.000000 0.000000 0.000000
6352206177054371743748095658451857730430945158945650574847701520449527848569979372364435187037856858112.000000 -960552379853211031038647754583345608511180680687219276516232626140324919926295546929988379113940844544.000000 0.000000
-960552379853211031038647754583345608511180680687219276516232626140324919926295546929988379113940844544.000000 242451237052887897243238834666790414067317005901681385586555464542331659004503338308662267666055036928.000000 0.000000
0.000000 0.000000 0.000000
-76264228811342078212294102544901209194506635489677571444218769985612364368921356821150697114434166325248.000000 63741244309065489735349017541897755693765155740805938133620318134067670930548370822752277098643985530880.000000 0.000000
63741244309065489735349017541897755693765155740805938133620318134067670930548370822752277098643985530880.000000 35953335995751708383737342418363815649482072697234583667914734306683022672645924546634475426031777873920.000000 0.000000
0.000000 0.000000 0.000000
4198909584039857487841802913373439711849145313755645122944400699120239097592233059797661732127931105280.000000 -7948111023358138083472621952361767298352765606621829955087869642509636161522842709890437618459660517376.000000 0.000000
-7948111023358138083472621952361767298352765606621829955087869642509636161522842709890437618459660517376.000000 3813372678752788401432043586802609793122118352495986170102224397117357362178121872502939372211056672768.000000 0.000000
0.000000 0.000000 0.000000
4701101934820052420667582745774398336514839974686800484816525073338716661581231981240694306678750838784.000000 156230617251845267937892737563628357860752867929093075814231616251238736953676822265961561410385215488.000000 0.000000
156230617251845267937892737563628357860752867929093075814231616251238736953676822265961561410385215488.000000 604759744082708237427546433275780032886851056389414875212715094507517255983401872033413824880645767168.000000 0.000000
0.000000 0.000000 0.000000
15357951221590080620451781336130101082968543131498911299448144606959361926621235075961633378489277087744.000000 24929420291998458702606410059687245827330709938138163293695886494225843657940043265115390739761560813568.000000 0.000000
24929420291998458702606410059687245827330709938138163293695886494225843657940043265115390739761560813568.000000 13394033139630971444803634522115125895418439171233829066123875695407489642692803861085231937966525382656.000000 0.000000
0.000000 0.000000 0.000000
-16502865568265584511927272836388177405132684523437439506899137111230433837153090448337788000864770719744.000000 35521161156938467380919032273139555066731814749139095786027144922180570613007064566287107336091562147840.000000 0.000000
35521161156938467380919032273139555066731814749139095786027144922180570613007064566287107336091562147840.000000 20476793967307689190872063466957451548699251905374207490965546777296450112411486526046078873674409050112.000000 0.000000
0.000000 0.000000 0.000000
8492420379638281412015244119218145949591838036840242042461447555480964076542408280718723939716864933888.000000 10408259605307715032776580905570545085031671206531936076374221832029060779422852446467124277046692282368.000000 0.000000
10408259605307715032776580905570545085031671206531936076374221832029060779422852446467124277046692282368.000000 4687593857391210602393980141290337709441268357993097050532569004524355150529663576148127174769546100736.000000 0.000000
0.000000 0.000000 0.000000
-12327481920237541387804322201442352508244550102327558532074622132395320742714287986124255064103571161088.000000 -133217281701450753748499339782014543322032610383245098967736229022916209284311020635213389661281976320.000000 0.000000
-133217281701450753748499339782014543322032610383245098967736229022916209284311020635213389661281976320.000000 31108931537586724108042719273600457950770103610507436090421705665776120044972782982238445076675035136.000000 0.000000
0.000000 0.000000 0.000000
-506713841848420386617194132918205856131765893142763672449206251873986404245869471768729409204978188288.000000 -7541634347859732775331879277636272007774151758969067810828222639367912624022734202763827072226643935232.000000 0.000000
-7541634347859732775331879277636272007774151758969067810828222639367912624022734202763827072226643935232.000000 4230856314394829710058137116545361946178500321474950634147113478527247220101079890679745536322512617472.000000 0.000000
0.000000 0.000000 0.000000
296846974255255080311155228279410070720209419402744043113730897163709608738165365880066175046189580288.000000 165375539289147147657070084061568633858452762013607129205886001200103744074791264726105695838808309760.000000 0.000000
165375539289147147657070084061568633858452762013607129205886001200103744074791264726105695838808309760.000000 51211177316081156345103395792528138948646016369512590419250267624713377170006324842151096363622858752.000000 0.000000
0.000000 0.000000 0.000000
7298345324500490248632661914814882904707826844067610956537335555292686395668475626704327013748009074688.000000 8346005314389495519235916799633395702066720319363553783414839479151411131554187553352201715632350167040.000000 0.000000
8346005314389495519235916799633395702066720319363553783414839479151411131554187553352201715632350167040.000000 3771635660550244882783064018732480834757211452697261342970152464240411481434195127559964512597313585152.000000 0.000000
0.000000 0.000000 0.000000
3608901021220501511783593373855457403287949738284212068215426237057654433530633841865771895033077694464.000000 24097949558673557316599255823597595519312103955200350899203172200223539623146511391406351217811311820800.000000 0.000000
24097949558673557316599255823597595519312103955200350899203172200223539623146511391406351217811311820800.000000 13044857554456484817291277520287189911132303481767018983781688218557474886875480586453209918076434251776.000000 0.000000
0.000000 0.000000 0.000000
477153044718888474137964920715375359402842036477800851415773785689766570400880469969628523075014230016.000000 491044522215521580152915268026186818916373784387106390883768163339527374964031437574737302578972852224.000000 0.000000
491044522215521580152915268026186818916373784387106390883768163339527374964031437574737302578972852224.000000 209898745748275959134434351162767359505430938199010080578547461504630948465487755511969012884552286208.000000 0.000000
0.000000 0.000000 0.000000
-392313023983093395459508670776415159362217933475274161604680478266591175025514822315253508302059201363968.000000 56431998034032927310240160010463691276182009668670586740289399800714788558332769545071787777131674599424.000000 0.000000
56431998034032927310240160010463691276182009668670586740289399800714788558332769545071787777131674599424.000000 18662308906512880276298710702323402326553742810430907161547146176268578634168088938203097433680132440064.000000 0.000000
0.000000 0.000000 0.000000
-4906849379779803596736578454654032654573064777584787584588924673888564171430327641095718000383183814656.000000 -2384434632859143629565304001868644511192026724777901783461992392087553815264561117676372275749707579392.000000 0.000000
-2384434632859143629565304001868644511192026724777901783461992392087553815264561117676372275749707579392.000000 1249428456922150990045913454706076327371754524324872622281942328079441937876273376906310941002700947456.000000 0.000000
0.000000 0.000000 0.000000
15306829668964695813896068290603735477829864491000703304833379026467745069121511477946396659696076324864.000000 14006563674488066195889431497331766965650773573244142116489750520048611841727596379092491964260095623168.000000 0.000000
14006563674488066195889431497331766965650773573244142116489750520048611841727596379092491964260095623168.000000 7903074102091299792552206859299454715145544117002632714711587088547368428660109679684425212777174401024.000000 0.000000
0.000000 0.000000 0.000000
-110736489006937097362035410925724800144044572488354993544397708448800089632136679276361290541462225682432.000000 -10408363281426126341837209485770660656701471131318728239563175035663989735354760817660095810938276413440.000000 0.000000
-10408363281426126341837209485770660656701471131318728239563175035663989735354760817660095810938276413440.000000 1861572591443577338477744786347164810095941357466513326567205366866391155870186157551335712901855969280.000000 0.000000
0.000000 0.000000 0.000000
7262737566074420245640706403526738863365781522246397791636976836933652457668182401099758946432852164608.000000 -1287883327304407892391725883027579283162767297661266019416578141449724539693892860336989229042358026240.000000 0.000000
-1287883327304407892391725883027579283162767297661266019416578141449724539693892860336989229042358026240.000000 978847484720777737898776498314470846912974613658239013924953940918340012178512367372699475248353902592.000000 0.000000
0.000000 0.000000 0.000000
-3192308236084718660910391303055736520112243091872801285590437377383622924976724593079467921069651787776.000000 -81551943299541729945935008841966075575699101144268177323465965691748024486186136896429572537702154240.000000 0.000000
-81551943299541729945935008841966075575699101144268177323465965691748024486186136896429572537702154240.000000 342775058951451221927055303240534948910974566747658447215363203090876580435842202435176983396588978176.000000 0.000000
0.000000 0.000000 0.000000
-5120719333313745364750682990621278791889196303567435491799551734583835373619040413956901938319086059520.000000 13496511809212553946093337489112043308346243898350122097354732559095273426789075864126779752234090496000.000000 0.000000
13496511809212553946093337489112043308346243898350122097354732559095273426789075864126779752234090496000.000000 8479191501942602125719084779824033435931970573973525540225442341576994887607965526149222885018895908864.000000 0.000000
0.000000 0.000000 0.000000
-1413577894023902349164151254459504025521854596193764323559506524080508098129454788209919258308756665008128.000000 -32896243365871756001569496845328817252712462958706055333847962402543848673120131620670231823850605117440.000000 0.000000
-32896243365871756001569496845328817252712462958706055333847962402543848673120131620670231823850605117440.000000 1525965592532974638782526258933264138570165073175504607499484938433364884739908058762149702448957095936.000000 0.000000
0.000000 0.000000 0.000000
1465418010691458013299507246476939838655744257521685386744711518858744168597435171297789144970804854784.000000 1015100930229355071684057845596139047345753977474909140488393582950300545771495279141126775562861281280.000000 0.000000
1015100930229355071684057845596139047345753977474909140488393582950300545771495279141126775562861281280.000000 353260150566729901214253331554959104646042200698350072088378308378130342140402028901843686008146624512.000000 0.000000
0.000000 0.000000 0.000000
1154425364542409471149493266327969156423141501224668894510305093125728214414724231236470785288683126784.000000 404771002847140837581299363640647420589094899302032706537081475869266233544690403449903480905500983296.000000 0.000000
404771002847140837581299363640647420589094899302032706537081475869266233544690403449903480905500983296.000000 87474194755818225244795487095227779791343168740321667587416492036808513986202464628811250830416019456.000000 0.000000
0.000000 0.000000 0.000000
73370210036496929940998985726305560415478389451730996948581714711537547815841544464670167826089191145472.000000 -65805455212634302957225156404006632089289453771143641861642774037578253054280910895280717069048231231488.000000 0.000000
-65805455212634302957225156404006632089289453771143641861642774037578253054280910895280717069048231231488.000000 26546262553083644907745719487671861299557089497781888484409574529299641717390197763003386522527778996224.000000 0.000000
0.000000 0.000000 0.000000
3870521009533463680744838773666060896022478559472244852293780387735608465483061984347911980801702494208.000000 801843692254583373481427686722935088186384429833815780295462232861938662526166481332440275014616350720.000000 0.000000
801843692254583373481427686722935088186384429833815780295462232861938662526166481332440275014616350720.000000 107667276824057266687739313988589776293446672508036228203154789433765677031211850613956792449887109120.000000 0.000000
0.000000 0.000000 0.000000
24899237047964296991948806902532374069235179201267672709574698173840278768676180525431088079925722218496.000000 -24448101270653740016223524779440850908897508782329036355303695527930503800088307712440720633867880366080.000000 0.000000
-24448101270653740016223524779440850908897508782329036355303695527930503800088307712440720633867880366080.000000 10237130408812766999801309357644416857353774573478279636586408356748254309892947714113187916595993772032.000000 0.000000
0.000000 0.000000 0.000000
-141693153639864442521779023779182327638926761905580788319543569955383464120445642194043797548029857234944.000000 -13805395131549238757258758754131983800838648637957595638580844283852376162521786866893984657454969913344.000000 0.000000
-13805395131549238757258758754131983800838648637957595638580844283852376162521786866893984657454969913344.000000 2551408340103675385000258433721409640565417290505938183383843508684010992654721651990443463114611490816.000000 0.000000
0.000000 0.000000 0.000000
3108522032036654616305408236775095222663657076997331050782041307103556154845430629920325133773391790080.000000 -1288803669231637671144081814834528857150940984461157564876307937437150323237938094481261700798237114368.000000 0.000000
-1288803669231637671144081814834528857150940984461157564876307937437150323237938094481261700798237114368.000000 1447245941878715934758533057890860627031296795358763387459159806044362778203006875415269215196474769408.000000 0.000000
0.000000 0.000000 0.000000
5164916862666536377916480258025534551911488653124500384198437406686573488449107553317689373082943225856.000000 -3025974384179341501419841766744846209925307063735869742115733056270482200701406145088444715966597693440.000000 0.000000
-3025974384179341501419841766744846209925307063735869742115733056270482200701406145088444715966597693440.000000 1082993517814538423322487194791997874006202232961245150480478561294457574005371121366305189355610701824.000000 0.000000
0.000000 0.000000 0.000000
136429480993750959030452918158468147117317326935064831746618635034727060477206639520264768500793344.000000 -260942509940784872174054988177846469065789192532400265985100638294195001771155432790921956418387968.000000 0.000000
-260942509940784872174054988177846469065789192532400265985100638294195001771155432790921956418387968.000000 130027888009504003675755478719737776228258155077761404683056926762467519328609692998990707979976704.000000 0.000000
0.000000 0.000000 0.000000
3314896614336526340482598960116155809272541956938152675754362325080214455143142904783999267779257565184.000000 4737387825520207265274586570839711890033358381032713840473749410867688604658184614971112419468066684928.000000 0.000000
4737387825520207265274586570839711890033358381032713840473749410867688604658184614971112419468066684928.000000 3604715844610896350876828033585784277053937479843652496830877167019636350307421981235110359321020465152.000000 0.000000
0.000000 0.000000 0.000000
-19666928363649739595918630412101506555656014852624676177064967513193833860436945224225447974038142976.000000 1061989271108707393106897652816411919070187100460722238858701296794968355234249107815659518159749120.000000 0.000000
1061989271108707393106897652816411919070187100460722238858701296794968355234249107815659518159749120.000000 113411414892330207023611959460534388504803423735889409145552101193096430577088997571267453935157248.000000 0.000000
0.000000 0.000000 0.000000
-31977971269577451836143249856278538366439240016153546239862783531381644630495645015058748827098343800832.000000 18192393586163269407477044278372660567125272953593317726734651149480202361675926434694407082809084608512.000000 0.000000
18192393586163269407477044278372660567125272953593317726734651149480202361675926434694407082809084608512.000000 9634421926105123687433275093668666706479229886982543313966263289166665638427499665944498307578118275072.000000 0.000000
0.000000 0.000000 0.000000
-16514471788649300698977031175402246706165169375965568600502610182670738846403879001241926482380923751890944.000000 450625273220884151706837728850902099611066643480124821414613178551390549367166449479873450857719610212352.000000 0.000000
450625273220884151706837728850902099611066643480124821414613178551390549367166449479873450857719610212352.000000 24567319246008050516579969804361145924539027240071229611801175029437167649281476875207125585700400922624.000000 0.000000
0.000000 0.000000 0.000000
1390317871965443949987980026573986868382999869593187038569445630054639996441347683078575833610434117632.000000 45204803628159592536270833328298023544303078647442459685391829749605054534182504190712950567710228480.000000 0.000000
45204803628159592536270833328298023544303078647442459685391829749605054534182504190712950567710228480.000000 1099401058556839685696389304407354803780062450029263621087878073004378556748702493773209808385605632.000000 0.000000
0.000000 0.000000 0.000000
57104086135962798139463766923157736880894774938396317077551240317706321675845202642985056824053993570304.000000 -88732849475639547805849702129372827470966275394031648207880282137225942654787829166874207355579660238848.000000 0.000000
-88732849475639547805849702129372827470966275394031648207880282137225942654787829166874207355579660238848.000000 42460215909799487355242917914526929499422777349636693422570698765920975634210234892287888674499227287552.000000 0.000000
0.000000 0.000000 0.000000
-31208069799442509420084900032076968695647890043507649965598390710532537933732461953528753779909274370048.000000 -57935894060829688559565318984411242432858424566755765751270847283506808589941567644747184538925903380480.000000 0.000000
-57935894060829688559565318984411242432858424566755765751270847283506808589941567644747184538925903380480.000000 33725393560294421063186092236639878646525929670977236613011227385212273595736125935059341304802960211968.000000 0.000000
0.000000 0.000000 0.000000
256367361826525613057729680406749008725545628534877281608449001239024093580495425672607546114222063616.000000 -443714379856035082977929132763736609839585710238863167996471437535182969137213077879320022312160329728.000000 0.000000
-443714379856035082977929132763736609839585710238863167996471437535182969137213077879320022312160329728.000000 215150170772379447843801954769854788174726933166057242411406024259979624807545553440603906200181932032.000000 0.000000
0.000000 0.000000 0.000000
-3273849129405232780158084884364219562889958054555703966202528461772863280690532627696164973236151386112.000000 -8621412023880538988105536906704628800112174190043958155830407765513037432665204172795263276155072937984.000000 0.000000
-8621412023880538988105536906704628800112174190043958155830407765513037432665204172795263276155072937984.000000 4873763224592444739471293966433942271772139663367977550834862660926698118802897024851296491763975323648.000000 0.000000
0.000000 0.000000 0.000000
40022752411308510578373276436197206205833207579242658256055472073755235619731719637150517194638445510656.000000 1069609517919010761842928691948131287757988420711522457678686093015602363877810375183804518255613181952.000000 0.000000
1069609517919010761842928691948131287757988420711522457678686093015602363877810375183804518255613181952.000000 204768391719957919475013166842452222949453223969483420196180602123878264405318653663083290108591341568.000000 0.000000
0.000000 0.000000 0.000000
18679517637484369251370548356236635872676300906554708236837611051347554047311718077412900247193438388224.000000 -18500506754842234162037038311709925898243716197740948700556455963280293803279573061653311183905527693312.000000 0.000000
-18500506754842234162037038311709925898243716197740948700556455963280293803279573061653311183905527693312.000000 7770917010406934790423315410114871838387203606229080409522784289966127058714654420032687487310316437504.000000 0.000000
0.000000 0.000000 0.000000
855535150860400052323331418637672265222792845356703347098537621851379986698381687884663409237909569536.000000 -493551787845251883531524122181383345664197585639990464689540625392075769076354600532995841565214638080.000000 0.000000
-493551787845251883531524122181383345664197585639990464689540625392075769076354600532995841565214638080.000000 156188754659544963107594471559902830158398800468211939830209070767245035519361034723947783676980363264.000000 0.000000
0.000000 0.000000 0.000000
-41439716752046649710742069279180304263189564616237847317743634836938598421815835787255823842686145658880.000000 -295850747993461132404636534250668463258580054749685391900415234748811571691127611330749546920891383808.000000 0.000000
-295850747993461132404636534250668463258580054749685391900415234748811571691127611330749546920891383808.000000 157846278943155760939652023030213448942000214132033376214213697345740809419590496266001677166309277696.000000 0.000000
0.000000 0.000000 0.000000
840135077701943295051997320755563406046367802897083544960076428604433532445044209008241024674341847040.000000 48857970090993827775094538355865257760429070737314158712523742364735545319471725710877955940270903132160.000000 0.000000
48857970090993827775094538355865257760429070737314158712523742364735545319471725710877955940270903132160.000000 27074055002706526582086341473455201704876719394386858227491223045933387772607083405936696113243264909312.000000 0.000000
0.000000 0.000000 0.000000
341247694155903321707704072125024342419948698205594957815903081125475617240639221900415396470767109537792.000000 355449259546882209779776997442034869588652347216371137164385984278576864412759691607788838869207261118464.000000 0.000000
355449259546882209779776997442034869588652347216371137164385984278576864412759691607788838869207261118464.000000 152189073949359295625922598973190475526940377661366583854161051742638100658524835000531394312066671050752.000000 0.000000
0.000000 0.000000 0.000000
1501269551937553760852488296956630202517654866948057811513526792322432531846611748359495470283759812608.000000 1670651887094269655716613314067848394877958960681934458581692939758259764579967147174215353459206520832.000000 0.000000
1670651887094269655716613314067848394877958960681934458581692939758259764579967147174215353459206520832.000000 1025311032489038495477475904282199893247845533141713898795238237677745832456974474259720734328632639488.000000 0.000000
0.000000 0.000000 0.000000
581766569979320843620224615583952624838069157046562076315549602624522300773011925559016253782455484416.000000 -16655824143893589920790849035896100532078516257696754784915507417141768441752392333046524033516978569216.000000 0.000000
-16655824143893589920790849035896100532078516257696754784915507417141768441752392333046524033516978569216.000000 9172499681206374555351302319404551094076414418826686954243769760135614126261280798796001253303372480512.000000 0.000000
0.000000 0.000000 0.000000
-19748815043694335966480719336167455654996749621207191083658274381368463753048268065654709155315448807424.000000 15110981874208001860471679515111677344945551281313321172601332085849440813734887716808326514158740701184.000000 0.000000
15110981874208001860471679515111677344945551281313321172601332085849440813734887716808326514158740701184.000000 9343510425972539024995073713370457634085924839243554166623466011269281032888832758249461897408863535104.000000 0.000000
0.000000 0.000000 0.000000
-41189961108313888212876550583092443175688159552302109510189232509916556455353947013382670243638196305920.000000 25643992398270223649764799877278546832840255364149403268362129893167167738371155501832525605024221364224.000000 0.000000
25643992398270223649764799877278546832840255364149403268362129893167167738371155501832525605024221364224.000000 14708633849793072217337241963976361933481579267895227510954456875725645546063494983035237410390352592896.000000 0.000000
0.000000 0.000000 0.000000
8092249406730875073432261697587019908395996870469851613200316702076367681278253613201154078881653719040.000000 -3489124202274372607190483800939774553428799491677622053994582245161373713599897163764602162014721146880.000000 0.000000
-3489124202274372607190483800939774553428799491677622053994582245161373713599897163764602162014721146880.000000 1675013765788416701350321718757672496735276611681958880643996845862137781503406366420320388293783977984.000000 0.000000
0.000000 0.000000 0.000000
3145886266918736200253870917496335214119995007457650336423538910023378403492923789234601750798576648192.000000 7239152973292798590906137123854759864316326034521028562676018612992985007040638043535649575748149182464.000000 0.000000
7239152973292798590906137123854759864316326034521028562676018612992985007040638043535649575748149182464.000000 4023755872086433629277484989020210129208694398552339281112862648614902028057950384374648357943907450880.000000 0.000000
0.000000 0.000000 0.000000
-1924263896587391475306204412938350139032998698088648261133404521587423947989788760355000857463784856354816.000000 -158957343429382019171132085376244144096429103723299497902408462081658432880481883021872628108130605072384.000000 0.000000
-158957343429382019171132085376244144096429103723299497902408462081658432880481883021872628108130605072384.000000 25578893110370485354925750276538239938324924470855617618041502138590193819423901246505299700099753967616.000000 0.000000
0.000000 0.000000 0.000000
-23194591647759965792278604299511470940880480144207575510331011425260527656596334619197505645472005488640.000000 -3106044149851657703688705093749908607205246443161832161700222282341886981819294122427010605577070968832.000000 0.000000
-3106044149851657703688705093749908607205246443161832161700222282341886981819294122427010605577070968832.000000 808190331913405535151596753605472638918868357835185835787056543912401871767327321573123633041742233600.000000 0.000000
0.000000 0.000000 0.000000
26111466679098922123619981751295273949777371948534522541364277259535813049859745880949673544772669669376.000000 62899046735874175204732696141874959325476019708721232930517833066844768800249434655739896638807098785792.000000 0.000000
62899046735874175204732696141874959325476019708721232930517833066844768800249434655739896638807098785792.000000 32325540336620927523146987258847132727158676623503641536321437372438802094586837376083942584998036504576.000000 0.000000
0.000000 0.000000 0.000000
5202119292524508857027569788847423882690996686551196575803505920786972244023238923716043384927687802880.000000 -658247239098141535491803244161526842871137090404863450701981790278176454789680347015235922949750915072.000000 0.000000
-658247239098141535491803244161526842871137090404863450701981790278176454789680347015235922949750915072.000000 55126282694076012900662967575901374564665597038622077134459607124259590535950528924018172843528290304.000000 0.000000
0.000000 0.000000 0.000000
-9222098004682387977436790646373574079086870725724745994814829480734253981830175562559358799232559480832.000000 746797301579195023333774023313969661736489782800033701699055040136685038521932230003357723931522891776.000000 0.000000
746797301579195023333774023313969661736489782800033701699055040136685038521932230003357723931522891776.000000 97654908842201924253911681457075611893440489877133225044470227724353091423124471796989748253193928704.000000 0.000000
0.000000 0.000000 0.000000
-216977355244192744234766708702679857865831493868561882365810219589510511372706569890702585210207794626560.000000 -50916706251922618693739850523373752668823781982363010690081773815920562119344707142360700836030095294464.000000 0.000000
-50916706251922618693739850523373752668823781982363010690081773815920562119344707142360700836030095294464.000000 18630408936774563440602458279469920196745554499237610734187471015799338056719542152744959459516886286336.000000 0.000000
0.000000 0.000000 0.000000
-681422579441686601274166575903935438693462173821953403869347724889806233265535362479132310990667907072.000000 2928504267871190924085248211758693530376007748550176428623529758260584679028393295139867232766777098240.000000 0.000000
2928504267871190924085248211758693530376007748550176428623529758260584679028393295139867232766777098240.000000 1835004781002006545510029459142949224164197372524657615035749230526354399358401717163483979972515725312.000000 0.000000
0.000000 0.000000 0.000000
-76648434451935171254768140143519137991464035753448133477144375219037153729104716410811755852842448986308608.000000 -964081695185147545360454312680122607723648511121907647935177502803367172389640985673154800067398336512000.000000 0.000000
-964081695185147545360454312680122607723648511121907647935177502803367172389640985673154800067398336512000.000000 24487852352241915154226712871482095641346861486785677319117959264234855166214956352497057625315272032256.000000 0.000000
0.000000 0.000000 0.000000
306681397517327893523178822078596401291695550905617976734950844952277932399526691895635871215881551872.000000 2448091559197128593026774840981906164773854650812094567524001105796807943387463398155746725732305338368.000000 0.000000
2448091559197128593026774840981906164773854650812094567524001105796807943387463398155746725732305338368.000000 1644420428759012282273725836717667869272841235598193573898273992653678638310955437032353365951810371584.000000 0.000000
0.000000 0.000000 0.000000
98679554508213486825564698130449499272999084084990737138867981104786088301812069762055818639410471108608.000000 36501021897983440233468868872318581301516943740354857787454358981530520051246664035799958297775320334336.000000 0.000000
36501021897983440233468868872318581301516943740354857787454358981530520051246664035799958297775320334336.000000 8266929011546401175851793000072762049692650194925699649979144709939418967158904776353139910002274729984.000000 0.000000
0.000000 0.000000 0.000000
345472757798614794462095344860402534652123012977509134471960542159250652127009755599663447734302539776.000000 12617487560554527536224515598504085775142991461573242356313144096034182685348783419428074096246267052032.000000 0.000000
12617487560554527536224515598504085775142991461573242356313144096034182685348783419428074096246267052032.000000 6989942783626258865178132969638769427965027955744655418093167721522088409654496257192961137870752448512.000000 0.000000
0.000000 0.000000 0.000000
37949508186178132213164004988533757417480324272040072434376351146018461381704976448344138569364866596864.000000 13541485623488375106675190526717453894201886483513874145047075396943896694331424112343736185076454522880.000000 0.000000
13541485623488375106675190526717453894201886483513874145047075396943896694331424112343736185076454522880.000000 3009420507662481049237961767832817670210368693078388629497282340783970163615419374610900633739623137280.000000 0.000000
0.000000 0.000000 0.000000
570663203240662211145116317280245094326858515983150551667108089422625680057889102369785498723002875904.000000 -612338528971060449995264182128441607009195303337162897395845135444625903969166980022416126140242460672.000000 0.000000
-612338528971060449995264182128441607009195303337162897395845135444625903969166980022416126140242460672.000000 264929433640305719713272428275195691785167023073558854666207890624729517109894759622985967827811303424.000000 0.000000
0.000000 0.000000 0.000000
2978567167157422959168589073369186088408531978918017674462860231766646360277535203001637112958962106368.000000 9735000821636693707977390776471182345466050294668399197129524004875941473435091860349608787649232896.000000 0.000000
9735000821636693707977390776471182345466050294668399197129524004875941473435091860349608787649232896.000000 13582582067833848339148361115765109072823013734523045998322193099416326097588843020261785212916072448.000000 0.000000
0.000000 0.000000 0.000000
79448703047424107111853668373476189210894789885333373680130614333471463858065913412848210378770874368.000000 -206021329475781703595798522022067056352067563487861698697771297865651795197770470542709493195335532544.000000 0.000000
-206021329475781703595798522022067056352067563487861698697771297865651795197770470542709493195335532544.000000 106217876241454782546133609970907464136726167661902919611713837488968724642192511705416775401880944640.000000 0.000000
0.000000 0.000000 0.000000
-536254152311814477739100937209561102939298133535427216822070055032035494037344137949029472533580087296.000000 -2845262198071418225684463940164101342197844413821469827210350978774385796594306525140924134923859656704.000000 0.000000
-2845262198071418225684463940164101342197844413821469827210350978774385796594306525140924134923859656704.000000 662974987340006956825922172395152097602699988945263715379507666292352616774603116509452337544502968320.000000 0.000000
0.000000 0.000000 0.000000
40590489116663613884630794431422363412189079144837834482869320000853796601775817742635203273050210435072.000000 11532102002955688035079233358138620290873586673855186552435919704044632085242941549759119300039236648960.000000 0.000000
11532102002955688035079233358138620290873586673855186552435919704044632085242941549759119300039236648960.000000 2072745561910019555311465410647111310422378975946659131877899637478571823361193023878716774128168206336.000000 0.000000
0.000000 0.000000 0.000000
13174403064860422057227980029399884436585818321866619932484086133874126595211637455195678778543717744640.000000 -9159586787401187166260332992740361591888201837025711318475006483409043210743890239245321521975009476608.000000 0.000000
-9159586787401187166260332992740361591888201837025711318475006483409043210743890239245321521975009476608.000000 3272505909049334682399084408031774333781094528570826439542969794315578856164617935084950389355280596992.000000 0.000000
0.000000 0.000000 0.000000
-1570493425599363112064134520605842340533325191613400019505941778882609741240353296034979865661255188480.000000 5766188907452034422272958413541321217503818876188048760978912462668990411409747424487668526501498716160.000000 0.000000
5766188907452034422272958413541321217503818876188048760978912462668990411409747424487668526501498716160.000000 3302187083457310191121992581869154447756954533763540826405016589304910232377181072103584446533387419648.000000 0.000000
0.000000 0.000000 0.000000
45641954858887713251312183047507607817484367789832311413203199627048829479579754926438469348595827998720.000000 37622058598547145745388127253072354262524818373086224206194292501154213543764597701493014647657184886784.000000 0.000000
37622058598547145745388127253072354262524818373086224206194292501154213543764597701493014647657184886784.000000 15242552321179042352126698771232377665578932906353908563082302726213299336982081377391989616482573090816.000000 0.000000
0.000000 0.000000 0.000000
2371335896751269808027676871074188406963376706092619971886519033325230883306554819106778325327556902912.000000 -1521873485658090683861815396331867538079309332185561468474195703903828387169865022422367370268289007616.000000 0.000000
-1521873485658090683861815396331867538079309332185561468474195703903828387169865022422367370268289007616.000000 515675832890305274022636550268337467580988030081636249229864030957703630250678332553304027868159803392.000000 0.000000
0.000000 0.000000 0.000000
-320820336354850779127216179798082332557411889134069987009370329579231455226508534802976212467572539392.000000 -720420392595302071335093824883370826404603871904799846869070643314998283480636740750765643909841289216.000000 0.000000
-720420392595302071335093824883370826404603871904799846869070643314998283480636740750765643909841289216.000000 524365578779956613216690213383454943335908173274508351157521726534920781450465605054824128860576022528.000000 0.000000
0.000000 0.000000 0.000000
-23231175399102720276698144453539002930537383393717289852457914837947877243184433889776082571440678764544.000000 -26873080482376762999391518338221835476827174583791728691701883638604890172652840102399486731159907336192.000000 0.000000
-26873080482376762999391518338221835476827174583791728691701883638604890172652840102399486731159907336192.000000 16477249680488181382080254197233364576108969284233154500684582123616113703398845130034954207781101502464.000000 0.000000
0.000000 0.000000 0.000000
-13438574918686742315429739395160549348422108921630444586675842015165134291993592765048993796811915264000.000000 14852094221425300473592920774382046462723704145438289610305645160661126181772750511114777099992871993344.000000 0.000000
14852094221425300473592920774382046462723704145438289610305645160661126181772750511114777099992871993344.000000 8493546302415389115701533519341883150036299460485189805021898794716466283496401112848459231031623417856.000000 0.000000
0.000000 0.000000 0.000000
3224650380650573156893680345811377427737700810246626926786346306463176362473000600152413994696598093824.000000 -1509358390406047302884153798105212590564696290340094391273574870319525687163109543571815098263845994496.000000 0.000000
-1509358390406047302884153798105212590564696290340094391273574870319525687163109543571815098263845994496.000000 386770798894744985324253409822503972035271097499128071892362741498894761679033273854564296424977072128.000000 0.000000
0.000000 0.000000 0.000000
6161698324570867723662198078323873599233113729620364376088438616755880050768853147555651565175997202432.000000 5263371814814215127326757056603755163230525045892904258241212800769619820853098857829833201497713672192.000000 0.000000
5263371814814215127326757056603755163230525045892904258241212800769619820853098857829833201497713672192.000000 2073508285233339993723785811202626711842837055038850815882370371414715934423164847450429830664160280576.000000 0.000000
0.000000 0.000000 0.000000
68858338499655096588597032590532730339142359514305835401617668168538874867627753769664001432004591616.000000 525852572508663216703681146748996364344948201796466739470548413016177398258631680371298406742446047232.000000 0.000000
525852572508663216703681146748996364344948201796466739470548413016177398258631680371298406742446047232.000000 286440478327918987137528865871699892912338522970166894671858300162919963020339231959471203202717712384.000000 0.000000
0.000000 0.000000 0.000000
77495937301824802485849929428282430297131460537263258791219769138262112435981073012183440260236394364928.000000 -33884289363347219338387745120798682453409862602257940094157425981110131486903380987276722773492093681664.000000 0.000000
-33884289363347219338387745120798682453409862602257940094157425981110131486903380987276722773492093681664.000000 8777944176338871480212594151486160349924416068780815193109876223615844611491672299538650044197276483584.000000 0.000000
0.000000 0.000000 0.000000
35193062701907831259356070634220441557277824378761756649200730011892657426929068736996874859736375230464.000000 -29911668957674850595636329939868517938991315582608790548412890476289974117028015494458336392292025237504.000000 0.000000
-29911668957674850595636329939868517938991315582608790548412890476289974117028015494458336392292025237504.000000 15358045427608123976597571702228914600723592453196157782114348161725238443570782843726375126945086046208.000000 0.000000
0.000000 0.000000 0.000000
7732297711014314153326449417102564301304626878752403414469055331344076995380034780679175344849644683264.000000 -24438928036812248479820758156224891347657920848859499453503264917337215769671230534097574261094254379008.000000 0.000000
-24438928036812248479820758156224891347657920848859499453503264917337215769671230534097574261094254379008.000000 12805114417067907844388413287018775548797305542530051509231340800199188982827690689710464250757408358400.000000 0.000000
0.000000 0.000000 0.000000
-109596314049747870238597472460006810060348298888106386964900590213834613176928227112162240403415265968128.000000 -75659307766586384414875276238748894083392040657374163059125092004712873408735454627413943951971391111168.000000 0.000000
-75659307766586384414875276238748894083392040657374163059125092004712873408735454627413943951971391111168.000000 41378265390200707183376771601510020426706419005596795759453494851250905205967406284995396423679662358528.000000 0.000000
0.000000 0.000000 0.000000
9900185100117036160897791104793182352262760593211435353666233822121156994928956381540777405486695710720.000000 -10586946842145560307412039589067497095515203426817308929722673223645433229277848442347893452738320662528.000000 0.000000
-10586946842145560307412039589067497095515203426817308929722673223645433229277848442347893452738320662528.000000 5334935947251950960206549983194867944952137541139418364963712810510262657121749846253743840755623919616.000000 0.000000
0.000000 0.000000 0.000000
96748205134356481383909723172734365015050783960637698483048714434894090441579540813823386349832939503616.000000 39893420024450118396741223932363268798781007995159570351046325893785079417080331579091334860789117878272.000000 0.000000
39893420024450118396741223932363268798781007995159570351046325893785079417080331579091334860789117878272.000000 10450445250448232204393966768512061042453731366827042477131011881406322429829106558382464056578111700992.000000 0.000000
0.000000 0.000000 0.000000
15448537117277636061075858141182827334836467277940582516971458957038502600152963188616186011895426187264.000000 -5282790244115726526802633010904183810649759243709273703462192113556985951647607302923448043884488163328.000000 0.000000
-5282790244115726526802633010904183810649759243709273703462192113556985951647607302923448043884488163328.000000 1117036880151983060691340424789009780338695641057744730926887987165478430848322433113646976199917830144.000000 0.000000
0.000000 0.000000 0.000000
10985253869559921295704834123904830344237699408833289627198386964366396464904512223701842997147540127744.000000 -1002274997465273225767616980856953990735741558204484976229355219960818622412536638620204422970541604864.000000 0.000000
-1002274997465273225767616980856953990735741558204484976229355219960818622412536638620204422970541604864.000000 64249239950550081691314148447921254520489281112545788032355531466594751473352808560166867585734803456.000000 0.000000
0.000000 0.000000 0.000000
28954861873750931496837607879380782083916135843364937532757799800723353809510007860936200549100945408.000000 -24613468747042127526292928740339754046629137942356920537054124141727910978825162174278113003814518784.000000 0.000000
-24613468747042127526292928740339754046629137942356920537054124141727910978825162174278113003814518784.000000 11517086182006495394280556291721426977634788547011813547687032335495965646116175322685783117387530240.000000 0.000000
0.000000 0.000000 0.000000
-1332254743423563942520854050820310103983151617266816140099372348215724138516454250870841162731005935616.000000 -7873753487441270282324579258001540207323199298685896682501712191859356866953323121606840340387186343936.000000 0.000000
-7873753487441270282324579258001540207323199298685896682501712191859356866953323121606840340387186343936.000000 4460773927734755560505465562339249491754967307267844572165686662970572164534269757550651752164439883776.000000 0.000000
0.000000 0.000000 0.000000
22697828928202618650223383842885841842921294683947615426849359179095001487017582937966585558632662827008.000000 -11646868555204329248816712327776513958775888667883985991911086350043612635920528154113409988131842686976.000000 0.000000
-11646868555204329248816712327776513958775888667883985991911086350043612635920528154113409988131842686976.000000 3433541236327224618016078061714451224957881690776664921546375312742672489924928221178736086695821705216.000000 0.000000
0.000000 0.000000 0.000000
-3698190389713496323211416215840529532941838344057527084091847399908704878561116590004710115856372773945344.000000 -100055383510491259799989548212323622406078875596547016973363024438039234080426867984923450884195446947840.000000 0.000000
-100055383510491259799989548212323622406078875596547016973363024438039234080426867984923450884195446947840.000000 5596766926483803048972924698174700137417805888843617517370425448636685834247801684725002633987567386624.000000 0.000000
0.000000 0.000000 0.000000
-2462755327470852811947603424161681503037908921466469572325446066702823954496375207997914567472293347328.000000 901743090228938584302426993167942770083582531625684964201005947360982788152702702141370270720081264640.000000 0.000000
901743090228938584302426993167942770083582531625684964201005947360982788152702702141370270720081264640.000000 415290583315262479830347230624256452496793791579922758049922626726339531669561873922855897002951049216.000000 0.000000
0.000000 0.000000 0.000000
4719034325151742474296512374147043446929775585314977528403139566032385982858367718714196787919121809408.000000 -5689957868260942402185451795066381747846294386535670391718117794916087530290936295577952382258314739712.000000 0.000000
-5689957868260942402185451795066381747846294386535670391718117794916087530290936295577952382258314739712.000000 2585132673537583789343507162662360839327807460723705656015167092110000078592023542338623431262785765376.000000 0.000000
0.000000 0.000000 0.000000
-1104817779502246289472038825366288590364109376815772352161570560753826800682358350507180925462585016320.000000 -76970191131461302572285567769677011029458149362709115316173443115858624835815662114746142839107747840.000000 0.000000
-76970191131461302572285567769677011029458149362709115316173443115858624835815662114746142839107747840.000000 279371989641320993860151640546352488028433086812564926406287316114149455948311989683031406174739103744.000000 0.000000
0.000000 0.000000 0.000000
726954198904548495134890566950650077440443068189539576060765092358782586887144311011282149052271034368.000000 4070371575947209428080064510171143990304793753570564073383480576670723804978740763811933339942163316736.000000 0.000000
4070371575947209428080064510171143990304793753570564073383480576670723804978740763811933339942163316736.000000 2197363873213824771774130009317264822669499819249229085006831471729474269720821878534850759784489025536.000000 0.000000
0.000000 0.000000 0.000000
-139111275564834476787523487167709365353812810416451339752288724549047893184491557210986461292631878008832.000000 -107814527094711257697441477553873533699520163876530460373735655905377746914863988998237159518608063201280.000000 0.000000
-107814527094711257697441477553873533699520163876530460373735655905377746914863988998237159518608063201280.000000 60294962174873941693761341275803603908448844717224381128457968003350004876464907811729387581315439656960.000000 0.000000
0.000000 0.000000 0.000000
-1752440302340256627130391767254159590866089994647286511375176515663384725411332816885956569533534699520.000000 -2716842149584691628007655400378587221783096702299829952980829640051538614357700803558667037431696457728.000000 0.000000
-2716842149584691628007655400378587221783096702299829952980829640051538614357700803558667037431696457728.000000 1508355035549485623159743827351558678782092410238498579333433091737930798949825513645379389977922633728.000000 0.000000
0.000000 0.000000 0.000000
-5329263562378707814088052375656136900582052403543465072818359800785997186696207012654447347109751422976.000000 -271658907800972935415002169489772424714494279332651610276922839589604583127506949306003951063113138176.000000 0.000000
-271658907800972935415002169489772424714494279332651610276922839589604583127506949306003951063113138176.000000 317910719881153226610214885982497902076871493706865389863476960589484270280406755069049341416348581888.000000 0.000000
0.000000 0.000000 0.000000
-39654122336395256461723729073200382358805562275229365867396542226393366390530802584333786738671199715328.000000 29389700039795831569461249850899763254102009279167069133817242441334855425973401926546371724783000748032.000000 0.000000
29389700039795831569461249850899763254102009279167069133817242441334855425973401926546371724783000748032.000000 16877172581554916617643005801367533330503485702401720836456109483522595336327703197858627663295967920128.000000 0.000000
0.000000 0.000000 0.000000
-48333947984103543638007005529060250132331185237086678482428534459081715030239639444236874058145495777280.000000 -12469721792242372443729271444541193028338035509380096232090139846019318362107138036684878234642913689600.000000 0.000000
-12469721792242372443729271444541193028338035509380096232090139846019318362107138036684878234642913689600.000000 4615890793163743121714499666901339060856974415561791023459680163873939748176053485195830051039933890560.000000 0.000000
0.000000 0.000000 0.000000
-44475770392044049708642352916806501304079081683850185094444545496275210283893657083803526717379706880.000000 8068115382250550803157811185880826472791708731947205475020504782831490328991731226921585097920479232.000000 0.000000
8068115382250550803157811185880826472791708731947205475020504782831490328991731226921585097920479232.000000 2513927794485219035413037481389510642850924555198123527902869672102600680194495508832812472907857920.000000 0.000000
0.000000 0.000000 0.000000
-91964772735488099218177566593245492910905747895828184431253788128601374289606630154213031912123068841984.000000 37574771250812615486051547857740985815190334796517400906431805481749351988497473760151688342904326062080.000000 0.000000
37574771250812615486051547857740985815190334796517400906431805481749351988497473760151688342904326062080.000000 18118653734767017192157285769540599048393061819390458412238053818731846131197968877148990046747639152640.000000 0.000000
0.000000 0.000000 0.000000
17739884585855899926945332040448184479108048781308388259493199971524691651654251374667980037952710377472.000000 -13931280066426664621084160227463615459831319485370915419673461040007722460858385445620832077289673981952.000000 0.000000
-13931280066426664621084160227463615459831319485370915419673461040007722460858385445620832077289673981952.000000 8747381116929000084528169615633585757391612678030208637656636336601502433915362016306063133729471070208.000000 0.000000
0.000000 0.000000 0.000000
52235716393098973154261248732583771575659005432504716428351846698110812893769797676295236907363133816832.000000 68545360730516244373745512594288745520189686032852565215017368979958761054538470483117996331020597592064.000000 0.000000
68545360730516244373745512594288745520189686032852565215017368979958761054538470483117996331020597592064.000000 32105572413790661837108738599179796928982750568667964242514912401022368636964450031633938852687424520192.000000 0.000000
0.000000 0.000000 0.000000
16679028862856786553905376907542886038493210430156628887774257460605817449185406563727139192888379834368.000000 -1358453209286542665645392910289438377815613550786240841517691018878245947818649085299317570231269851136.000000 0.000000
-1358453209286542665645392910289438377815613550786240841517691018878245947818649085299317570231269851136.000000 209595369043732935724816277977443574894887149793471650953560701135268052668636015266047425740416221184.000000 0.000000
0.000000 0.000000 0.000000
-141584155108756896135588025083308659839296176208681131118507363992534879076869523058989318194977570816.000000 389089135020869267845807847680847990665036444683245544252218603027810973226872922319844632893088333824.000000 0.000000
389089135020869267845807847680847990665036444683245544252218603027810973226872922319844632893088333824.000000 223687094630166153367652574523277772702031885821521888004085981192019421514979389656272360532183351296.000000 0.000000
0.000000 0.000000 0.000000
-5011955497798064996786769925984366219561758526414021956082777181223332498372675787289650019008640463142912.000000 107373124913467901654504645753024572985482050817512006276210963504761672631306871146853126705565816324096.000000 0.000000
107373124913467901654504645753024572985482050817512006276210963504761672631306871146853126705565816324096.000000 5100379267501375128244920748659575902075845071279022873388424622128528757743267963362969660083362856960.000000 0.000000
0.000000 0.000000 0.000000
-52030367867163396045448266925250224533981105947214144864767248249506140638901053804739352568308695040.000000 -567444893070560174862127671183558488965396975420378557523266115705271411627708029304676806198260924416.000000 0.000000
-567444893070560174862127671183558488965396975420378557523266115705271411627708029304676806198260924416.000000 326440920466558527541274464751259152858300842727045877569523181706748647636120400061173600180089389056.000000 0.000000
0.000000 0.000000 0.000000
37740758010318413713756059862523587661560967052569353934317668558203510194734057677524319692167363690496.000000 9005053208639351537126984502453164508942556967835464925963826051855956275612082342246297102759774650368.000000 0.000000
9005053208639351537126984502453164508942556967835464925963826051855956275612082342246297102759774650368.000000 1416105234415313425095843759162433878842560041819653562453631360750977309737060824417605870097929338880.000000 0.000000
0.000000 0.000000 0.000000
9205043025891391551592322611166396938434095429333249410056957645370690091472777321013515179893446410240.000000 -21168916640922877252801766422477053673657614464910931577223834177130097471640334961226423749495165550592.000000 0.000000
-21168916640922877252801766422477053673657614464910931577223834177130097471640334961226423749495165550592.000000 10754594463912884038650371389087087221340355805362819485961422889726602379519750020000972161457279991808.000000 0.000000
0.000000 0.000000 0.000000
-13053066161207805950429697095380441206997783830156861395037143350561083249040927787296487849832728231936.000000 7569920327983336855970801038218294108065629586893775178431190744165616088558249073316503482899714015232.000000 0.000000
7569920327983336855970801038218294108065629586893775178431190744165616088558249073316503482899714015232.000000 4013673176604486179628144187025330345767416220799678486282481664012975414615771457204444167467979243520.000000 0.000000
0.000000 0.000000 0.000000
3929851490063265423072654957824357587883292200865711003725346754095557256190587679838611613316825481216.000000 1178568544384188087073632312590508138894757563060460485102146941533582545341332723747233946828839845888.000000 0.000000
1178568544384188087073632312590508138894757563060460485102146941533582545341332723747233946828839845888.000000 290856987010511535830495984130348181945009056475409559060227225984520397420052545308196259342692909056.000000 0.000000
0.000000 0.000000 0.000000
-3310605371335114026573549530983614669633710720975160905739403184755065473679653893737471530338648850432.000000 62914026041760952983853787381097508534066563528970046618570639756870004004736652178966685571886140620800.000000 0.000000
62914026041760952983853787381097508534066563528970046618570639756870004004736652178966685571886140620800.000000 35177164419758466456163119901422879857377356622024398596012081830935454534927195667115642590215721189376.000000 0.000000
0.000000 0.000000 0.000000
-21336737499876918142686522708877083424530432036469343669877074056905350244756392682645020756561228726272.000000 9812966927609377167307620731687939236020374417675982061320449601032219166499983504812034486705466638336.000000 0.000000
9812966927609377167307620731687939236020374417675982061320449601032219166499983504812034486705466638336.000000 6496573766237000879249065260332772519708454866595467533548859784158941191700361476601805178171476148224.000000 0.000000
0.000000 0.000000 0.000000
1067751312185610764716462895907421150325411957300527253841153199395464338627704812520748266274775105536.000000 -1413275688631350379326040105898292611981940485693448770377402344440511249788664412407161620292022829056.000000 0.000000
-1413275688631350379326040105898292611981940485693448770377402344440511249788664412407161620292022829056.000000 399638925815260893801817838902919114080050850296410489492179604689856978203656694213399877514879303680.000000 0.000000
0.000000 0.000000 0.000000
57945220287753406890034020369493041546317133586637994770656242917212867708110430875279698960768110166016.000000 44431040356706558219734082490464226283031102686961019231237612599357039099651180888695102948392153645056.000000 0.000000
44431040356706558219734082490464226283031102686961019231237612599357039099651180888695102948392153645056.000000 16631116370508210611039756414205750976032283004063644659229231508880825208356166094680040166038513385472.000000 0.000000
0.000000 0.000000 0.000000
-4411841877135133638471726760036318181832076057250780069837398948959707676072710719754674402859870584832.000000 -10437918162493452771118724379996658365813751641510613574098371104875034692119753713165148388563093553152.000000 0.000000
-10437918162493452771118724379996658365813751641510613574098371104875034692119753713165148388563093553152.000000 6009820041027645794442813328157050621830398471547161834804016287622674749205725586422863853414309167104.000000 0.000000
0.000000 0.000000 0.000000
2682988039130521667421794678980383275028322887996247684275626763135838440242046270168664492983741054976.000000 1345879496536572812161031696234475253703213398683080420432414981725692276775205092063468659807052890112.000000 0.000000
1345879496536572812161031696234475253703213398683080420432414981725692276775205092063468659807052890112.000000 386423314615533762048178959753675646947177797173150413866568773497214147031904448445700954610175311872.000000 0.000000
0.000000 0.000000 0.000000
20100711752002031009212972887963352315191257756486097331281187135337593611767795618544730920498132680704.000000 -54104346571642790572276412213551940629558068572533027701010969431681036464385262502885054323657287925760.000000 0.000000
-54104346571642790572276412213551940629558068572533027701010969431681036464385262502885054323657287925760.000000 27967386762340263735211265071914460339412057761858410526600753431229348568531135348460239038678906699776.000000 0.000000
0.000000 0.000000 0.000000
-1326338091031588856726048063463155666498358171315608110254409857566449064324320711984561608336252862464.000000 3006887559669804169816402525210843002741709383067940404060982872781589737128813742983869043358105075712.000000 0.000000
3006887559669804169816402525210843002741709383067940404060982872781589737128813742983869043358105075712.000000 1732297688807635225625594306731701301178978797780854547088685480627237957687318829500180205108092469248.000000 0.000000
0.000000 0.000000 0.000000
907575657003160631783572260835866677925165025774366778112108545620929224390292316520678681790451286016.000000 -1151030903226155632936729719427459835602056147802805054735080884491319874634087326989362976808895512576.000000 0.000000
-1151030903226155632936729719427459835602056147802805054735080884491319874634087326989362976808895512576.000000 920219088382017325617870152600054184027739506356348189422196621455978966542279300252233698203681161216.000000 0.000000
0.000000 0.000000 0.000000
-2855575058760553051596704258504464017969132825702272347789350264370723665136378155466243593581101056.000000 -164250182530012519451261804647506024696525856958754712052393815007623366552419201800780742079283200.000000 0.000000
-164250182530012519451261804647506024696525856958754712052393815007623366552419201800780742079283200.000000 23942972552868240975943834419502928197874832606953961356551240155431092065930575654871871130697728.000000 0.000000
0.000000 0.000000 0.000000
4376205432049648139659501224197482305052497214390577427511465845451252870088957575461825315608807342080.000000 -3045868313676618713076474047297220267683515747061502565311783465840543875543428787524281230481225154560.000000 0.000000
-3045868313676618713076474047297220267683515747061502565311783465840543875543428787524281230481225154560.000000 1182531742210028311745123861056276286255575455640929469709912405515470510834769802486403936489457057792.000000 0.000000
0.000000 0.000000 0.000000
-2423471284969371115151397477923877775282993861912331442995136453999011178490710987800145002307105325056.000000 -4301505355245239895890295639112003071056266671923253005955905413436339426854070310455046503987935182848.000000 0.000000
-4301505355245239895890295639112003071056266671923253005955905413436339426854070310455046503987935182848.000000 2588839200044147894615740466082267666658775450557438869819872271861122620558813054763558124188938010624.000000 0.000000
0.000000 0.000000 0.000000
5222049111693928847424384640590216053642003172227908563738412363381982270638562768834284650278953156608.000000 1901907000559286371128608211361148785762570524855313278294809411580334516466630409575237400764589539328.000000 0.000000
1901907000559286371128608211361148785762570524855313278294809411580334516466630409575237400764589539328.000000 484910329097696034203222600343010536060007951378949091689025245436070834540517634924455507354168852480.000000 0.000000
0.000000 0.000000 0.000000
2984808857910948014724654221272063584498676762291610827882070398064222447725154410459972341952675840.000000 -191545782250262299058531315479845981962413897224319511097762444551432948572914016920812912636241903616.000000 0.000000
-191545782250262299058531315479845981962413897224319511097762444551432948572914016920812912636241903616.000000 106276765427819216662970796222380228119538296016081229333526433088097675771885718012698904844119834624.000000 0.000000
0.000000 0.000000 0.000000
9520409452044847474152191668369010995240198425630049632643709603920836640797009365571996558763241766912.000000 1198861984113138345032240530491546826231402455697667355962272871167077216241275312484396947877637652480.000000 0.000000
1198861984113138345032240530491546826231402455697667355962272871167077216241275312484396947877637652480.000000 110629688898353480157802033087130256320102919639084374129068714752136703249020767434293998638480752640.000000 0.000000
0.000000 0.000000 0.000000
2940723530118594336653439615330129031450294219153896212443082866811023225759888253533721170865972838400.000000 1525778635365121972600535226494790858838081086172960519159827824966988930239582663112781711974116360192.000000 0.000000
1525778635365121972600535226494790858838081086172960519159827824966988930239582663112781711974116360192.000000 451094662076128954082548127905037437263775244058039806221701773486767541462080571750354242064082796544.000000 0.000000
0.000000 0.000000 0.000000
-9397016901703376813986397203988965111080298053207191114860246873417123442894331960090011579036205056.000000 -2407329664425939698127954380194710031586756458460369214368124879561121446806903381422481340914322112512.000000 0.000000
-2407329664425939698127954380194710031586756458460369214368124879561121446806903381422481340914322112512.000000 623093641376518676016173797431545597582104595326327496020524909055087630900126609001110130045480861696.000000 0.000000
0.000000 0.000000 0.000000
-1451306589122858325578782727025002295714030351616213662703629282299974262672739920786946838930986631168.000000 69397304708068506389219822434610972346361085952816644292157822685433557195639636753972929412475025096704.000000 0.000000
69397304708068506389219822434610972346361085952816644292157822685433557195639636753972929412475025096704.000000 38671373657239846146431303290619677494641897077097856018437546250704776296119804666457730765928634777600.000000 0.000000
0.000000 0.000000 0.000000
59564056208650732609161191126218423332403803898870584931499835563837423144672329301791342576899968729088.000000 -32397796583020994610802176004585541139306087581637120865723788294184929525036919851270760915877656264704.000000 0.000000
-32397796583020994610802176004585541139306087581637120865723788294184929525036919851270760915877656264704.000000 10996817181044556692920541189237346467465037122684613661821163303791776605010306500592210476011953848320.000000 0.000000
0.000000 0.000000 0.000000
-24610995567802846619124766966076339650398369228118279850230716246453418974847443088883605821786140180480.000000 -16931283279990108917606535914205770966496163177498542289361309917231004252602072599247257578121168158720.000000 0.000000
-16931283279990108917606535914205770966496163177498542289361309917231004252602072599247257578121168158720.000000 3103623818420042403134070854071424663124258154672490111183775369078189136113671961360520910832817668096.000000 0.000000
0.000000 0.000000 0.000000
2712676450032583345194360420694337579969118266576634659705002431839190638795531191928806401546829955072.000000 -25083111056909572488218630314328500494777217016668934852715624419906930638398161973625917168562479300608.000000 0.000000
-25083111056909572488218630314328500494777217016668934852715624419906930638398161973625917168562479300608.000000 14625741988223056773706843002286162498623771326946384185458360848667095887509400457053960625877336195072.000000 0.000000
0.000000 0.000000 0.000000
-1579981143621030158944202312005168333902052939613491668627186961924424898915323360745113244083903528960.000000 -6720412055660537507808973245692497454623754766248284794768893917482608978432143001583639957870890450944.000000 0.000000
-6720412055660537507808973245692497454623754766248284794768893917482608978432143001583639957870890450944.000000 2164944676600326587464248660893009230619343758163748927349815852042632387125724950302516521498790854656.000000 0.000000
0.000000 0.000000 0.000000
-48458843785721362591773491501725779977762528680745430408986200134166702983240837917821569246586269073408.000000 -30538186856819394189681527150826839934582411484927593581803757098713347183423001626552381327820772605952.000000 0.000000
-30538186856819394189681527150826839934582411484927593581803757098713347183423001626552381327820772605952.000000 16571447193947787228499493022336500021623009814979786430860947821159482389950777440602954979689944317952.000000 0.000000
0.000000 0.000000 0.000000
-29436933177681503508774265472097365273560968427725175625995086443916922458678785836085764770100653588480.000000 5722525852497314841839547359693670020346189437007090896629461623158611493867621224694241055575921131520.000000 0.000000
5722525852497314841839547359693670020346189437007090896629461623158611493867621224694241055575921131520.000000 1897772901724416915878918425681747349933582751149831664938668091441788208928843952880858661572216619008.000000 0.000000
0.000000 0.000000 0.000000
24286852455270885883499187588709905717668547176075786087155961982164804351835648349408257639689429712896.000000 22964913605332372570012210110435310777578119314860345017049446330324696641935330717481851629492236189696.000000 0.000000
22964913605332372570012210110435310777578119314860345017049446330324696641935330717481851629492236189696.000000 9471633123298680195939708622899977191448036454823980127587084341625582016471562121817534207028432470016.000000 0.000000
0.000000 0.000000 0.000000
7940810722888418495791663642835021559873750872703884431147052993263695604765485577652089212718198816768.000000 -13315521758139297102108124932493451366654846738612641305023786626844705985126943088337036958518378233856.000000 0.000000
-13315521758139297102108124932493451366654846738612641305023786626844705985126943088337036958518378233856.000000 6471467368886901700007057866937326801242225709464286918286800397996165134467843340721782622266295582720.000000 0.000000
0.000000 0.000000 0.000000
-22811581678588884143891741496112498851093546227401747060244508561400575585809516415612473168283543011328.000000 12176082563238419277985267220827104778796069610111649180877785832057606132239329224511216224444436447232.000000 0.000000
12176082563238419277985267220827104778796069610111649180877785832057606132239329224511216224444436447232.000000 6229085363110967273242096781760965996282104553632375923519716614881478724137527878544912405101996408832.000000 0.000000
0.000000 0.000000 0.000000
-4798316534438478353757862683925170053069995641636210457919229235368087775413785395166404634814185472000.000000 27010703535175657094772867495311540260748833160765960145355743489355026821181268628715805741970146459648.000000 0.000000
27010703535175657094772867495311540260748833160765960145355743489355026821181268628715805741970146459648.000000 15306489266933635960510973747502186581363382512326964201351965310582924106346529598217745943526130057216.000000 0.000000
0.000000 0.000000 0.000000
273455996539345045447160569665400582928408291530225175790848065787234179066109392152633484550355288064.000000 -12267095898434472904339747079886130352040043170769207138458752774653562951311563406084814602529809629184.000000 0.000000
-12267095898434472904339747079886130352040043170769207138458752774653562951311563406084814602529809629184.000000 6882008344129799481117313300645536027062696081072887173333176451186396733876649816558045219113228304384.000000 0.000000
0.000000 0.000000 0.000000
-370880945508688258857130187053867687648469777659670591829483850083096376154137933841230531158471606272.000000 21203533918110604496936715291165366937660210272024151131782340114481430685953824379379633819883642290176.000000 0.000000
21203533918110604496936715291165366937660210272024151131782340114481430685953824379379633819883642290176.000000 11816712054703440506001424767315727064396020933068004163881438226866123215260952949237662210528827670528.000000 0.000000
0.000000 0.000000 0.000000
202784719413095095954249095764731318058647857127385827040884189878420582512361880909829931905832714240.000000 -913866269290124916883268404495737889973988639672510402574461512858703226324548115367367203809237401600.000000 0.000000
-913866269290124916883268404495737889973988639672510402574461512858703226324548115367367203809237401600.000000 746719127138404515044999111497732597877338200421636769225925912571763038291588578833540613781288124416.000000 0.000000
0.000000 0.000000 0.000000
-17648252272082134178538880281015762978888004767747680957994383246275191814601261824750726952041477832704.000000 4591340318511902037103974283102829715421350870116367294032507744115752132101054092135524919659678662656.000000 0.000000
4591340318511902037103974283102829715421350870116367294032507744115752132101054092135524919659678662656.000000 1961863129287998235168970137720866373714043468258720445682841561467201781437385644540657264688434774016.000000 0.000000
0.000000 0.000000 0.000000
-6638064688441909999840149868174065651826855524539514852985964758749536957610360655535494867695660171264.000000 20850178799231234853037034814707087570639279403050553616545209137089347380438682245223485624093555818496.000000 0.000000
20850178799231234853037034814707087570639279403050553616545209137089347380438682245223485624093555818496.000000 11956148014844543132998279076901963475362305229038004553414932787258866858855261270928647620946944851968.000000 0.000000
0.000000 0.000000 0.000000
12056563379893568519498248683784660221603420810644045327793904853406118219208993607715964015467818909696.000000 33013975201026018823856153328583958638375604748194430219102218433924712980101101980757845769309585932288.000000 0.000000
33013975201026018823856153328583958638375604748194430219102218433924712980101101980757845769309585932288.000000 17107261586635030920348029162737220587842067403026780268838439477577982408424590715815334815163431780352.000000 0.000000
0.000000 0.000000 0.000000
-24477798656332584081015817752188404337594797313040383687085171271726844357661385206365341445265074553880576.000000 -49106314382903247500817523395524599994393001560686249062680311638063123960951436709360400757922277097472.000000 0.000000
-49106314382903247500817523395524599994393001560686249062680311638063123960951436709360400757922277097472.000000 786772247042363235306197624564918673849633132311140034970560201719581034536184853740781711885162512384.000000 0.000000
0.000000 0.000000 0.000000
-6119370332023203924141970256756205555530660936396534069644347967413198400444531083276276169356487950336.000000 22264106695106100002907474048805409777002440479912127078233066254821030283828482427993119016915828736000.000000 0.000000
22264106695106100002907474048805409777002440479912127078233066254821030283828482427993119016915828736000.000000 13487406475093549128035149760539276506294419904105338390854589096024470221459513145963992905889670496256.000000 0.000000
0.000000 0.000000 0.000000
21044533797662559958188624632942445222313969004860707534507942528691164393359551330664470358849734311936.000000 -29695682883783410343601199297064646226986602419299594921243492204456734682651937352080536948611510960128.000000 0.000000
-29695682883783410343601199297064646226986602419299594921243492204456734682651937352080536948611510960128.000000 13911225657374068373068255345233708691574376199886858467803568195830941294504933358259602522941566222336.000000 0.000000
0.000000 0.000000 0.000000
-37300377809789799301167158220918376747624390712251977272503414580325079908230435330062955146483215630336.000000 -14278106580383688763061329235955617322592167351078455738514115339126229193390342700362339190256686858240.000000 0.000000
-14278106580383688763061329235955617322592167351078455738514115339126229193390342700362339190256686858240.000000 7464580404204321396094055264554609116460956670426085609002653080119481235324592387679238766108774236160.000000 0.000000
0.000000 0.000000 0.000000
-2403321051057763881357688552421154930800237455024011693917083102202627388116973128903800839047035572191232.000000 289479451822833056024679769364686172923021407072662997878281874580866844110923673794175251239986914131968.000000 0.000000
289479451822833056024679769364686172923021407072662997878281874580866844110923673794175251239986914131968.000000 64395957897706454580981461083401084966007499469634171595644046466241868550095286770927648720638388994048.000000 0.000000
0.000000 0.000000 0.000000
-2409761622345066025238221479681183272401293651809072023379397248815585400036289259504922589747921027072.000000 5266056615476769734377406961486008042594060392904117208276327952556348074943689534486566426860131975168.000000 0.000000
5266056615476769734377406961486008042594060392904117208276327952556348074943689534486566426860131975168.000000 4430215744106890884200945823848891708592283917275309661416995650586769488364249060993619532832076464128.000000 0.000000
0.000000 0.000000 0.000000
-23117619907018344238085356602413485496677217235906477169588494778172813908568804752855772092392001241088.000000 -10500263678553349583584997076748225437175526740584854771490211806434631863262583038199248442378917249024.000000 0.000000
-10500263678553349583584997076748225437175526740584854771490211806434631863262583038199248442378917249024.000000 5173336297288175059912135500715923404197428798134487970707309192707531259115237262993422879159289380864.000000 0.000000
0.000000 0.000000 0.000000
-471288566894018794027587360413564483462261594390878007839287598555967184235723934725543902503793328128.000000 -194742918179796131405473730079022210130710782597130088293872695603779982159740640228649341233603280896.000000 0.000000
-194742918179796131405473730079022210130710782597130088293872695603779982159740640228649341233603280896.000000 36003131358517068041034921427115941988384101300387127032641324220395419941417635325530552381569236992.000000 0.000000
0.000000 0.000000 0.000000
17890024916672649964357844434667581425846342487455706398238663556012574284922048642834968583482319568896.000000 -638571877388853040974057084160739127299765765232451051077777881618917534103807850838630832433379934208.000000 0.000000
-638571877388853040974057084160739127299765765232451051077777881618917534103807850838630832433379934208.000000 81804663058951380300875635241195974397424372237782533152217585652426818007873658646473502107692433408.000000 0.000000
0.000000 0.000000 0.000000
-246504628540705817325018990371222304618007589774668667810686020313412607679498137503126988343163748352.000000 -2520764012533652683012318302366676218872462006075135340382684229385721799748745528701541487058295455744.000000 0.000000
-2520764012533652683012318302366676218872462006075135340382684229385721799748745528701541487058295455744.000000 1548936295990183203974944155117214421748930136035468099769428468198475628872395419228635381874798100480.000000 0.000000
0.000000 0.000000 0.000000
-34203509215355239454588956973902301466612569440964042717056031862643339249706056554180453636787625000960.000000 -10814338865859035447155241648540556665993662897708629309616523541695639781570942328338572248220512026624.000000 0.000000
-10814338865859035447155241648540556665993662897708629309616523541695639781570942328338572248220512026624.000000 4934156727715447024753880206769281516613261544748395517225310622412696523297470746236760751371347558400.000000 0.000000
0.000000 0.000000 0.000000
-5031411658131447660610723682008052348992762119853475111042321669576993755745439452187629444588384550912.000000 1564902084624351304239458772317580912678075515751412460145889217681794657791729036368319286947526737920.000000 0.000000
1564902084624351304239458772317580912678075515751412460145889217681794657791729036368319286947526737920.000000 670308459475509152364393253722413933120137821322650764255927730816259494467144985374628926460404957184.000000 0.000000
0.000000 0.000000 0.000000
2116386542966891597010430009193323619947512941867893260762162301194158391134278921583979179416697700352.000000 -301358560956261037130036404615986958389666093644117118248062564083154987113014886712753573710226522112.000000 0.000000
-301358560956261037130036404615986958389666093644117118248062564083154987113014886712753573710226522112.000000 28301655643200654773242135149839102794308801551416170093963307833263543089921706874702532052328120320.000000 0.000000
0.000000 0.000000 0.000000
-14376297470268933154066025596614017533267233792103534774238679808316949392876238770158333996574932205568.000000 113829880866783900298785626592603516164588580144511166966183045899036844997679349844501612696860360704.000000 0.000000
113829880866783900298785626592603516164588580144511166966183045899036844997679349844501612696860360704.000000 627016067454846681132170593108695591600132548140366173920146499441083400842827498482881934252163727360.000000 0.000000
0.000000 0.000000 0.000000
56309169030195094191785330468768127555084286898126391229376572816020238856189007553801309042115474358272.000000 71662177627655365386811029832664826096795811695230738995425468074034019204231020999732613567168154435584.000000 0.000000
71662177627655365386811029832664826096795811695230738995425468074034019204231020999732613567168154435584.000000 32686200566493602096306958625402002301691418105955107518653151411488084961673732341191859750112401031168.000000 0.000000
0.000000 0.000000 0.000000
541552236721570329580915682504358249038697783456988692119811797236580500319634711441554725763284992.000000 9354388102184542361791667687894852485652411036356576753509314103520165290225129989324233508913152.000000 0.000000
9354388102184542361791667687894852485652411036356576753509314103520165290225129989324233508913152.000000 662841552936037569711658807940476012294342304461851346736811977208340515409442747873048697765888.000000 0.000000
0.000000 0.000000 0.000000
-11940320264819001581882866773896411552903530125351433562785381801463364877167481140729761734880340738048.000000 -470672054077873510844891388367505521147657094253032174135703602380835153188320016636242002699754668032.000000 0.000000
-470672054077873510844891388367505521147657094253032174135703602380835153188320016636242002699754668032.000000 626913530782944668172995104770264147611468369496147873973357370764812466437972064549715540359837122560.000000 0.000000
0.000000 0.000000 0.000000
482086409778271817054164455529395205744779043900103306103207204968206866208197057048246561016410800128.000000 214707851739161688169426250628473806148825654259644492028483815054255853353522491799481817965902430208.000000 0.000000
214707851739161688169426250628473806148825654259644492028483815054255853353522491799481817965902430208.000000 56286143283317858039974362199586704733683690253421272697232905993640363461959569604436035252913176576.000000 0.000000
0.000000 0.000000 0.000000
40017739678800953729701841745189252633545440414532297009190753709877637693386753170174018252308605829120.000000 61599469536570999585734859751736219330671138130445817667894869069794214517771767939093279249570625224704.000000 0.000000
61599469536570999585734859751736219330671138130445817667894869069794214517771767939093279249570625224704.000000 29448375222929790752742610161712470167352741208160889364036111568508507565543488001368604814138922762240.000000 0.000000
0.000000 0.000000 0.000000
8453364778106056500938565580669990028951872949223004470958502654114133594625652053104961462762981031936.000000 -76177080053204324361705441581209355312583109848561947679263624277392895096449166749836971189471281152.000000 0.000000
-76177080053204324361705441581209355312583109848561947679263624277392895096449166749836971189471281152.000000 3613267562393343005652476402344587163045906731104313016849499506253054605984069797749653196406521856.000000 0.000000
0.000000 0.000000 0.000000
-129990880394999450167549835908227892455774090810688213972401091980434480260896376921687716610046582325248.000000 -73132674443838349601306838609790606855828864096878842843165881503711332477375020260282541425887310512128.000000 0.000000
-73132674443838349601306838609790606855828864096878842843165881503711332477375020260282541425887310512128.000000 39426583515507833074448353334119142891973311238199989058605267084126728279872464701666324774870325395456.000000 0.000000
0.000000 0.000000 0.000000
1223384000983237090997664745550413260390469538855225136541853301884611492010504171116094393508811505664.000000 -188391451116995857459475454510853351674803958625599429792895216619938153510062995180436725359674654720.000000 0.000000
-188391451116995857459475454510853351674803958625599429792895216619938153510062995180436725359674654720.000000 19037457569912300271972292963520904035874699075792314813286964816846327662959132834538618586046398464.000000 0.000000
0.000000 0.000000 0.000000
8938012193064904230829979656266104311834468038493897255749177791848219262225152857689321403368721088512.000000 -5678023183509186284939357564830568558870609106132173359510187846024723146143642196351114007146036985856.000000 0.000000
-5678023183509186284939357564830568558870609106132173359510187846024723146143642196351114007146036985856.000000 1911095868795830819808952780190414386164825195655385434635505834911614265256636153413725621859790094336.000000 0.000000
0.000000 0.000000 0.000000
2683155485776691638057036672136852661541459830635353444595698002968987610116346606661187253137672503296.000000 -1250115174313675049477311064509338346709618375376619757988564502532560378198783943383849532626086920192.000000 0.000000
-1250115174313675049477311064509338346709618375376619757988564502532560378198783943383849532626086920192.000000 378386441904087955014267298588361225273397110049906997798868679645644800834738659341632827078461095936.000000 0.000000
0.000000 0.000000 0.000000
235900652595678473093693018294954211975241382258221794001277013203241046181811503236258662355367362560.000000 -456509209305198292682650269705898067580725852767053873770165939926040578714861794408634929545205514240.000000 0.000000
-456509209305198292682650269705898067580725852767053873770165939926040578714861794408634929545205514240.000000 340523980146505315760472415459321356853504285304554699328998299955093192888160880030948733922085699584.000000 0.000000
0.000000 0.000000 0.000000
-159337080462367670107824195533516880640270919349062400606113521258758327298153627959401552046222638841856.000000 1865524936181121446868364882055835124362017158974475276568704569260356135801615081380272578934027059200.000000 0.000000
1865524936181121446868364882055835124362017158974475276568704569260356135801615081380272578934027059200.000000 177961958577583365246939957560723853121555827571085637322191654450733120066156457863415966218399514624.000000 0.000000
0.000000 0.000000 0.000000
3220972678712591786766122351518993813979092585790383421594486311571516338608182506821152490744442781696.000000 -18797897508169603198967625136916099334476179006819958168234947591592722790821257237531623754821332369408.000000 0.000000
-18797897508169603198967625136916099334476179006819958168234947591592722790821257237531623754821332369408.000000 10161781821320915123384567362751819650608295540578115591477448849928166222792526138671125453882408304640.000000 0.000000
0.000000 0.000000 0.000000
-191864460465135582680158885876876814704933570958917067039400608836579115380459638604231383288905140797440.000000 -44188481619888632545270694681263538928694903387832561618249439219620235190997778562021112681491599458304.000000 0.000000
-44188481619888632545270694681263538928694903387832561618249439219620235190997778562021112681491599458304.000000 19303609408591978531106006806723425739865833231348967862645742718919518936129194905373604578366358290432.000000 0.000000
0.000000 0.000000 0.000000
-83428009472629411692831282005845493845649535241969259031240531432708741682893562883001259677623565418496.000000 -44145127125419742281271500770770019183181721350178676824336268448095891970545267404127098224627761020928.000000 0.000000
-44145127125419742281271500770770019183181721350178676824336268448095891970545267404127098224627761020928.000000 24566151445356454683501387875973088060409072748970052852268061701664503668967579569096171816751873392640.000000 0.000000
0.000000 0.000000 0.000000
2245714802663335854611426368418623087476147346290850307757627317384193661512662572130005164921439911936.000000 18348209183270495483555574603242959302010351323253060371701643105036618320394973553116185146265893339136.000000 0.000000
18348209183270495483555574603242959302010351323253060371701643105036618320394973553116185146265893339136.000000 10038469083718736143114143877351718085689785087923877609483142732023179389697065600285012946414773207040.000000 0.000000
0.000000 0.000000 0.000000
-42300675481769746809086239419301603971172051504066754882540612656287648542612686752450274994877127196672.000000 -87763728894618059336414276449123759007720387348859767371894427505619504922360934839102637343754281811968.000000 0.000000
-87763728894618059336414276449123759007720387348859767371894427505619504922360934839102637343754281811968.000000 51783037460820912494168728246050240181849818718550674540762529300779295040926650284897283445875045040128.000000 0.000000
0.000000 0.000000 0.000000
-375716494509442329533457142290517403360171788387112754850424188880905064521595806790281561233254514688.000000 -558406273027311095936730322999397077042138933762856376842298821329749349238656622993506531990151626752.000000 0.000000
-558406273027311095936730322999397077042138933762856376842298821329749349238656622993506531990151626752.000000 322053058030455961095351334221927204059045665838102136362042514782572349016138283391594021489278451712.000000 0.000000
0.000000 0.000000 0.000000
-157748651609148213698496979484252311240409699418923980984511198074130646549314031978072346551058956288.000000 -100818684992839935361937203166091656214743408502910985635312823900461335362519524961862820205185466368.000000 0.000000
-100818684992839935361937203166091656214743408502910985635312823900461335362519524961862820205185466368.000000 646272611341800836507525558120904119665543101134590048331309116753207342562645374870422715897231704064.000000 0.000000
0.000000 0.000000 0.000000
10287197355869433959401311603894069331343406025433247848877128750300894022304822404645517022201519276032.000000 -12314773440415117941394673796176844281916211365658136394868021692311107981163411533349088512394737483776.000000 0.000000
-12314773440415117941394673796176844281916211365658136394868021692311107981163411533349088512394737483776.000000 5522047035819799404270997385475184021358378485324433420413785849304281721032035901401242955631239888896.000000 0.000000
0.000000 0.000000 0.000000
-24108109411619328801977258405741084568263132942999368436996044146708143333276788686624959745233531174912.000000 -3359010885101718684128524165818127682262823961419815912717136472454432510493250418818026167930588233728.000000 0.000000
-3359010885101718684128524165818127682262823961419815912717136472454432510493250418818026167930588233728.000000 1005462306195264039930284440354889907984970522413085786444286307365489430613437688344888709358242758656.000000 0.000000
0.000000 0.000000 0.000000
-23953570865659257334863548565670795774911071448204549845335878203936534276557816191358614097876477804544.000000 -49665277574233162473874149020738629074249128632221133205046238309004107943667511313222781902795097243648.000000 0.000000
-49665277574233162473874149020738629074249128632221133205046238309004107943667511313222781902795097243648.000000 28881747783685785082110222182078658031564924191714352794406643769176855068661821275063140505234970771456.000000 0.000000
0.000000 0.000000 0.000000
-57292965779219646672976701254666185840733429055205210546100948217504929236066873910575399986742954033152.000000 21480486398518595889729804922935715160826913971400256633161465851591250230765404342562305110723992223744.000000 0.000000
21480486398518595889729804922935715160826913971400256633161465851591250230765404342562305110723992223744.000000 10471030686112577954138350494054060966039356180159678567010406704733664550954618728448000301563612495872.000000 0.000000
0.000000 0.000000 0.000000
-65819055184137973674108595319088806155343580003511048356213938992954282473505963837452307951616262144.000000 177369292407885141188124365443448706114299092762934818140708509809116140866885105576954291867164344320.000000 0.000000
177369292407885141188124365443448706114299092762934818140708509809116140866885105576954291867164344320.000000 101943579971837804446284359948505694720544492165149736449632048849870460922262159413996310093484785664.000000 0.000000
0.000000 0.000000 0.000000
16739895929308400986292907246774644455660089944613425703727708721730051021244402341389247442789324554240.000000 -954650896686348670906245519069557880408279435633658340221386245974618035627677738001604364977966153728.000000 0.000000
-954650896686348670906245519069557880408279435633658340221386245974618035627677738001604364977966153728.000000 36743361157615793781964870929200187209839855754893175291664392404713317550197317763926949483350327296.000000 0.000000
0.000000 0.000000 0.000000
-3479896298444197572419508480933162870491345787851565706231748617749998422922324850610824678637423162294272.000000 -79816706747320625244128283512830560529653403366737097533931264846963286801125837842079794915872268615680.000000 0.000000
-79816706747320625244128283512830560529653403366737097533931264846963286801125837842079794915872268615680.000000 3648703842433545041785522819126679404898532734508375066779147124132975965024641619727252078774024404992.000000 0.000000
0.000000 0.000000 0.000000
-20838618467830199248110061835760911383410947176436323363191185769060599959624531848227630278251282169856.000000 -14574924097499507151738241928526821870726880109669280262066737307736925509144491583991727093310493294592.000000 0.000000
-14574924097499507151738241928526821870726880109669280262066737307736925509144491583991727093310493294592.000000 8062075309085245028646550672439274862086965191345641556784408436771008487239668639195986692064000606208.000000 0.000000
0.000000 0.000000 0.000000
-10582403545370623605343869257646472267445885285706701514009308403078751477519037294942475017260550324224.000000 -5002088805245002329986796719488164155926403900207208172777131040114312501484440910691965533263543402496.000000 0.000000
-5002088805245002329986796719488164155926403900207208172777131040114312501484440910691965533263543402496.000000 2572459890262598272526980465360228859398246000073152803448310357997180453951371034771804765175840505856.000000 0.000000
0.000000 0.000000 0.000000
-5411529950546885813921683485182093382597734410455891389881476361598166931644271322628590347994506723328.000000 -283234498918023311092240279506253680725318274287519290609691831404413931648982130317546587653104730112.000000 0.000000
-283234498918023311092240279506253680725318274287519290609691831404413931648982130317546587653104730112.000000 199138996902790977346423737358555668003172463120063708947785071256390485581922338310554709782639411200.000000 0.000000
0.000000 0.000000 0.000000
-5949850028113812134419790040086763019451879211771684613005599961099217154427185267010359305244967436288.000000 433836723247942454009001178732954472199131028278467074987260751395508182245961973577867873251076603904.000000 0.000000
433836723247942454009001178732954472199131028278467074987260751395508182245961973577867873251076603904.000000 312258507072935958318808317872700895371756147434364961470665169413694395401005144239121366366361223168.000000 0.000000
0.000000 0.000000 0.000000
17925469459603222323791873988215422352837507886350789807735706857874388574241379331583046139217400823808.000000 982355874099099110247555879229100362752330886336323875987317572854636833151100653720148274427369357312.000000 0.000000
982355874099099110247555879229100362752330886336323875987317572854636833151100653720148274427369357312.000000 1747272185582940439695066016466415513754385722603243148649710996856179745645965398557606673227328782336.000000 0.000000
0.000000 0.000000 0.000000
-290999727669757333522081314441747527578435998065981762956284566485790798976975865336684033428743906131968.000000 -26905857065678914580463767076680768395930943252819183096142155890795681146652156861388992991392522305536.000000 0.000000
-26905857065678914580463767076680768395930943252819183096142155890795681146652156861388992991392522305536.000000 4736970321139456778079530329904281776319183105009844633794107060857593505051154902821866507257298026496.000000 0.000000
0.000000 0.000000 0.000000
-100807685833672965405880506601942606685156070301488609651379168360397154796315549933597127508334263402496.000000 -3255467505966867150895281482181817686458171641629778393933169516770696179063178702990688657480322383872.000000 0.000000
-3255467505966867150895281482181817686458171641629778393933169516770696179063178702990688657480322383872.000000 872181866156546155497968012779075771581979171540332490073346224835619236757714650970349030836929560576.000000 0.000000
0.000000 0.000000 0.000000
29417408194559698620643888042888295850396696642060660167446120969441963987246481084837230408002267250688.000000 6882685127463143314413217124649438437642273813462402645689878055624551819474992158776543363558262439936.000000 0.000000
6882685127463143314413217124649438437642273813462402645689878055624551819474992158776543363558262439936.000000 1039083868967941825381158926314917244863755492175539334274992917983361943948071125324540451350992912384.000000 0.000000
0.000000 0.000000 0.000000
-34377685181878212678802155084975173277240911107587154543788566900047025290669746086131134884482166221176832.000000 266844718468837050958136823034398208919688323102874442114032300305250156442746782673352112149924944019456.000000 0.000000
266844718468837050958136823034398208919688323102874442114032300305250156442746782673352112149924944019456.000000 4331496853174067312777890226690007523744213707934533090078459010667696076660620330819341448093810819072.000000 0.000000
0.000000 0.000000 0.000000
-21796674315620817867654729961393432061865380643177091982756612058082022523564624621351169712626824380416.000000 9594662102351422546916873220193421860728279002279074378994426477853707123512984200372088387735042129920.000000 0.000000
9594662102351422546916873220193421860728279002279074378994426477853707123512984200372088387735042129920.000000 4788140187418192812409742526255706388602196439263259471943457252134850531529761055756145631676994682880.000000 0.000000
0.000000 0.000000 0.000000
30954173235735202190196058967352471647896055910929663819242142698608708089045310450218152398514106138624.000000 14133593384403895782987342710810353105586775652881489919248893055954453469581996494625873600293204131840.000000 0.000000
14133593384403895782987342710810353105586775652881489919248893055954453469581996494625873600293204131840.000000 3808692213857108422847448958777618438376407140335176541828521266790428718167139891789091320788630372352.000000 0.000000
0.000000 0.000000 0.000000
-7855024272868620319890915586634862389556836088662853981121016489739491446460001104174421261566957584384.000000 2234605172091337066698018532840714121550503774627769918681595845018953337213659086717809617418475012096.000000 0.000000
2234605172091337066698018532840714121550503774627769918681595845018953337213659086717809617418475012096.000000 1743431018000131096113805243719950195220399937903526042095609806722927507947140109519491062795868307456.000000 0.000000
0.000000 0.000000 0.000000
-6794530423740627814958570574435191603680618971453709423870117345589330057588214635914388712404937605120.000000 77464791811174748416157393474897754404941364544544553884406346038853050949984664429746369705062004948992.000000 0.000000
77464791811174748416157393474897754404941364544544553884406346038853050949984664429746369705062004948992.000000 43894622254357792191020973261423345200016537955034970686451510782568850559009552217114954460242858999808.000000 0.000000
0.000000 0.000000 0.000000
-814933726668842934844670639067363191091432281348879091110611092147679613208393922401089590109978688432898048.000000 -3273458788718217427162769305583745005091726607409354362909038024234189574243144525539975520534081851883520.000000 0.000000
-3273458788718217427162769305583745005091726607409354362909038024234189574243144525539975520534081851883520.000000 26308087075866944428579688534700054980235951482886823139246851461587077980096646277805737445259695095808.000000 0.000000
0.000000 0.000000 0.000000
-1180192838212014263267000343175237456304036689880301707752638405756070953771601914232145599115563223744512.000000 207474318494146386668733638488197571331186247855768112459781404252102897823609008586857344754990511554560.000000 0.000000
207474318494146386668733638488197571331186247855768112459781404252102897823609008586857344754990511554560.000000 63152592004517945445846438875460027086296794369301760810076474256233140998798864377274249656458509549568.000000 0.000000
0.000000 0.000000 0.000000
3187059579979835060517990152239039734130928221361877670049368940464407907974171336568032878028021301248.000000 -20776798462889165258646888646954894816565745809577234718742764565965402231482306543847135444761313280000.000000 0.000000
-20776798462889165258646888646954894816565745809577234718742764565965402231482306543847135444761313280000.000000 11269768182071550009048041884327800164678666808643378066478717563471003878641582189102293767669248163840.000000 0.000000
0.000000 0.000000 0.000000
-574627861799482952479016679235712953948674026190877336600688239639059625696909485899257153468571823636480.000000 257693563357657675474010894143158778515519115063233229502332527422306093933658658814071390322441618194432.000000 0.000000
257693563357657675474010894143158778515519115063233229502332527422306093933658658814071390322441618194432.000000 127603370267719491699836349384298902961125301564100656691456904003907711044715012688777766809829329862656.000000 0.000000
0.000000 0.000000 0.000000
-5264859396243165393874841480608616877787755475855372749170637605165395810676398519304463799093460729856.000000 21406729644758525164597363280684549675812810232751844656239351547573975473346366284073807738617861242880.000000 0.000000
21406729644758525164597363280684549675812810232751844656239351547573975473346366284073807738617861242880.000000 17515714444435142834910050073038216669047053545666873394007197788725282710798248327831358322058901585920.000000 0.000000
0.000000 0.000000 0.000000
-41064965474316639373423464632260232484955748982848188206992584181036003729554419614971852613359654404096.000000 -37225916558679696245028301371096415962528822550284544342683073698772603425175843178290463559675300282368.000000 0.000000
-37225916558679696245028301371096415962528822550284544342683073698772603425175843178290463559675300282368.000000 21025509476700538373772734993051582099835568276716409720480911514631790135768044032970310346126963769344.000000 0.000000
0.000000 0.000000 0.000000
5376135859779965529158678685491643301667558029871500749223084352759543189374557164156619708023070261248.000000 -584576108255701497598768300044387868642568841592307627277032548979309240666406595210451938369058373632.000000 0.000000
-584576108255701497598768300044387868642568841592307627277032548979309240666406595210451938369058373632.000000 41650516362415929813693580559290215611586225177655743028694158731942898595080866202872901047727161344.000000 0.000000
0.000000 0.000000 0.000000
5755404832877701996821031057990479898064882547979545177094805634119936841403189250356213849593428836352.000000 -1122046021178589692239705188113646181277372871729821287766584133352042848217410812305874452639601655808.000000 0.000000
-1122046021178589692239705188113646181277372871729821287766584133352042848217410812305874452639601655808.000000 163052992896852294766073760796294404577376615488893522000234068753619152802146181542880471407671640064.000000 0.000000
0.000000 0.000000 0.000000
42759172111524171324064828614704207277644588455105281441563524471093865919238189968973415685651014090752.000000 11153190560796038971334577252068876196414044258577290420749615076113595996160910746263271153182389043200.000000 0.000000
11153190560796038971334577252068876196414044258577290420749615076113595996160910746263271153182389043200.000000 1909004118317948226412906371508545004275704140637308631494453262995113826795768378343936974861258194944.000000 0.000000
0.000000 0.000000 0.000000
13477075221962769594997431745301622488723018319210555169556811543282721003152283168460894895200958152704.000000 15257789107503547028470714646771571448077787411612891654509316462948803609147604933460982631933398745088.000000 0.000000
15257789107503547028470714646771571448077787411612891654509316462948803609147604933460982631933398745088.000000 7062531464219462066027806679392057773215798045534967981647657081012031553502327363196917097629313138688.000000 0.000000
0.000000 0.000000 0.000000
313232654172325350596856435192109924916523402358703138291325217403752739455571284723122709406416896.000000 439745985318923956915683663482945842891054492362198389366732002772533464223919886495497687400448000.000000 0.000000
439745985318923956915683663482945842891054492362198389366732002772533464223919886495497687400448000.000000 205732980519474703433370006309941896330001122640928277071566817402947050047904603233356250269876224.000000 0.000000
0.000000 0.000000 0.000000
28042974812334409610659577006428028837217501175021415337461672750088266738668362840505170803860455817216.000000 13129054712873105071840487042668372035481708364999649606419745334388675443079703535527948101535219580928.000000 0.000000
13129054712873105071840487042668372035481708364999649606419745334388675443079703535527948101535219580928.000000 3581908874148540325297941310128966950644101721489677983557881111859393584480126736985433082016468828160.000000 0.000000
0.000000 0.000000 0.000000
-6491972927743116156527379341356777585966639379904401769392837168843849572539398584638884713180197552128.000000 18319816704136135256253713015559475353331161913420267151399948812460247062685982621741635027740573827072.000000 0.000000
18319816704136135256253713015559475353331161913420267151399948812460247062685982621741635027740573827072.000000 9415152077315583819715140464378188424204528059374640752353815980036508323071927649302886498198060269568.000000 0.000000
0.000000 0.000000 0.000000
4704216320051128217700230895549558815152302183550388583406889071184849991767128619853751715959112990720.000000 -24015731871167640353721597916371069818224666958008805408422955202033978491279271899308977023295621693440.000000 0.000000
-24015731871167640353721597916371069818224666958008805408422955202033978491279271899308977023295621693440.000000 12923604951330489539506846947747171579354392106875679786145625584555265612409489691842817759304998715392.000000 0.000000
0.000000 0.000000 0.000000
1908472830124064402384571337378043711268039885302091493498280176152511051242391110746426448675445145600.000000 910913162998295962882403128915396888558794916543067944786684053292528824651222765001350395322599211008.000000 0.000000
910913162998295962882403128915396888558794916543067944786684053292528824651222765001350395322599211008.000000 740897769190077025990977243992422303201796023655788703329504261889989673354715419536097992395085316096.000000 0.000000
0.000000 0.000000 0.000000
3131906218253289047556152771192483861851747021679291808780672025644428536751300023631626219512402018304.000000 -2814669695536902176361327887520990477063592540494398173919950000135971283150842302440070975904131579904.000000 0.000000
-2814669695536902176361327887520990477063592540494398173919950000135971283150842302440070975904131579904.000000 1136635932725182159023490658699874377805252414472591567441642133346987415707586297084401154527263195136.000000 0.000000
0.000000 0.000000 0.000000
3486916492483846642863059671136388535032816897669904900891598601257130679418077231604831088632292966400.000000 48165539554021526442985152200249308344925002166619636519503048116847474228994880239500599122747696611328.000000 0.000000
48165539554021526442985152200249308344925002166619636519503048116847474228994880239500599122747696611328.000000 26530975671757140106310842834040952651864208353026849146394953742841908112284795480897248282338589147136.000000 0.000000
0.000000 0.000000 0.000000
2764714297632783639424696342377846867856417190664322231598672889260450099677349960600330851827989872640.000000 537642893797105308707804190083188246764835309853590018257237718961485786251888293935307055283923058688.000000 0.000000
537642893797105308707804190083188246764835309853590018257237718961485786251888293935307055283923058688.000000 67979405325349546559458089363537178040362065134185858950785464018664065377570211253385530595491184640.000000 0.000000
0.000000 0.000000 0.000000
-58763116164461186758579780115863558018292213029910578859844762973618564347075242214858313884533488877568.000000 -29235998618010488266166467227171522960506744684772811969692383256231355369765132806271837609445531058176.000000 0.000000
-29235998618010488266166467227171522960506744684772811969692383256231355369765132806271837609445531058176.000000 16330098113248141971773776695788721209155617909753699870009597275606658111611930205836882913986378465280.000000 0.000000
0.000000 0.000000 0.000000
2006246064327952614381534350926976739703843419724355154466999391650621620585368057407141075964903030784.000000 -267318862545686484395465224231892264051540570337605201121239304200516300699270395876787462361294307328.000000 0.000000
-267318862545686484395465224231892264051540570337605201121239304200516300699270395876787462361294307328.000000 586193562606856915937865504209213520799891857779827444484060947350940278771789140364445390233820725248.000000 0.000000
0.000000 0.000000 0.000000
-45479569701639792936586893584250713540808491812700191778078940591930452898001635730750166244813824851968.000000 -62262128136729780925844353199586637195357225697850981001193044504323256556264298403750854227963089518592.000000 0.000000
-62262128136729780925844353199586637195357225697850981001193044504323256556264298403750854227963089518592.000000 35768114987442056182221345428613400244746949419871533699920660756521601371104716178154972360217110511616.000000 0.000000
0.000000 0.000000 0.000000
90054834581397909407184300767222529339563850169190053516409101787713264081141121319661613208858641039360.000000 3110297028605808572452830859053156269204628115691009487024667798322769635935066854119975819296632733696.000000 0.000000
3110297028605808572452830859053156269204628115691009487024667798322769635935066854119975819296632733696.000000 544264260769714649782085984024690318063760710135927747084983766377293917860367053470037025870057570304.000000 0.000000
0.000000 0.000000 0.000000
21287815989386462208057166878007023589880296027474519865291076442673332018608270283004574625310806376448.000000 -16216004349688809728764474770118568370280749008977246003503514254436694962684902656790838088364382486528.000000 0.000000
-16216004349688809728764474770118568370280749008977246003503514254436694962684902656790838088364382486528.000000 6052215656760985916542900450305358109904724703117377279503035400549563783458668088970765645421494665216.000000 0.000000
0.000000 0.000000 0.000000
-449946260839387418909491431754020850783536920458159205518976884814226173472203991083540578242981265408.000000 184598826180125918178085134055078809090061886668007303026161203241141642245579886639700467509167652864.000000 0.000000
184598826180125918178085134055078809090061886668007303026161203241141642245579886639700467509167652864.000000 88789384391811143364534598229299883505181527306466678412717823045851444818903069202869193919336284160.000000 0.000000
0.000000 0.000000 0.000000
-6850454818330886314755676087657503744369885888711751963313150736974575463479093909447977478403718643712.000000 4766763675311478154697321520955197575353331646182508468938735207975531686658588311207567699957835104256.000000 0.000000
4766763675311478154697321520955197575353331646182508468938735207975531686658588311207567699957835104256.000000 2604457285281170738628280615613439358158251737055237667590950335368429639672241621287675817076799307776.000000 0.000000
0.000000 0.000000 0.000000
2645218192620725586420680140202528767680714015380133262128238507852055341866946789822487113588633763840.000000 19243942126228812276806665947736358713468669869597304725233643540594457444609502635884607469952958464000.000000 0.000000
19243942126228812276806665947736358713468669869597304725233643540594457444609502635884607469952958464000.000000 10470548297983364018226858367471111186068678796563428670296979183276299496939830916177817564581434753024.000000 0.000000
0.000000 0.000000 0.000000
112961410066257951962320192506941185796033094971741356380968044784974607303638457878448547786739679232.000000 -138819556166045324317997892237051990108177392613898979665372930450208746063688953967806883534410350592.000000 0.000000
-138819556166045324317997892237051990108177392613898979665372930450208746063688953967806883534410350592.000000 62749724206396455036564069396557736606305189586275580612197368421036736272457500312626327428295294976.000000 0.000000
0.000000 0.000000 0.000000
859040146015352503484639899774654561111212422206808322749443853228074753822732708694326991498093002752.000000 -304228563884364895131284679024232725937760720806119406717297959494556706141754528246361512506199900160.000000 0.000000
-304228563884364895131284679024232725937760720806119406717297959494556706141754528246361512506199900160.000000 255810031921004839002088002438432320303004277842706529532328944980488917652193152849916634296190238720.000000 0.000000
0.000000 0.000000 0.000000
9872314210747689074647855405394534954487255056606219017918328781762494493757506337550667204790405038080.000000 4514211693114983674837559280156792302428743118228130453223283472118882139131617082769363363357301669888.000000 0.000000
4514211693114983674837559280156792302428743118228130453223283472118882139131617082769363363357301669888.000000 1035389498574978163907147072979770771627822548588529837934704569202243136099856569444710651120505061376.000000 0.000000
0.000000 0.000000 0.000000
-71834947289531225853666121185262264151358451393739052264877150148218841770944073347827129779775137120256.000000 33300751638646061794909730517390134371872602023996358161238630701733065303209605096954056332258819702784.000000 0.000000
33300751638646061794909730517390134371872602023996358161238630701733065303209605096954056332258819702784.000000 16666504844555178871345160266689827922745494701208661244507150329093236295196731017805642352606163501056.000000 0.000000
0.000000 0.000000 0.000000
-22853030855480488988175431573781418166186043582312546766705496416008529970978287713328903188200988606464.000000 -5705518255016573760896791542103004308652046151684587960294912374960239018924517878823547851757439680512.000000 0.000000
-5705518255016573760896791542103004308652046151684587960294912374960239018924517878823547851757439680512.000000 2535938315616319515386188588268457785565925650861705517468638258922805614642272653812035813635543531520.000000 0.000000
0.000000 0.000000 0.000000
3434905059325261944373748378562537044228364483491371070049509862782811037734805864896322029505608679424.000000 367960332865676332599613540469734970848173017743962508020828951732565445650224619612152715556620861440.000000 0.000000
367960332865676332599613540469734970848173017743962508020828951732565445650224619612152715556620861440.000000 26092583278983192445540016889245212959898763866729456484091206958921510755640222294660078467654090752.000000 0.000000
0.000000 0.000000 0.000000
-12405557351214465345149219396422837300014027070258104021831809488401546529188780449030218848665918767104.000000 20672577746537763069238884603651177038760751018712334351558336654265951350183429707864391610286573879296.000000 0.000000
20672577746537763069238884603651177038760751018712334351558336654265951350183429707864391610286573879296.000000 13572267182552230961326555222096442606238383321847482853644943740009046839166526816427562404386009251840.000000 0.000000
0.000000 0.000000 0.000000
2541441878501603146822388730570752323558395917141883374645119071113305941027772651392995162671391178752.000000 1005533546184591028230029533146802052942210219760851072260343987155606215136022114716010633427872120832.000000 0.000000
1005533546184591028230029533146802052942210219760851072260343987155606215136022114716010633427872120832.000000 698393691889732203625430860624109969666313274791778058638201789612031230738690739069885997352977694720.000000 0.000000
0.000000 0.000000 0.000000
70468851547454384834809567106105063970887115823673210943844405267149972715671289517041537667439435710464.000000 -90029794467233525211023816119122055566135507384711414310630967834394955534004656934172675716903688208384.000000 0.000000
-90029794467233525211023816119122055566135507384711414310630967834394955534004656934172675716903688208384.000000 41125422213432435149671054123936091401014200837323034932221163208059445633858815289872784899286725820416.000000 0.000000
0.000000 0.000000 0.000000
3979350801351201844620727490380389814151232242479110547959592910863925148870996632867619615555742334976.000000 8668941545192781987386446678494862557575251350568763494096039430039495051431554088665965910055318454272.000000 0.000000
8668941545192781987386446678494862557575251350568763494096039430039495051431554088665965910055318454272.000000 3499018093330652147314875954110045963962103280321494284843925713608794800544045900161786556133188567040.000000 0.000000
0.000000 0.000000 0.000000
2134694247187552589988394360612448673308946716696433309967784165699136292238066668610958629029793497088.000000 -1173742836833492049719247162663158471189279798220134562459278840307600856839403275793518632322813919232.000000 0.000000
-1173742836833492049719247162663158471189279798220134562459278840307600856839403275793518632322813919232.000000 366002446761860682275086035124789942913837958700353143873723833004959326717305224867095241033793929216.000000 0.000000
0.000000 0.000000 0.000000
-16652257808900387572357363561099796472537050873269475637847105193660592748883652219030629888288620544.000000 -348337219009894913531052413572880835461930500339155280381860557853871520555840346555432437553668554752.000000 0.000000
-348337219009894913531052413572880835461930500339155280381860557853871520555840346555432437553668554752.000000 195083208334121671359567419084852040940211596907025893207771524591308530178409303854303393247358091264.000000 0.000000
0.000000 0.000000 0.000000
-8070493499089483833800718316431862638037692097632700036245999717753905227472712091839420597333963833344.000000 7706148562523676093109563156924414444997195792317718171606928167955431570788649709749046968791255220224.000000 0.000000
7706148562523676093109563156924414444997195792317718171606928167955431570788649709749046968791255220224.000000 4369807855753898239057934827833345207316595335590664667918657768363467610322425109907133214662238142464.000000 0.000000
0.000000 0.000000 0.000000
4566500882573462467045858645806196067064940276792493125807759070239741255837082603917428210224389423104.000000 -1514093548368711784138492048103343263587370921840328499336591648393033607572867557680422124639850856448.000000 0.000000
-1514093548368711784138492048103343263587370921840328499336591648393033607572867557680422124639850856448.000000 2014365322861303272969483455215532401206229097545285733815124584397656751691698386399119707900328542208.000000 0.000000
0.000000 0.000000 0.000000
-4249724487624919517081734211632889238780245453375518139490060260623584275727899821829988075926716416.000000 -67680091995044836741507780694187029060743289975265318268200341103586433379502880097394086480334290944.000000 0.000000
-67680091995044836741507780694187029060743289975265318268200341103586433379502880097394086480334290944.000000 38183749441496671142615456366548580647165420407668924332072651753007751850523353284970906289627463680.000000 0.000000
0.000000 0.000000 0.000000
-3804633219161456890020302094262802004952072657502197730209183226131993542649290958214464580861139353600.000000 3505653807869346357094871876931010491848127845549348157950176862566170487191926519113598310159600320512.000000 0.000000
3505653807869346357094871876931010491848127845549348157950176862566170487191926519113598310159600320512.000000 1975294411160492567679874885130598566987551243507990236118705078110649579144103218286924950844129411072.000000 0.000000
0.000000 0.000000 0.000000
-386308471728389690637232768107553649970324210394388714814714843943916444650885534240475927882317994917888.000000 -61360135662516909995664523150845574763565396526977255586933796516916189994354065356816000301762955182080.000000 0.000000
-61360135662516909995664523150845574763565396526977255586933796516916189994354065356816000301762955182080.000000 17111328257466477224046746452280489953018520124729918381872412917101707653210162101512611174906823966720.000000 0.000000
0.000000 0.000000 0.000000
545538261861938018523322781345143604015167485496506267808197592124141702300105486231271857320466841600.000000 -328131091240556827184421108988169874565544301776815503515583554091967603793700196333201700078806368256.000000 0.000000
-328131091240556827184421108988169874565544301776815503515583554091967603793700196333201700078806368256.000000 277418818874895530640482304973525508259633266022386136956521614776247318053654208320943459982739767296.000000 0.000000
0.000000 0.000000 0.000000
10001861469041736499797073990398979294619255771439935999355189007539715157547298393343771870355016122368.000000 -22104795303984217064811409620626546323833361603620200280481768709226637901058975077455283719507428769792.000000 0.000000
-22104795303984217064811409620626546323833361603620200280481768709226637901058975077455283719507428769792.000000 12247141657459152031988058151116202170617866083801642826482824599393382989030543417815737437627766276096.000000 0.000000
0.000000 0.000000 0.000000
-662948304901995287240033040416450585227630542074191637045756042277048561872854502609796010034354716672.000000 2262708180916672933995884839215050358909590051396519566881385978717621222058821771117804525713107189760.000000 0.000000
2262708180916672933995884839215050358909590051396519566881385978717621222058821771117804525713107189760.000000 1295293241925772938702480331577815674366547844444630132291540144565951404420018490256108566703889186816.000000 0.000000
0.000000 0.000000 0.000000
101071740663149395172896908422166880673214718724074280804117084060562599634271196249499093047588075601920.000000 -3498743869607741671030034884410412679203286214367491138202727664343304796010496621085946221996057559040.000000 0.000000
-3498743869607741671030034884410412679203286214367491138202727664343304796010496621085946221996057559040.000000 125507221680725979502614978344047230531744797697621048330408690015429630035546162122018074711646273536.000000 0.000000
0.000000 0.000000 0.000000
2135886422591309112669533414924948677129012990644744242457813085572628938912244360688412517377914175488.000000 1077556297616568340211473203056930383624632794731475577870514648600391395959731397968331489468164866048.000000 0.000000
1077556297616568340211473203056930383624632794731475577870514648600391395959731397968331489468164866048.000000 638148736377982854909498185213256094010527097792399746024815978782129340974178328356233013633858142208.000000 0.000000
0.000000 0.000000 0.000000
65330893435264548222316539257288736887564827492692579896679445295448921929061155723665642426564115169280.000000 67909424096614463723802011261532177864570599329289948557066062338158092724416442665721375321387721293824.000000 0.000000
67909424096614463723802011261532177864570599329289948557066062338158092724416442665721375321387721293824.000000 29053486516514864536760972548595422987470193579581467874732349097621404420912404241312207316627555876864.000000 0.000000
0.000000 0.000000 0.000000
-86222206163014747623830909044289352527629478281346950089376454252964926387793080467803054102625451507712.000000 -3952940809558463511817359203075164451477990177526624934625121236146419405926283186870743712533913272320.000000 0.000000
-3952940809558463511817359203075164451477990177526624934625121236146419405926283186870743712533913272320.000000 949346669149156249585244346226448107184226779576535779928662315056955781615930949533683033024508198912.000000 0.000000
0.000000 0.000000 0.000000
4003213066031931972828066823384552057193274700873621376575880368488625228710571595175275180064768.000000 -6766507946200412447583050782856617297700906520827410737887181076405675638820964448198882781822976.000000 0.000000
-6766507946200412447583050782856617297700906520827410737887181076405675638820964448198882781822976.000000 3289924656910342264878221861720211582891580321774675362780001767775854666021357240820172496830464.000000 0.000000
0.000000 0.000000 0.000000
17006372704799840035651658449340629449176739822468360731451174240185753099343786839492597759915015012352.000000 25310914677935283265886474046786631344069829192960935622987597694666167582061668422128113081164993921024.000000 0.000000
25310914677935283265886474046786631344069829192960935622987597694666167582061668422128113081164993921024.000000 12001578722249151986061687443318062884057448655742642369502332416691074182360222491868607813348214439936.000000 0.000000
0.000000 0.000000 0.000000
7222921578132820284992056454995709051022457185353596797910176412649522355702958608061576378499169517568.000000 929613877424940277372746981618853655630736340796751240301394701136762355256919465953455151895415881728.000000 0.000000
929613877424940277372746981618853655630736340796751240301394701136762355256919465953455151895415881728.000000 84850658712065256702000277691662478487735135903727208642053957977394585448509893911014397170107285504.000000 0.000000
0.000000 0.000000 0.000000
216298421762114336136961835172037275273281412067202023634103343219397655752772620632441507471721234432.000000 -335121800785374468616487727968909207304997803146682400859831094771269830183211589437652151678240030720.000000 0.000000
-335121800785374468616487727968909207304997803146682400859831094771269830183211589437652151678240030720.000000 127796953367704539570107784522702042478485016973962676115649509331812308676815527385651874497275363328.000000 0.000000
0.000000 0.000000 0.000000
-15103390041515914567971758645226580160994234337491827493221359728140497591211047947004858548652280381440.000000 -5845301231165230798271978660440653752428535729245460690421797715980840967275799166619373610535393165312.000000 0.000000
-5845301231165230798271978660440653752428535729245460690421797715980840967275799166619373610535393165312.000000 723407272978054430981564980416009171781452033695655095787431300077764947599942540421387062246977306624.000000 0.000000
0.000000 0.000000 0.000000
-33635576114357631121631501427392240961834731355877451404497411160175502713380028859223574595091273089024.000000 -2483577533368847835913579082874767328388301360145134652389664759671663606996062096287284179804253847552.000000 0.000000
-2483577533368847835913579082874767328388301360145134652389664759671663606996062096287284179804253847552.000000 355361544278128498832676229954204887179272804336759304284800799661362264504792630628235013732733812736.000000 0.000000
0.000000 0.000000 0.000000
8919525036581349210975390472632730703646267204054305656742093741916036029735586787314074747924633354240.000000 -582311373072429592985541052300036579996603575257251894585994828604671857722181969637859067201297842176.000000 0.000000
-582311373072429592985541052300036579996603575257251894585994828604671857722181969637859067201297842176.000000 261838010807625169256567189652486448429831195430090029143348491778276057248461879131972732087405903872.000000 0.000000
0.000000 0.000000 0.000000
556459233240453653733380237216588202526099962055101583001049845413895747334483298253297040222614192128.000000 3300551491132021799774676486587050232325170886060483570773445780383021902378656860233191892035521478656.000000 0.000000
3300551491132021799774676486587050232325170886060483570773445780383021902378656860233191892035521478656.000000 1785206394470894802949051108571608098903250926174536766045376285140620779359502204755181628120146903040.000000 0.000000
0.000000 0.000000 0.000000
569567731626902420413077151536378596745960974256275394948329702951646414590624501854702079252631650304.000000 -2321015000899669697730243010940022739458440695964367601243613746485376182805740018165725447150708457472.000000 0.000000
-2321015000899669697730243010940022739458440695964367601243613746485376182805740018165725447150708457472.000000 1236407705000765091867693369282282685675109918366520980234065381296622768343701266997955662946989244416.000000 0.000000
0.000000 0.000000 0.000000
6357930857025653379122209260893798988762833719270915811043725173783618782247804546353726780537676234752.000000 491365786591076438851917668531476366683921112508088641713233289748173558620473110664092487440595419136.000000 0.000000
491365786591076438851917668531476366683921112508088641713233289748173558620473110664092487440595419136.000000 35503759770412587748280273500418877048692027068768767313924226379549095283251082247528731945153331200.000000 0.000000
0.000000 0.000000 0.000000
-434439822329819868620122748120543451779040318120432856868389323889043745969511623150531698380748542181376.000000 -55812706324435717764354922927133892545335609872487529690557294467416761402306749789306322489281209171968.000000 0.000000
-55812706324435717764354922927133892545335609872487529690557294467416761402306749789306322489281209171968.000000 13817164485600923000000311097445880536109502624185966480188765588146183639124953331861615216160770359296.000000 0.000000
0.000000 0.000000 0.000000
6769922381588403204916626159089834255742047001284140306205462519882103826378917909368046350527337857024.000000 -1991797583976645078311066965960821676501719627939942945544243023234760947776513917348944022921233301504.000000 0.000000
-1991797583976645078311066965960821676501719627939942945544243023234760947776513917348944022921233301504.000000 655885190085651061972189182520928620308364300398194425204432832767286844780369149713609357011810516992.000000 0.000000
0.000000 0.000000 0.000000
9378727845780704553244307834415315556563925936797832249378437547549921833222961654673760319263022776320.000000 1364225864739170560531430608405616597884491026635525079443675247627210756196687567380376173807673540608.000000 0.000000
1364225864739170560531430608405616597884491026635525079443675247627210756196687567380376173807673540608.000000 298124693266796790826507475634692771679316280902768556442688143762299929157366145085989610284960972800.000000 0.000000
0.000000 0.000000 0.000000
146248375370649550834135507549628772125439254341312948606299880371972211769290263014502262558549675606016.000000 86541050372540684707924152450192950418118318623301957689515987979491233168799902087754988188536296964096.000000 0.000000
86541050372540684707924152450192950418118318623301957689515987979491233168799902087754988188536296964096.000000 27847552464378841813338100214738147832491078643364904203332931772489882052714766110187419027451590737920.000000 0.000000
0.000000 0.000000 0.000000
60067765251290373053544485961200040406765284044915918244714225559020536336382693286164762204064924565504.000000 10974623493117282523234727433012121444904974721610134731583188895170114639898116417058475580972448350208.000000 0.000000
10974623493117282523234727433012121444904974721610134731583188895170114639898116417058475580972448350208.000000 1307530565789738237712374000038234340250749873525050555641086155467434133038103631196970134012843524096.000000 0.000000
0.000000 0.000000 0.000000
4075703548181448799657042124289292510039104794303680629504080067035393888844035086804978227161337954304.000000 -525459640586522691721284818457247117241636720486220003917228157204682430778031245689709960024041717760.000000 0.000000
-525459640586522691721284818457247117241636720486220003917228157204682430778031245689709960024041717760.000000 150849659349705967346473847181776713266950474751227800974294624936514019270920237117974875969081573376.000000 0.000000
0.000000 0.000000 0.000000
11271694098243643775114997612879844711925068992585556515670977248464739686538067587013940070780174860288.000000 -8172323949696599783517730703705213462806079545448011261855439931672758388540931069342882618504422359040.000000 0.000000
-8172323949696599783517730703705213462806079545448011261855439931672758388540931069342882618504422359040.000000 2970176729525786517353823619557617117107023506010396876697560982072544826661168944377681318987417255936.000000 0.000000
0.000000 0.000000 0.000000
1162160185037346150590644010357743342984353739033271297569698417356287551523274686456577323702419456000.000000 2128604272785315895387127365857454232683198061291003828184430272013221609278825708095778395361992769536.000000 0.000000
2128604272785315895387127365857454232683198061291003828184430272013221609278825708095778395361992769536.000000 890933331615347877688432873939734530058919332142077858119521127807089313531358588930089314875464482816.000000 0.000000
0.000000 0.000000 0.000000
6062894814049504093734607655426933947189899415943917171444014886208828116053028962706498868109977321472.000000 -17058596126857525158185763572980193391055981204412836469238266736913639157594159359469906345897035300864.000000 0.000000
-17058596126857525158185763572980193391055981204412836469238266736913639157594159359469906345897035300864.000000 8860988047288640552708017732513750962686960112879387808360983172092313277905863257276926867239201669120.000000 0.000000
0.000000 0.000000 0.000000
60138486544601356277126692883243740085836514349111359041398263069537421986763182836010626694810150371328.000000 21922292645014070771230094566632856558498074359671008247945851492087830402560719458316797951760077422592.000000 0.000000
21922292645014070771230094566632856558498074359671008247945851492087830402560719458316797951760077422592.000000 5240774563923410308957844555334825898222329293994608287899204995205507037415954487194686962982233047040.000000 0.000000
0.000000 0.000000 0.000000
-1982307910776718494931419389028249951371330799075239103554375296599874097596721914232237535565667368960.000000 18494592599234520298702304814022406740616361551330562390806519728193556367579371348366068359323369603072.000000 0.000000
18494592599234520298702304814022406740616361551330562390806519728193556367579371348366068359323369603072.000000 10753550872406421704830670739869819928590750714289909221582628149662302209914387362966602595802705559552.000000 0.000000
0.000000 0.000000 0.000000
-7737299641535898468887445598902578714806570304650504036730895808929974164665431685495312501772885426176.000000 35528651027404678117280101180788573360728227987016457953732440203650633293126220024896815933849958612992.000000 0.000000
35528651027404678117280101180788573360728227987016457953732440203650633293126220024896815933849958612992.000000 21154817724448809391843696319594023553257775987551006238532638547414510564184017752753992216211785515008.000000 0.000000
0.000000 0.000000 0.000000
6685883246313443137940301673940547986579046356310178639602770673565928170094356753758976530818237726720.000000 8262783161369097303783009762278195512879289339079731804922372336041271837247097903813118678716846702592.000000 0.000000
8262783161369097303783009762278195512879289339079731804922372336041271837247097903813118678716846702592.000000 3693117794225904769029430357089970296582815809639177603089127298281779003951681159731669912625862410240.000000 0.000000
0.000000 0.000000 0.000000
15345229131943666274305002961741374083172423777891533655719373225546501999820799702890473018428661694464.000000 3064512180250819639670002589912896095863828116041876386884550691082417149830824749167440358022408306688.000000 0.000000
3064512180250819639670002589912896095863828116041876386884550691082417149830824749167440358022408306688.000000 1875830393211015790435148645739764842694802316991544541410829897774685819496303085118964544574511382528.000000 0.000000
0.000000 0.000000 0.000000
29506457929264078925344884790094581694517897386722120001363337334847756880469784858672222264310024372224.000000 18297472259695335323739940709046084429740909464844879161759213630094545730614281489025727926655550226432.000000 0.000000
18297472259695335323739940709046084429740909464844879161759213630094545730614281489025727926655550226432.000000 6109727222997217389207242485765211622607812243540341841622263682929641893598362722745058648607971868672.000000 0.000000
0.000000 0.000000 0.000000
-2246140439779140879851945341490643610341828611013483696653641002256097396705370861294966054956858081280.000000 -556374997455947703018720035679770570535248846399505294768537730827922924924507236398570737391829516288.000000 0.000000
-556374997455947703018720035679770570535248846399505294768537730827922924924507236398570737391829516288.000000 211438306759824498591747069772269967932360998238095569865842483865961671979599802429116807744621379584.000000 0.000000
0.000000 0.000000 0.000000
-9260878181762856839710609331681019892489319312256461917508127072184218383131904409444881154683009236992.000000 -1411975230184732093645672833475663367173854795082161283663295984086506119459904474409503617278520852480.000000 0.000000
-1411975230184732093645672833475663367173854795082161283663295984086506119459904474409503617278520852480.000000 437473364115706139927620371445225668509169251564192216142328351611551189684761637809075917577110159360.000000 0.000000
0.000000 0.000000 0.000000
1174996518903890062033141338819961277884054004819820454662898970967823422039367488684642969247400591360.000000 6152913860302079068699206742619933549436512375751027804547053016173522705061256851651251200953738592256.000000 0.000000
6152913860302079068699206742619933549436512375751027804547053016173522705061256851651251200953738592256.000000 4449693472798474728803305645018148362220937486689076550602486184058865543116964290160916092051718668288.000000 0.000000
0.000000 0.000000 0.000000
-565157274214512464849477296362413611690774751276291152822114627722071255172316672840346005451581685760.000000 1105375805094040702689623249798552363927813154694563817551089249770113578187641882693282703709980065792.000000 0.000000
1105375805094040702689623249798552363927813154694563817551089249770113578187641882693282703709980065792.000000 569448836558287192207679028644876686201422017298591967161496773304558886949213694725676471543702487040.000000 0.000000
0.000000 0.000000 0.000000
-10211891197213547283116263621277579280861697430139249231447593807579653509881399527368181750914860711936.000000 -2127487812390363452583246493931463809907543817998591559513858206026175467506024180493039548830679302144.000000 0.000000
-2127487812390363452583246493931463809907543817998591559513858206026175467506024180493039548830679302144.000000 675087790536090632117176289394024658121014009162191267635970073359323300624551428789656553031290847232.000000 0.000000
0.000000 0.000000 0.000000
-805145993189780515557720139365748510033653752018011892880344179418355039895867292401186920740423964033024.000000 -188606270709783532076085272568807261722531878029994771150960589784632350935941225742970353529604844552192.000000 0.000000
-188606270709783532076085272568807261722531878029994771150960589784632350935941225742970353529604844552192.000000 69049651525080390582657933188536994682250361281672043247631833961775555434310429787873926844702007492608.000000 0.000000
0.000000 0.000000 0.000000
-10488051095772696792311584345659390178489650431021846067869863823547145044893372751068565885027604234240.000000 22112123943645487423589304473832857044092168283437582516727707407591753914493252252948976070046678777856.000000 0.000000
22112123943645487423589304473832857044092168283437582516727707407591753914493252252948976070046678777856.000000 12750633740681414314287306714455344697527886695254514551618823094017857094971818937828334713144355061760.000000 0.000000
0.000000 0.000000 0.000000
-17496977355142853706841888702077516122625732601720949823283482585695314110938954609918288330979767484416.000000 -19143604032941840300639276391144488782563739264933260691503521108927759445523664161004172543274078175232.000000 0.000000
-19143604032941840300639276391144488782563739264933260691503521108927759445523664161004172543274078175232.000000 10918943515280650518103969431513786892400228039416472503051207365716353206511653276596321774457308839936.000000 0.000000
0.000000 0.000000 0.000000
-1282299063549077389540310362432416937362372685094222720150156532632758091343945766815154492396867778772992.000000 152629355390328524101222812474550980641674825604982700064800174016783212502799919377269523937209406717952.000000 0.000000
152629355390328524101222812474550980641674825604982700064800174016783212502799919377269523937209406717952.000000 33609570738345629991594351598707707640377528507983085015966852086637509945174269418249389672060105523200.000000 0.000000
0.000000 0.000000 0.000000
-3877531140095398997866569105931339891359236334897409839924355801375298550185685410676820157602463744.000000 -31995082417707253102918877134905715256897368428955809409650006140506730569680323701842502249086976.000000 0.000000
-31995082417707253102918877134905715256897368428955809409650006140506730569680323701842502249086976.000000 2149605893400573281037529337624809975311902886706579620584871104061508884335895722122119512850432.000000 0.000000
0.000000 0.000000 0.000000
-12124796064818849593472204122757004067113979054004631660832995023628389839632946980729550405404702277632.000000 20182563595787501643236686316192168798208724548240072711063470523216961869432020534103934593593551880192.000000 0.000000
20182563595787501643236686316192168798208724548240072711063470523216961869432020534103934593593551880192.000000 15047034210922231152344329073558983761390765071712139854261360385849384049416792472334450192011472404480.000000 0.000000
0.000000 0.000000 0.000000
1831734343431925761195324027891866070632443843748761935124352190674128135922449957422643161930022256640.000000 4252279898471541183469477682031183455072081809407638015094482023324714516395199688652484115159767318528.000000 0.000000
4252279898471541183469477682031183455072081809407638015094482023324714516395199688652484115159767318528.000000 2166262013931496072323812548997224384346910041171465462789406644201351740683116951386132640120658984960.000000 0.000000
0.000000 0.000000 0.000000
-15005448906936293678034125250735931202084908275330333861462582309217525684814747833757270458304590512128.000000 55233209976724466421360918595173987339347818355261105469249445403140839276393951616601741072246243328000.000000 0.000000
55233209976724466421360918595173987339347818355261105469249445403140839276393951616601741072246243328000.000000 31575613502042192960702299685033113855420766691504960136555689023802937161265681056001559274603686133760.000000 0.000000
0.000000 0.000000 0.000000
2046246709391095639155227067716536895197015987047701409522934336359200386037877862810104618506315104256.000000 2116002690523338483037464831190653914896239245952626167404907051490541956742809982757179870459339997184.000000 0.000000
2116002690523338483037464831190653914896239245952626167404907051490541956742809982757179870459339997184.000000 1202896124212874733969510448865162271542115474843106086370207772605374286100335333995785151881796386816.000000 0.000000
0.000000 0.000000 0.000000
1846970980354223415416901890651739029846444074346983392351775043215532505459890008765245725249003061248.000000 -336230040137733471808763893627873591119039673720145710572366783458803043600192657956470164895765102592.000000 0.000000
-336230040137733471808763893627873591119039673720145710572366783458803043600192657956470164895765102592.000000 39917380551331314414094951210141638260603876681231629902530342184362646187067710103302718091585126400.000000 0.000000
0.000000 0.000000 0.000000
4899873734048714456691377544190281687108797931607189340854679744135972637880215049604398662061958103040.000000 -23074560635480905301483984840928340778914981224780931072263785276858200386259560511475459473392103587840.000000 0.000000
-23074560635480905301483984840928340778914981224780931072263785276858200386259560511475459473392103587840.000000 12372364727538700622733242853777088805253736554320289998688453249932012619741651376221345797595847458816.000000 0.000000
0.000000 0.000000 0.000000
-2545066488948956565930226911143599144909396202944424864825138164030905428814351523504618224302184988672.000000 2445014527676537467054169762007817796546815947024198342830831087237777041364246653195024595309714997248.000000 0.000000
2445014527676537467054169762007817796546815947024198342830831087237777041364246653195024595309714997248.000000 1386597943000522002483179837200128972002073376070905697355182712506173474572105591087382854876203581440.000000 0.000000
0.000000 0.000000 0.000000
39980552170539885109194896173079887393598353868716034667818235694050208718663691548167586654149924618240.000000 -13496385948848938526285320164970541686305223536307437538617907443710876536773224806696158109989311873024.000000 0.000000
-13496385948848938526285320164970541686305223536307437538617907443710876536773224806696158109989311873024.000000 2837123681036875726139235901204507415101365380871747366527082374816555582140351803030479735541670608896.000000 0.000000
0.000000 0.000000 0.000000
706685171298056839245695005572332918355012030168240885617842317327150500149048770606162391544895635456.000000 10575027951191939993410816097276891792928703334887942508747990539565166286778683147842602140290902917120.000000 0.000000
10575027951191939993410816097276891792928703334887942508747990539565166286778683147842602140290902917120.000000 5822809428014189819077170857582159289432726402814593894206599153864109478629277215740069622826160619520.000000 0.000000
0.000000 0.000000 0.000000
10156971872324310628130844488949290584083264088220066072787879993429408622974271150672936968386594734080.000000 20535633577608870775350111437982810241901783622722268417913914936444406317831377355664816079853961871360.000000 0.000000
20535633577608870775350111437982810241901783622722268417913914936444406317831377355664816079853961871360.000000 10272634736578683478970294007825752642144145038202357476631193284735961408720954549996354187930544111616.000000 0.000000
0.000000 0.000000 0.000000
8979257850946801337928785996860549722924042395911804813155278793735511290110432818577410867585917911040.000000 -1614070022541092948916511503804293422407961385055106793035396360991403717601049016677287972320315441152.000000 0.000000
-1614070022541092948916511503804293422407961385055106793035396360991403717601049016677287972320315441152.000000 2873461648259916218190587996200920209624354452749853132030405622871060540127883516071028319671866621952.000000 0.000000
0.000000 0.000000 0.000000
-1168613265186099700925972745866066227910791787449331001497985236150515751959957655898407939125385524936704.000000 -89720149309885976540014734732827951365947410804500271403578089310736590648456566389981017652689494867968.000000 0.000000
-89720149309885976540014734732827951365947410804500271403578089310736590648456566389981017652689494867968.000000 14144426456132191594222196686257891831703789797817284451095309975494294457363725917099050793458523439104.000000 0.000000
0.000000 0.000000 0.000000
148605462543513955844782406633096491948911341800297343325783334823391198497761416846245429951401558016.000000 250754978252101264410101301880691365265541125017177310345619625542063754345007289582247707697154621440.000000 0.000000
250754978252101264410101301880691365265541125017177310345619625542063754345007289582247707697154621440.000000 121946131806303605758351362809098879601728903701405128278802023997622832024248050049093124931580854272.000000 0.000000
0.000000 0.000000 0.000000
3707170031900410192887791740702540591138114500753269570327032053307851728271658414196819901561947815936.000000 6581043218054375531616480239811861998427288288449264924177001920100525520658622466145400875967118835712.000000 0.000000
6581043218054375531616480239811861998427288288449264924177001920100525520658622466145400875967118835712.000000 3256837627110269092868879921693749628111693342076845504478679615865107857085285702232238671969596211200.000000 0.000000
0.000000 0.000000 0.000000
-72852030829921234698875434858785651973950146603782207266589658092595461964702546894704785095092246413312.000000 -3002872908394698921623907300689336781553572981364672707496464739969299623433275453398019160599492034560.000000 0.000000
-3002872908394698921623907300689336781553572981364672707496464739969299623433275453398019160599492034560.000000 876844966542867831319634383286473830399553259923911061003964201203652234707245501057067875450140753920.000000 0.000000
0.000000 0.000000 0.000000
-1861076999766383191643405376562177867539756812658854520547352969995131230695671016360630665062161317888.000000 -1442093466770293758221467939800526934179093898505185338749013523217452175899564786424017568727186800640.000000 0.000000
-1442093466770293758221467939800526934179093898505185338749013523217452175899564786424017568727186800640.000000 302416316493805524389993811926872670313017401617767873351370833780745193683945165141733930478818295808.000000 0.000000
0.000000 0.000000 0.000000
141584684140135033942763984509605952713124869069638670067445228271620730764405309475347002554503397376.000000 -32566159560861673649318237298429362057353855276171319223236498946912215295491405600991440044013125632.000000 0.000000
-32566159560861673649318237298429362057353855276171319223236498946912215295491405600991440044013125632.000000 97226512931120565330002527144179198186330835213225157122642213138719583332506014401536687472967155712.000000 0.000000
0.000000 0.000000 0.000000
2515080773275963492411851781486776968719362595842760919475100476125030502823455368204354228467510804480.000000 1829984848807353729831582904360124101178341987146043189520962840856092911474718898604486766000773005312.000000 0.000000
1829984848807353729831582904360124101178341987146043189520962840856092911474718898604486766000773005312.000000 666505690561145180558214439428140250368945870666449722370238794810080210888571819628344119715218587648.000000 0.000000
0.000000 0.000000 0.000000
18023877735901018948774600948037318810264839486264097092249300789699383342891748585892406289842867011584.000000 105577098836376030483174784751237664016049689854794337724249818475732358054813630000350197221069928005632.000000 0.000000
105577098836376030483174784751237664016049689854794337724249818475732358054813630000350197221069928005632.000000 57041817249459217452585119953468602703459051852745132267585114208343630042578206673395029890672829136896.000000 0.000000
0.000000 0.000000 0.000000
8757920827979983473621305429370368979368162262958591555278957653441454410978058456745888678340531847168.000000 14265875808737855381171097792687307784119695404661389596298508311138554764189159753533106948977973002240.000000 0.000000
14265875808737855381171097792687307784119695404661389596298508311138554764189159753533106948977973002240.000000 10636833662901819950542776397095616132728161184975227654805940146624502543989193080631066126194499911680.000000 0.000000
0.000000 0.000000 0.000000
16525141219207231142855123577928400745990606913703796094547155077394346237179098640190339966719408209920.000000 79691344282564360919166907527083103966213956143821412984918437393324442955978695452150675567086988689408.000000 0.000000
79691344282564360919166907527083103966213956143821412984918437393324442955978695452150675567086988689408.000000 42996216019435172359439351896973857211720449357640468129309768047363394472890102549238213550160157343744.000000 0.000000
0.000000 0.000000 0.000000
158670063798366674611168089815576092659700014063625954392238474851615527221585385427800390292809449472.000000 -1334702074683730826726251224219104161673678128366453503424316086749972459855627481058442979284202029056.000000 0.000000
-1334702074683730826726251224219104161673678128366453503424316086749972459855627481058442979284202029056.000000 728007486470570950946989165668429503959307559705664334008378675349208891128242966394389742818833727488.000000 0.000000
0.000000 0.000000 0.000000
40308426412144683243181557416287483403090886108176886835821909218212889030615841464767949481845477867520.000000 11695057103352895317427108561296937832683858008725725191194691779144132331046717978075582283126361030656.000000 0.000000
11695057103352895317427108561296937832683858008725725191194691779144132331046717978075582283126361030656.000000 2455046149696352556256251354019624331771609715092519800799684107602341235299017312087489290806361063424.000000 0.000000
0.000000 0.000000 0.000000
38559286046999588151127800623317100731723390913753152125307457648558446253176688435687010761311424348160.000000 61289481680081817077068582226122043128840246025433676872033881418317392108138278289976398390294105554944.000000 0.000000
61289481680081817077068582226122043128840246025433676872033881418317392108138278289976398390294105554944.000000 30158634524396141540865201470434845168775847203563514359376252317599625503471333047266257913787619213312.000000 0.000000
0.000000 0.000000 0.000000
3915429623173915498163590753633356185571830184474303864600483514182640102413794921672349712375745609728.000000 -13510895577353765426682002208504457099071960937395259750457152526966795622126701001531720116706905948160.000000 0.000000
-13510895577353765426682002208504457099071960937395259750457152526966795622126701001531720116706905948160.000000 7661530766586200989081613059581883749475652364650925916820160018598466832275604409232218692959598542848.000000 0.000000
0.000000 0.000000 0.000000
277568681378535133926240117151275754033758107355420609142983231918438696235932409808435347187530989568.000000 209901079612071608586905710103052067230730973449992371179916525209296247310326693333480739657551446016.000000 0.000000
209901079612071608586905710103052067230730973449992371179916525209296247310326693333480739657551446016.000000 78025793692862363077293694414563694110734839280850164460832498554165329360048611052002239623444037632.000000 0.000000
0.000000 0.000000 0.000000
3187016822934658980125351067421606393823005596407925843995630203432372491330991777331355828831242944512.000000 -93578129010845203293477291259420377937339428019480787667580788717970103267823503779416914051261792256.000000 0.000000
-93578129010845203293477291259420377937339428019480787667580788717970103267823503779416914051261792256.000000 91292870878731947763902527258342076020513436633493962880859925701203007854252146536012664460063801344.000000 0.000000
0.000000 0.000000 0.000000
3155283840630172834701343294179137091277703499734384748493595803224941929216783976233685292150350151680.000000 2708278309397059987478598294167106847046655565984398546838410536002074702667835989269723156115957481472.000000 0.000000
2708278309397059987478598294167106847046655565984398546838410536002074702667835989269723156115957481472.000000 1059725176763487840600975727609953397320984350676100099546837635770677036904941403714918131665450565632.000000 0.000000
0.000000 0.000000 0.000000
-4519285052801368191934537732392603102013122073679066409094250267372804158661529988061828581524624113664.000000 736830333326342528509263539429021603165484666464293186271598936375180097087735066581826468888916787200.000000 0.000000
736830333326342528509263539429021603165484666464293186271598936375180097087735066581826468888916787200.000000 209656289594725370172046817166756036809687123959289604603331716990539943105190606154317858228406321152.000000 0.000000
0.000000 0.000000 0.000000
-561388333799949105431131265501388594691733494643702247446911529839766106291683213385139066352089169920.000000 -2318317163811579279432574908734568753975079217762983338936267520205742626418414749154007418023870201856.000000 0.000000
-2318317163811579279432574908734568753975079217762983338936267520205742626418414749154007418023870201856.000000 1321124410829312901791528862403919559998345144951692355538528474163788218397922323408544054060970409984.000000 0.000000
0.000000 0.000000 0.000000
4465661762821025844840215781460779764503524446942466136434488273037495538361594636719501779880533557248.000000 -5843860586608391829279797097272914167643996412058129487334916520701279999401986285022882482100673445888.000000 0.000000
-5843860586608391829279797097272914167643996412058129487334916520701279999401986285022882482100673445888.000000 2680621555487671322766652399869988766639744193378611710269262180172053190149862943817036468065142833152.000000 0.000000
0.000000 0.000000 0.000000
740017213067051490225498753408379495291191200011870166362556670015959662328322284433507418610316869632.000000 -78246071487987546206518812985078188643804491319089090324080644524141811119925338464970402399753601024.000000 0.000000
-78246071487987546206518812985078188643804491319089090324080644524141811119925338464970402399753601024.000000 5474501906348851883708748845192075582566975656520855020484104936252383386851799959215272128948469760.000000 0.000000
0.000000 0.000000 0.000000
71652754538306468577084340412055389464694104926326130021653274948899062033685499883224420352464175235072.000000 73646324414264672934673486081361390344589415823536609590213874311293375286849231020629799528078514323456.000000 0.000000
73646324414264672934673486081361390344589415823536609590213874311293375286849231020629799528078514323456.000000 32732147427749634443385661438024003339431229575930010713542044182139868503858149660205369483963245002752.000000 0.000000
0.000000 0.000000 0.000000
3046495230800445102706162316792524068886989782438557381939576347363120557565737352446054542212658626560.000000 -227896580855167980873421849533964598916452252981313447619965693313903434535082776200836668964286234624.000000 0.000000
-227896580855167980873421849533964598916452252981313447619965693313903434535082776200836668964286234624.000000 11370520482375148731911965120199024682960212327434695570974553232077040706524896157685771233931558912.000000 0.000000
0.000000 0.000000 0.000000
27188169781900828523357935366460808686860547062049402460181161635879687144844211647184026863368866365440.000000 84142257150069137726024502051098840768067972704188495542816813831509406162094758726791600594345510567936.000000 0.000000
84142257150069137726024502051098840768067972704188495542816813831509406162094758726791600594345510567936.000000 44050070310469227787525450108196645491830992804109450054097279593663782610563491194148350771499515248640.000000 0.000000
0.000000 0.000000 0.000000
-2460855471652788519372118966537237098044227222327070211733757907395563816332165433412624553603124690944.000000 -2825144929527577999292483756124939108025883867929877723206065793274688990074349624615136939943430979584.000000 0.000000
-2825144929527577999292483756124939108025883867929877723206065793274688990074349624615136939943430979584.000000 1058327437289403122885328229763312244782373255961935952873280785815783860066348817152696080098863874048.000000 0.000000
0.000000 0.000000 0.000000
-567089173331644719485095127042061349116694648406063552960799421702492566969446675696538032592037234081792.000000 28557867510615745887219248588444541154135935376064968071331268733091897016933691446062585708205586776064.000000 0.000000
28557867510615745887219248588444541154135935376064968071331268733091897016933691446062585708205586776064.000000 2934038947442707894617949745543711700915817700987603810931403807315206585193579209761023847867585921024.000000 0.000000
0.000000 0.000000 0.000000
12750460097456340332516798645693947354990876734090510996945512178751425936789857758886736191335465746432.000000 20507292854705403143621549882917736221480426840029189175598811539584071868381693947057987677104992419840.000000 0.000000
20507292854705403143621549882917736221480426840029189175598811539584071868381693947057987677104992419840.000000 10776711231741615621798937961610881937275958508846228437258339732132580795778719807748628947542388768768.000000 0.000000
0.000000 0.000000 0.000000
-73013875109342846360031602025665172273600147695070504006570026929125592656429418198166706068647267270656.000000 69331994358410660549098933652806560409980052688720137999152282615514137120272157568172809293383335936000.000000 0.000000
69331994358410660549098933652806560409980052688720137999152282615514137120272157568172809293383335936000.000000 39250686288187772432190670245599550744788860713169532189028671841325013487075943402051594152307933052928.000000 0.000000
0.000000 0.000000 0.000000
-101789938890339353592720809565830855174489251614711295925013620166326820173615385249705983554687956349353984.000000 -764773786270074160569238258022453651478097726431094670697043330121025222564486765513786373991567525412864.000000 0.000000
-764773786270074160569238258022453651478097726431094670697043330121025222564486765513786373991567525412864.000000 11489154941408979621314064490768450072723226333965189178668089136243225303923685358796386714741496610816.000000 0.000000
0.000000 0.000000 0.000000
622702882069412370073640648422862884293265940933784133630527703611277609679918194546761688336648378515456.000000 -356702652673159106116041731000167618190450405592592537914267489973536431101129094740127745022160474734592.000000 0.000000
-356702652673159106116041731000167618190450405592592537914267489973536431101129094740127745022160474734592.000000 112362761237698384405353106277827769489561813903245620989919967416536757659216127368840351558635368742912.000000 0.000000
0.000000 0.000000 0.000000
-12837098679178007632998497998074488377718048117828141561948418807157953189434449122574265470891944050688.000000 -9384649258697174917675008787912052911273359892939683011302018802864264863620154417604863424898871066624.000000 0.000000
-9384649258697174917675008787912052911273359892939683011302018802864264863620154417604863424898871066624.000000 5523892414449339307692650915768944125638510070058632946723007269358180276106039896258170965835508613120.000000 0.000000
0.000000 0.000000 0.000000
78155166014676972404277172293784366172678387154280989377506661936731456459654358694333183498033087643648.000000 -15433769073107574272134489636739414308887422135999584689497128508109572126037356757118457933813776384000.000000 0.000000
-15433769073107574272134489636739414308887422135999584689497128508109572126037356757118457933813776384000.000000 2045099920365332549324754366206627902115546191000754687995262970209075671324281591739192832004573888512.000000 0.000000
0.000000 0.000000 0.000000
10962744008271904856968511365367643737592341544987356659578367061500235548789398175278584265217706819584.000000 17321804337476579037786502266067139712989208390431735354048882182588089358688920150409856092464467673088.000000 0.000000
17321804337476579037786502266067139712989208390431735354048882182588089358688920150409856092464467673088.000000 8316412481542530958844289808790167848226412954930907222269156062527666036318010955897469083028731985920.000000 0.000000
0.000000 0.000000 0.000000
53883431380046514635619429310099128260143620498123996036571258115476552194159963296726368041368203296768.000000 -33091742995965338241554560831168832631327052095957881763699509609777129996073374985317508602406939656192.000000 0.000000
-33091742995965338241554560831168832631327052095957881763699509609777129996073374985317508602406939656192.000000 10950166767075447146505847663959391894189267594968904583312487800521121146464485316939250287678115020800.000000 0.000000
0.000000 0.000000 0.000000
-519143333023300946643582017958673500720651257161129398137516143410384270138607724242075314497750118170624.000000 -215158334987033425845454972215313362213256914323434408369622591293149810210554412303216422758229114617856.000000 0.000000
-215158334987033425845454972215313362213256914323434408369622591293149810210554412303216422758229114617856.000000 103845610999874924424133541759296061512971393403662439736307264551254971361631499438765759808331919130624.000000 0.000000
0.000000 0.000000 0.000000
449969729255141276365318000643184632113251938158542015895380511182514383924217712390627548800812580864.000000 -371336551407590345577240338993839642609376298100319436098366120376373473404823890454760559183403155456.000000 0.000000
-371336551407590345577240338993839642609376298100319436098366120376373473404823890454760559183403155456.000000 773635517564442200489278641655812584653659852407467203082722875870992180550000858451812237983617122304.000000 0.000000
0.000000 0.000000 0.000000
-5017400370002926079542993173799720644495402216315481076906175896386318017829142842984283351299869638656.000000 895386912332237336743930140651772264830396782810582591212096445151940921298761418871281133003101700096.000000 0.000000
895386912332237336743930140651772264830396782810582591212096445151940921298761418871281133003101700096.000000 272612820448576812721627265661355792295794045958362737416351908767845470566171827232152100473472548864.000000 0.000000
0.000000 0.000000 0.000000
49219772050104092777415247556907259841861664241682417124100425141583081150837476266273267733812024967168.000000 76033970687291796116594747013833102536751381890705967357305939590725243251392171970083213540047244492800.000000 0.000000
76033970687291796116594747013833102536751381890705967357305939590725243251392171970083213540047244492800.000000 38634998150244136237761830412762116284075844414253872926517004256630993701588748767892579330873630916608.000000 0.000000
0.000000 0.000000 0.000000
-9390124153158835288439281194326648330681882612229466176945031232720206654311178005929953151773474553856.000000 7712193556716162087637391358589496774122197936781921593590488512854251833940300750268528665762430189568.000000 0.000000
7712193556716162087637391358589496774122197936781921593590488512854251833940300750268528665762430189568.000000 3388497193583357057293974414982676414407836809200753707458553367018684748254603384955129613785906544640.000000 0.000000
0.000000 0.000000 0.000000
2980851281389875613033765558971821668111938276663347215076868442752978673998234686680415002851150921728.000000 -5157936231945882411677602538863027981560762607320753922408349388802032002276009321361205624426259808256.000000 0.000000
-5157936231945882411677602538863027981560762607320753922408349388802032002276009321361205624426259808256.000000 2655882886218838665247080371957247999899180909671898199816771773913000046390708435931657884857215746048.000000 0.000000
0.000000 0.000000 0.000000
94882855383844712892004617330828906235694606572021313254899609661696401750031778345948310535697072128.000000 19184663605749899764305705396424150161364516524936743780932563164179248431855235312930580620630810427392.000000 0.000000
19184663605749899764305705396424150161364516524936743780932563164179248431855235312930580620630810427392.000000 10661986680178565219130005512010434246580252595192244601258451705568274754152148148003917482328154177536.000000 0.000000
0.000000 0.000000 0.000000
18428804120422404114442640403132350949444625388183189159095667491070260647375497064677829823216058630144.000000 -2647359506836185955313765781873581906567807381322290454403302574251992126665792934072884922633913630720.000000 0.000000
-2647359506836185955313765781873581906567807381322290454403302574251992126665792934072884922633913630720.000000 279569225200597214335394471162928095458607067955479731126745835466533896617437679587337228448455196672.000000 0.000000
0.000000 0.000000 0.000000
-1438601366616433462799922943948255327044316551716605023774529507878496884818802002580171798911746813460480.000000 -107701836729473767951258627361407454165423724567344455234615813643615766425100947992122084209457136402432.000000 0.000000
-107701836729473767951258627361407454165423724567344455234615813643615766425100947992122084209457136402432.000000 15616920425094693371633656448196214132196619315464548961946182652318066621922197519012901774924529532928.000000 0.000000
0.000000 0.000000 0.000000
36399885846081176609654685908708162169918833004810542044371430153680833931103948308134012472843751653376.000000 -13629389682669413315800406835353545201851271389036959243800707106208527039977281344404406571962864762880.000000 0.000000
-13629389682669413315800406835353545201851271389036959243800707106208527039977281344404406571962864762880.000000 9152885000385857211129331262860516575641280415762218413666443918481660701946465455966020150112559300608.000000 0.000000
0.000000 0.000000 0.000000
-4974783558439278732111765718083927908006144630002485434641145685692520562870950533030389307215110471680.000000 -5895319130447985234826784413616604836272070638091188134335425284322250823853780478331691002726417694720.000000 0.000000
-5895319130447985234826784413616604836272070638091188134335425284322250823853780478331691002726417694720.000000 3382511684377697858868644357665898657169480755778479183656664403868045154923025348752980583021138673664.000000 0.000000
0.000000 0.000000 0.000000
64865937623136810118390794748873326762311441545236327586167001982568911158239236798990482541414765821952.000000 38075891342072599737551661883609042172919656976604123454545110423070138519310853732681325261485401702400.000000 0.000000
38075891342072599737551661883609042172919656976604123454545110423070138519310853732681325261485401702400.000000 12209677621625329501860056293376512488606987241931428714914736428775117658146275028962807589254211829760.000000 0.000000
0.000000 0.000000 0.000000
-121037610479940143222931840620267962267936886685032962375440635471876452264912948696619543525123256483840.000000 147510500570489212180790357861538045406926834752227765200651861508927522628053229693661573191178764943360.000000 0.000000
147510500570489212180790357861538045406926834752227765200651861508927522628053229693661573191178764943360.000000 84687970764984626316432462054342316449351069340261966951748087110319804319744021953844168466467966156800.000000 0.000000
0.000000 0.000000 0.000000
-7801878800324010002179914908921059246343977149244425890132695418298208854801744495076269488863417729024.000000 -10048602274862148078143172981485650690502090421720114384911038125919183362535282727903446518271859228672.000000 0.000000
-10048602274862148078143172981485650690502090421720114384911038125919183362535282727903446518271859228672.000000 5780244865614713729620036416259014797883472735346239305729751833695950441249944937524154566002874515456.000000 0.000000
0.000000 0.000000 0.000000
-24770651381287235846875921898818894910581887853335410450776123539283104632500440460483689758344467185664.000000 23112613472747485417396507350901213996644652626212925656860084871657430321792496383029588976158294147072.000000 0.000000
23112613472747485417396507350901213996644652626212925656860084871657430321792496383029588976158294147072.000000 12950165103571419435139544786176650361413624720484323933067595264131787431878920662522893681749485682688.000000 0.000000
0.000000 0.000000 0.000000
11136953858895846772440557578743654158320978591684832709393689754707762174825660804810906224127710855168.000000 -5583750532017517140854282305140031537169944262286238056032869148383216493379349461189064469238572384256.000000 0.000000
-5583750532017517140854282305140031537169944262286238056032869148383216493379349461189064469238572384256.000000 1602870301730221226819605129645952464410809509722581660172028571611650985128877898514403035101869899776.000000 0.000000
0.000000 0.000000 0.000000
-1151994222310335961241786876262700384754685972773135818116428769052998791775857751347299055729335336960.000000 194060285301188033899769656749382188308494770925188885381562623983171290083420115034567066159461433344.000000 0.000000
194060285301188033899769656749382188308494770925188885381562623983171290083420115034567066159461433344.000000 763949760083730299821517866418941338113821956365237929106136473226000818953651108619423501074485477376.000000 0.000000
0.000000 0.000000 0.000000
21592442440238546219927983935987127836390819132508138244702484501228591052283640691828980568679151304704.000000 -8865736244995287580987480879974039739238783888947118497576950762941586760021293767478552593228816711680.000000 0.000000
-8865736244995287580987480879974039739238783888947118497576950762941586760021293767478552593228816711680.000000 2272831494652564186095523976067804231733223345645819888805977658052241499558200093378702314343923449856.000000 0.000000
0.000000 0.000000 0.000000
702845141181098993811332983980427175735013918161147284376846380145548512551428582414221289113193021440.000000 56932810093009630335882830983912316813125516643225987825371688910198564888118519053800821778097897472.000000 0.000000
56932810093009630335882830983912316813125516643225987825371688910198564888118519053800821778097897472.000000 3062333810980138646772627928481732651280880535002576357269638379285062417881585358319344423664615424.000000 0.000000
0.000000 0.000000 0.000000
3200601382495993813651021079921308696820833723727725078799285629155480247637808121045020705316480745472.000000 276822886231067081713259378175324533347906029213094305049830547783548526547512318966468082709779447808.000000 0.000000
276822886231067081713259378175324533347906029213094305049830547783548526547512318966468082709779447808.000000 261683497718747576632090713385521826666837856140683008936911236781181131623306634711444928362260201472.000000 0.000000
0.000000 0.000000 0.000000
2878455055048020125156539966325623463966544024755138557666553966100562297296225745388115635235975069696.000000 3964759982810742283968350892626082507400136095971071087819249707044046309005748526343041794005041938432.000000 0.000000
3964759982810742283968350892626082507400136095971071087819249707044046309005748526343041794005041938432.000000 1846774621037702778398046705935595292797325132648647582262651775610230578400859365116258692492366446592.000000 0.000000
0.000000 0.000000 0.000000
37898107424063886377396600253727613191029171094476528064826431783349290479265476738376217890086532939776.000000 -11404768309662168161593229947101981391467592821012003594217866387527781369455549551195894422826817421312.000000 0.000000
-11404768309662168161593229947101981391467592821012003594217866387527781369455549551195894422826817421312.000000 2345862712914990117728217576740400622025176868595028982495920753361660295095420404110944378563359408128.000000 0.000000
0.000000 0.000000 0.000000
40119743210253163873693699376682726010636909416680729972039400964190143658043094717468570756859121631232.000000 62376183749345736332306475825934907574412342598330777087189873919720884805181185341028196401757095460864.000000 0.000000
62376183749345736332306475825934907574412342598330777087189873919720884805181185341028196401757095460864.000000 29851424417514823977419291069702777660746724174356045309224333405356591291933800631690889245841692819456.000000 0.000000
0.000000 0.000000 0.000000
3217371261610386278512237397105448429493169861379905717434065172528628673137318129566095193476173922304.000000 -2819573009918877310602902083734887529996759858775606872893822053358632934385965376806124937719723327488.000000 0.000000
-2819573009918877310602902083734887529996759858775606872893822053358632934385965376806124937719723327488.000000 1022656084047318686414625382601768192277989595050661071008151198967607130095010295157021733848430411776.000000 0.000000
0.000000 0.000000 0.000000
13374628483894014284173688021790912841698844388613254122860113489205792645653221335531920364326134743040.000000 7766028389227218534913140051715717892931569338679790671402309093558022940994254230229287721180696936448.000000 0.000000
7766028389227218534913140051715717892931569338679790671402309093558022940994254230229287721180696936448.000000 2481048736154682714355448710685427190433760217991313928673853578615114747059780745530278259720426881024.000000 0.000000
0.000000 0.000000 0.000000
24419354270991868030734891282446391903758914076415126083641729870100486480827705487793991057407664455680.000000 35670552861684735023316586922181311877678680121977384442925288281230420799475204074132512544383970574336.000000 0.000000
35670552861684735023316586922181311877678680121977384442925288281230420799475204074132512544383970574336.000000 16842099534124493054963500885680678808238854449428149614132221661007571032991727211213929304268243730432.000000 0.000000
0.000000 0.000000 0.000000
6336250538951676889184404620989451755982219058224275011156041136525688176062008619582472482372605444096.000000 3217484340337437084487341541086215645188634528356780943736122048750722811304542055168344319746511994880.000000 0.000000
3217484340337437084487341541086215645188634528356780943736122048750722811304542055168344319746511994880.000000 1155482498948581802080855227300343501724832440763632867657926334553368731781614871697422091588049305600.000000 0.000000
0.000000 0.000000 0.000000
-300521952067413009353877992671692834213536774936232001386039832404643058599932456091244799243640111104.000000 -6741319575365986187573377534788516561882850535304613766340448835302540104390103440713737377049022038016.000000 0.000000
-6741319575365986187573377534788516561882850535304613766340448835302540104390103440713737377049022038016.000000 4155952608083018580678990847861779291045954538249977961120622830919472057140892807965988843261792354304.000000 0.000000
0.000000 0.000000 0.000000
40323888019906760995517787942360048458211688518407044903106486367030728282347322892722150572141924319232.000000 33350731616848091061196292859042515785447029474365910787244182055664793121530651154560487509054428545024.000000 0.000000
33350731616848091061196292859042515785447029474365910787244182055664793121530651154560487509054428545024.000000 12966789105205259543013697535352981726422040218850701882379718325611810735833433426183993440989026975744.000000 0.000000
0.000000 0.000000 0.000000
-1536451787782351024197850371111538891794638850752989599849410105948107174765059357954992362178646993010688.000000 83407887586733784997878854850542432931227062542303266559381347003954365822714185279805710632271172599808.000000 0.000000
83407887586733784997878854850542432931227062542303266559381347003954365822714185279805710632271172599808.000000 8897219814522294712255366219247702594999252303202234683981652550446600336503796070041609295257007030272.000000 0.000000
0.000000 0.000000 0.000000
-128557728072986507499100176484547809582216166775761553644131159381098607697550638777830461971658751082496.000000 31383813318866535428924184759481221682119063091755142977030317958080638875715721098486695453464777981952.000000 0.000000
31383813318866535428924184759481221682119063091755142977030317958080638875715721098486695453464777981952.000000 11183546644736888705240143641876568689717675838784947365524912530210991880362035334216928362280161116160.000000 0.000000
0.000000 0.000000 0.000000
-2434004547464314040315438466867983938784139919227347434753609818924980633384995545484331425667844407296.000000 -5224410572834888521279714764650291270091572802335743567517223447164478105581155060690755049802000498688.000000 0.000000
-5224410572834888521279714764650291270091572802335743567517223447164478105581155060690755049802000498688.000000 2987846024889517329770118757470456267191865522180579998507876010144987160195176503763262854791394492416.000000 0.000000
0.000000 0.000000 0.000000
-3270083902592834158352506616048424848830657471735323308714468666139469786454760416209187162265179127808.000000 6139940651069456493581851335749579342522727493280888551039886937290029243795152112120190561717428682752.000000 0.000000
6139940651069456493581851335749579342522727493280888551039886937290029243795152112120190561717428682752.000000 3506272708217691661782929467190231021182851646578339794629354540970340426426287608132286418333298851840.000000 0.000000
0.000000 0.000000 0.000000
9656006986305292954082843533044473023233008546909240793174575081947672947618795307236756181021341253632.000000 -11652369299668652523533824763705572785678195061943741566693969365521276575841121970074447514353929289728.000000 0.000000
-11652369299668652523533824763705572785678195061943741566693969365521276575841121970074447514353929289728.000000 5262659761974042389886877549998171772361421066911023735436100342553350430204899449043098200744969371648.000000 0.000000
0.000000 0.000000 0.000000
1805609788747510081327504090766564236617145802212386960325486675977399743253785013855529836021486190592.000000 -52295576541514946786508305997950510236856693651704346843187350348526005892600242823868246242306818048.000000 0.000000
-52295576541514946786508305997950510236856693651704346843187350348526005892600242823868246242306818048.000000 1009128672142939011092614488278913519991249583283855498844734401949549334886702282944310209903853568.000000 0.000000
0.000000 0.000000 0.000000
-122431721745908611814342378141614662341671014546059466986470105847875658833205993247758385760918854172672.000000 23863665398830794497121123245050375734376855136805076548294995790647060243272242687178608442907289452544.000000 0.000000
23863665398830794497121123245050375734376855136805076548294995790647060243272242687178608442907289452544.000000 8748101894475031718690215697691076858077898200375294716942310701587691925721793918011704313627002535936.000000 0.000000
0.000000 0.000000 0.000000
-280529675145921733693804926323432661825722603649561415072733305364316387342578500427370349799574029205504.000000 18934330471272303497456806663130497629241399229255505214227193537561470303305175897298979265045600403456.000000 0.000000
18934330471272303497456806663130497629241399229255505214227193537561470303305175897298979265045600403456.000000 2416216027425940886679770197533061929435885653312796435292349571413401772842857149872953574193377574912.000000 0.000000
0.000000 0.000000 0.000000
1384334691016146463984998135744532963674684092143423587657127976823958375711552717552374711240414461952.000000 -287587583842517025264890446751698369306181807026338146137115564839648094305131737086713814023573340160.000000 0.000000
-287587583842517025264890446751698369306181807026338146137115564839648094305131737086713814023573340160.000000 873606337593108196489371096800553696726911439178257794993147173630961197047590414850937095048409382912.000000 0.000000
0.000000 0.000000 0.000000
-340418276263844202444241183997582629946009170780838274337010624936573576389215438889782715644738185199616.000000 -28919363407942031428317778461464291966139870936712695917706051574703365880853952590348639151278744666112.000000 0.000000
-28919363407942031428317778461464291966139870936712695917706051574703365880853952590348639151278744666112.000000 4716432289218027127972295751926473583165704866631137896036140440434398193192258214595415166353630298112.000000 0.000000
0.000000 0.000000 0.000000
3686150125046792358455843688761702060107933357043068861901712590367432881142822139450742339682051293184.000000 -4068675851857504229429040128909284704942358813930352208559149565104216879307419237884941453225214607360.000000 0.000000
-4068675851857504229429040128909284704942358813930352208559149565104216879307419237884941453225214607360.000000 2350529113080921920337669744934018795671959177427755024106123360961801557894665319445207352658561597440.000000 0.000000
0.000000 0.000000 0.000000
-7227339487584917476598376354773149965829002624389006890171783539364413669131265657353732175531251597312.000000 46687114662116486109245626811947979160470412623318316438287622530631539258869461777578784972766198104064.000000 0.000000
46687114662116486109245626811947979160470412623318316438287622530631539258869461777578784972766198104064.000000 26431248764886835521619746275930478799210205047900427913625991823654873496325748177949713511829857107968.000000 0.000000
0.000000 0.000000 0.000000
-3533113588832155285938046387463902993994156752130145233678516099074892761091680246135500897865477128192.000000 45817462144999596475695387077492519182903044140803046536873530673681137244108927043913986678854409781248.000000 0.000000
45817462144999596475695387077492519182903044140803046536873530673681137244108927043913986678854409781248.000000 25649405243476249639484750933147238943352219645119283935820538606491920424525431774098400243565562167296.000000 0.000000
0.000000 0.000000 0.000000
-2722186553532588266955227627559950806259214877132379982074677660883088890800300914871315194234380746752.000000 -6006675850261760682982932522959439604733096141592145717738018682498352717765533016552879225067624464384.000000 0.000000
-6006675850261760682982932522959439604733096141592145717738018682498352717765533016552879225067624464384.000000 4533675769801241975821854868610018751669727342963658813219470619216467302049610341316840085382341066752.000000 0.000000
0.000000 0.000000 0.000000
1204217841707036821719029746420988421946005844800585602157473183578463799282229941989159674526027481088.000000 -615813782682325519003753565594029007994690216550021445163718965230124556338671693311612222770371362816.000000 0.000000
-615813782682325519003753565594029007994690216550021445163718965230124556338671693311612222770371362816.000000 179282040475732783599635596198512393545639853295464648194037270445911850862025182299918284652978110464.000000 0.000000
0.000000 0.000000 0.000000
-15324455880381800350798717815582966107907263629176467595896195905008690777220433937208012040301772275712.000000 74809930329586397181304714631557675152856378452655034479107488499327552925843350374585214463075501998080.000000 0.000000
74809930329586397181304714631557675152856378452655034479107488499327552925843350374585214463075501998080.000000 42651960531150904036267626975071753434172567743989630646753386895652857313916923159297839304339873595392.000000 0.000000
0.000000 0.000000 0.000000
-215433879579246261073748245804644209522275474378752750649741738331762038713488390187177899943781380128768.000000 67257671975193623623761969298343363982615460906039334344528405151325979770190581794874604493681509531648.000000 0.000000
67257671975193623623761969298343363982615460906039334344528405151325979770190581794874604493681509531648.000000 29017658975261831496701133741163037125538172344941700213519345995731472881661678113169023411546962788352.000000 0.000000
0.000000 0.000000 0.000000
-2650152128211594223881442792362724827088393213157557731214658888735625687486399038477471562665696260259840.000000 131074333222059609292949072792502702612598414281320625910174927249109443305252128248290630723109639946240.000000 0.000000
131074333222059609292949072792502702612598414281320625910174927249109443305252128248290630723109639946240.000000 12775662418394688141450196556826344121215421266845664949603881803208137201145679681773606096570637352960.000000 0.000000
0.000000 0.000000 0.000000
19951478778927190250387006327094247144313220812035892773575843138945052082460545541765230651736166760448.000000 -19268611891401949015169686680944140760084096888372704167201043332808773114297848233561279471003325431808.000000 0.000000
-19268611891401949015169686680944140760084096888372704167201043332808773114297848233561279471003325431808.000000 8018681869977265452890518500088120602825084486854861019102409043030481740887631911710737041744780591104.000000 0.000000
0.000000 0.000000 0.000000
1911756758319651559445394137926186398065995953192082109840015114388082130385813551391069336369178345472.000000 6404755316525839536024996403615170563299356308923578502751628572142159000593595739227962159571415334912.000000 0.000000
6404755316525839536024996403615170563299356308923578502751628572142159000593595739227962159571415334912.000000 2962602204667066576702576501160426879813747213949902260545118618207228837918409360739756002588625993728.000000 0.000000
0.000000 0.000000 0.000000
-34857475603815832115422139364988606311959891179583877693808983264253047689013811396002624346146897657856.000000 -11546619009851336390101068547912967616698432144665885128948097097373017678087794359517391696739853926400.000000 0.000000
-11546619009851336390101068547912967616698432144665885128948097097373017678087794359517391696739853926400.000000 5134845145201926494052496467972340857332596982739999476524056511734093878696273391810122492125399482368.000000 0.000000
0.000000 0.000000 0.000000
22113444476653958978226763097613896228355998535171058195663201926240545376297396229634567920283272871936.000000 69632845692867657668361941003286842706807767897013652358810591146170796481852652729468558100379608285184.000000 0.000000
69632845692867657668361941003286842706807767897013652358810591146170796481852652729468558100379608285184.000000 36439689201048241118748119600351832347801711014687044089911816877458758796135082205418279759594666328064.000000 0.000000
0.000000 0.000000 0.000000
-9872056499255156602831160193951461845052555529840019256575387058092966524863485142653353345928162489401344.000000 40392681230851618904111100317091490189134947537759762677681263660261138335861683669452032034971762819072.000000 0.000000
40392681230851618904111100317091490189134947537759762677681263660261138335861683669452032034971762819072.000000 1323501258283734627670995400452035825140426387739889073174467097281524300688221256120140692461732233216.000000 0.000000
0.000000 0.000000 0.000000
3033198767340064022433110954018382256274701813074416105104991468098514381169682658269776100768941604864.000000 -3338519700037104411811575148516244275616182736028205560977413085160232278720220464508912613789286793216.000000 0.000000
-3338519700037104411811575148516244275616182736028205560977413085160232278720220464508912613789286793216.000000 1457284656875728377328885230400292500683168015694392883770055730642124189764496370374201150670687436800.000000 0.000000
0.000000 0.000000 0.000000
658238186857043586837188941383964277470564778671959545837482840565738492570905626926393850890790371328.000000 -572934291528584078434711371741744270688181625511595557684069109263523967833008798625838153069620101120.000000 0.000000
-572934291528584078434711371741744270688181625511595557684069109263523967833008798625838153069620101120.000000 358624733240290587467515261672879447043546154619599781616026391093071685523783070644791559119922266112.000000 0.000000
0.000000 0.000000 0.000000
8623635406330936784464630964598524328733978017140522161258798700269592244919909641756823994237666197504.000000 -7465232447501530204626926174041960254551978681786812595293198937448510973179661074883316020786396921856.000000 0.000000
-7465232447501530204626926174041960254551978681786812595293198937448510973179661074883316020786396921856.000000 2964515145946336948001495784595184820111783540587328434369980129376885386079504246561229545880856559616.000000 0.000000
0.000000 0.000000 0.000000
18872624265113817589726016107690614327132673797517711676639020844499081461906080660238841779341083279360.000000 -22301819871926859115477938018551438965099209983888634175374918356104335502054472277623559443372344082432.000000 0.000000
-22301819871926859115477938018551438965099209983888634175374918356104335502054472277623559443372344082432.000000 9980051951515302680407128227278416489112936210704646774345193920607340313537928247436038556928943587328.000000 0.000000
0.000000 0.000000 0.000000
15790551415323999745594377718415354664041467421899600337875081051264711443240980740443659209160888680448.000000 18890254935162244864654201424004650366380042941364825735290159226986195908809086250890207438031560900608.000000 0.000000
18890254935162244864654201424004650366380042941364825735290159226986195908809086250890207438031560900608.000000 8465191702563050961062415545903949745550026092986457534173913253043692392929195225386466252593272193024.000000 0.000000
0.000000 0.000000 0.000000
47470985317998186844302098025254549594231706718404927002272782399952834228140084130616849625334350348288.000000 -1331676845829740945621038712173351586597506263035710941907566338444576003888374418560350918480209379328.000000 0.000000
-1331676845829740945621038712173351586597506263035710941907566338444576003888374418560350918480209379328.000000 32235424558692250333179411133026947534502700135133335553024042322219559248254608832106762823886962688.000000 0.000000
0.000000 0.000000 0.000000
206931767642880338670363865610424994552315111323885239435003741845282498457713338789006457125060055400448.000000 94875436992980284659466121729337136177163125725838048096857389115488377979608942736573942876747927126016.000000 0.000000
94875436992980284659466121729337136177163125725838048096857389115488377979608942736573942876747927126016.000000 25486388353008003919171398089000855203275962140277373198099086873086442995489657546280910539320230674432.000000 0.000000
0.000000 0.000000 0.000000
-270630936228128249834762048208923140338881369386786069726388785514599207717134950081803830596983796531200.000000 -61382193925353076310016516780394008254399423872986223151986549602461093210753133983564762310325806563328.000000 0.000000
-61382193925353076310016516780394008254399423872986223151986549602461093210753133983564762310325806563328.000000 22162754193213205396150624332502654497184310903858413228693563538713095201485788593056819044153043189760.000000 0.000000
0.000000 0.000000 0.000000
30776883094176670010975079978906158674722754808274542393353136865714794126332192989325109942204783132672.000000 -25240905111161974321716503055498816642106054440302732810083849750713230344572726273568236068527621013504.000000 0.000000
-25240905111161974321716503055498816642106054440302732810083849750713230344572726273568236068527621013504.000000 9767633517529081050949869471242557736595450563289400866777335887776709125385956348658477067305184395264.000000 0.000000
0.000000 0.000000 0.000000
12554777386961656110207134426268219092213321791839643928749795079865441725327820108540079419286926393344.000000 3514313053929153433191039765733882227341018931828737951290389330646749009402121873615668487474764578816.000000 0.000000
3514313053929153433191039765733882227341018931828737951290389330646749009402121873615668487474764578816.000000 644291609267355741116817838539918930972935955697845640810886803908031070700727909983356596560318169088.000000 0.000000
0.000000 0.000000 0.000000
-510072055605342086759919547421766251805416344088957853678541559424353889213690376295341022258304909312.000000 -18834741751828316797188772561482847760612830491159410510653065756277215474259778239931622694876511993856.000000 0.000000
-18834741751828316797188772561482847760612830491159410510653065756277215474259778239931622694876511993856.000000 11133670843387505996536438234943945706114458858788777908828213367550559236873137993048659115734716121088.000000 0.000000
0.000000 0.000000 0.000000
-32468462386385426697489399840094472168107051497815320800393106804390309541642813833475789951746734817280.000000 35493729615690194506972427300992657871254494627714887119576355803660918958974952389642165906589517611008.000000 0.000000
35493729615690194506972427300992657871254494627714887119576355803660918958974952389642165906589517611008.000000 22068871006751276724407349154399642717452561505468604735754196726300192729614819284433843500241446240256.000000 0.000000
0.000000 0.000000 0.000000
16403025283352399192056265342504155375300950699766237002686444387723530873164271252655845666026474700800.000000 -20702330616964535387617046089351516235731075852497984936911620020976193052646352502766743791994266451968.000000 0.000000
-20702330616964535387617046089351516235731075852497984936911620020976193052646352502766743791994266451968.000000 9419257477984479258811200267010698823794579250822420785724938527538391377832795428380694239613657546752.000000 0.000000
0.000000 0.000000 0.000000
82488549143947889804814047646430685194221870704066746972071814262299003205097811193101535612443295744.000000 52433549389586701446616184715837080018377311570340613224808781376491646989342955534339271967088050176.000000 0.000000
52433549389586701446616184715837080018377311570340613224808781376491646989342955534339271967088050176.000000 70757865823533404787477846782388395642857905505840627558415909858776064012289310268813434316793053184.000000 0.000000
0.000000 0.000000 0.000000
-2977349287377208040422190429293875085531956686219667322540692470271899051684081100123671812320706691072.000000 9422684194271996957854699781074085801896041763912676641704470949148214599213284461455164750668545130496.000000 0.000000
9422684194271996957854699781074085801896041763912676641704470949148214599213284461455164750668545130496.000000 6249458944631514021744403388416856040735539564647629374340552812232019604902684890413604610253030162432.000000 0.000000
0.000000 0.000000 0.000000
261793266013355355984479958360359249382693059231000522010010188031343744936928392312107776716592551821312.000000 171944339425931236725473111060241892668008889801235542187476159661137608295351659182971132902302040457216.000000 0.000000
171944339425931236725473111060241892668008889801235542187476159661137608295351659182971132902302040457216.000000 59078065460621291286484569688447589062261677409174798458503189116018402303288303969407856618019716333568.000000 0.000000
0.000000 0.000000 0.000000
35309152217730656854071756711931199012205424530587585196215858838744159952392660908915981697121869889536.000000 -29891944542016708968368641888001443068040448409293738401318568417608286839850926465831408279727854583808.000000 0.000000
-29891944542016708968368641888001443068040448409293738401318568417608286839850926465831408279727854583808.000000 11768693744358247621524444723724798062434487131938686364450102616507913399214072857663842318404338843648.000000 0.000000
0.000000 0.000000 0.000000
-1508990049657385795121098548714819816924834671383865402705388839219854618026854040727061800197247991808.000000 -993149574274934123364878328472892541442956676139009608660282745416641609225173796185276593153039663104.000000 0.000000
-993149574274934123364878328472892541442956676139009608660282745416641609225173796185276593153039663104.000000 539493856258200450822166230741491453039014038054445295595656066078320301217507567085616282922762895360.000000 0.000000
0.000000 0.000000 0.000000
-62389568851287180186489875122055320557061354273248320198663496268227902095185820211605195099343861841920.000000 -50050488806304956420694326197159281254325268689885479165441802683889676630010810213407768028167861698560.000000 0.000000
-50050488806304956420694326197159281254325268689885479165441802683889676630010810213407768028167861698560.000000 27820822968438012329801764772441999649519193281425009814536885043107441435187959574392826393069042532352.000000 0.000000
0.000000 0.000000 0.000000
-15329996803875695577149270746568983783053117331354115371165990184721423527904951563348620978860400312320.000000 -27642983705145726252572861121731424824557741980955900970067749343634798368488094759119008048918065840128.000000 0.000000
-27642983705145726252572861121731424824557741980955900970067749343634798368488094759119008048918065840128.000000 15956098878401823833237632614044770497274542926246625223701270901570076194791760714215894178914438742016.000000 0.000000
0.000000 0.000000 0.000000
1721347546358852567299859772455360284921034856250039100369817154003987939689349607106859617544493334528.000000 3488159645404357335275544714209986516900821784156675126311280926620673343262009303621774819704874991616.000000 0.000000
3488159645404357335275544714209986516900821784156675126311280926620673343262009303621774819704874991616.000000 6079285039528270478158853769416195504779723749594776570336362618892259517476585709147665138150841253888.000000 0.000000
0.000000 0.000000 0.000000
-32769820878496409856606672340151420860407778946446791872076000278407713080307963821160175253046247292928.000000 26364887844537050323666910928224078545517706712931811689455322653580384231527618393405130344755890225152.000000 0.000000
26364887844537050323666910928224078545517706712931811689455322653580384231527618393405130344755890225152.000000 15362080614707967536161713562056883967798010693313761384365031133784064696568350501631896354928122134528.000000 0.000000
0.000000 0.000000 0.000000
7804272066621229089428885973250849951441566699075864729118280357780105404837320688902888789155396976640.000000 -5244081984817299912293218271115454576473295825714948069975703558955188410667447903238341695464848490496.000000 0.000000
-5244081984817299912293218271115454576473295825714948069975703558955188410667447903238341695464848490496.000000 1869932826020547167587033640268937128516218771318607156848278560736996893006358739901870468771598041088.000000 0.000000
0.000000 0.000000 0.000000
29638646282901355368422785881806645211283808077484912759488394110358374777937686309140801977458708447232.000000 62251071014140919284868352587793145177693608219022577104885513128237507216892961177069199547338252615680.000000 0.000000
62251071014140919284868352587793145177693608219022577104885513128237507216892961177069199547338252615680.000000 32196641841412203101290359478900641174893387541228820720365402627117850739934597002897743353823100928000.000000 0.000000
0.000000 0.000000 0.000000
-23407423534277965566405562265046795337130167219632364875017240001627497088435317168803404872347486781440.000000 -12275342846867374687198654936110410423395132054964579083140547726583246466144839143132784242425371557888.000000 0.000000
-12275342846867374687198654936110410423395132054964579083140547726583246466144839143132784242425371557888.000000 8356111318583495777518481172858598393041046921757984063872811719586454050958626720190316208047590998016.000000 0.000000
0.000000 0.000000 0.000000
-816158179525750718163807255911065507379684268557082143987580529635708057048553216643490689027844079616.000000 1676957983942103624517817688718934413608646088486495239661767614801844970769727434786026250346271080448.000000 0.000000
1676957983942103624517817688718934413608646088486495239661767614801844970769727434786026250346271080448.000000 968527788197648643557961813406651050133512546249696335469752153809379320714396384968206160350089838592.000000 0.000000
0.000000 0.000000 0.000000
-20024836427841599646602383353529463880065946378303563132389936656658116774839000212403429075416009146368.000000 -13989765276592946273219115283563226051241588825014486033138259657323089973362710528071848565027672948736.000000 0.000000
-13989765276592946273219115283563226051241588825014486033138259657323089973362710528071848565027672948736.000000 7665141952048525059211578021033219750098117525602853998110765328234984999131377049835130252377284673536.000000 0.000000
0.000000 0.000000 0.000000
1075041362127100817235563615992174128084141021550551164906606994104575490120871246704128329979468447744.000000 -276556454475700386730999925927994464716807348406736732489354581720079910476449385051197878375752400896.000000 0.000000
-276556454475700386730999925927994464716807348406736732489354581720079910476449385051197878375752400896.000000 45430869664142280899692086337515952389520750444537504180921092905211202597310254581648461737486188544.000000 0.000000
0.000000 0.000000 0.000000
3468916736912785612840786183785191122011081292248506243384004850724562794347046916055016588772414324736.000000 2161292926356538059878707936876453495388888336657604214070233307114200737624021813788288082864578232320.000000 0.000000
2161292926356538059878707936876453495388888336657604214070233307114200737624021813788288082864578232320.000000 718633353611663554517362787290929171580950374785970551816402635531419590908483020351542286749634920448.000000 0.000000
0.000000 0.000000 0.000000
-703994397258879402092113817035982286756897245004550357672572710543789977844925644601505639336268267520.000000 -1547534734874295995419573161052851864271459138003851662319885847650772675539840904766269025015386079232.000000 0.000000
-1547534734874295995419573161052851864271459138003851662319885847650772675539840904766269025015386079232.000000 892598907400398068482373017899453539006697901968309093373612215126211615748516414110407577432326406144.000000 0.000000
0.000000 0.000000 0.000000
126353151520247734170717473609869585406658317941348700510510431310288016299550399629092238858811080704.000000 -51722542513906479072092687363018382895403157956942346662459296974836344494813054296457702550806724608.000000 0.000000
-51722542513906479072092687363018382895403157956942346662459296974836344494813054296457702550806724608.000000 12723631555028205919213372216849468462800763449240982332578504575262547488248658938607018540462505984.000000 0.000000
0.000000 0.000000 0.000000
2115041671661347113992149804106891545147464661297500749675865374939045296970298584121307260730027802624.000000 -4014654831977037365067246921584693668797670355901999444713214203992558244799503412623956857454080294912.000000 0.000000
-4014654831977037365067246921584693668797670355901999444713214203992558244799503412623956857454080294912.000000 3061069540808169195300954885561569456034840358484154040968312087840084449857177171711353579347965378560.000000 0.000000
0.000000 0.000000 0.000000
9163983161658440432652617703577816760691992159884579938080614372060129533126579172343353478052891852800.000000 7150725349808795184441832429917287369943257931134978845877093795806724779146560222112427601491352616960.000000 0.000000
7150725349808795184441832429917287369943257931134978845877093795806724779146560222112427601491352616960.000000 2685493741634399853517389194717405547537743183037423191555254825122469508728391442012882755572461469696.000000 0.000000
0.000000 0.000000 0.000000
391872939395986376988266332882328410285438063136186945052239989881370514053525819609419472921843925516288.000000 43762482664974844547239348025198364051674291881412814556771756889196818349357189069617717788952909316096.000000 0.000000
43762482664974844547239348025198364051674291881412814556771756889196818349357189069617717788952909316096.000000 3253491676105434563338944952138499073337066334296195431188418108727640626546006264691990784550039977984.000000 0.000000
0.000000 0.000000 0.000000
-43922568444859224526660940700472386077006880591006424078743748669869139082867831902300214175380059193344.000000 -51518070266459012996694162603028163848675047891890294480206823155161018932707694611939763557269367685120.000000 0.000000
-51518070266459012996694162603028163848675047891890294480206823155161018932707694611939763557269367685120.000000 29544611477452815779147971617897206066316541439427282618278599621384265296812916320301153112792162631680.000000 0.000000
0.000000 0.000000 0.000000
-15102659746596097665878862852178859844342973838945144191854775937320830083707570164825772573060702928896.000000 -124257525772511458774097941331657913590559495193858021737513512877860236876160071901664019474110329389056.000000 0.000000
-124257525772511458774097941331657913590559495193858021737513512877860236876160071901664019474110329389056.000000 70059268976621971771254672904395521554583910873422014437083439516115464914991902079510874492539999617024.000000 0.000000
0.000000 0.000000 0.000000
643701127698336605748758727923336068937503067926438372209410728197990591934732720064893196102579257344.000000 454535951521297256992034020052756301308672249531612403180863385149137277060160204085905729574326501376.000000 0.000000
454535951521297256992034020052756301308672249531612403180863385149137277060160204085905729574326501376.000000 162958273312744510538324839877825182202394920306650132867293386155137163083179739091900378914945499136.000000 0.000000
0.000000 0.000000 0.000000
22794511076707161370091547975058838348733616900011742746446449877287019329902834208119841220670259200.000000 -63842311627398115925680615573970081602181649543915965940641341879709725021631127184115729603720380416.000000 0.000000
-63842311627398115925680615573970081602181649543915965940641341879709725021631127184115729603720380416.000000 33151253579199083468938221318324008907183431409083215832093404477898406382468216128866565273723863040.000000 0.000000
0.000000 0.000000 0.000000
-363784596584384992846555045259478543029981232219381834416881351815787212611021803350700515011032252416.000000 37179901171995278127612588425091454462574648061264090647470396785370453211377456327591733411793770381312.000000 0.000000
37179901171995278127612588425091454462574648061264090647470396785370453211377456327591733411793770381312.000000 20932221609542985129649377198457421459665629444747657199803038056544376244304766650161596807542363652096.000000 0.000000
0.000000 0.000000 0.000000
-3631360150418394294806747481216981812932596985955154072329214819606741142625095013608598462132402520064.000000 4485850477704032465558313909552626187801206007467567007328544087336680951739472382189112726213766414336.000000 0.000000
4485850477704032465558313909552626187801206007467567007328544087336680951739472382189112726213766414336.000000 2429862581375476874691554600824969789554934064912143404856275505232942472352083401468073654239834931200.000000 0.000000
0.000000 0.000000 0.000000
-24522044095898747492621947944248479136492328944178120698411774364727513776386259244441682412032460062720.000000 11950346504610080299980056325068119023998802410036324602006766755440047808564029382137962950423276945408.000000 0.000000
11950346504610080299980056325068119023998802410036324602006766755440047808564029382137962950423276945408.000000 6068830220244606455756922274938460308859821418601137605031898962380713686669644401961142679647283052544.000000 0.000000
0.000000 0.000000 0.000000
89777484784645627191060079940504144086222222166668460361448783408460250355077207015959686310305516748800.000000 -90888803962029806313004782939361594937409365104534018184570147434907603449069475082637313234553318408192.000000 0.000000
-90888803962029806313004782939361594937409365104534018184570147434907603449069475082637313234553318408192.000000 38504693023785777364093727591704871984961255684494100696568485612791736716425632472305318839703893442560.000000 0.000000
0.000000 0.000000 0.000000
-103993947366149389051783557734434083565401259670778097169647507967402122078501893467164796525889349222400.000000 -85127255521764863925645776414845217347649770695252619718096735779054748623879284538516519748096258736128.000000 0.000000
-85127255521764863925645776414845217347649770695252619718096735779054748623879284538516519748096258736128.000000 49337118592247627254506304070565847638869379153326059540526857920166850253262423205954185412841463349248.000000 0.000000
0.000000 0.000000 0.000000
9028746682933602174768390557773277399469825280923401509575450564709725272149228455251431499557786091520.000000 12556014654312554016421955135414099648384040413662587686969638271179900566156143033436903566464040042496.000000 0.000000
12556014654312554016421955135414099648384040413662587686969638271179900566156143033436903566464040042496.000000 6040217518864787680439832662770813857856962681308750809276476539793261587068399784551473297332734263296.000000 0.000000
0.000000 0.000000 0.000000
-58041794940509202844617377599660181826983420617444656265316368003948056013422188025238332984801741504512.000000 -16819449454084776031111230086646901333695474754871400275895789725243099064493670583839722678499791601664.000000 0.000000
-16819449454084776031111230086646901333695474754871400275895789725243099064493670583839722678499791601664.000000 7691058711267442302338530524088535932262024642279133224619460023128520097860597732935902181970916933632.000000 0.000000
0.000000 0.000000 0.000000
7795679054907403629588261171892141696073662404186458859960642490934849604031326224022193887024458498048.000000 23918044656065312172969378607606622409726180315042777845924616256682392288676401139861887238608636608512.000000 0.000000
23918044656065312172969378607606622409726180315042777845924616256682392288676401139861887238608636608512.000000 14471830858883243227301166699397740515132031325922302888229542525989900844776331618736179967178055876608.000000 0.000000
0.000000 0.000000 0.000000
9790837918530870622051075855243735544464027327485960179012156630763810642523036647266638127537594564608.000000 -5138440470592743689191015650209338654654317193021634821079634938894799211669041109238749435203350953984.000000 0.000000
-5138440470592743689191015650209338654654317193021634821079634938894799211669041109238749435203350953984.000000 1628505476207796152115493320871558122294805877682594288087498936407561114069930440865324951353759367168.000000 0.000000
0.000000 0.000000 0.000000
145781598194283936344818203755404680011867516217023847901236696800796425538270969146975971853469812260864.000000 -55583010868316499006806198223971600320869848750377120978488866159787183186487393826828962052660952825856.000000 0.000000
-55583010868316499006806198223971600320869848750377120978488866159787183186487393826828962052660952825856.000000 12916416119580362028917221396486476104702738362807357666367612112530118670628220213659257601791342149632.000000 0.000000
0.000000 0.000000 0.000000
-111567540554269726068131506547632610800365137233344636609999961877552395471222031612446847374888594833408.000000 5513308044106635722915073708413123454226544141591718010170212888122730306495810771437390828680620539904.000000 0.000000
5513308044106635722915073708413123454226544141591718010170212888122730306495810771437390828680620539904.000000 1842735938447651153089912340443789910534885202094452567283989713338661940997348167734085148389962416128.000000 0.000000
0.000000 0.000000 0.000000
1538024284680264288728418947229739494733563060429903948207336115000295603058148842699307164719405596672.000000 3786331361559875760553350379117249386348576682450682655365443409951551989113086587505054281512876244992.000000 0.000000
3786331361559875760553350379117249386348576682450682655365443409951551989113086587505054281512876244992.000000 2669712118593745870842382359421596281069507598587208578487318441368284719381490471753007691662993915904.000000 0.000000
0.000000 0.000000 0.000000
9379860312784000794111991927692146975736178655411112237391890731617665069198877249582217125795293298688.000000 -1644676799322363555382249388574545094919661354664853227344986942176057837797348225991213429362983436288.000000 0.000000
-1644676799322363555382249388574545094919661354664853227344986942176057837797348225991213429362983436288.000000 218612201594153364176362182177334472703595046137358904109955052054175215284705080644083212473795084288.000000 0.000000
0.000000 0.000000 0.000000
1294009224066060045161067738054176729238869002277737171863618847933684551560681445632357536383218221056.000000 670892903454085055445366884601212340711350506164704548856265811028128087185025800714645110424246157312.000000 0.000000
670892903454085055445366884601212340711350506164704548856265811028128087185025800714645110424246157312.000000 243329606389742533013598449378552632547974369184210837847081169052421178616856193116580776576901185536.000000 0.000000
0.000000 0.000000 0.000000
11747487933903114207868055181308008186869754551541622135709603031731500844093994329905720710955794432.000000 54815809675666751613021533000849821888040635878976456402302053823636152379837155190159143188918435840.000000 0.000000
54815809675666751613021533000849821888040635878976456402302053823636152379837155190159143188918435840.000000 29399861924604032716532858642886227726854564194526359105152487574020243778649471322794627987891290112.000000 0.000000
0.000000 0.000000 0.000000
10589520277435417537189092894404719608772599272654558078647753010091613023349645344752494650440571420672.000000 15379648344133290725994783762114340450004847586438857282218949604393613908231315855384783098513455054848.000000 0.000000
15379648344133290725994783762114340450004847586438857282218949604393613908231315855384783098513455054848.000000 7417577060225296916690880948479347784905598393297842367740380806922763763900422851981960951562109976576.000000 0.000000
0.000000 0.000000 0.000000
28391476596122658171265256323432854818251068878292700158596430900181833363003992595602954272853052096512.000000 -101275778662113117662313388133278921830424931639229537681788373000789867785871691402658057212421809897472.000000 0.000000
-101275778662113117662313388133278921830424931639229537681788373000789867785871691402658057212421809897472.000000 53513631448555414261232464552449302985752824130532777237996191529105599740207675728525599200278510305280.000000 0.000000
0.000000 0.000000 0.000000
15033813441830669849999254587762390926822936383797490851747861593077896178609709183954929242205279223808.000000 12223991170549160338322107673150317578779479511039063222461872014282211052715616784255494129012803895296.000000 0.000000
12223991170549160338322107673150317578779479511039063222461872014282211052715616784255494129012803895296.000000 4790927124811869119021086916047685341794482905094120623485379947563944668665248500285509631671955095552.000000 0.000000
0.000000 0.000000 0.000000
10579100475915693664981336808169017971066063790806411587061206260703135984736095370631998121592812994560.000000 5919014306715868230683488164047510668144727059523522410187804414840424993587185684707985334038171746304.000000 0.000000
5919014306715868230683488164047510668144727059523522410187804414840424993587185684707985334038171746304.000000 1849031532311317955480871623116865796705791433000447791832966559638747151292427605698817254883504160768.000000 0.000000
0.000000 0.000000 0.000000
19582835263920952954555425844792946635938917619346675780784239980128268991720900751064663043589850267648.000000 -6144117300204868042529498736763655586004532465770072499083238330786018662687892867529612040523619500032.000000 0.000000
-6144117300204868042529498736763655586004532465770072499083238330786018662687892867529612040523619500032.000000 1208911954798373035874834117606990809561259599407364635544243309006421270430384880122113038678474358784.000000 0.000000
0.000000 0.000000 0.000000
-9408406791728631492510355804068530179427524798013940130699509308168570922583642978399774107867327496192.000000 -7479838868464644300366817778374789988513345054442784895275719866581774855084802084829136393281988460544.000000 0.000000
-7479838868464644300366817778374789988513345054442784895275719866581774855084802084829136393281988460544.000000 4275305331144151617407171090215343085419952149136017846219874294152988983287555449146346214733249511424.000000 0.000000
0.000000 0.000000 0.000000
-5093997783049304113947080192885965090834395261907337335141556782781780573149419747044197495374725389484032.000000 460037299024094549535342243545287926429132485848962198495154927674317455027596782164461369200337714413568.000000 0.000000
460037299024094549535342243545287926429132485848962198495154927674317455027596782164461369200337714413568.000000 79320344122983596621926126084741230629799373642509860903065757556739836059561550467675115960558468202496.000000 0.000000
0.000000 0.000000 0.000000
51584462032103068809850462524610251896993212455002538888041851208204912533276548954648135607659521900544.000000 -103547725816082171499635885416752710580711308960599538569197701524018526212077823790021123737642256564224.000000 0.000000
-103547725816082171499635885416752710580711308960599538569197701524018526212077823790021123737642256564224.000000 51784419743614091286845999727215255584091881422559058015728689559309648539715185317133615237758434934784.000000 0.000000
0.000000 0.000000 0.000000
25303911627328872162012370487323194974827473647793714243084874592446194816506695109979550030779497054208.000000 -10012912396055607723644641775188231245364609771478786302818133920439896068142720905668749087310690123776.000000 0.000000
-10012912396055607723644641775188231245364609771478786302818133920439896068142720905668749087310690123776.000000 2408275637646689220698648670054582488668920151630728437246879714010014805192329870959229203868375056384.000000 0.000000
0.000000 0.000000 0.000000
-15144893244780215318406142623023393761856146133244213722738436425504220035829862311230291709471490048.000000 4079855151285226156870557850051053786803837813342799074135780836886274043732543977934710565746161745920.000000 0.000000
4079855151285226156870557850051053786803837813342799074135780836886274043732543977934710565746161745920.000000 2270052244985236827364159089620631773586339559103016733055128190386645700093252479727958242733076774912.000000 0.000000
0.000000 0.000000 0.000000
-89875696770523072245769792551266956979995598516561829780943026668127659399167002800075417128472699973140480.000000 522430551994334926056007611912269506440668157240159561703960700373665629387686876909731117484261263802368.000000 0.000000
522430551994334926056007611912269506440668157240159561703960700373665629387686876909731117484261263802368.000000 6070274034624090840990864037573288021264393119672130702509890369837099783508095350906170543566472871936.000000 0.000000
0.000000 0.000000 0.000000
68220017343079705579472216551783353784006829772941581371685250037804562652131966303317371418532485529600.000000 -9378956985756728074690901858293676305334923480350482141346414016447854137446709938399544491459854991360.000000 0.000000
-9378956985756728074690901858293676305334923480350482141346414016447854137446709938399544491459854991360.000000 1102941021841364810960353028055653330658480571568329391970875024607585189792964786620606597703766376448.000000 0.000000
0.000000 0.000000 0.000000
32337727200412360294492751206383937581383432863291925321457568068002433299181022054606822750112148619264.000000 37736044231478992590537725831343353686521152493929684317495013984099252523033990494277609206824248016896.000000 0.000000
37736044231478992590537725831343353686521152493929684317495013984099252523033990494277609206824248016896.000000 16249354372723556156503593065747778545828334014222370078477797208606957550983758841475554983575063363584.000000 0.000000
0.000000 0.000000 0.000000
118312864657929031428312439149272414451597607046670731977508653199881207488103206599006197528248639815680.000000 4946450385148014571850411489996140190952426164340639648448757489622228846865080157129611870152333197312.000000 0.000000
4946450385148014571850411489996140190952426164340639648448757489622228846865080157129611870152333197312.000000 196618577626831904459397448284056205248069851920086650517415074705871117012796122725124214071058497536.000000 0.000000
0.000000 0.000000 0.000000
10080460387003305273896233410331114615851230382339314022564658650797383706794196048864580533274594508800.000000 1798836963647713937600320610379350729801321815311974663441140167243588696809569911422205488332980355072.000000 0.000000
1798836963647713937600320610379350729801321815311974663441140167243588696809569911422205488332980355072.000000 209541478416750311086489867916958681652914902676808832090101284225884592535408352204410491082977050624.000000 0.000000
0.000000 0.000000 0.000000
8622895717631356358207028630333085099899948611972412947005059416258088920458183078456586835163567095808.000000 -7387335269707337925188028462156945061313569160844583745063423087173040738303658386452427223385629523968.000000 0.000000
-7387335269707337925188028462156945061313569160844583745063423087173040738303658386452427223385629523968.000000 3220460942515772730127214637683853044645735259342509676175517870436536976978257423477285540752997220352.000000 0.000000
0.000000 0.000000 0.000000
-7016863788733901877469696209351204147806976493099378584050200863715655305760171792489908405447330703081472.000000 204049106081229928361969350613240482005975139002387038906418665566771300328556277945079331456247561977856.000000 0.000000
204049106081229928361969350613240482005975139002387038906418665566771300328556277945079331456247561977856.000000 11803699677978440164990381906922970928368852190067533275449228386598831940190148002056657592175049048064.000000 0.000000
0.000000 0.000000 0.000000
35309630742479418474304216511418597133771523651628919315276165255026718905400116271835445496198518013952.000000 22392307036787701555316588049842061488367239502213823291650181521785555193184178394673056465777701421056.000000 0.000000
22392307036787701555316588049842061488367239502213823291650181521785555193184178394673056465777701421056.000000 7538922544744353817359486334641398744691174714409673033737920213659380783348652888947730671709330604032.000000 0.000000
0.000000 0.000000 0.000000
-21729416518441656881691095662266669130309719073597937218716717513589325896466116560743269555518690033664.000000 -5927086474380616575881813559608790439035280905360377735480277764216920410441492859865722420705340948480.000000 0.000000
-5927086474380616575881813559608790439035280905360377735480277764216920410441492859865722420705340948480.000000 2254803880869412085565533293598949180984218831169035709630001357584678991445145441789995953778801508352.000000 0.000000
0.000000 0.000000 0.000000
-378098043544626236570959935470740874686214498446760042464520055343991622253696551719975494954778624.000000 -115315715882264739729404287994962507542260885390171527080413357489555296583394025602936525725630464.000000 0.000000
-115315715882264739729404287994962507542260885390171527080413357489555296583394025602936525725630464.000000 50243271797473507084520185933752537577541464478781899313305112070294546413027378010239027256492032.000000 0.000000
0.000000 0.000000 0.000000
135226094297874860624820044061791144871998169352590781714842286287153964799413263969617681480405535948800.000000 113313626912151779675000494057324779434878257284886272622264658375348798933028491842473953065118885478400.000000 0.000000
113313626912151779675000494057324779434878257284886272622264658375348798933028491842473953065118885478400.000000 44337080063093261184421953553904862843375186319935212079080989857631615413629725504977653916199555170304.000000 0.000000
0.000000 0.000000 0.000000
71706713545586489809732443927644197420931490945984256763130937416172513921543936500195584789697542488064.000000 20627396824603866900061561365526754983422958757797079318610166952290221029969056846180360723342316011520.000000 0.000000
20627396824603866900061561365526754983422958757797079318610166952290221029969056846180360723342316011520.000000 3760603946097940508841717883254151242606231485626268999494006916268171636820494145624774345340695347200.000000 0.000000
0.000000 0.000000 0.000000
-9180845425233894343523163273799105703052286749074688494263013939450642773647049596434237800530216747008.000000 9416421182986164264355988993420549443286164010845590232566640641215477239900379469434113154850326839296.000000 0.000000
9416421182986164264355988993420549443286164010845590232566640641215477239900379469434113154850326839296.000000 5365366420203124926891083835660434311192497696522321020420415161368335511456986597874231959910432636928.000000 0.000000
0.000000 0.000000 0.000000
14895210153114428642982884325520790878651367125452879063668564998746726451391349385263555592252003713024.000000 -2118150080765262290151233142598795618995133724093250019325558955167121929247301610521300750504172716032.000000 0.000000
-2118150080765262290151233142598795618995133724093250019325558955167121929247301610521300750504172716032.000000 198151871080715222310237223199692292334343190563260648806292470879878794015178583489828196848142123008.000000 0.000000
0.000000 0.000000 0.000000
-27255355181845737877911452972154239411643946563766050656563265441084371963650510672290225186146504146944.000000 40451852438288503722185612446153492983024982958564185388972875529968040343256352705091234608466597249024.000000 0.000000
40451852438288503722185612446153492983024982958564185388972875529968040343256352705091234608466597249024.000000 22924122145962850420232532623834760884541103900732717151681789897001256812057013139005489317695610421248.000000 0.000000
0.000000 0.000000 0.000000
800527812794461764658397573953248246199425988344277538467768681983680738577550791434759582696091942912.000000 155319704374290920982261349253194494673633666214256751635140878377541056510461288796596164653307920384.000000 0.000000
155319704374290920982261349253194494673633666214256751635140878377541056510461288796596164653307920384.000000 81811991130136250390295299239958448166175636087485315161533109794149903541280538992951947449432276992.000000 0.000000
0.000000 0.000000 0.000000
-7876879256734314710191285045926349581208506132856458043939360009158846434724068881827978054916408082432.000000 8514432494127911350931400603682806389605141760388775171172560992182658225578471475634372926040717656064.000000 0.000000
8514432494127911350931400603682806389605141760388775171172560992182658225578471475634372926040717656064.000000 4956306239097511329066522261272434673472607142968646679059075979658255016467577404109656762833709301760.000000 0.000000
0.000000 0.000000 0.000000
-12385938329043533341560051862480644517117230078191007959794335843578372915827210291419238079377386242048.000000 58463123599019800283564524278444048336668726182382854253220210985055855147878902357023617608784375971840.000000 0.000000
58463123599019800283564524278444048336668726182382854253220210985055855147878902357023617608784375971840.000000 33871614974845131083331742315695176261163872485889377118917208154493433404308690023720903178193565908992.000000 0.000000
0.000000 0.000000 0.000000
4168953373936428176330753234713661554597108093115845299181828499311237111758505547914266159795027312640.000000 -12588042802634004704400089679309864673871150809590500833724353507453760949838340131358855890270070767616.000000 0.000000
-12588042802634004704400089679309864673871150809590500833724353507453760949838340131358855890270070767616.000000 7406224505919918510891302813626960646127328881433596025442354354775727203940974102035780345685522513920.000000 0.000000
0.000000 0.000000 0.000000
-5730219658011719370011737517247393378542804817122188058117189159104323909371112366737406314200704145686528.000000 -253704121920233364058490061732588032147272177615742065944577328905607102183281799958195239293641138634752.000000 0.000000
-253704121920233364058490061732588032147272177615742065944577328905607102183281799958195239293641138634752.000000 22199437675616693608862512483613191980280868945210520632272949175012987810399912764160286179492022452224.000000 0.000000
0.000000 0.000000 0.000000
-644698538231238108179593545739559201060575900352921454710079728875309725523565330433949772460685524992.000000 -6433740339148419219265082438249105044902602792401146647079990854082166374227106990507856633652437843968.000000 0.000000
-6433740339148419219265082438249105044902602792401146647079990854082166374227106990507856633652437843968.000000 3616206750283602607966469025661361190587324643419393315793805717188571112036652204436177215473827446784.000000 0.000000
0.000000 0.000000 0.000000
6556453684865403314489134668583020043002060143345860810086704358841422988422620273169919814459845509120.000000 1698626576913482679034698035573691087186569020638431048939215501205083167215207136517763239632523231232.000000 0.000000
1698626576913482679034698035573691087186569020638431048939215501205083167215207136517763239632523231232.000000 580639786976390202105421931542433133314166147119654490565743950259697351103491125517518106046807146496.000000 0.000000
0.000000 0.000000 0.000000
-740543242006868004679337901463638249121313404855822867146145702874199150018897958205806855832903614464.000000 2701731582226379270619316660048531508065145913992465676072039441952412594872907602582988068718760689664.000000 0.000000
2701731582226379270619316660048531508065145913992465676072039441952412594872907602582988068718760689664.000000 656406253262337260162313697701874924228300831671437172720835370042394770213306412788026120266609328128.000000 0.000000
0.000000 0.000000 0.000000
-90607877055554279858455361723404916902112664697654120997240812603319099008616786014188862094598792544256.000000 24931279830392634045995100852949197204469335125244693037475262349575037035555048990271056588689339580416.000000 0.000000
24931279830392634045995100852949197204469335125244693037475262349575037035555048990271056588689339580416.000000 10027561350163864385220933559304048874424207237627118650658254460373024999708174240179432000920769003520.000000 0.000000
0.000000 0.000000 0.000000
-10484353642971679512587145687384428370911561714834529782158512295602388967323144327485670947565242155008.000000 19055764698145617149309462592433763096237767954124466445883942610270158761362142532414597082028621955072.000000 0.000000
19055764698145617149309462592433763096237767954124466445883942610270158761362142532414597082028621955072.000000 10673750640617987614550341178284173808980348117861344818933291806478413686899220611104673721279185944576.000000 0.000000
0.000000 0.000000 0.000000
178053776925703963632704575889302226558633634534591159506068826728213156097858196206556629816049664.000000 373530324377506348747233768855239904095090751350365255936195403940690003408330086818722046143365120.000000 0.000000
373530324377506348747233768855239904095090751350365255936195403940690003408330086818722046143365120.000000 187937669867746819479874867170828396981630444266496382770239981150864429532146714051632992217989120.000000 0.000000
0.000000 0.000000 0.000000
13365572916691907713884423894464978982350926574447169498829344215202168478586952007451794638948003741696.000000 384293071634767493892040635720292124005800344376409018839160451202668109999757477178533434758300434432.000000 0.000000
384293071634767493892040635720292124005800344376409018839160451202668109999757477178533434758300434432.000000 7944216567214318136807763307915826638104345708062040847922232599919160154284185581777341831849181184.000000 0.000000
0.000000 0.000000 0.000000
177147558229761616098894243410877396479799958931457410451252679329296760216767377845764558680504311742464.000000 -42550124696880241852393121448208285659524951145746466477696328622928750686815218560061649200133429002240.000000 0.000000
-42550124696880241852393121448208285659524951145746466477696328622928750686815218560061649200133429002240.000000 8625515048008574383273265952273456927056059210724303599199854638579071411742873261388565169923673817088.000000 0.000000
0.000000 0.000000 0.000000
-2989445790228467025503019703122957527626537853991534355719550914977343195950315630351334536775787872256.000000 -278560964355406366142744272960157487910881859587680438001979156796741928404607672979130906916381786112.000000 0.000000
-278560964355406366142744272960157487910881859587680438001979156796741928404607672979130906916381786112.000000 356705480035252936358137549454391829271734679242778396250914218196861923213299032133005799096552783872.000000 0.000000
0.000000 0.000000 0.000000
-17370402434439466476257634617844891383908871309992122251748679778000282294713583624429759356593953046528.000000 -36568243786997805716463633247931668647209862625114214405362572556993450516713247008319026993276588654592.000000 0.000000
-36568243786997805716463633247931668647209862625114214405362572556993450516713247008319026993276588654592.000000 21790849879894227146525040841375822886008411412238085526388821218583498604210477585869583398330313998336.000000 0.000000
0.000000 0.000000 0.000000
19554838430190718467576494014084714442699031647423536787728278628033079364178030839917303764901789958144.000000 7375870503483704591521669185097037216320472059325120930860459012952482036639667793886483751982617067520.000000 0.000000
7375870503483704591521669185097037216320472059325120930860459012952482036639667793886483751982617067520.000000 1696420605346868930264410605634396664166920457204739026633660523789561745033960932279122150734644117504.000000 0.000000
0.000000 0.000000 0.000000
26097683884164439704680718250563767538462379078710825057636573769915327750614645288417242212762101219328.000000 -28416466594992990995795104335430943331184801822242817006632145669004683541458362151820972983547101970432.000000 0.000000
-28416466594992990995795104335430943331184801822242817006632145669004683541458362151820972983547101970432.000000 12422879001423018729590531259168099332108735541563931007800644254114670080742180351209352960732192309248.000000 0.000000
0.000000 0.000000 0.000000
-24837799462957813049228541124203311564197873340776005634523659449642191283190699606427310984620079579136.000000 -34231353842535008455763908229299321769362363854950854694427793391385374018961024953305493882813313712128.000000 0.000000
-34231353842535008455763908229299321769362363854950854694427793391385374018961024953305493882813313712128.000000 19631094407402306034233639397668191956804562429262693257233323462035119175647835658151097097286957662208.000000 0.000000
0.000000 0.000000 0.000000
-98391295844553345886148203892067162351953281310867844163118149516870129985840424493884404087488740589568.000000 65341664086063882497420408355306622069654280720248808726705355503848677794747931320555616406868049526784.000000 0.000000
65341664086063882497420408355306622069654280720248808726705355503848677794747931320555616406868049526784.000000 35519630894560581068561583652312295384640694049604515046984256897793015148173209619762655934080805240832.000000 0.000000
0.000000 0.000000 0.000000
-4707512185938923883011476025872025500423250167369722114343540682541222687671319129771478899282627526656.000000 -44318957024584908073912723090949515097636396921767957493042867167377824275881510727246687551619139108864.000000 0.000000
-44318957024584908073912723090949515097636396921767957493042867167377824275881510727246687551619139108864.000000 24933236241144977126423752945990588825791588605899363791726385111410641191492005491922017136796567076864.000000 0.000000
0.000000 0.000000 0.000000
-1087454141841485804080084621088126152257795236926418680513685388669888372224111052068966127014869976743936.000000 -36714784561832484252721750207219520489350115697820640099509304849729343723935024364911880614889752887296.000000 0.000000
-36714784561832484252721750207219520489350115697820640099509304849729343723935024364911880614889752887296.000000 2461552869392910275917692654953130130366766269195596972704029210370793625480900335306222585917005103104.000000 0.000000
0.000000 0.000000 0.000000
20564039068877251549293202974711441814066197556220860383287622974690873908735659071216227277718461349888.000000 -13861197426957731950524574339845427300499861358518797621446338675941075162038406700534115385850411876352.000000 0.000000
-13861197426957731950524574339845427300499861358518797621446338675941075162038406700534115385850411876352.000000 9031536148193803091695340935234580016861863483182205153493553196369714394139508075407054639477433565184.000000 0.000000
0.000000 0.000000 0.000000
6229423635886064270521952855903613920493425859308586890754745989585265368206848078536835372933057609728.000000 13260078489725797849644231340952501034505783639964908036450577311808264852022342439972607017218310406144.000000 0.000000
13260078489725797849644231340952501034505783639964908036450577311808264852022342439972607017218310406144.000000 7121969858225890824946011055965681390492704996865646833927704124792423098693618793712833965476307533824.000000 0.000000
0.000000 0.000000 0.000000
-76502659767568286139718731895831597294617482040715754385651605162325388817569400633744758989460338638848.000000 -7623340643085099807362675200517567432478559280479572455514276204125909230310310712316534255589603147776.000000 0.000000
-7623340643085099807362675200517567432478559280479572455514276204125909230310310712316534255589603147776.000000 2647586336996946469910751278902122885489065642623814668914427212801753450909706439590337649898342580224.000000 0.000000
0.000000 0.000000 0.000000
172341305177759433394655364931092384431223547880868161127332770354302013942018513353833416752027926528.000000 198244205632969018330740921405215903839023141699712332133515835560880369255063240887862473801517236224.000000 0.000000
198244205632969018330740921405215903839023141699712332133515835560880369255063240887862473801517236224.000000 87710094039951345860817685476866696586483582832078826032528712001038300746074789777144452352476971008.000000 0.000000
0.000000 0.000000 0.000000
-91177069818737340368909596756499353660014828681644786324412753354794683626756491436916534465380185276416.000000 44630144521050564647393908043412394091049492891390403947895358391155095817493203270984621298347258413056.000000 0.000000
44630144521050564647393908043412394091049492891390403947895358391155095817493203270984621298347258413056.000000 23078182466121049958741516416154177886257116792183904073042009352709438043444934079306787694329292914688.000000 0.000000
0.000000 0.000000 0.000000
-863156193634995282130116493587111226056089285582093275147455742735308788002736092541166607405942833152.000000 -3923134888464324501302604737596015332777044774589793115838859375543954841645658634053651401576779087872.000000 0.000000
-3923134888464324501302604737596015332777044774589793115838859375543954841645658634053651401576779087872.000000 2595221913327243985025953342912298031906592686479006051274156043473313218932313295994825683073857748992.000000 0.000000
0.000000 0.000000 0.000000
615117146480268809170212552322701234426433699963221095118091245972374028949405096515380599454796087296.000000 1727244835390427401458475597783659593025108937989437833674158166163493784994317906490125354532746559488.000000 0.000000
1727244835390427401458475597783659593025108937989437833674158166163493784994317906490125354532746559488.000000 873958666683258507733826426871469130632587254781987165514889115715761146635724669105919536521933750272.000000 0.000000
0.000000 0.000000 0.000000
3179665099433671564401389528284783538507495190086404807513760774750355886685807827825358323471758655488.000000 -15084070998324249440373411482631885324958132822347871845869176170939771841227172506198981868205891387392.000000 0.000000
-15084070998324249440373411482631885324958132822347871845869176170939771841227172506198981868205891387392.000000 10038767677903090413441265823809890207617743226615837232426741664750367363339980739393086173468241690624.000000 0.000000
0.000000 0.000000 0.000000
-12875433900389099775262621219863279343775224355367532263785581239651701613787153441096723142222125465600.000000 11959046951042451856196351671196428087060237219870396456458134929581362761888262605348395456285777068032.000000 0.000000
11959046951042451856196351671196428087060237219870396456458134929581362761888262605348395456285777068032.000000 7161227363713380338912836984861412905163603766898745778121859933672989718925833349394177690232546131968.000000 0.000000
0.000000 0.000000 0.000000
-24572086731446639749417775336573285922613313633756999024829398446086596115085165727035149271074452013056.000000 -1200047340232284741056746770430566862515856070599183201780010343123579133133116311364478055946827857920.000000 0.000000
-1200047340232284741056746770430566862515856070599183201780010343123579133133116311364478055946827857920.000000 679129556693265864947405174405895883754808858209097884788557459972471040184881201323754732450293481472.000000 0.000000
0.000000 0.000000 0.000000
9493264075147684578007593189098237703185032889035318653346296826948673016013971332765710631891177046016.000000 2175281894962327658584944485595804641040779817233080142451612530561206874945533729436341102732843679744.000000 0.000000
2175281894962327658584944485595804641040779817233080142451612530561206874945533729436341102732843679744.000000 333577912649566056254096181134936656399537899498747751267321984092645145266782726621866158162492522496.000000 0.000000
0.000000 0.000000 0.000000
-94120982305405082435973461559880786715302873588509099802661112798799639050328435231005809696392139929288704.000000 546188703443811289297549619119896265714069163689706832439471115149179734338769222135186687975922941820928.000000 0.000000
546188703443811289297549619119896265714069163689706832439471115149179734338769222135186687975922941820928.000000 6596427644064345590008451531058489979252196322927666445366751943680806841522413468284661346766247952384.000000 0.000000
0.000000 0.000000 0.000000
1750644416412293031607024766766812321209144925614624007359013433275798076267759247990960933440938049536.000000 7861947986516267373304384032103704331847892794858994593437635786881990585741612604948529159170246574080.000000 0.000000
7861947986516267373304384032103704331847892794858994593437635786881990585741612604948529159170246574080.000000 4208763827449198672605000352496406965808214702441278935524204024268395445361977889514204897298803064832.000000 0.000000
0.000000 0.000000 0.000000
5031346404408513232383455439079568207274797523003589428496373306297452728846507684337518506109772496896.000000 3905760497997881554077004114445179710522144075061297566956027535533624597995422397334372021790767579136.000000 0.000000
3905760497997881554077004114445179710522144075061297566956027535533624597995422397334372021790767579136.000000 2147929696570447780934113511383788175432381291396196019118069677229826390384677190406252917915381661696.000000 0.000000
0.000000 0.000000 0.000000
51305336968282480502032196351176660943294053426188868051880096121314047108279897578010953957659342012416.000000 -10324106310353432638947354905140274653906445375447891681991995473232947466100239888641960103187868286976.000000 0.000000
-10324106310353432638947354905140274653906445375447891681991995473232947466100239888641960103187868286976.000000 1361264530175407200216769668613287963483555274793912475035688525471207784436209603549507574704164044800.000000 0.000000
0.000000 0.000000 0.000000
-9269667493996916888359422499654617605844491978241505392715734226441930692902597423137035056887462100992.000000 -47267080851379611707641337843661227003393441955697579145385763140004284523160262384388697366056673476608.000000 0.000000
-47267080851379611707641337843661227003393441955697579145385763140004284523160262384388697366056673476608.000000 26457238306249052379194627910694848144877014804265208872256928616588429464821779806807977654048817938432.000000 0.000000
0.000000 0.000000 0.000000
738037950290399118559544635617088053425559408415707965635442694230765117515892605716171864747366416384.000000 -704901488413042521666386854209911893748743740363623981914505700029194483716989299018712808477413081088.000000 0.000000
-704901488413042521666386854209911893748743740363623981914505700029194483716989299018712808477413081088.000000 292437240855176350808770257666930256975667625927701093440845207557523020944616694933996387777271300096.000000 0.000000
0.000000 0.000000 0.000000
11921413134636206932178281547341588745217935776437843420371589594651269533340747725234552231052269584384.000000 -16873805242828858248896305898398106672234840251960748551795202400556796065369703121383096277672963080192.000000 0.000000
-16873805242828858248896305898398106672234840251960748551795202400556796065369703121383096277672963080192.000000 7888337196240252323698368134642993476765450990511449456808825343921795881660858811180780584115585941504.000000 0.000000
0.000000 0.000000 0.000000
87333292683469930093839519606360901745951958121969123703985570138242000341887636357292057040028434432.000000 205899441055254802581577128943550958052469925588751842161943869546024918579579517292115712282084769792.000000 0.000000
205899441055254802581577128943550958052469925588751842161943869546024918579579517292115712282084769792.000000 105024924446771965630465941507441569646927832880877720534689729864199733804906591673777993143377985536.000000 0.000000
0.000000 0.000000 0.000000
19009985165629933192203999414684670114864906096208358187077936914933891067273690094675772633185083457536.000000 -27714815679423323277586168112009444311914720488235214159393381447959209384277442430864302548380242935808.000000 0.000000
-27714815679423323277586168112009444311914720488235214159393381447959209384277442430864302548380242935808.000000 13075743387138639425264513443872872384992463651223101070710111095137750202160471520176985993760934461440.000000 0.000000
0.000000 0.000000 0.000000
-1381913046920993849164193235385767578486794886979462702160982509705727167880981547398019191055763636224.000000 6884582709877255980799093540654026954929234226731891117413041833598168610557767708777890745596623454208.000000 0.000000
6884582709877255980799093540654026954929234226731891117413041833598168610557767708777890745596623454208.000000 3914964264134754178639331392239804138773165974415745042001436046451754446436722050531051902496290111488.000000 0.000000
0.000000 0.000000 0.000000
12763464241480364384001987945846356692394024136624933268776374551008584734453509077329052772051728728064.000000 18581475981950330343111944324818852167364848359445129245914086934637058548624582169926754861264255582208.000000 0.000000
18581475981950330343111944324818852167364848359445129245914086934637058548624582169926754861264255582208.000000 8764466941065806721858194053589581576574501833508304078810599388283695703824830507329092520224764198912.000000 0.000000
0.000000 0.000000 0.000000
1249757986812709207262942357825626844598365144455999581273795806395450311372799564604087158493841195008.000000 -5817133090554565149316185254415887461609759891813810883374365016335431302671646737604311900753867309056.000000 0.000000
-5817133090554565149316185254415887461609759891813810883374365016335431302671646737604311900753867309056.000000 1756376006344347950121678848491647357719030897910956237354458228813284076590050819004286446895387115520.000000 0.000000
0.000000 0.000000 0.000000
729508201535949041649786792072482110242841642176229975496455380843937964619097869214946356750700249088.000000 868654008932140808335194798248077746536472290646880542558284696605517680599559805446416059786634199040.000000 0.000000
868654008932140808335194798248077746536472290646880542558284696605517680599559805446416059786634199040.000000 451449275971623823978239642935243824492142194735019384041315244682411028863355399510933694885593612288.000000 0.000000
0.000000 0.000000 0.000000
352497903389218211936452279598059732754369283590257633981764045342349158030440887585083017778140545024.000000 440039555164030294651305383593168610440090713480528463397869448180346313602759750213111047261417111552.000000 0.000000
440039555164030294651305383593168610440090713480528463397869448180346313602759750213111047261417111552.000000 199527501806021861524580169631003972653779317999720840073362078839075002918262153514300758463524896768.000000 0.000000
0.000000 0.000000 0.000000
2711847105332603394625748314999824765947252658547168052821166836564527533726814178014004576970273193984.000000 -4757926390294049160751585766533706208002052755166320358936401852048168975673130027817897818610187894784.000000 0.000000
-4757926390294049160751585766533706208002052755166320358936401852048168975673130027817897818610187894784.000000 2331350678192330281918314876068036491607541255701651207559193537628652091146689551327694279864125227008.000000 0.000000
0.000000 0.000000 0.000000
-163672952448588869033997083955288376534917028997243796832827561864193128947918023850602916237535084544.000000 -13400416820680768471691160105664181583974224290845513795267430492170610348540517361940523452248356814848.000000 0.000000
-13400416820680768471691160105664181583974224290845513795267430492170610348540517361940523452248356814848.000000 7464707940375033410518494192608574160693415931421053001640085186358501032153246465678817972672939425792.000000 0.000000
0.000000 0.000000 0.000000
-642470780459268438285705274976132747448522031781499659705753572460579929928719604512059072512249477201920.000000 -75094618119747134299298655966242793675117269602088467824827122661669055913766242020069385095537470996480.000000 0.000000
-75094618119747134299298655966242793675117269602088467824827122661669055913766242020069385095537470996480.000000 16727923924464353594028776483270523252003264830796739405119315865062081687015846539584480367314441601024.000000 0.000000
0.000000 0.000000 0.000000
6471226693229011645689063264058718344669701774032162586776197828389659218982444924390651681442789064704.000000 -4851194484099574434877725844027310361013654281781725827652013382736767505379965211143930792210126077952.000000 0.000000
-4851194484099574434877725844027310361013654281781725827652013382736767505379965211143930792210126077952.000000 1798201741052194869293721856705492844000246358018986412178290296972661657547611006955410139965288349696.000000 0.000000
0.000000 0.000000 0.000000
4341157635831688931927565329506667892723881798360582710468319057605861427847546925093114440224184729600.000000 4107643661704164650757494569094974562869932327726407064836483891011098791096492312198197435510705618944.000000 0.000000
4107643661704164650757494569094974562869932327726407064836483891011098791096492312198197435510705618944.000000 1694787405077654649300123292899872784226973990746471550187651551354079464092261248589661231473947049984.000000 0.000000
0.000000 0.000000 0.000000
14798101442564307542577773700887727787951875051785434460305888932328072726773905983110371274754392850432.000000 -3292638182503539752747749691360809882505176476164244992759247117870934199550726269048503255478195716096.000000 0.000000
-3292638182503539752747749691360809882505176476164244992759247117870934199550726269048503255478195716096.000000 1540072984383926383939240188935375845044166525391858246382799846022818437341720757744423643054755282944.000000 0.000000
0.000000 0.000000 0.000000
77685472092509160888074364840299458529337525249176462739575101206969293058703668301509378702314846552064.000000 18128830935854900095604906741378101636067117951447746573538453747066381611403577121535291844424087109632.000000 0.000000
18128830935854900095604906741378101636067117951447746573538453747066381611403577121535291844424087109632.000000 3063826880117845547027915656408996815134090748346579627866200724414462616175978006187113967781165400064.000000 0.000000
0.000000 0.000000 0.000000
246643503854292530912581303841392764509608037673228726442925414098506827495756966440277180754329337856.000000 -352300780703889898092726354811443501016971017836091971516912907017148080894672785487482181444557602816.000000 0.000000
-352300780703889898092726354811443501016971017836091971516912907017148080894672785487482181444557602816.000000 165504782617693467760175547083879208525042928465455744622821049226284726756142263917271065332161708032.000000 0.000000
0.000000 0.000000 0.000000
123580863054248065225879355034806458478370281923053421320589706513967109720281360486339098867439761358848.000000 -78571044947883751840429382279008654201765915091048225628195411548339366100266828309487060464944958930944.000000 0.000000
-78571044947883751840429382279008654201765915091048225628195411548339366100266828309487060464944958930944.000000 27507532927201059648681180358737245231479814407903914238718678850759974898304930699411829539211313152000.000000 0.000000
0.000000 0.000000 0.000000
40825074547533836720826177820667311473267529919557658844163444275848375515807485447937192884414963515392.000000 16075965579544882247992772377917871160150269555999802182671374048654561734907574191191176629183794118656.000000 0.000000
16075965579544882247992772377917871160150269555999802182671374048654561734907574191191176629183794118656.000000 3836842886257450796414157529107962833213198974562735731007627698469524372475508620157300441415793246208.000000 0.000000
0.000000 0.000000 0.000000
10386010917952520846734976878367468164043232246055479816430567613589419328413984716331822050791022133248.000000 -15238564665510096544858848769097795445641014998268959650949060326192987145134646348490051526847256068096.000000 0.000000
-15238564665510096544858848769097795445641014998268959650949060326192987145134646348490051526847256068096.000000 9236034650766133207122445214287592128666604530274534104233840467884799074845052266067203503551514935296.000000 0.000000
0.000000 0.000000 0.000000
-209579878874831066222486156814420122884633760314244934153141455074900984034871744302923718126456537088.000000 -2283137657792020593955767668535723928867358654635358256283974711998099734574676982567023660001818312704.000000 0.000000
-2283137657792020593955767668535723928867358654635358256283974711998099734574676982567023660001818312704.000000 1284467478598412066372885312882005099469460289772917207373966125788011494941086703017355818219920687104.000000 0.000000
0.000000 0.000000 0.000000
2767726884922186660813631316269164739834313197243149747438963078533571564417079407711740000151466409984.000000 8043035184891569061348421130727610316373067542689461995895671407727395962400123805981297205007301476352.000000 0.000000
8043035184891569061348421130727610316373067542689461995895671407727395962400123805981297205007301476352.000000 4220311747246263307172340683218154900875620821669585259755459170052095652262155265986213629005762920448.000000 0.000000
0.000000 0.000000 0.000000
139429779341121135314921923303906279845342579042546185298949774413341886386556725221432397468106242392064.000000 88739947762444146723083147299278596285122983757501674772104820078798715683959010145794215047430238371840.000000 0.000000
88739947762444146723083147299278596285122983757501674772104820078798715683959010145794215047430238371840.000000 29949850099990217208870121115337096493493036215921784455672108538539539700846481123331421748047732801536.000000 0.000000
0.000000 0.000000 0.000000
-147046708752793432556687516934922918862773068297260217252494323556018670944580150289582352068979743260672.000000 216726270927435598212118006099361850621496217810784097307008756672311754723989152463031413999690737254400.000000 0.000000
216726270927435598212118006099361850621496217810784097307008756672311754723989152463031413999690737254400.000000 124982079434245542148442290147934751491453599502617656861013916808037873390177642814246213768019642941440.000000 0.000000
0.000000 0.000000 0.000000
14332867725828066453993777024437902234715932487807031585086085389805903488874494998675670147728656039936.000000 -3327786022668653063225100663094855175851523560127472323627587723021987693954252776162472305273990021120.000000 0.000000
-3327786022668653063225100663094855175851523560127472323627587723021987693954252776162472305273990021120.000000 609677461922601670009730615213813460772663334373726848959986912489529296072152931116767799632717676544.000000 0.000000
0.000000 0.000000 0.000000
-1331925978825287917548975589566716202132769622452433729724306077711418577473386981104877141664097894400.000000 -6122072724391761858933704136912301038145337709628864546570574187465770635850895414673903221340136013824.000000 0.000000
-6122072724391761858933704136912301038145337709628864546570574187465770635850895414673903221340136013824.000000 3564664097068281451939743890827413392358426852429787705410308898644669726307285669244996439438023196672.000000 0.000000
0.000000 0.000000 0.000000
593831064173645209018662258557429739521475497218544955561737819152965230651865777179260692947588349952.000000 234127497039542642182181932920086725890818251332678281085256152730683863918259271782082973487197061120.000000 0.000000
234127497039542642182181932920086725890818251332678281085256152730683863918259271782082973487197061120.000000 185417179048983705947097810522058065928781105474305333576619261425291571024581904785086218696810037248.000000 0.000000
0.000000 0.000000 0.000000
113363495650097032924022576675368982745027185795762326860813257429234014423806403841067354236671349489664.000000 37005284362116399400339836918053588444371520546269637217743505877373435141234014631961230652674989359104.000000 0.000000
37005284362116399400339836918053588444371520546269637217743505877373435141234014631961230652674989359104.000000 7610071295123354891869500478685447796405789757979992571113712959639465984179891404119984107524204789760.000000 0.000000
0.000000 0.000000 0.000000
3973295694090342897735133963701728767294540210130007831200870337034990426937726301846612367193545900032.000000 -24179090533613362213900460797830962600998202622777453623644434961016133812673862533044437417816211062784.000000 0.000000
-24179090533613362213900460797830962600998202622777453623644434961016133812673862533044437417816211062784.000000 14585820371940781787949311449104638253971037455641351310257069608250204208532730490673293443013036474368.000000 0.000000
0.000000 0.000000 0.000000
-109239447305934317934506256879108697277224885385328988504492975064269716466144065364550106931787659739136.000000 -46195768933084511805672862971166398847933835155301507712891904845011749983097317107465473128335480455168.000000 0.000000
-46195768933084511805672862971166398847933835155301507712891904845011749983097317107465473128335480455168.000000 22083928978602923968547565561387082985085289218738132997323034764339893473110759905010399630580019888128.000000 0.000000
0.000000 0.000000 0.000000
12578798997220437887527164096325212411834176048694199262633486209750677947440377790558657348311778852864.000000 -3554574939316902196333578249230557820995304133335221598801242670295278384862026945418261779812947329024.000000 0.000000
-3554574939316902196333578249230557820995304133335221598801242670295278384862026945418261779812947329024.000000 667033188862145110476796039476889867606088550349865480971426342099916431188433980734898324555134140416.000000 0.000000
0.000000 0.000000 0.000000
67757816493591586790705194736766013306717268229340033082048168409624739397824454305991939344339828736.000000 -47855810636513746582025837534324881706100954242146165000428030900814134123714554916418132492121276416.000000 0.000000
-47855810636513746582025837534324881706100954242146165000428030900814134123714554916418132492121276416.000000 17178075541494069895408281449900691426987836141891065712852110051383115248156059458027649198186299392.000000 0.000000
0.000000 0.000000 0.000000
2734423502276013240052365521397432823295164708677841926799302465240847850018041678743166612106379264000.000000 10768917922997799684251802150369320845599178064989803406241451629585979253058116037642508962370305392640.000000 0.000000
10768917922997799684251802150369320845599178064989803406241451629585979253058116037642508962370305392640.000000 5726198303821723060437860793611743351921244960287815178789932205550388084643379271875794843342852849664.000000 0.000000
0.000000 0.000000 0.000000
14788295206088315441200017422628884210897094790471185451152845199923717507864246278002258580612627562496.000000 -17565861149190785263143791437461566645726201875168506108329511991471216455787564120813824075415355916288.000000 0.000000
-17565861149190785263143791437461566645726201875168506108329511991471216455787564120813824075415355916288.000000 7855452842244734926219130401505564972974043803340858759756273905039791721218092800924316559707488649216.000000 0.000000
0.000000 0.000000 0.000000
-4847999682254246335849310532830193761139419872717631485062072847821980301862191895149676104838377635840.000000 -936121234987233653490656500377251692323705203055635864230342978751381891469836363546787510414812905472.000000 0.000000
-936121234987233653490656500377251692323705203055635864230342978751381891469836363546787510414812905472.000000 293869464118240040273722615972509368121454113238040142872611927667427930644890573446040454242093760512.000000 0.000000
0.000000 0.000000 0.000000
-4272476065702806063194983117505795606354241685476230092798148150680639785951049795594650285439065260032.000000 -44903164960884245618168341357241253887981336829750243512993409865432454623021237899136086535307935088640.000000 0.000000
-44903164960884245618168341357241253887981336829750243512993409865432454623021237899136086535307935088640.000000 25271965743373893963031494735374735628867721149583298490075585176963641212430829921646510620632900698112.000000 0.000000
0.000000 0.000000 0.000000
-267068427495663946579720958790519461315549919802394504902586128051559251649638498558937662605278314496.000000 390027004181238234066909531658626581808987341019213512509356637110022005823908539808586907108352458752.000000 0.000000
390027004181238234066909531658626581808987341019213512509356637110022005823908539808586907108352458752.000000 224904336184268493640143250073720028725248117010643427145387824805866831022383104893549810399032901632.000000 0.000000
0.000000 0.000000 0.000000
45080537887256960874674165766414457194434941147785850773187934254011383638545179822462564779730164252672.000000 -5298405027386753121213151069548291166734173675857568851154099396866933400584109562207845028167380107264.000000 0.000000
-5298405027386753121213151069548291166734173675857568851154099396866933400584109562207845028167380107264.000000 701503793881800019290494360357622213285721498201845535289832005678356832893316803169230420104185905152.000000 0.000000
0.000000 0.000000 0.000000
-41255765306835787032599846516031105904556045246513274232948458601032213650314045262930037697605252677632.000000 -196757028856647388002245957792687001396243659295686363160864492842746467353116016365318833735908517216256.000000 0.000000
-196757028856647388002245957792687001396243659295686363160864492842746467353116016365318833735908517216256.000000 111962298755320908717898950657285510961367117193922622884333654605970579237410674549203504027585463975936.000000 0.000000
0.000000 0.000000 0.000000
-879782514253934828907877928404806302491928985058775910137720932243486935712302743704918243072546963456.000000 -540434030174219551705162319575987103924407375451694116605045483382575596310230338106689438776830197760.000000 0.000000
-540434030174219551705162319575987103924407375451694116605045483382575596310230338106689438776830197760.000000 290019978939003047065958082175664733797885458355114762818794018080670104212929344096743376112272277504.000000 0.000000
0.000000 0.000000 0.000000
-11803455878364731758797638026152006475383407631749196249770219290893278516400382140512722504370939232256.000000 5040180065944751114956465524068550255007652240771076421287244544485200238892682906718445196294706167808.000000 0.000000
5040180065944751114956465524068550255007652240771076421287244544485200238892682906718445196294706167808.000000 2457607583641872285504606153408407900334150631542578244091799014924174943849922680829725314159409627136.000000 0.000000
0.000000 0.000000 0.000000
-1953736884156641815043130273631298430976407065246466239880383084989180684045782151631830055578060718080.000000 -23561290568287020321350916358109856031378696091853024265923743176266293547406461896022636352150597271552.000000 0.000000
-23561290568287020321350916358109856031378696091853024265923743176266293547406461896022636352150597271552.000000 13961074978284457922915863457644810182850250307558181002481100516455043734249081187155200321676734627840.000000 0.000000
0.000000 0.000000 0.000000
7593681870657339182880751446974616759333879913574646610090491229162074107366426175846225953055251103744.000000 45566943739269892935395192919800362082647850890529189888837191526786265075095071009661387717003452612608.000000 0.000000
45566943739269892935395192919800362082647850890529189888837191526786265075095071009661387717003452612608.000000 24650825875186173353641119682382565996250290982924214391928939439267111018353773813457487412837251809280.000000 0.000000
0.000000 0.000000 0.000000
-5202254539506908637713373763199040589029794218491874512025841662638396767297751865766479584885991276544.000000 336256108429452587393704457121794759531990040540127942679166488709689607792207603347391480213287206912.000000 0.000000
336256108429452587393704457121794759531990040540127942679166488709689607792207603347391480213287206912.000000 1406076683549446644370110548031727235491800767268080744388749969780806086537258470811406576213880209408.000000 0.000000
0.000000 0.000000 0.000000
-8737907749981059828989588556167924820535057720089854633773998593486838480026265702721032469050204094464.000000 7207976154063863812489369036178444244328989298552418470158448766106282165381472213723089416231126564864.000000 0.000000
7207976154063863812489369036178444244328989298552418470158448766106282165381472213723089416231126564864.000000 3986488674119781869754334209025912220869823128481727987199903768194350623987975702039491071926027157504.000000 0.000000
0.000000 0.000000 0.000000
-8020187682425317502498975640576379047806450223063652627349973936691555812793762545413418487384616468480.000000 -3979559206451397532861024858348892890354207336873522403515896310980843488123805089282515793104330555392.000000 0.000000
-3979559206451397532861024858348892890354207336873522403515896310980843488123805089282515793104330555392.000000 2031230866168128034753082251749083977175755402780064126766470170700660525295572876174923571892123074560.000000 0.000000
0.000000 0.000000 0.000000
-4464060462632541293005672357374846109781985069280845600261502935274496000532382015493877331415766401024.000000 -9160445245123108811566891404300873250487346918773103191328843610466443799401802336894321576930472624128.000000 0.000000
-9160445245123108811566891404300873250487346918773103191328843610466443799401802336894321576930472624128.000000 5258976201587158305001076160348559740998929187416605801427356118058011845054681955552106268056933629952.000000 0.000000
0.000000 0.000000 0.000000
90068769258174102779521105571478942016837506693808321677711997787643861501684273639859849057588444397568.000000 18529466651716368271077811083168195094123969478416999232358557431885417685208730536554266832697829621760.000000 0.000000
18529466651716368271077811083168195094123969478416999232358557431885417685208730536554266832697829621760.000000 2476529164361472202358751871010666240594306644267039302286051916381550926479319778323386601808943120384.000000 0.000000
0.000000 0.000000 0.000000
2155130826236206751634413240400736595522139979107795968582066085446670077243165878619017801086734958592.000000 -2089345821730752964177709884342419459252449396302651799139241847021014867452006267641697377329642209280.000000 0.000000
-2089345821730752964177709884342419459252449396302651799139241847021014867452006267641697377329642209280.000000 1023520404607728796084441842719185872698073318599055953024201585190416096823550213225105104145752260608.000000 0.000000
0.000000 0.000000 0.000000
-2080615982095985652670082706667728641927680258667893628294237431853951258032181952327937609670015844352.000000 7438926554590417605630001607702700806800173897603056702052057960574877469789322309391227198550854074368.000000 0.000000
7438926554590417605630001607702700806800173897603056702052057960574877469789322309391227198550854074368.000000 4254912314998443661401293344009231029635065108425743761089473262405713652440404409380892783362881617920.000000 0.000000
0.000000 0.000000 0.000000
15615973305683842618988139786162195990494890098847192922962931901632671659037310933873978500952411340800.000000 7336399709448241469873532381915710209441996661939021149733783777138664527150627332274684931006540021760.000000 0.000000
7336399709448241469873532381915710209441996661939021149733783777138664527150627332274684931006540021760.000000 2148526321949047954584258082496580802491645684792991330369207554362526764624718459549490075155145162752.000000 0.000000
0.000000 0.000000 0.000000
-5392577735481409942217634332651903729872888902206924728761217897112220650119485855113645771183110488064.000000 -490695181280300160070610158921321276436326667137368270838893657477078917838067972417297457543156596736.000000 0.000000
-490695181280300160070610158921321276436326667137368270838893657477078917838067972417297457543156596736.000000 101975749619813242312621389652076835312260890264425462879430552610507751313976781602500468362509811712.000000 0.000000
0.000000 0.000000 0.000000
-7546152322552981499506986245111935395830952783462083425045934622839214109394530001157231316144622665728.000000 12193762065668443118482885588692079678907974519980037409610819668036711249056224551575133769311872614400.000000 0.000000
12193762065668443118482885588692079678907974519980037409610819668036711249056224551575133769311872614400.000000 7001292457215061203985537150899449035561735363192998797102766928127159431218027106806738440786012012544.000000 0.000000
0.000000 0.000000 0.000000
11215295133581053822770743998973316047655421003013826193370848896525772180607105124604233448012885524480.000000 -1167782094979451609096845438113723519726095576552603611829376978160744946747653199614156267812313628672.000000 0.000000
-1167782094979451609096845438113723519726095576552603611829376978160744946747653199614156267812313628672.000000 168668142240062463119123476828041965025081792603586767644095575943402259108926045003669901356046483456.000000 0.000000
0.000000 0.000000 0.000000
4062608662593705440295625348376343923424293041527570855164898602989806401831021458419744641532003614720.000000 -1516896160572620696335072329508903290608948773234775789723974111009879778318277646779409949534403428352.000000 0.000000
-1516896160572620696335072329508903290608948773234775789723974111009879778318277646779409949534403428352.000000 348586290589702629461389610821808711192230654976706870470132965006331101496652854909728035650773450752.000000 0.000000
0.000000 0.000000 0.000000
-3811635802905998598401734003598774526387426670524711941494397681003287337159974965084906383484032909312.000000 59121570751354075250651505507729077861793966979933155422861436134016481770906082503141910891762011865088.000000 0.000000
59121570751354075250651505507729077861793966979933155422861436134016481770906082503141910891762011865088.000000 35225996917711541533224292664765355423643022717072248254653440548606045462452053967523226992456012660736.000000 0.000000
0.000000 0.000000 0.000000
120696775525415217762215492299514107108506761183262041450704280896349827343621733750145535852959429033984.000000 -184596804014762543806688143778132579386479718686816296509538625090242258818904540786348216556767504498688.000000 0.000000
-184596804014762543806688143778132579386479718686816296509538625090242258818904540786348216556767504498688.000000 88030295675925339175713801604499622533408823622025968182539860973119796920035765188779380248187798290432.000000 0.000000
0.000000 0.000000 0.000000
82234293456347497146904589369647552194049381075118880002505604245196890819362350821331145576656672915456.000000 52651961360749783418583210090482115521919836164802801533946777300680775782178218475849093020899384229888.000000 0.000000
52651961360749783418583210090482115521919836164802801533946777300680775782178218475849093020899384229888.000000 17814798097028681560959958837386387429387749355611912725908510708527193285617476175993601377862292602880.000000 0.000000
0.000000 0.000000 0.000000
-1669026057736605821555931707720286407474682021350417870335160898031364457578666172223136712737624686592.000000 -11295155865492435740880204712130252058310676095438640538343056629600186783266722033596536384677520343040.000000 0.000000
-11295155865492435740880204712130252058310676095438640538343056629600186783266722033596536384677520343040.000000 6381765986155433733736846419459154811332101925252166562287176727898397110983551939658580224751265906688.000000 0.000000
0.000000 0.000000 0.000000
754028292764439029162126874102177918264675488073962356189031780132155837511265562313555836343414685696.000000 -1663994423174267257397845875432016442673244644047706936064161433932253858315678311475157406362044989440.000000 0.000000
-1663994423174267257397845875432016442673244644047706936064161433932253858315678311475157406362044989440.000000 1175643500598165124150872361327622171826440554325522878182549531510975531097885133835390557860824875008.000000 0.000000
0.000000 0.000000 0.000000
-65678566838022728588045984358754168295352642520366630134775494327761511703093016492281939101949297164288.000000 -41693492440338222702633647151263159773276163651065437290683670325324991400422844817199365494768314351616.000000 0.000000
-41693492440338222702633647151263159773276163651065437290683670325324991400422844817199365494768314351616.000000 23613369669227555456902393925833425171694854319041028768940963670796897313399587623879233341224357199872.000000 0.000000
0.000000 0.000000 0.000000
5408021555876961158545820977791672486876267586386976106245848264331085958116371044112791315003310342144.000000 -7283468855215207678057290378660015539331517571297037914553050451283307184875735560649180271233944518656.000000 0.000000
-7283468855215207678057290378660015539331517571297037914553050451283307184875735560649180271233944518656.000000 3116485784328974641795908651664176837304059027621513666882420958051467077180900249843289185653585084416.000000 0.000000
0.000000 0.000000 0.000000
28354119170836132017034271491877296284594487950318488143227620398787449496539753506453597087821207699456.000000 -56568076731119615991989798793058470951935787426652971315000623802116651933549160787084870383533243236352.000000 0.000000
-56568076731119615991989798793058470951935787426652971315000623802116651933549160787084870383533243236352.000000 28268512232468066346569675108641182333026033404927039293190751709976271148526960254720457185331020562432.000000 0.000000
0.000000 0.000000 0.000000
42693434474512990221012841804402795503063625638998789736649653059412278926625298146610129857077139472384.000000 23491792359735486272910952368629201444141909680043324984889152467267611677502253181572634379585801158656.000000 0.000000
23491792359735486272910952368629201444141909680043324984889152467267611677502253181572634379585801158656.000000 7200811668752821140113576741999148550731415926568448132855651406875977732542471638771791615380812726272.000000 0.000000
0.000000 0.000000 0.000000
18394591018727594063619603345730705787487995527245571695413171016898304052302059815156419878629039669248.000000 32230000828704416816292162475019365749241769364512821340959322148311902867340525708775724743821753319424.000000 0.000000
32230000828704416816292162475019365749241769364512821340959322148311902867340525708775724743821753319424.000000 17558234203369206801771006545054852174978358115245401335689772682264859227536506214535005140398762885120.000000 0.000000
0.000000 0.000000 0.000000
-247970734696917145656761439651201802247910749107390280866483313328888172753608719159702407788149312847872.000000 39323876034492538073194966771687875768775927698086356657198700262747778638745987002836979325640562966528.000000 0.000000
39323876034492538073194966771687875768775927698086356657198700262747778638745987002836979325640562966528.000000 10952407229925684752384932231126704166620054802930132410953344136781700258092083182133064200289335115776.000000 0.000000
0.000000 0.000000 0.000000
-268857600672403540859902082456169164242258480137937555447382558674616736288110046075557123300874424156160.000000 54692323727278233431613701965312364452803197840300531387579563061277411192940120627689190591840431112192.000000 0.000000
54692323727278233431613701965312364452803197840300531387579563061277411192940120627689190591840431112192.000000 18266332265006663165209766749132663757508308241075960311148428793925769471230283820996912325805352157184.000000 0.000000
0.000000 0.000000 0.000000
32149818270957141304607949516883378918152110955169574608453248761451126424033880759258314823168287571968.000000 20179530218414411352265729803709019711532750577459608452411825989228876198316038992087349257230027325440.000000 0.000000
20179530218414411352265729803709019711532750577459608452411825989228876198316038992087349257230027325440.000000 6882552291121895156548087878786705475680980190853282693162786774138215462669648410456011268516608999424.000000 0.000000
0.000000 0.000000 0.000000
-4164816267814415445081348975639993940497749963651746040381399263535345303903506158281824092192203866112.000000 -12460897490344168539724487686747057661376522553631061551096118708581593238750549256569626164754682740736.000000 0.000000
-12460897490344168539724487686747057661376522553631061551096118708581593238750549256569626164754682740736.000000 7303973449970667820748998369732370867918520038646573267886750078021130294328330162202578379686780338176.000000 0.000000
0.000000 0.000000 0.000000
11986194443632588251543215510297360787555428414659817436579681044652575936826254378555539164626734284800.000000 3970099566965897844716473812161151142098430212754947293688641999166682897077348956108444193502638637056.000000 0.000000
3970099566965897844716473812161151142098430212754947293688641999166682897077348956108444193502638637056.000000 841576696838153332032180235550172465344898195768908607944312088265248637155937362706167265386322460672.000000 0.000000
0.000000 0.000000 0.000000
-666316246570780932490713723430444631978758106980998465586242047978135089073298537935528029389617755062272.000000 -41693751321035476367948072700940249945816308471818541814148653944143956044112550198991234524492022677504.000000 0.000000
-41693751321035476367948072700940249945816308471818541814148653944143956044112550198991234524492022677504.000000 8348929520728625559587696903113139055917304664754851473134254197615052888269920351863145299989575499776.000000 0.000000
0.000000 0.000000 0.000000
86015736052837794058580402788369242923128655444606070023532930601718571120770098141079497418984304672768.000000 17909379159072487386529947316580094236220360995665102730686524064439892684217407592567606653267791052800.000000 0.000000
17909379159072487386529947316580094236220360995665102730686524064439892684217407592567606653267791052800.000000 3040510162360874707665120983557611183510030546331647265901288659207067359815536136678791537419976966144.000000 0.000000
0.000000 0.000000 0.000000
7000623881277975300869966985568331666852833357537578752197798592614543867769261130811709200645876613120.000000 2174301581160216459942896381478830669624176846406749674517247876361059814058131790608759427845133959168.000000 0.000000
2174301581160216459942896381478830669624176846406749674517247876361059814058131790608759427845133959168.000000 1589059716966745538980285615598363711607617575363572246768801932128994881149622152880494030545743773696.000000 0.000000
0.000000 0.000000 0.000000
42069239843831486037399522195609113001859577306930409906088342280519976381706599991120110524712521564160.000000 102146115748929340826056063024207829663824176342796005104998967833659037554048806781289539144302412693504.000000 0.000000
102146115748929340826056063024207829663824176342796005104998967833659037554048806781289539144302412693504.000000 52300547069997009103253367191621276225793782133368431991872698957493783322091965477900314911979327193088.000000 0.000000
0.000000 0.000000 0.000000
-5562137050137238710139603138050811219184083267530736376025292365403080963009082351897853315537185013760.000000 1212935834158898381149639874414721665688690931622288019187616905798657976668153696897342125672847376384.000000 0.000000
1212935834158898381149639874414721665688690931622288019187616905798657976668153696897342125672847376384.000000 425220637111552230803478288659296683062133048601017654869598687710173746929386702886539020246898966528.000000 0.000000
0.000000 0.000000 0.000000
-9742557540570417729887069504651186618621882942118401093015900334018656845041632472939824844666761641984.000000 14940360947119146153434977176448684653082781156577000921699298095490433495205642592029419113370976518144.000000 0.000000
14940360947119146153434977176448684653082781156577000921699298095490433495205642592029419113370976518144.000000 8619275920686943373544017469994987922899251851828485299964843089135166101905955742890123057658261929984.000000 0.000000
0.000000 0.000000 0.000000
640051660372245846833776477781433328303315618726911144103250951869191963286805912542280419442516033536.000000 -3773363078440678014656776546180112164130085773961163422881813309387041362765843006065070067152997842944.000000 0.000000
-3773363078440678014656776546180112164130085773961163422881813309387041362765843006065070067152997842944.000000 2097995206346230010737829598828846047867916069164368767622593051442059326714912846983870816621185466368.000000 0.000000
0.000000 0.000000 0.000000
4207609400444245428015316298715411344825645902812085904918516056812419122724514436613894606310699171840.000000 -7616011550851262643993572658915151655622669845140831869224312348691437427116182492495059929788116369408.000000 0.000000
-7616011550851262643993572658915151655622669845140831869224312348691437427116182492495059929788116369408.000000 3548288191955536471857009000738170336365744194031523528536135763914882745575871612757705959744418611200.000000 0.000000
0.000000 0.000000 0.000000
-5555164756003093600195608395515469818207969885439659578958006209128030190510013457550066398257743921152.000000 10009451539580747762813567893869590450397279255133164683804990707581260894157395762629557488231886356480.000000 0.000000
10009451539580747762813567893869590450397279255133164683804990707581260894157395762629557488231886356480.000000 7567135677308114474703124313208618021490888535800310235890299443480739681464213543184136793053837918208.000000 0.000000
0.000000 0.000000 0.000000
2928450440363748957869700191756698584127158136548289423183259177773275430247631326989224749486661697536.000000 2493301220130548909017318767040177752668356366437990249111822916743306229625246531015190720264974368768.000000 0.000000
2493301220130548909017318767040177752668356366437990249111822916743306229625246531015190720264974368768.000000 985813322376424384912538761426767594213009304693712437266672033593975818385731076105159358027504025600.000000 0.000000
0.000000 0.000000 0.000000
3434693704932142524329500981792012706619865798114747408135086441008087849637066407862478141771372036096.000000 568270158366133669800356931384278389949363955200745867392728733846903863968526733423483779301567889408.000000 0.000000
568270158366133669800356931384278389949363955200745867392728733846903863968526733423483779301567889408.000000 245498774796243452775808453027135147079162424067471758848707164656875274007460045558879887559695007744.000000 0.000000
0.000000 0.000000 0.000000
-1835985513253925867472791519936763271302858685813877786626604830732055581933576117619479332377858213412864.000000 -165848778270788110755657265422274295240721593536298790657178499194842679027554078271179174343904151470080.000000 0.000000
-165848778270788110755657265422274295240721593536298790657178499194842679027554078271179174343904151470080.000000 28519798796148142804954288414389940767346858282704786753766655153887323853732501609785757196396636667904.000000 0.000000
0.000000 0.000000 0.000000
-768389636198818787855368624962659749735120495184530093133754306158050805485162154638712303742675782205440.000000 -96795023279837893041025826362762183728586469289050391732058943422030599978142120918652697237202774523904.000000 0.000000
-96795023279837893041025826362762183728586469289050391732058943422030599978142120918652697237202774523904.000000 22368962988566843484530620148384056082726475095803307347961804463435255130123629672168627662772026474496.000000 0.000000
0.000000 0.000000 0.000000
56649141234375935246010576555348644305475168110430411692969107436544781062015107136286206262932504838144.000000 -17882296370154317676354715816586776112417019558048348132406963985130884993036787633347551524205717618688.000000 0.000000
-17882296370154317676354715816586776112417019558048348132406963985130884993036787633347551524205717618688.000000 3609075102770964974660699737018730509159151990786094192156417360172195260886765986219762746644989214720.000000 0.000000
0.000000 0.000000 0.000000
8656274332138431209150143862984220146667145682949616469120544142259220220850805770763710299732482981888.000000 -1983950786793831201490218086379144536971028025577413775476149961994141101895090427750464710351794470912.000000 0.000000
-1983950786793831201490218086379144536971028025577413775476149961994141101895090427750464710351794470912.000000 1109151099989891864543276340147167553980624251193204139879562177690111403901246527424983747001160040448.000000 0.000000
0.000000 0.000000 0.000000
37911274764214742846820827429539259332203795234569212121565042512474758641333126446458386294613064286208.000000 12713117758803874667865114043079461628361071164327435478058698658325634834255194841052855195205040603136.000000 0.000000
12713117758803874667865114043079461628361071164327435478058698658325634834255194841052855195205040603136.000000 2644563472545114276524302837979963172005094018146405534982531047914270728283124970692057879260726034432.000000 0.000000
0.000000 0.000000 0.000000
27264444677898485050585387376312601078637206817542982903083627872704764416071962345882162420978269814784.000000 12163608071699617228611874389397566470722186092543651625232928147674214731901981395104200581562301939712.000000 0.000000
12163608071699617228611874389397566470722186092543651625232928147674214731901981395104200581562301939712.000000 3206743842760457949783624403441278389543913726266587091429557798841224889299686930105089964021108441088.000000 0.000000
0.000000 0.000000 0.000000
-252560884421201598508260628177704564514146614589806638674625526929831926947087763092069829566539853987840.000000 47652759936111041527342637669916801061156301088542620735650394679808638934417747283754426827062445604864.000000 0.000000
47652759936111041527342637669916801061156301088542620735650394679808638934417747283754426827062445604864.000000 15270002087186382653047889132344052379751199469376912968760252624015976144369362656637586580974887501824.000000 0.000000
0.000000 0.000000 0.000000
-10306696998235596472960568547503564466352051540648630732483689354544146072395202161042206377252432642048.000000 -1769789076589890820384078316101552747052043872813834721776851867081035106871727238666564836369597726720.000000 0.000000
-1769789076589890820384078316101552747052043872813834721776851867081035106871727238666564836369597726720.000000 499802069150232952992030471045425124088557811878930114252609729504100048777260667898347471221318221824.000000 0.000000
0.000000 0.000000 0.000000
11450992560762277525278064779296698378932351151662376489616115436212842436525816032790406781281706704896.000000 7519103472693731943073617223248106716381768125094504404877884161107351621139732358582909377679930163200.000000 0.000000
7519103472693731943073617223248106716381768125094504404877884161107351621139732358582909377679930163200.000000 2582050979128151184567355254543022696095812860309531734101210631566979522543108176084435668080080715776.000000 0.000000
0.000000 0.000000 0.000000
5655527208423312098886015776178891063411634694768675831493422915521325375744663988441761741146706411520.000000 -1161385754792885213050172160933622734002384920799374021863657911837496750982519559851905515851719114752.000000 0.000000
-1161385754792885213050172160933622734002384920799374021863657911837496750982519559851905515851719114752.000000 3356638137300986975711729421642341012493152579653115801220451946270875336632155978320982370496618168320.000000 0.000000
0.000000 0.000000 0.000000
5055881288106694234885703565247152916643404158414904716430711721761925842340390363196771887198555340800.000000 -1307868350724653285805553880666114503314206900561067796057026659276042123966278701154433367326943346688.000000 0.000000
-1307868350724653285805553880666114503314206900561067796057026659276042123966278701154433367326943346688.000000 256851958240919498698323572236014463935039363284105222759418948740024904043360661691866380407710679040.000000 0.000000
0.000000 0.000000 0.000000
11975143184426363780664423050508297055433834333932531149110034919508305838163079901746716254850126970880.000000 6972160182572394609232833758824125318499141762677648726637085487591625664343068781108835017936391372800.000000 0.000000
6972160182572394609232833758824125318499141762677648726637085487591625664343068781108835017936391372800.000000 2221141688863474552635627228172280214653695375647760200317068918879340799350888493013790778595450290176.000000 0.000000
0.000000 0.000000 0.000000
20800638518503087615983072587182143436155151914270988017217865020672221255112498513303633005308062728192.000000 15367242745260132044179299999882855967089487529930735414685723531354030093288665815060855638039826792448.000000 0.000000
15367242745260132044179299999882855967089487529930735414685723531354030093288665815060855638039826792448.000000 4871596939423138369250550995994793360576321146003593596923511409850257368664179430839500101126344146944.000000 0.000000
0.000000 0.000000 0.000000
-4020181268272042690941549601133029052126902576550266903399260942916998525290488699411143294610609012736.000000 4289019236447628709936568254342335292980177955404937348000766495431483777693334593274838307435614044160.000000 0.000000
4289019236447628709936568254342335292980177955404937348000766495431483777693334593274838307435614044160.000000 2449077117143435841301180998592326758492146840555370968738291111682894042666833847992682017187910647808.000000 0.000000
0.000000 0.000000 0.000000
193342445744289287291344420766525944417599625666989179022761275209448184177431764061618456440032399982592.000000 -247358429757897135205389425399028394630262883062492870049559389814357139000897453808176951903641118179328.000000 0.000000
-247358429757897135205389425399028394630262883062492870049559389814357139000897453808176951903641118179328.000000 113604257569802378289356623438923145166439138065906274245569720599052405490981900573568865485808033857536.000000 0.000000
0.000000 0.000000 0.000000
77372986421252914781538962100424116913872158416671241663375344258454192909790723738502434092220416.000000 269028840908677690927982991689344207989985753057323228079188359285465366239439655355204965310136320.000000 0.000000
269028840908677690927982991689344207989985753057323228079188359285465366239439655355204965310136320.000000 141996767079813079867693016921307697417025406894639809682103873258229876226795884486641949652025344.000000 0.000000
0.000000 0.000000 0.000000
-5414231210243286660281730134769542370316704985294728817317370437459000985922601155361686725230228387397632.000000 156185758235192209527016337782819033529701211007177549818080893492175421223737207893105518684894866178048.000000 0.000000
156185758235192209527016337782819033529701211007177549818080893492175421223737207893105518684894866178048.000000 10023948533728089718372008723023449448408364992545100889706668720540576682127960636651709578551647797248.000000 0.000000
0.000000 0.000000 0.000000
-106661314664700703821538493777220173411227323000033965970239776022672248548547198432078146825810983518208.000000 -13662431891096339123028519838928049513029309860510374244010682374778375109202087833332607057229533675520.000000 0.000000
-13662431891096339123028519838928049513029309860510374244010682374778375109202087833332607057229533675520.000000 3201857185592556517854177535654342899265649812435071888326505570094919154919763189703780642251029348352.000000 0.000000
0.000000 0.000000 0.000000
12210757959613381903342422190282922558972421922994191676775214542974192020213543129977578894274158657536.000000 8821636354634362786285911594968234103690944272684796777268138276326896108081190871950610483226125271040.000000 0.000000
8821636354634362786285911594968234103690944272684796777268138276326896108081190871950610483226125271040.000000 3256580241957641731693869124341854751886079563540584029587986470626557585862776954127139117825538392064.000000 0.000000
0.000000 0.000000 0.000000
4989209684885701032768875519294521886127390447977021867230038919468208781915024632659814144985201115136.000000 -5428260057892978004665789784030464000415411573023262918361938595408390358084080400343011142514975440896.000000 0.000000
-5428260057892978004665789784030464000415411573023262918361938595408390358084080400343011142514975440896.000000 2359190117922928733925510757943151621491314343621754104482202561337332552541669170493625169438616584192.000000 0.000000
0.000000 0.000000 0.000000
-11472096380444053289886366078081530040847981743621677188795104363312117833839733273634265823714115321856.000000 462215278663626234795246835613446776055568722996242043565942504174795625539741754744798253362039488512.000000 0.000000
462215278663626234795246835613446776055568722996242043565942504174795625539741754744798253362039488512.000000 793331641642150877165606631521532314973146125618797547356948166394761834894472796371888282330078380032.000000 0.000000
0.000000 0.000000 0.000000
-704303942724908721297156222237307427712526906747399002216559014654457327971950831933863512624211165184.000000 -1057578360382215672214627984941813727456883022216161224058430451065906772862504405891098880627072565248.000000 0.000000
-1057578360382215672214627984941813727456883022216161224058430451065906772862504405891098880627072565248.000000 610016126216789391688229942206806171264700308063139840611282920572576150089500721017093754245273878528.000000 0.000000
0.000000 0.000000 0.000000
9564364322614618502211746301829412392861930314198086798189750067298448960996053342564512169708316786688.000000 -1620613300586143350130292407608079676597664140220419944155450088709705117331603653623318980071337754624.000000 0.000000
-1620613300586143350130292407608079676597664140220419944155450088709705117331603653623318980071337754624.000000 183935616068318184405711827470207112073771501633545285831681306165542022060381526615742247645090938880.000000 0.000000
0.000000 0.000000 0.000000
12118039385652411166519906877488775017766325101764559395920972157962826129334696032054964385961757114368.000000 -16751917846538265200850400878895979043747941601534373309981284335609358541394430261789443158274882928640.000000 0.000000
-16751917846538265200850400878895979043747941601534373309981284335609358541394430261789443158274882928640.000000 7721267321723387446448276773583977608755755253381954674038528703612197392435389890208169437388236390400.000000 0.000000
0.000000 0.000000 0.000000
-24970162447364184118116964035629078893748392920638053088266252223401649504116663946649326637686888333312.000000 2324218796779418346984347199880411764158896385336734865736843699536271524865311928617335545862111100928.000000 0.000000
2324218796779418346984347199880411764158896385336734865736843699536271524865311928617335545862111100928.000000 545154959861275062253226505080222081148022811086174326062828002197933254420533123831305756485575770112.000000 0.000000
0.000000 0.000000 0.000000
-537897936943086280965035166097121105218542196795466053937615867682667943302403615464856021535070319804416.000000 -44067911555676549838392429790870417669450217641959238960330410787884202000895146798655034404207761293312.000000 0.000000
-44067911555676549838392429790870417669450217641959238960330410787884202000895146798655034404207761293312.000000 6944576686775227684850599007642785730981458340742237888069830907600522002460497738314854717707404705792.000000 0.000000
0.000000 0.000000 0.000000
-59727494855269544866812827237992521690556729847939917605088817983209052030637179504770009274740807565312.000000 -16329374779713497415709087531192437685771620994262507183912899736359966299042951580567965036167244546048.000000 0.000000
-16329374779713497415709087531192437685771620994262507183912899736359966299042951580567965036167244546048.000000 7719962496022612790415787160652681201751055992239287545360009002085927459954371726560181246781709877248.000000 0.000000
0.000000 0.000000 0.000000
1059986067108455949276193052715582346604430387136552473848594371202124561216841506332187687257515229184.000000 855644654296058285077777321149702849106089756328712213522556589842454316991719634025097690762153295872.000000 0.000000
855644654296058285077777321149702849106089756328712213522556589842454316991719634025097690762153295872.000000 328842307703068918591833598885307523485252679699614271702965580879474555403066956728809834015755337728.000000 0.000000
0.000000 0.000000 0.000000
4363455416279463585069018148428315068895388343389044260936067983564999591203377288546503443751553204224.000000 -5381580715924461759265696377600539696884307012637371347266788099907339644810550534758892387117792493568.000000 0.000000
-5381580715924461759265696377600539696884307012637371347266788099907339644810550534758892387117792493568.000000 2433712232986617804798636077184921245172505902787246572505002198201167429061217566613236092367831826432.000000 0.000000
0.000000 0.000000 0.000000
385207174031707559543842694276592739119487092187697820073958920807468089106405598239887960225643199725568.000000 146166819131161764153354955740470088539786992545472560775117189458679163087499677881998570242058661920768.000000 0.000000
146166819131161764153354955740470088539786992545472560775117189458679163087499677881998570242058661920768.000000 33792307571140969544199142987989924830772374596881526570245349315161113108335831796370663607191923064832.000000 0.000000
0.000000 0.000000 0.000000
65218509620563564834291898689046788827474982852060826963235984998287610070598996180718244817680635789312.000000 -105410056498281488661193390982043589951597544628359888954248095778321183515297161517027841750791526285312.000000 0.000000
-105410056498281488661193390982043589951597544628359888954248095778321183515297161517027841750791526285312.000000 50843885889327917666398645607330126205071858899546647384838986573893071077653386458656820402177242562560.000000 0.000000
0.000000 0.000000 0.000000
4473346594095136226965500195142943184986684676272880895776245066214249754185063858200929710681163300864.000000 -4263455491132214443099417390949286329896577865388926882674065525293283236439437607369850431537164582912.000000 0.000000
-4263455491132214443099417390949286329896577865388926882674065525293283236439437607369850431537164582912.000000 1750006220196328515913000978227508938910990367581358306992022839107708906900372340563638227807076614144.000000 0.000000
0.000000 0.000000 0.000000
-6577946921892037878193696295386057038774124411025403578234093381398769594920805008378342252115572817920.000000 41456944354854841178980454940634951044003014304105077048171405137083217640706539326543150493329000497152.000000 0.000000
41456944354854841178980454940634951044003014304105077048171405137083217640706539326543150493329000497152.000000 23459357189116173339142550649005333690559616192754241935946293856895173336407682676421178323211422531584.000000 0.000000
0.000000 0.000000 0.000000
23967616999881296936603694205169221840109029361561215996799121576587663489482557501759070984881569792000.000000 21841026436667918212153499934282265613642570182299506840076753316544156151914355402411863576895159271424.000000 0.000000
21841026436667918212153499934282265613642570182299506840076753316544156151914355402411863576895159271424.000000 7891129272834599590439007713472936526739740514124767690162862194395281208542330766051948229697455783936.000000 0.000000
0.000000 0.000000 0.000000
293380390723601614693163883759531033938100543701638690704795631519423965046232009525168452706364293120.000000 3307533506468124308586417022950691389542372501736760217728494055847257447584869133794763708586021355520.000000 0.000000
3307533506468124308586417022950691389542372501736760217728494055847257447584869133794763708586021355520.000000 2054781244443722235576681928068116932421720112082662859232132780001392528544159269407269458336601341952.000000 0.000000
0.000000 0.000000 0.000000
15910340159097701523182469159557261585962444063822758169621996311722644539334574443174467950196939554816.000000 -2050552124991361495839840645864540667353226416363154344753750536770841052653551781062786409701480333312.000000 0.000000
-2050552124991361495839840645864540667353226416363154344753750536770841052653551781062786409701480333312.000000 1149696125056866320840512580417435664580266889130410012531432685435029762842130770901539476999065567232.000000 0.000000
0.000000 0.000000 0.000000
-641790273132498933623352202985010453500358689859764891392090209617792046822365509830696506903584631538319360.000000 462414345345111385215470136910775396364789196541562021583890632045908290109390817223293633941618116526080.000000 0.000000
462414345345111385215470136910775396364789196541562021583890632045908290109390817223293633941618116526080.000000 668687670237319882683097995144109710232215118614595754073169967945222218451873438660503926985096953856.000000 0.000000
0.000000 0.000000 0.000000
37310272319411132861223111934028472683615525885704681240239640799616151842105971803700216216142621966336.000000 -49018494436467519299102660482744102449581591572507425248299597210333089102792209722142210722767489204224.000000 0.000000
-49018494436467519299102660482744102449581591572507425248299597210333089102792209722142210722767489204224.000000 22552155295689142961282753190520245059444297736742911931161506955449130004100560782910555479927756423168.000000 0.000000
0.000000 0.000000 0.000000
-10583436214938511297562429593637400823083912338794643598063381610522048667768869067650845037218307768320.000000 -5793462177428719165092005809040086267407073456560271145362525225548098518494833692294341307641750355968.000000 0.000000
-5793462177428719165092005809040086267407073456560271145362525225548098518494833692294341307641750355968.000000 3041225024560164240240809489962303827157761367166114940226088777939880504923812639538279780055418667008.000000 0.000000
0.000000 0.000000 0.000000
60244630724523773276103207856532099101700987031217639728835251369928716464489093647602272532356910809088.000000 -6454153218017150411305169444698913479494293407531584025761410719405810629462087100435665860668159950848.000000 0.000000
-6454153218017150411305169444698913479494293407531584025761410719405810629462087100435665860668159950848.000000 1236731187137634885128678206067404518156249136874003155654092030685327392953067827496087423821818101760.000000 0.000000
0.000000 0.000000 0.000000
8100527331008872323839659282530209724067272493209213313432018230946723428607151272768047262748827975680.000000 16320274722915477831617394161534450533585577585757611156987718756394141402855482921320494262097767563264.000000 0.000000
16320274722915477831617394161534450533585577585757611156987718756394141402855482921320494262097767563264.000000 8162614857358557765350633903398603220312965982297621717419060372577649167639145779609804707998814175232.000000 0.000000
0.000000 0.000000 0.000000
-5969296255805456324608100342528645930001126576319742067065544472721422470952598757479395823688433532928.000000 -533725431687701338628765347807030778965350576674977963748196284565682836775989517407693307433298427904.000000 0.000000
-533725431687701338628765347807030778965350576674977963748196284565682836775989517407693307433298427904.000000 79232994763846420986542885520379639819709854697300131662353572856683013713329818613111317260899713024.000000 0.000000
0.000000 0.000000 0.000000
1670178374324153408197254572550576932381213696417972263791745711591783782377533288649015836175016919040.000000 4506744992864558480738827332363993686248267122498647044819023719379077580854297714008936998015843958784.000000 0.000000
4506744992864558480738827332363993686248267122498647044819023719379077580854297714008936998015843958784.000000 2983752748145839708310483790813014109358901529276753814576774275264271021070998655140648045167712927744.000000 0.000000
0.000000 0.000000 0.000000
-2127620584658756609308911850302829395977478786020839726095210262160966199915192499982130767586081636352.000000 27594533451335408716341874150988242961676194688027121754423348743911528700739870785569678837342636343296.000000 0.000000
27594533451335408716341874150988242961676194688027121754423348743911528700739870785569678837342636343296.000000 16370966699259142055779520281794464796164664539754365355290185821079620981219099983156830002005483192320.000000 0.000000
0.000000 0.000000 0.000000
16555199634423915645779130347000340987131308412074362927332998163694420864714396266619073199629381140480.000000 8119522554978067537806189317017282902511735797507725857029035780201400299313993846690132502022627262464.000000 0.000000
8119522554978067537806189317017282902511735797507725857029035780201400299313993846690132502022627262464.000000 2298563671960438504447950647274578406529228542152299570741550503258214646858377023309520890553276825600.000000 0.000000
0.000000 0.000000 0.000000
-2944526251982056904776688692406115098424835152689306760615453431463300980316252673974309331672056113135616.000000 -76266659208405990633904414515227868133132204894409785255623232427593933424699421105304602084242324717568.000000 0.000000
-76266659208405990633904414515227868133132204894409785255623232427593933424699421105304602084242324717568.000000 3940888877087955439355978062862276768235160948602756020100128777682218632058274577718941772463546040320.000000 0.000000
0.000000 0.000000 0.000000
2589442698959693090870845316144902451640535999230018055650760796156290110942484682505880442019631857664.000000 -47793635911092824160457246265235717228703736028590347865080359421953284173989789004231544235895029760.000000 0.000000
-47793635911092824160457246265235717228703736028590347865080359421953284173989789004231544235895029760.000000 87832356790266281190673090419172999172536568669198945645713908142667925718374281514011074029416349696.000000 0.000000
0.000000 0.000000 0.000000
1399703773065626304229985662109881158971896343658896045332365145053350984446121121088294515635369541632.000000 3417581800879160566703308156416651903256821205549963045154181458626600758291935802940709743713631338496.000000 0.000000
3417581800879160566703308156416651903256821205549963045154181458626600758291935802940709743713631338496.000000 2154600252833025875379797732805159084833103038143043529063777391814202269080773862996971393012027359232.000000 0.000000
0.000000 0.000000 0.000000
2340075703253666405992867237335306598534734275257363168392350238471853118749752046979331609896482242560.000000 1150445687251945518664861432946961699540488774974631977185089551051165148252696649756939438416520544256.000000 0.000000
1150445687251945518664861432946961699540488774974631977185089551051165148252696649756939438416520544256.000000 326379798288483197794221273106723169728577929805131411382733808053289902761538366374166686219011883008.000000 0.000000
0.000000 0.000000 0.000000
-10550371263784081944623941248304171761602270636128881183726198173485016564322624286141760454835591708672.000000 10127652197059083132274764581479402157758561647231683372445184084012907522953372706172064832417374928896.000000 0.000000
10127652197059083132274764581479402157758561647231683372445184084012907522953372706172064832417374928896.000000 6064463460872344965486254158904732517515660268310838719929146292588464832712923354131104367957682159616.000000 0.000000
0.000000 0.000000 0.000000
-38857501707549642254509035311424306511474212882170239170649802177649094995179384445829315324287457658142720.000000 -189318105099418092996142855843294984886018574477132254607116544838713346208890602562764919302232683315200.000000 0.000000
-189318105099418092996142855843294984886018574477132254607116544838713346208890602562764919302232683315200.000000 1848387782088369044966098650433210339089013958862651167132938639432600806211723505472286040873949462528.000000 0.000000
0.000000 0.000000 0.000000
-532715094296379931329054900492826793720249242379873545523980509406744820963193292225302228120601886720.000000 6852261343419569093165511363147436184974319690341042929723592485957643958121353980204173778775762272256.000000 0.000000
6852261343419569093165511363147436184974319690341042929723592485957643958121353980204173778775762272256.000000 3854805392289974141872650406701897007869834281818997465457483981960920555511228023168270577527620108288.000000 0.000000
0.000000 0.000000 0.000000
-390554784551265904182675763195220656211267411920506149512869266543893602409713418062925080906708279099392.000000 139976638841804965573964206229895535798005034433330992661428947355899751617372208325888151673718685302784.000000 0.000000
139976638841804965573964206229895535798005034433330992661428947355899751617372208325888151673718685302784.000000 63761466179192244589223043530980151310374617939127063368875868079580959434976872430690768805414416941056.000000 0.000000
0.000000 0.000000 0.000000
-5497783782580697418998196648137371613300542989509536097785110976996394517653971357936734495550660935680.000000 2163546743885634845709766703291730067591599246690283393721523194789248984681150499168472676482724921344.000000 0.000000
2163546743885634845709766703291730067591599246690283393721523194789248984681150499168472676482724921344.000000 583789138801513744646996883874027486711609039428240177942554832302628606759751389385122259694323236864.000000 0.000000
0.000000 0.000000 0.000000
91331383937119135446310954656466230217743206598531278779420149728768076245149904105406491620448275529728.000000 41667420438798688231710851888861360904126359336383725698346164082498009167317978518652024355879529742336.000000 0.000000
41667420438798688231710851888861360904126359336383725698346164082498009167317978518652024355879529742336.000000 11146991718103646425406138496483983513583985857037029594199203509160513731791983448357448283110540050432.000000 0.000000
0.000000 0.000000 0.000000
-288466773310665460952917739435581610704891757946158423041315786389494491802818078442029444402348294144.000000 4341614985387117485518121661079929636160001463415565431547955581853248765604407933934121273277817028608.000000 0.000000
4341614985387117485518121661079929636160001463415565431547955581853248765604407933934121273277817028608.000000 2435385905767480968588886584254014850181496367607151056828789845012889660391664160590570050608699539456.000000 0.000000
0.000000 0.000000 0.000000
181150283116191823332034964258357880684796599218845057332887822487329202696615404122673622987975950336.000000 -201898827760675465863087873425289621699597750387836383170254192410581123302346470649118926896560603136.000000 0.000000
-201898827760675465863087873425289621699597750387836383170254192410581123302346470649118926896560603136.000000 88473612789487428252702475280319420053603461937795427044501650568702037774568560535019524630478061568.000000 0.000000
0.000000 0.000000 0.000000
2874886130487117849819442931830348674853298648754499440138158437924670889826543197332747509909170421760.000000 -1139876571582300368779885462557402257325994152292969157980001665233560448553741717084601176229119262720.000000 0.000000
-1139876571582300368779885462557402257325994152292969157980001665233560448553741717084601176229119262720.000000 492298942003713975111984121263539715549326762631414557973650946727741179694856146693294474463478284288.000000 0.000000
0.000000 0.000000 0.000000
223448683640248469367106196231378731251156070109653344861514559547310455672742257303699732442550108160.000000 -7042416935218804846036683657783126321976581561845825622932564836629203681163604119601647098257110728704.000000 0.000000
-7042416935218804846036683657783126321976581561845825622932564836629203681163604119601647098257110728704.000000 4829633141219554085091165918196188654353880797185410947817271629404260511486431901248502162753251704832.000000 0.000000
0.000000 0.000000 0.000000
27440076914608947977328969589025262964981912539850254856149343394901739521045110130892916199741313777664.000000 124714518734882443045222021678806034441952194572215852005689863179936792272549037560200691803939143680.000000 0.000000
124714518734882443045222021678806034441952194572215852005689863179936792272549037560200691803939143680.000000 143548168439463569841073571504305385804175675088882453323986120260414440184723764908790149013693267968.000000 0.000000
0.000000 0.000000 0.000000
-872723555585325119991585312698790453657282451838495265097771121336002632687065085763590134479508733952.000000 3856698576864039155771023909400390058215108232913749551344028528024774287616236326966562267313213538304.000000 0.000000
3856698576864039155771023909400390058215108232913749551344028528024774287616236326966562267313213538304.000000 2197626458973246106976816041338844064331912932582936419306288588662369911876309059137750239252932722688.000000 0.000000
0.000000 0.000000 0.000000
-77012640760667957290872924932980936287855603821456708780213192419697760633001104715966010460422977617920.000000 -15794203328466251085066064138869031741713206905030045061953687981330620384950078267333772769534347837440.000000 0.000000
-15794203328466251085066064138869031741713206905030045061953687981330620384950078267333772769534347837440.000000 5304556058881023710010695441019458145784855501888603756510158279741511473408849594084645810470710673408.000000 0.000000
0.000000 0.000000 0.000000
17896270126449606082104066005187530129487037387428100785633719477050344898356148155244367809860060839936.000000 11514157569550786041617167159177912175767651685035369882439277664378630113861355700245955367866436943872.000000 0.000000
11514157569550786041617167159177912175767651685035369882439277664378630113861355700245955367866436943872.000000 3921048638484705272864076353898733423171854431242763750620480151337833745866715493998151693073670733824.000000 0.000000
0.000000 0.000000 0.000000
29021318097157588289396588983127340776639773041241195535042401537180158916686177176530875893414157615104.000000 -3826650072935460449934108355836709561972610295556343248368107262299909151421841792869560105322921590784.000000 0.000000
-3826650072935460449934108355836709561972610295556343248368107262299909151421841792869560105322921590784.000000 348043413085971016983601260149205283868185541883871994621124927757454498019351453610483364238343536640.000000 0.000000
0.000000 0.000000 0.000000
7536936240987348061128885519547262026981626063269936669426817127865850590730362159405332622660702568448.000000 -2073727816001324828259682024286140028006124960628224664456516350018181767687412363636363260156323037184.000000 0.000000
-2073727816001324828259682024286140028006124960628224664456516350018181767687412363636363260156323037184.000000 731768095091079951417697479906006613931640921317159096021157295378548918853819018173057951931970879488.000000 0.000000
0.000000 0.000000 0.000000
-1725825476452062403267170043805518559148338723339528552166766756399600616170385544693404565820411717091328.000000 7951658325626529338562087448756364595021670450545829282053487503372362233083194656331914336005240389632.000000 0.000000
7951658325626529338562087448756364595021670450545829282053487503372362233083194656331914336005240389632.000000 290801596776869389050256630066097088362030046291581152611465655252755317628516916799767395443673137152.000000 0.000000
0.000000 0.000000 0.000000
-1746685341159056897624183143408699665379572212961247429925357236565001102287341907398809668435379748864.000000 759435583224212990070026668322376790417942665170654709233163667540694369432387078297695938379459330048.000000 0.000000
759435583224212990070026668322376790417942665170654709233163667540694369432387078297695938379459330048.000000 442371016918055405078793848889035774511079074448941244944989515077807986765690135393903904445737992192.000000 0.000000
0.000000 0.000000 0.000000
-21203280773782889895212000769940912316924911670576641090388055745163245742580042618846010518408651603968.000000 -9206640308142394530262660033133551210512028514734971020010439659226378762764083671674773615181704462336.000000 0.000000
-9206640308142394530262660033133551210512028514734971020010439659226378762764083671674773615181704462336.000000 4980590612132872362141615699248120255106938241976836543399475771403660026258291212867963472289940373504.000000 0.000000
0.000000 0.000000 0.000000
-665732356653830291285588713849064574076314245779348094147518189894082346054272261209255979427882806018048.000000 -38851248304293563867070255938997975746948699346987822006434071191413985135556242622973287598354772000768.000000 0.000000
-38851248304293563867070255938997975746948699346987822006434071191413985135556242622973287598354772000768.000000 5465923169400320889230742164493946477670370304695660091764655782169788798750772086176240205286340558848.000000 0.000000
0.000000 0.000000 0.000000
-120049479123423975541406837910707050442942021736231262947200881446012080571045664240924140362159703982080.000000 -19357159928223354134202955190672359508726220644866967105805064468681962510061085686774792039111378075648.000000 0.000000
-19357159928223354134202955190672359508726220644866967105805064468681962510061085686774792039111378075648.000000 5455656393230715989671732093648368241443376738774036012896196040568713844676687064919902459824258940928.000000 0.000000
0.000000 0.000000 0.000000
-1993056399705992700627887856276769235300227096892409389115761491499407637488977038440132106911235381919744.000000 -94869784518328829666603083812011117633312604141661468431326659711379247487959719574628033324660593524736.000000 0.000000
-94869784518328829666603083812011117633312604141661468431326659711379247487959719574628033324660593524736.000000 9495667860983927188078492511436351464265047788772519410341102024188697907877558706612607230917692358656.000000 0.000000
0.000000 0.000000 0.000000
-16350513095847804461490519606728318834084578245626890321896863838896053069459278862128642495713975992320.000000 -8963662878860538004996881422036726353299571102810350152959249468093651510921980235626958516135711997952.000000 0.000000
-8963662878860538004996881422036726353299571102810350152959249468093651510921980235626958516135711997952.000000 4691219931083121830985945034703284901773527694964991881653318986377057435154749654974515080799281217536.000000 0.000000
0.000000 0.000000 0.000000
-617597391112775983282903712792663522746046245568697563766534717316671457410972895920002439953965938670305280.000000 -3178049646044747944784925597867019412150489962100741836986432772328939528094512362340542019754576513597440.000000 0.000000
-3178049646044747944784925597867019412150489962100741836986432772328939528094512362340542019754576513597440.000000 32746417498978095781538390835625455880214308472272188652090685780375209552423426946972665417747769851904.000000 0.000000
0.000000 0.000000 0.000000
1509995068535513571634209577327602744146259679427201369565373411113754081813195191923475535556547444736.000000 -1118173810464913145665595183336750236654281475507873764210711398893709188258671140807432058255699869696.000000 0.000000
-1118173810464913145665595183336750236654281475507873764210711398893709188258671140807432058255699869696.000000 411063635594296868651611070687371861672482633773476264833746362924460998967291920596692501604811669504.000000 0.000000
0.000000 0.000000 0.000000
56645926372865010634216966683649875579047910236601358882322678876583005445193829405407327258740344750080.000000 -31452807084324062086348547416748269814284425769793085898652728994251220663416613171027494683416933171200.000000 0.000000
-31452807084324062086348547416748269814284425769793085898652728994251220663416613171027494683416933171200.000000 9701002483399675749180076131371237069295583066337312346136569132043998030163760509859526508171663245312.000000 0.000000
0.000000 0.000000 0.000000
-224364428561176118438108555074907252680886437106658780590031632168201151614952176465318888449666711552.000000 -393783567214035460702821022168422797884122724398782590248652471113692250350154596278563781920310689792.000000 0.000000
-393783567214035460702821022168422797884122724398782590248652471113692250350154596278563781920310689792.000000 228090592847923529387776632481931937612330407302890704031460401949932946461011971871685594436220223488.000000 0.000000
0.000000 0.000000 0.000000
19368949943756672339841217480540216111395160630067892654817366198811990639514967127685513420428967673856.000000 -8968357551416286338069628027501910916031929079331864760379581129271459742616299921904754247720251686912.000000 0.000000
-8968357551416286338069628027501910916031929079331864760379581129271459742616299921904754247720251686912.000000 4561632182857068586456873019831387389819459577960495883417219072288415087704130808998480808872549285888.000000 0.000000
0.000000 0.000000 0.000000
-10923504785831239148629511074081553466642802559654891879179186259864130828090203310496958811784230207488.000000 763576975897091651567547219248054055230104637565528965539207762144744177729725922585714339934877253632.000000 0.000000
763576975897091651567547219248054055230104637565528965539207762144744177729725922585714339934877253632.000000 165340251544032056664966135233146233586446271564753530383158145141092540007825717137813840011481579520.000000 0.000000
0.000000 0.000000 0.000000
260595661449695127344789875756981689322681611210905282273589454325747637684353083513841649832605777920.000000 -83813676839765472607991217544780354333192962868862808350341605900305916340886735317795856517433393152.000000 0.000000
-83813676839765472607991217544780354333192962868862808350341605900305916340886735317795856517433393152.000000 16814167957435922755535514580056771868692537392554692491470496238577354825803077013142217836323667968.000000 0.000000
0.000000 0.000000 0.000000
311835964054488411301338936966497088366387190439778868207831999079443646686978972513809953943640342528.000000 287307909312002141066661013522539082383054701457571638463534564506913925407449519554143200127882362880.000000 0.000000
287307909312002141066661013522539082383054701457571638463534564506913925407449519554143200127882362880.000000 116906833207631461300156678879855496657676355759719587545362229743447055855304307241258063357628383232.000000 0.000000
0.000000 0.000000 0.000000
-16654010006731339077763593674539579861588177163610389454637479376575535346588401527388464138846767939584.000000 -10674671870886800950519787568536910426511626972702342148182549199941915805656548246237487639049275441152.000000 0.000000
-10674671870886800950519787568536910426511626972702342148182549199941915805656548246237487639049275441152.000000 5768205331490332375395449654102302465893120195970093567630759220123344797367421747939794439090523340800.000000 0.000000
0.000000 0.000000 0.000000
-80214570329744493104220575779663711672306754601344739122595670927869542022315989212131649126509521666048.000000 271413178288941759069414084044280122753926082466850175706568800888204539264181165006236206157492480114688.000000 0.000000
271413178288941759069414084044280122753926082466850175706568800888204539264181165006236206157492480114688.000000 155396304845958494099356687163418468251270685418562019105511267663750152769385155450829016617975673782272.000000 0.000000
0.000000 0.000000 0.000000
92980721499535148475789758398481622540640970663990961893170359830357027337327842724997427881131900928.000000 207075644864684871806502808629468299449327557036385279160742451674956020782704424676664812098591653888.000000 0.000000
207075644864684871806502808629468299449327557036385279160742451674956020782704424676664812098591653888.000000 105190067443164725035893561276837604000167277665140719797814825281605553503488835544529683654262128640.000000 0.000000
0.000000 0.000000 0.000000
1410332763473330691958123192856171378900585784511113586456971639470059563444148605459556451734668705792.000000 -961233587069678657297864766303223134002880068025117929412523413801935669434093926049502947463424638976.000000 0.000000
-961233587069678657297864766303223134002880068025117929412523413801935669434093926049502947463424638976.000000 342591257445502545967517916701470787874008291801645977525389679903596514542453925408602661814743859200.000000 0.000000
0.000000 0.000000 0.000000
9945520605339600693247193112766175800623950560390713997498174569643441759785404065741176541485593526272.000000 -4174969339178544548561236062018842320441325870648369702695742257765055445824368343279849548438925475840.000000 0.000000
-4174969339178544548561236062018842320441325870648369702695742257765055445824368343279849548438925475840.000000 1054978345479590178180941121230570362583972196227009335070314479402451485131433696102105092784929112064.000000 0.000000
0.000000 0.000000 0.000000
7229480102928403610467958312598716346068770151932881981593745784147594038236485887894641896561980735488.000000 337099372220473935044368405275553922456565948425854766786857488773472102789253617566006791965522264064.000000 0.000000
337099372220473935044368405275553922456565948425854766786857488773472102789253617566006791965522264064.000000 10496907114348016654985038076327247019004184455615781772088407611252035812387966172749792904067678208.000000 0.000000
0.000000 0.000000 0.000000
-9749149687326361010444236800718105063130502794482716677609733960117217311763095787791968635137055260672.000000 -5862634961768181749117297861652827175778540615384050938887219412690003587509091440105359336108564938752.000000 0.000000
-5862634961768181749117297861652827175778540615384050938887219412690003587509091440105359336108564938752.000000 3091205089685092264468313778562416868294514747449343784537516220953475698276730858443328069914977107968.000000 0.000000
0.000000 0.000000 0.000000
183023917701053386661746265471184098673761776477094047462882615326095991782078072922600817653687779328.000000 -81814364771864801252172745030634439835779195176614915343660401574806809279640897889667874402693283840.000000 0.000000
-81814364771864801252172745030634439835779195176614915343660401574806809279640897889667874402693283840.000000 21545323224228954941063425049620491108623408996259265020203828733145517474519121154414191883640111104.000000 0.000000
0.000000 0.000000 0.000000
-1875292488537092740266549180073686116566662301709282604905895477373835506331019703759250494406949995544576.000000 63811373364530404013171708958688727291450280850065666828025516181167737285218731546171163508437852094464.000000 0.000000
63811373364530404013171708958688727291450280850065666828025516181167737285218731546171163508437852094464.000000 4499158706039267108872940453570704396110541070144477661924573457925666118632621363845291706293201928192.000000 0.000000
0.000000 0.000000 0.000000
205604106796094992135365904439936423227641326270339595038471593943082938422931306026493327448832212992.000000 -33539003910321520112359860462025872357936135093748770977948529294637884679396677315968577264412524544.000000 0.000000
-33539003910321520112359860462025872357936135093748770977948529294637884679396677315968577264412524544.000000 330750909273956466610991699122028175049567202869877977730257592456394405410636130500634278842763051008.000000 0.000000
0.000000 0.000000 0.000000
-14333060659323436353301743612684770765548719332728685271838140395815575863654661173099541378710716284928.000000 -669085933525749909660690616887466990929931652720905078650502874482345812553005342292710433956460232704.000000 0.000000
-669085933525749909660690616887466990929931652720905078650502874482345812553005342292710433956460232704.000000 235156633940091694819467377086705653022811321178336026585373148616357467110559051343352254991389687808.000000 0.000000
0.000000 0.000000 0.000000
-17078000537205324613337773749418736560743962794150672353585036211103781864679563056704557618956513312768.000000 87340023255954808894374964451473206767844126067458888567712857375202716629606720916474790195033387565056.000000 0.000000
87340023255954808894374964451473206767844126067458888567712857375202716629606720916474790195033387565056.000000 49436430721594067841077837758926657997751739383637629589600152322680224964383696618349246622534968803328.000000 0.000000
0.000000 0.000000 0.000000
135048732465882426448742011564749039861580182131679607547520573890090193248854064948067316819399016448.000000 -104216517670355647959421878314107050525015331894356071118551129290287703929186594762763656285825007616.000000 0.000000
-104216517670355647959421878314107050525015331894356071118551129290287703929186594762763656285825007616.000000 39150115713998329334157269745466954603469825105939384660612999320967237564760238727329497325255000064.000000 0.000000
0.000000 0.000000 0.000000
2080428804563100886433855169687227638219403493604845707170433419194399550288273043703675046270875992064.000000 191469657924698288041837429484814427432572351324714619881213118493811627591271109024781730256309452800.000000 0.000000
191469657924698288041837429484814427432572351324714619881213118493811627591271109024781730256309452800.000000 251611306932453987203925524322258178411065373945777266623168123679214922763996970728760849239187128320.000000 0.000000
0.000000 0.000000 0.000000
-6990910028399214076787196954388424549744909621340369344903413792942165154576219521342516368855846092800.000000 9361415406428132989864860286947029792352192411552783304436968040499076458189169631995832812917382709248.000000 0.000000
9361415406428132989864860286947029792352192411552783304436968040499076458189169631995832812917382709248.000000 5523737746904921179354443648931735500304419920727240358364893119492423728685899333356875209501078192128.000000 0.000000
0.000000 0.000000 0.000000
-868537518724975159233339460299644521124695121176861811895110949352285275938255248506873669831849148416.000000 -731844684548641898456855982992682055095782110472170553393583699118140790154763499923426796838492045312.000000 0.000000
-731844684548641898456855982992682055095782110472170553393583699118140790154763499923426796838492045312.000000 1462027076829852451591769738427279718240231678635727875070495329687202584997533130330238390911788646400.000000 0.000000
0.000000 0.000000 0.000000
-46549625370497440812229942015585963908548305056033397519830219129395727854251965702954086242852532125696.000000 -49747403580461864257156657112123401276888573191278403779529069390636673830107412048078020722219387191296.000000 0.000000
-49747403580461864257156657112123401276888573191278403779529069390636673830107412048078020722219387191296.000000 28420317379338724302280445344365635808311798795082909237361138469125223527874444317407795553876624539648.000000 0.000000
0.000000 0.000000 0.000000
11779247665006707074813482452933874610418057170202758374651906843947754705287458554553928450773748809728.000000 16958304701311077640315578770292563121938213305717450025574265913443612710402315244910915750231692804096.000000 0.000000
16958304701311077640315578770292563121938213305717450025574265913443612710402315244910915750231692804096.000000 8644034461657513260422235988342710762451422049617045587411882604805837486464169225921393013588754432000.000000 0.000000
0.000000 0.000000 0.000000
406232454642880480795833538301078480819929338282935343550491571038117375846045089159994055263806029824.000000 -342419654923165701635202711714230352048713426773423597981137389700598209185216340805576940041495642112.000000 0.000000
-342419654923165701635202711714230352048713426773423597981137389700598209185216340805576940041495642112.000000 134496344730989487776260297715016809087253711406101156266364755560134943300421671049741612016077897728.000000 0.000000
0.000000 0.000000 0.000000
-4514421984610020261498481084467348718126277866907378630614874173254629433917252664373682708510412898304.000000 -236448747141572105426719752886706592495011686003248007135167146194157850103137598820716587594169712640.000000 0.000000
-236448747141572105426719752886706592495011686003248007135167146194157850103137598820716587594169712640.000000 998933138869505749928144718395599773897215171267083454586398625131845361257168087309628787384626708480.000000 0.000000
0.000000 0.000000 0.000000
-445692164325994826380075793107039900855412474364865983282743138103878923274351944415901047364786323456.000000 6310926402770255713841784097305126341668326287677061852901069703068241999669500849249191437586082562048.000000 0.000000
6310926402770255713841784097305126341668326287677061852901069703068241999669500849249191437586082562048.000000 3592583764250351427684502126268368990399855396415950590192400331314752796698489161789923840473115394048.000000 0.000000
0.000000 0.000000 0.000000
29190402839376310631703455745673336220138964358648609799671087864401586276624855717187387305139789365248.000000 -21003591680270995229238700886613958452908239956131467771502215606838110903313180029120497588242204327936.000000 0.000000
-21003591680270995229238700886613958452908239956131467771502215606838110903313180029120497588242204327936.000000 7605561276791996839140857631002430455610836309040116671973697671044564322061583779056683765379893297152.000000 0.000000
0.000000 0.000000 0.000000
5456839535872230828492797636440116263245230722961898904551197508753456895957311970849100211966678401024.000000 953983085851807442188855020355881080218251335431957064421378010485113069328034701536908119162130268160.000000 0.000000
953983085851807442188855020355881080218251335431957064421378010485113069328034701536908119162130268160.000000 148748700671157391989753487876905967091035051330842475377884811702783976823047945501095826313321644032.000000 0.000000
0.000000 0.000000 0.000000
161841005772511334015066928217567342939899889335088870597595773956214887056962736847098507852582469238784.000000 20768604387429749848553925261925539437760514317373643163490297002121764605898223142786960599329850523648.000000 0.000000
20768604387429749848553925261925539437760514317373643163490297002121764605898223142786960599329850523648.000000 2436831401636263895989052325599218893118626900477835871529191200627858104978071377545543450869870100480.000000 0.000000
0.000000 0.000000 0.000000
212090161566737422883449805782462457905849708483168998672406123071727819171740884281876912420964794368.000000 -167558354431888098425721237922236235615400855006042105140843802964321566661575015503139333098073751552.000000 0.000000
-167558354431888098425721237922236235615400855006042105140843802964321566661575015503139333098073751552.000000 63686601904277976327618439280083496307966674908550627867267795408195146454337073709201374429537370112.000000 0.000000
0.000000 0.000000 0.000000
-6360940928610908224427920006582405268753477031787204011071063661237099011167313986259857972692586070016.000000 -9303019121083605669075546951484656247422764251851624619257618739888061135212286073995549878393004621824.000000 0.000000
-9303019121083605669075546951484656247422764251851624619257618739888061135212286073995549878393004621824.000000 5347706341540220485028966372126411926236694259523417600691429757382990372524971474695835866850511552512.000000 0.000000
0.000000 0.000000 0.000000
-146711487860231632026957352787686219977782817903631671823355154603250107572519660774085665653444384391168.000000 -49208487620951601646182573955266190404536232464228360226181629738080235056355854760662204965904258695168.000000 0.000000
-49208487620951601646182573955266190404536232464228360226181629738080235056355854760662204965904258695168.000000 21827995438683884740835834614297241854473134659422232920130260648162173414443853164026126574790551535616.000000 0.000000
0.000000 0.000000 0.000000
-2364921261691307259779121562693917973046248031388503345072434243159569446843559155075121941715636715520.000000 -2065170405438851875926020441249489208873243542271501703878191988288423003236517280336864185868649234432.000000 0.000000
-2065170405438851875926020441249489208873243542271501703878191988288423003236517280336864185868649234432.000000 1162476672630411684850607223575188360513978436534388765490412848916728550244385795374506124638469226496.000000 0.000000
0.000000 0.000000 0.000000
-39142815779537769697362123437147178165359146174121281361167741177646100530109997058239000202649381371904.000000 8059786432938286856213526317352358545395648557872756000139682747110849169553147874454055173116521349120.000000 0.000000
8059786432938286856213526317352358545395648557872756000139682747110849169553147874454055173116521349120.000000 2665179821261068496927779817987363540431228701161303846041476604728072561777551585785795000757378875392.000000 0.000000
0.000000 0.000000 0.000000
-83909733296190336683585575983148139006421193514635171727815188598106255258889402639955034724316173303808.000000 89782490310368155570763724348928944398288978145528350921410670244655739035462569850607623236307533168640.000000 0.000000
89782490310368155570763724348928944398288978145528350921410670244655739035462569850607623236307533168640.000000 50686582917051589344185198202137758148922491965962742038845276497457822834131593546609450135305091809280.000000 0.000000
0.000000 0.000000 0.000000
3469301021512212151416744005196460657034809422781648652380737053693072258083325803877561126693122342912.000000 -9720754451138900633820389592512275950299149761059261107409120747467388151553975138152091186955376656384.000000 0.000000
-9720754451138900633820389592512275950299149761059261107409120747467388151553975138152091186955376656384.000000 5047433894349971017886072034985993291240522974135284736291128627220218468334628044371391656193012269056.000000 0.000000
0.000000 0.000000 0.000000
15624283210027815425090154670967152239576849856156015733852417462809373052650703998372197336660528070656.000000 -1269511913899395559025217405094852972136865719723272977095962327467074735332629852056443792782732034048.000000 0.000000
-1269511913899395559025217405094852972136865719723272977095962327467074735332629852056443792782732034048.000000 1020019412074337311136417061347956074517522869131840733744272960512756593367823440130082525249361936384.000000 0.000000
0.000000 0.000000 0.000000
-38122091483425757326834266214186615783912233727253339611770882333119832692597831598241066028549703467008.000000 -2431625684682482059644455795929897498551611394802870206617000656375914087632907498501666698188787023872.000000 0.000000
-2431625684682482059644455795929897498551611394802870206617000656375914087632907498501666698188787023872.000000 518088254238965483649305624557552000526410070332261100732030212859901429323524462393223481711550005248.000000 0.000000
0.000000 0.000000 0.000000
-1115302367290162679868052833334563942931506546985085096542966092826378107555945869684424110223451924463616.000000 9855048513327452295570706923821389659073206740464584475365924944690761477694743697901125467308807946240.000000 0.000000
9855048513327452295570706923821389659073206740464584475365924944690761477694743697901125467308807946240.000000 739292291082745648290808317770611033133052134635474501772423895120905798136793580278572885807785312256.000000 0.000000
0.000000 0.000000 0.000000
6176368612690297569427577144603586877072628467170608136958078268455251199579895930099354064559022276608.000000 18628585462630889000330104543695223327120383099523365205076252140862653302153044144084873337447464828928.000000 0.000000
18628585462630889000330104543695223327120383099523365205076252140862653302153044144084873337447464828928.000000 10509355920039094268481220549768916668754022817319982071333430914598548782594239979785543027791532916736.000000 0.000000
0.000000 0.000000 0.000000
-85726650630335391857197967939516409501218984379077307647368235583899336273453380431138580053845451210752.000000 14453738514564071951360012609961047239456889450164563498219818900635967359442763373099230071552810680320.000000 0.000000
14453738514564071951360012609961047239456889450164563498219818900635967359442763373099230071552810680320.000000 4269184167943643214389960263988866200993472073921562818598437036511746313288357830544645001359686369280.000000 0.000000
0.000000 0.000000 0.000000
-43770016972701384293214751750666607609083294555960570906217340422341008001819367472011459376400746676224.000000 21304941498428766404127881595402471131839331911620647219099681415664371139049360043995138112947413319680.000000 0.000000
21304941498428766404127881595402471131839331911620647219099681415664371139049360043995138112947413319680.000000 10786683340586681942568502397862954261635462973625318899192728431275458124580454032810212300716148523008.000000 0.000000
0.000000 0.000000 0.000000
2665082946429141378146551111704012997392587819469159073993404144230612773720445283544601436736930709504.000000 -10293626843215526633488191093680452147860191850996420058514881642111741227581086284293316649689737592832.000000 0.000000
-10293626843215526633488191093680452147860191850996420058514881642111741227581086284293316649689737592832.000000 5467601275612682854078087940320412648110616319407269164941025719710194594706075963818994822780054142976.000000 0.000000
0.000000 0.000000 0.000000
-1576684275169679770078165667296309255524916109823998112351781036215755869467682144439541381965001336553472.000000 -18620563434979324210993085749545339705458858692428860720059554374125281447582159188808944416484654841856.000000 0.000000
-18620563434979324210993085749545339705458858692428860720059554374125281447582159188808944416484654841856.000000 1763416870332464647623842186378310063133876705896431111325970920817166857718914324309195682014711250944.000000 0.000000
0.000000 0.000000 0.000000
-7269483574487903279833231931066631628965234206915223934725597827603590868201697345392645745283171310632960.000000 -312262774504114609068003894022731354166705740057875200119119139119676998970566840107154989307051340988416.000000 0.000000
-312262774504114609068003894022731354166705740057875200119119139119676998970566840107154989307051340988416.000000 27986307871296566913317426942589752905531186274789827068624593966420612321560413218207605929594866106368.000000 0.000000
0.000000 0.000000 0.000000
-413235737200944470090413126846758949708387877551599730360124328583772853396174182932612734108051701760.000000 -2637401614827609851052082774122007764657032764622484195071653482777395513188640518639135394942391681024.000000 0.000000
-2637401614827609851052082774122007764657032764622484195071653482777395513188640518639135394942391681024.000000 1586446886677602957448597595474222415673717183142833916853465136251073879074351569108460099587079667712.000000 0.000000
0.000000 0.000000 0.000000
-10446238086454709721126091177471944695899616988802646327768535201369246945342394222768716378523790475264.000000 9512682443700972672551722265621421383451309383020050904421647867555302112069874030850514865165707509760.000000 0.000000
9512682443700972672551722265621421383451309383020050904421647867555302112069874030850514865165707509760.000000 5641396108809838273457815777024169312170599306958859812436851834913073720038627874239861203421341155328.000000 0.000000
0.000000 0.000000 0.000000
1737884729281176399540874613336719585308350975967203123106929277564730967044442280435460679375299543040.000000 2065565053227006401694195214149538093820505048810534427123181727544044458453722412316605144287613550592.000000 0.000000
2065565053227006401694195214149538093820505048810534427123181727544044458453722412316605144287613550592.000000 915127196679713247240848246751280661661086529271994149009673912202278140225748941372908494761651863552.000000 0.000000
0.000000 0.000000 0.000000
-101307608119537453903863057577824068707230867837276390070281448375258623093040938758088293898469689524224.000000 129180380187692554465168844606399209413008031031304483059092448637097755534057971627508641264106861494272.000000 0.000000
129180380187692554465168844606399209413008031031304483059092448637097755534057971627508641264106861494272.000000 73976619818205572013253425171002478912196313406076058802034650657875653213954785008479146773181567598592.000000 0.000000
0.000000 0.000000 0.000000
135569739831845748664264632533698868081975765502512913810164777847722420744824687183538886644459800363008.000000 5535476042747590711088352807749855370837353018428230276441596190710535290180356084203254003350984720384.000000 0.000000
5535476042747590711088352807749855370837353018428230276441596190710535290180356084203254003350984720384.000000 150783231843901239183708742056424991874788967639457829553618961420204099478321522898282634240191365120.000000 0.000000
0.000000 0.000000 0.000000
4739830482822904310583006624119711617388288622148400528778761387541982733398905942439021696313611780096.000000 -4631905578795514192941758344558182158117844552594082516163161692593894558679441432178507928968817016832.000000 0.000000
-4631905578795514192941758344558182158117844552594082516163161692593894558679441432178507928968817016832.000000 1945360086184438727116181153607316454608154976908731771903882098088783002508151588692609011739671920640.000000 0.000000
0.000000 0.000000 0.000000
92708448279168455035920878487568132051737544958545095226711653527806587928016169217120183450680592171008.000000 4235798243122245929829192421583365692189218023461305507748616127404361162885548662662992534018054946816.000000 0.000000
4235798243122245929829192421583365692189218023461305507748616127404361162885548662662992534018054946816.000000 210591061387351564289443092384317593990473501882403115873662881002613528657555359546542237526641344512.000000 0.000000
0.000000 0.000000 0.000000
-306401972934342624620590547075918167279100039788482846000690350004158859011038454762539387429213700096.000000 -496289559917095053637941012906440382085957474405978757148195053681529791716668573912253979668273692672.000000 0.000000
-496289559917095053637941012906440382085957474405978757148195053681529791716668573912253979668273692672.000000 347789679955524905998389843013114973342248695602011273123303486208556297412688169858262584399289647104.000000 0.000000
0.000000 0.000000 0.000000
9720202208954558040215282585302086020428516410988375233061244158071750217489411960126272789298200707072.000000 -11276569214190737647396390306154467617990852380172886196532887592075282183760939044716333066190539718656.000000 0.000000
-11276569214190737647396390306154467617990852380172886196532887592075282183760939044716333066190539718656.000000 5006023390142105106331720701868369425984406307548358686262667652708475153472774152774110137843307249664.000000 0.000000
0.000000 0.000000 0.000000
-10741473374695989367633022598831759622211192615997061474348478759153211734163179251433775106493597614080.000000 -15234494609781871300865225234349267432104823620882063885947414398914432033240907767630427332714145251328.000000 0.000000
-15234494609781871300865225234349267432104823620882063885947414398914432033240907767630427332714145251328.000000 8780681810992515042939288980173013279495197238030090613242474014812225871455931026088040591956004306944.000000 0.000000
0.000000 0.000000 0.000000
-53825803803052419048535656662108774629570118226104061655126125696179212234456709390734786192879885746176.000000 -26435558892357181842344126778406901421569602549432279272017993231767712303092280269168283402291749322752.000000 0.000000
-26435558892357181842344126778406901421569602549432279272017993231767712303092280269168283402291749322752.000000 13495903077558911180799603027656810654665167162047756787658072635656859398778510926167616535018629758976.000000 0.000000
0.000000 0.000000 0.000000
-531289708308561187153332232049986335633474486106649119853474342994011174126846181297663088673521926144.000000 -4386669999283058322284066068947297798858259753899860533218199758240634739012078107871194589165921501184.000000 0.000000
-4386669999283058322284066068947297798858259753899860533218199758240634739012078107871194589165921501184.000000 2475786540046751539921225208960821266216130436514904107648090603324705178725756801478492703293230284800.000000 0.000000
0.000000 0.000000 0.000000
1830842776785337757179707633985514547983889527131667511631515091070976327253332216514758511016726757376.000000 2908408043610066935346831326016639349545951583728018445226969983208465843702938894107205984890921156608.000000 0.000000
2908408043610066935346831326016639349545951583728018445226969983208465843702938894107205984890921156608.000000 1608665782383849626169521965097028702850454136551138486192466234285068140690196762552930497976678219776.000000 0.000000
0.000000 0.000000 0.000000
-486928381377366175571076297139846261843123818090809165536697103635986709737540206844467675475100821356544.000000 -266065356337393317955389464785705941973670188868391883633929306617731896961014853452167951266434955345920.000000 0.000000
-266065356337393317955389464785705941973670188868391883633929306617731896961014853452167951266434955345920.000000 140936034671921599035015027334484329464623170955383345922121865218536084446826829350554047732853313110016.000000 0.000000
0.000000 0.000000 0.000000
-2921641026417833778452805468951513558372812819643313360854511426243450664048233537805661607987641319424.000000 10711915236865308127103261869175431453463671697261320390987790974878778936997201406215058822542395441152.000000 0.000000
10711915236865308127103261869175431453463671697261320390987790974878778936997201406215058822542395441152.000000 6116607780431988316671967006952218839985923691529417857877000731182346608837656806036739290686761730048.000000 0.000000
0.000000 0.000000 0.000000
31457723282594038662815042636875123450233382832759767966103612902528580695843279687679094015220936343552.000000 -7142778148220101482925244788121016078614907041071412474388709751181342787455305590335305161983179882496.000000 0.000000
-7142778148220101482925244788121016078614907041071412474388709751181342787455305590335305161983179882496.000000 1228016172234525533824375025553586688488690358072491327489334316326634972985938073080480716205911441408.000000 0.000000
0.000000 0.000000 0.000000
17781826189714505538073550603020518486386631430483787879498315110556569206728011999626606693635913154560.000000 7269187042466986681198349354485541276658636852461991968615387334380245362151209234986777142180112760832.000000 0.000000
7269187042466986681198349354485541276658636852461991968615387334380245362151209234986777142180112760832.000000 1754093620263269353895079666712500389021330158481702775539193499744366457008411617865305769995495538688.000000 0.000000
0.000000 0.000000 0.000000
9230010382303710177366429105241088880952304375117142014165593817643491610414698872828564263309819248640.000000 42205559382022799912959374197044389386957517522943793728847183804485541811080887866704501909107209404416.000000 0.000000
42205559382022799912959374197044389386957517522943793728847183804485541811080887866704501909107209404416.000000 22608205204870524582469323161187419275538114950702340780008317508204481383609647497960070027558508298240.000000 0.000000
0.000000 0.000000 0.000000
65403283280744433859577702729832493473380300384838750082338338148013864607557668106241937749684361625600.000000 102198650950613511296517126191640179224070339133800902274505063134064575755015367439039951653446910738432.000000 0.000000
102198650950613511296517126191640179224070339133800902274505063134064575755015367439039951653446910738432.000000 52950690296669659989643485759955185562499940471254761028536087448074211187942426274563202283305592422400.000000 0.000000
0.000000 0.000000 0.000000
-7461606722826997189702921870970159474104247639201342461525253156289329795914970168448294515776751140864.000000 15343339010450374406156008577328590190369440110238179847296926089324183462998005387122505742950118457344.000000 0.000000
15343339010450374406156008577328590190369440110238179847296926089324183462998005387122505742950118457344.000000 8849400368152399353276120765029159739886911767652996814317209156969613722410833505193870102150300827648.000000 0.000000
0.000000 0.000000 0.000000
548549446664418874932169542163038836593188875957358869963375767543175626166613410277185977022584717312.000000 313102951689080761881078378537511927044039653971924206696368091020259661758602478784383951113528803328.000000 0.000000
313102951689080761881078378537511927044039653971924206696368091020259661758602478784383951113528803328.000000 98386200288050219445418931299236121720068531369777074622444995380591916316758624077144802777626574848.000000 0.000000
0.000000 0.000000 0.000000
27811394962238565234998554899685374035673126369818062938627274754279883053252020678180113650677920563200.000000 -34706379616538973480836851780946946685365041825424885429751425381765282948147301116434267871392894550016.000000 0.000000
-34706379616538973480836851780946946685365041825424885429751425381765282948147301116434267871392894550016.000000 15745737831166343117833090309499764374486775887375903589050171152912093445319605754894626240616871231488.000000 0.000000
0.000000 0.000000 0.000000
67191761303843149215345588697690492939276015529300078777002383463736679164225568568764585976984078647296.000000 -92793294454774831409036715057508168545177481099208911628183743680492320905131346385463022854233435144192.000000 0.000000
-92793294454774831409036715057508168545177481099208911628183743680492320905131346385463022854233435144192.000000 43239417873627146218149520721544782327958970667500863865739925409317551308466889384210295080425246162944.000000 0.000000
0.000000 0.000000 0.000000
-673729190320938705856498742986136410676964241841153877427599375551486937292960660647891269543002112.000000 376672157865567028620010269324023268998998494870281090729012870265019721781298571171365871488598016.000000 0.000000
376672157865567028620010269324023268998998494870281090729012870265019721781298571171365871488598016.000000 196797251282130897766572759247480100047072797024091286861116765923172957728616963119978019511336960.000000 0.000000
0.000000 0.000000 0.000000
11167220534525314555855671422562738583231652760079108479326749809859477098844921321734688375188918108160.000000 -21840707586498494911137147499100743434558753840447215990010551298609974556877492075939373690851967369216.000000 0.000000
-21840707586498494911137147499100743434558753840447215990010551298609974556877492075939373690851967369216.000000 11697115563112804249512596154135182891366780962720920256425119592758156503285164137796677597930121592832.000000 0.000000
0.000000 0.000000 0.000000
-137819729938596428563168845410010353950006103854586844014592043556579659796301942835994684804131450781696.000000 23988574013026326232906397141058059735275530872448674197007911369412835361273483081921340718393778503680.000000 0.000000
23988574013026326232906397141058059735275530872448674197007911369412835361273483081921340718393778503680.000000 7170507057802319394163665655977073146517899578137145164136832357418904897665467214639973701914462257152.000000 0.000000
0.000000 0.000000 0.000000
9215346225805602245135042803986638582201568957024694979470290568349055100829702408226134049956456038400.000000 953335317935347450956524951682346182130071064805032011144086943410201309577965129006832605544535031808.000000 0.000000
953335317935347450956524951682346182130071064805032011144086943410201309577965129006832605544535031808.000000 65281260081629467024744226887012542406360588984902495936161894172440547547424480780182373173773205504.000000 0.000000
0.000000 0.000000 0.000000
50715486345161284642984372516695720226718627755256924280808856402522900948372808909539046024890118307840.000000 -714588785099345495442056945665777267622445007979775261510974382056723082850504150459422198294458138624.000000 0.000000
-714588785099345495442056945665777267622445007979775261510974382056723082850504150459422198294458138624.000000 6902828592556665343550579561963139718244703890450869261629848884227095879936533602819329190799605760.000000 0.000000
0.000000 0.000000 0.000000
264728765725936386105194843949565962054899836036766957297650315189140470430617158121443351771217920.000000 233478109688471543181287380012213646156166655703295342984489801199844512838636861195996618807050240.000000 0.000000
233478109688471543181287380012213646156166655703295342984489801199844512838636861195996618807050240.000000 93500620949019858048043683222490253516817857037861156677033358854443787868398345689080118172975104.000000 0.000000
0.000000 0.000000 0.000000
-144116669798985576914580523488921832579600270140070682622741670118539761174302574781387519305353003008.000000 1421257910248706969418981606756509949999730563662547296260359866888424183016813977153661282026126311424.000000 0.000000
1421257910248706969418981606756509949999730563662547296260359866888424183016813977153661282026126311424.000000 801602359568758665299781757362385800166038406749920899548962320414351139059849674392309876531975421952.000000 0.000000
0.000000 0.000000 0.000000
1689841998290893751031358870333091075155607739200629509421375594078052112149773704558705265132498321408.000000 -26455468699261135622396608105091738471023138425305279556116227651206815309791393084690938739832941182976.000000 0.000000
-26455468699261135622396608105091738471023138425305279556116227651206815309791393084690938739832941182976.000000 14570520187570528000146207452702443304003949375051866558461884032823790998889681342135907471781022138368.000000 0.000000
0.000000 0.000000 0.000000
5981105785297183590194648953387883371830715386714622950462662015775696793225885517358229675212588187648.000000 907288928116756131843649992706226119266259362545817318172445772914868763220515470724064862445183696896.000000 0.000000
907288928116756131843649992706226119266259362545817318172445772914868763220515470724064862445183696896.000000 679921568134374572811938833152424133926756454174849281264133847092294096107489504160490067964393947136.000000 0.000000
0.000000 0.000000 0.000000
15397766263006887438664929515697742427565525487433845876382070845618595843953828976014689517747440713728.000000 -29101910984458658552011728729529781209825998804229929512371580834118796604886887962051874477178334740480.000000 0.000000
-29101910984458658552011728729529781209825998804229929512371580834118796604886887962051874477178334740480.000000 13764109647457721163642613957673151053300499155883516343529220653790719235676227235135281373917109813248.000000 0.000000
0.000000 0.000000 0.000000
5215938246897381434079772420448748397303625621089170340254975126006749790601269310078610110709019705344.000000 -10815291534926297117635040349769807161561713331058947925108705131878120579819313136180750818339348021248.000000 0.000000
-10815291534926297117635040349769807161561713331058947925108705131878120579819313136180750818339348021248.000000 5561337113263392559875512458670911006429011521088498752291419718328395946325714551152233356836210737152.000000 0.000000
0.000000 0.000000 0.000000
-27497615085100322781511510472924565444164830256767426188322826215259138388019727279313828270064680304640.000000 67220440092805222633622900068815066199602844562609144158075383282934587648212765473038396782902501179392.000000 0.000000
67220440092805222633622900068815066199602844562609144158075383282934587648212765473038396782902501179392.000000 39945564351993561211207375851291154567930681941406106524977735402913582145746430528986548854039884333056.000000 0.000000
0.000000 0.000000 0.000000
791551073206543043409050654301856679594797012603068218601003573392816895493670535271762152055531110400.000000 697520204285616009532349542339271517917943285255877951862584091571116197878237856257833237569249214464.000000 0.000000
697520204285616009532349542339271517917943285255877951862584091571116197878237856257833237569249214464.000000 227750826242723981536084067156342234967463965410612151085071724429904232032574409314284323459213295616.000000 0.000000
0.000000 0.000000 0.000000
230403465156057927438088628019618657532073503281907031449239276877834857732753807949779874793069450625024.000000 -504937889261140808245504843227149445282110608649216133963428776930701445324201104357636507230784855212032.000000 0.000000
-504937889261140808245504843227149445282110608649216133963428776930701445324201104357636507230784855212032.000000 255447890528741817061185574209954240388003499780521986139537827210498892832758916987354199966866303090688.000000 0.000000
0.000000 0.000000 0.000000
1215793632368185427903231415182227434091593546401520056676855732245560205134238473788120102773458993152.000000 2680125929652509032020580422622472051505642509897019208923269393189113804933170019874401617261723910144.000000 0.000000
2680125929652509032020580422622472051505642509897019208923269393189113804933170019874401617261723910144.000000 1357269007693344870843708135480447313250672326164610300323260421327068150482636337133456638507736891392.000000 0.000000
0.000000 0.000000 0.000000
-19166704741997807099291112351022079895040313503977990750193638071193677849308656464096084886600290402304.000000 73851708504393570557482387306719602117341944148703955165129938340502202723080635816349942110016682065920.000000 0.000000
73851708504393570557482387306719602117341944148703955165129938340502202723080635816349942110016682065920.000000 42184796705290585460239950162856913966599417337954127009697809003557990710460220297405408327729875517440.000000 0.000000
0.000000 0.000000 0.000000
19800844001388015275256050448042441339767034696910303383668141642913561347546206977491466040829087318016.000000 -19051453651696413049769988312633273187093911010529813530785976545125514064928194673582922305066076471296.000000 0.000000
-19051453651696413049769988312633273187093911010529813530785976545125514064928194673582922305066076471296.000000 7719625143767816002091957545888580424045806092458759764192005992970881111725323505662776087181747290112.000000 0.000000
0.000000 0.000000 0.000000
-4472416709915607664835709767287182875482968218182913944046451963793399207912559517296597439251951059468288.000000 -272444501974568856322888808181709240710120177548297256033134282462436150292897929196479935756207902425088.000000 0.000000
-272444501974568856322888808181709240710120177548297256033134282462436150292897929196479935756207902425088.000000 33186578219525189506176481925317227934235754554116676265295921469993326193624833804414864687226423345152.000000 0.000000
0.000000 0.000000 0.000000
61342025037494064283551454203620451124722100484710663397646119196688324326827090039962817409373203070976.000000 -8060091700003291390383454275138472570043350083712756053570432843360615260092500936257613060462809710592.000000 0.000000
-8060091700003291390383454275138472570043350083712756053570432843360615260092500936257613060462809710592.000000 1322917330954093870324310285194216547929688328830955097041201262440415279891128639205992402077832183808.000000 0.000000
0.000000 0.000000 0.000000
-10699641160672933091704988126274709412119061346114086647499705557957888195150595081645431402543716499456.000000 -8345807672940966198452699544287072917419720293192154970146490070761798261649537209969885832548852957184.000000 0.000000
-8345807672940966198452699544287072917419720293192154970146490070761798261649537209969885832548852957184.000000 4122489339905267374407372489205911689703123465961687664246690204134004720890565838336532052502678339584.000000 0.000000
0.000000 0.000000 0.000000
-32577099298939729658848119985077080965970919241268600885908616317385022404279718570405884616766348328960.000000 6762065565628252550461042983986490785554672884744725253087835586500859308398260649490326459111304069120.000000 0.000000
6762065565628252550461042983986490785554672884744725253087835586500859308398260649490326459111304069120.000000 3104615312000836677630538102810890654294984925304421178703997522105563640257496045192751169574310772736.000000 0.000000
0.000000 0.000000 0.000000
3758488517594354864297301595758169416858928442077599330865929662973887531522862610610790068102073679872.000000 -51344721900710995526205635740147114975549779464868588018930661836244709629472209026082694497235386761216.000000 0.000000
-51344721900710995526205635740147114975549779464868588018930661836244709629472209026082694497235386761216.000000 30447781009759636589909448898067559391708165485467995608716061263414742774689116489003525741088069386240.000000 0.000000
0.000000 0.000000 0.000000
6937107791433704825591993441322857108878758965907185173438522031146330185041123788537437335538160893952.000000 2645480594939205498841678349225652462855804158614069729511779263083240300276284565515318227278934048768.000000 0.000000
2645480594939205498841678349225652462855804158614069729511779263083240300276284565515318227278934048768.000000 606174194382543419389297346921494045280850573599142411391484972394039675089014006126960492642524200960.000000 0.000000
0.000000 0.000000 0.000000
2570274573187113522974357190418559946749327460331157664112333580994324784544609248419113607452789047296.000000 190950657147977021013782841649233512904908372743730940818477121386724347867372280916998492627469860864.000000 0.000000
190950657147977021013782841649233512904908372743730940818477121386724347867372280916998492627469860864.000000 9451636409705267084972658034953464805143166313969244918159061043914825836304067079831917869473464320.000000 0.000000
0.000000 0.000000 0.000000
38199630044348640855397196797675531825751149859430972277816213477424220956731382508154389355105492140032.000000 71818121053090293727794920888508819463942151063984034705130651387082849861970277638940940568060900671488.000000 0.000000
71818121053090293727794920888508819463942151063984034705130651387082849861970277638940940568060900671488.000000 35977260860249885084282129142060084753510888567315625584032045430301472623719552522000504511750301810688.000000 0.000000
0.000000 0.000000 0.000000
10493416500710629665495710248505956823037498481569702455700408543611206978125105868913468202323594444800.000000 63977705356732586712761457210855065857176382741030105945772079551876563781482766832523577581488329195520.000000 0.000000
63977705356732586712761457210855065857176382741030105945772079551876563781482766832523577581488329195520.000000 35769208536743883633287349246293582183608653988990587050632196660642859529818099281607418966251092836352.000000 0.000000
0.000000 0.000000 0.000000
-1428015832925170842779421619745546947052394075278853391599248077196912334359701769115985406547423421005824.000000 81511647513208672051375340897882944046189385737173746655943790821909060258341851139757763659781296357376.000000 0.000000
81511647513208672051375340897882944046189385737173746655943790821909060258341851139757763659781296357376.000000 9172800476059004214646317925884034662486318391280050537266987680259789057805083236942443683495526006784.000000 0.000000
0.000000 0.000000 0.000000
27953983270007716665967720907146854781165948265005127199400466780354662870564349502093525083342143225856.000000 -21431970595702652267793298371065634369483424022449634132301487365835856515954341061677272337904144744448.000000 0.000000
-21431970595702652267793298371065634369483424022449634132301487365835856515954341061677272337904144744448.000000 8024314236835781733480817484403798011949844684226663244941111125678789094706081012657412934561402191872.000000 0.000000
0.000000 0.000000 0.000000
6432172229083818094674741903983218161662744907686077350816675036921986652049068065390918563467148394496.000000 -32669785485220909671987045146823880661546628944123597408682955270783267852301870693463017070225866620928.000000 0.000000
-32669785485220909671987045146823880661546628944123597408682955270783267852301870693463017070225866620928.000000 17531209815093253593238221223572539062647048669148337140576292084979883010441396687794029851144506834944.000000 0.000000
0.000000 0.000000 0.000000
2204297803475320148338291334946707356716245316637200635708610955908592848250808243610747993663410798592.000000 -16320082970111596904673450941651666496056586478596496570213297360143118325364849411679774992104591196160.000000 0.000000
-16320082970111596904673450941651666496056586478596496570213297360143118325364849411679774992104591196160.000000 8875046154162870097038924795587329535232279176835732185890134377983462204610073014154629926224937353216.000000 0.000000
0.000000 0.000000 0.000000
-5670245403875593633802809696351551432650581792008482652178833889892818050125705307523307779399985190141952.000000 -177138944852910829388725199938101893464177179037792880939036042091103928916748367375389947273440424624128.000000 0.000000
-177138944852910829388725199938101893464177179037792880939036042091103928916748367375389947273440424624128.000000 11037360093892898435748858051832951757677130493972594415409499310652627514301960265586347360618345922560.000000 0.000000
0.000000 0.000000 0.000000
-511001750674362916238714731175672696941737131481504334128031890716773106562225774778106513043760324018176.000000 63322166799639763691927940061312155734517508869068829691048961503885963884210004523362153260615076937728.000000 0.000000
63322166799639763691927940061312155734517508869068829691048961503885963884210004523362153260615076937728.000000 14430889976481835485983711558526106616565580074750550010397943313236313864788037851916244209802946805760.000000 0.000000
0.000000 0.000000 0.000000
3503702552088304316990405836769605478230164900444542095305782454570164144323334559715809605035784929280.000000 -1422173781810999084966898828749920060949363101278633012732739089610972931064907100502342297523108970496.000000 0.000000
-1422173781810999084966898828749920060949363101278633012732739089610972931064907100502342297523108970496.000000 705285419248719563620960680005040862108943593914574690271315551414984240832763476409656717897476603904.000000 0.000000
0.000000 0.000000 0.000000
-231489036931509748858473149433436230739307322950935819734101624824235875618069145657226925005073545166848.000000 -20571527847727297482200711653712086875327792665443775999551248400868549008334263085761082740059876098048.000000 0.000000
-20571527847727297482200711653712086875327792665443775999551248400868549008334263085761082740059876098048.000000 3759728633943562882781252498495695298752962179835596780961632094691641046838460723319071282027911184384.000000 0.000000
0.000000 0.000000 0.000000
-2333770563132323555273709716522386355587228441051107323027414109320933914493057550703104956136878505984.000000 -200943937736598106511161369799348609463982291493244385475723630771852306942745187471363266331084324864.000000 0.000000
-200943937736598106511161369799348609463982291493244385475723630771852306942745187471363266331084324864.000000 250568110731397293399812209959742688953156518938313211059904684953955819362312479356394537665649704960.000000 0.000000
0.000000 0.000000 0.000000
493753024194752760493748404833731227309518633013821664799878130603381051224419175651136560907040063488.000000 2696396202386092998506763818703757675136305076993502856861383426435310709810965331301265895344184492032.000000 0.000000
2696396202386092998506763818703757675136305076993502856861383426435310709810965331301265895344184492032.000000 1502099237059791301179274756481724548530858692805189068715043364480676340665818240279847311885849329664.000000 0.000000
0.000000 0.000000 0.000000
45774413137628037579348101644018327705061518439589181267941037653413804990609643902573015954296548622336.000000 -32391285002356193933436489747665694469214426363102378709722435194751016029917450926772325498901080571904.000000 0.000000
-32391285002356193933436489747665694469214426363102378709722435194751016029917450926772325498901080571904.000000 11625751805287387319023032294324786259793742249114097552609366778312858866528446321296705676582055837696.000000 0.000000
0.000000 0.000000 0.000000
-1524088509069373223471138644580633835408809535071451211097800733756269843640943512824112104853309751296.000000 -530991533459692922156041311918144403185610315320837575471361678099468030530950803179711681859275456512.000000 0.000000
-530991533459692922156041311918144403185610315320837575471361678099468030530950803179711681859275456512.000000 348962926845983612535679390537636064924266481764729477023215344087517202211501105317861596731698839552.000000 0.000000
0.000000 0.000000 0.000000
500966323715109059557443138124160227616449148598189862775625538060325312581530454959943640415316475904.000000 -161057189105557023429043857571837255917111878631155996438617688142692338450895636791741044768909557760.000000 0.000000
-161057189105557023429043857571837255917111878631155996438617688142692338450895636791741044768909557760.000000 67354809577858016916266884411235055867424292089244546055086518148602961252483883038399827975488929792.000000 0.000000
0.000000 0.000000 0.000000
-3608430850529025557415221980776425938622231748586174118507594801283175766606658439155934659660602146816.000000 7394722825488485878511112335609817411717284402216726236427159853442875699548459797925268746459020263424.000000 0.000000
7394722825488485878511112335609817411717284402216726236427159853442875699548459797925268746459020263424.000000 5628445689174878034238080431716638078642807176030943841091817925992850130333013180906310883741366484992.000000 0.000000
0.000000 0.000000 0.000000
2267737249178958022657562320018569936115786282000658068219174978197883539101732629804533123603077529600.000000 6310156519526219810666539296885340462473404737519314538204144019201420546170586503657908763599852011520.000000 0.000000
6310156519526219810666539296885340462473404737519314538204144019201420546170586503657908763599852011520.000000 3556699836020437494439533513879332448107400184622604461647069523889674577024050056883464129763130474496.000000 0.000000
0.000000 0.000000 0.000000
1926939603331459039677326781290901114876343571407315859899024509689848008606008462662101508808205402112.000000 -619616040699073405706014669465367721635038377541202781943690103580873871628261651938699224556387696640.000000 0.000000
-619616040699073405706014669465367721635038377541202781943690103580873871628261651938699224556387696640.000000 124283769843492834336878658174357134261502111991224509753885703534881536436006610455846227201992163328.000000 0.000000
0.000000 0.000000 0.000000
-4683793690769346710095286076901792384822529386281735192405086036636071562867038651062891298202666926080.000000 -4784197718924732402337930346743197885774616297612907057182248108817482700321267396292617995215813214208.000000 0.000000
-4784197718924732402337930346743197885774616297612907057182248108817482700321267396292617995215813214208.000000 3032902276693394170517948477361113822992610634004014907027310641380366260781853507133505084562966839296.000000 0.000000
0.000000 0.000000 0.000000
-25837831224061151903570441181976316724560299750846144170915617068684067714748021966366851505081225016508416.000000 -48245692258912745760287646185551265743171323734283582422128544000088517211818821259250183429218052866048.000000 0.000000
-48245692258912745760287646185551265743171323734283582422128544000088517211818821259250183429218052866048.000000 719692590658917377175027296854560154090151221215084824943812670472678677308800350899022413816408309760.000000 0.000000
0.000000 0.000000 0.000000
699921620278232399835540023630990068183653850214893026507432988834993387308943612158696708233918152704.000000 6033731606845815926180432919548353142377741493247447352736553683574403967032928832955296065223917568.000000 0.000000
6033731606845815926180432919548353142377741493247447352736553683574403967032928832955296065223917568.000000 77772803920450815469347543927386544724599634519951444930432416316150424652005193117245330037932032.000000 0.000000
0.000000 0.000000 0.000000
-9292729420884545278777529907832086462904437578603724615978105588894255509875988371116902274604596199424.000000 240992029799598343262514564213114331852025026502928724387441089255078853527755293320220319866352041984.000000 0.000000
240992029799598343262514564213114331852025026502928724387441089255078853527755293320220319866352041984.000000 498447293387215622373232779086587707017144184213341761275123824110333611016648278453951331486194991104.000000 0.000000
0.000000 0.000000 0.000000
350675468555823719961483986655143183533311701791160475571407582400087854978423634449132440243878756352.000000 -104939599707817056668740006856625520601754839856103410219362707855280724282122684541666205043747979264.000000 0.000000
-104939599707817056668740006856625520601754839856103410219362707855280724282122684541666205043747979264.000000 19758443231096994957862485191409921131612811469105639544079171763158700767110074994866140028919087104.000000 0.000000
0.000000 0.000000 0.000000
-11076202306530623033576770302243746674454504585795786920196682862346674100376242320366510801510448758784.000000 16921392964009008684380701620680615133864204197342502705006254247466491497721601178347701093602296856576.000000 0.000000
16921392964009008684380701620680615133864204197342502705006254247466491497721601178347701093602296856576.000000 9715024997098484347022838017430938427428482997688121584536272463790504012707798153323126025568200425472.000000 0.000000
0.000000 0.000000 0.000000
-504537280236122335992445042829713093552901648175499927084632781513049674241493800958584921700148707328.000000 19057785464351941098214513384975762754216061247734451096854395954711074685514371319564255830892722782208.000000 0.000000
19057785464351941098214513384975762754216061247734451096854395954711074685514371319564255830892722782208.000000 10631728536691386264163523746626555009099278865922710187212996633198174626196363658599196178144687030272.000000 0.000000
0.000000 0.000000 0.000000
-247459080380851042543953612011693957015301600861153086351447540649271387263477953877524217825465466880.000000 695361695249656789814893972600038010847830420894796920739819582696008388571082273130776421177694879744.000000 0.000000
695361695249656789814893972600038010847830420894796920739819582696008388571082273130776421177694879744.000000 399401397837333303871660222715082568179529608198871032270065596231718892143505630751385233187001073664.000000 0.000000
0.000000 0.000000 0.000000
3896244671521887904338111859700049453534218106138890286448946098043530456369983765518323321613628473344.000000 4930923424906907438586172432169963425916207486327368831786495297596440312329712475316285435956036632576.000000 0.000000
4930923424906907438586172432169963425916207486327368831786495297596440312329712475316285435956036632576.000000 3168858423107207968819409645469759201122409578533688100570247749462793023601015608110934205064619753472.000000 0.000000
0.000000 0.000000 0.000000
-3523454812202123234202743246105461449939174791851031117460472815013024180994706568713177993155759308800.000000 -12309072725165060102671405613711719159529919707605667371364024622560729147546989118963514133914153123840.000000 0.000000
-12309072725165060102671405613711719159529919707605667371364024622560729147546989118963514133914153123840.000000 7042288277373360509346274539840123267148260941011731002619303905507640572824152027494806690494932844544.000000 0.000000
0.000000 0.000000 0.000000
-1815850665123280674713876272979850024627306520130176674451604729853342196860559436100586167037033709568.000000 -609569877342486992383467249478514219413000833034391097571981149526571760316879821774067065857444413440.000000 0.000000
-609569877342486992383467249478514219413000833034391097571981149526571760316879821774067065857444413440.000000 364208302873542845569682059924335632439694019092959831920010967109116011890095360710640692738234777600.000000 0.000000
0.000000 0.000000 0.000000
-1249630739298642993193111633930855789887816372042610403105745494756104416154170813562870160984228495360.000000 -4836578624521601617164767851118320934200357351754081731319286928504353538399546695658518012607758073856.000000 0.000000
-4836578624521601617164767851118320934200357351754081731319286928504353538399546695658518012607758073856.000000 3425392601210806052946935802838924021117815551410347221303652074030346477228835648170842490508261982208.000000 0.000000
0.000000 0.000000 0.000000
475025246131213185882148042575379391719997376191826086469201286532542519193080025217319843059797254471680.000000 -297045856116434345306780866792919686956151910678158769997423046558083882081266403276616444387696624795648.000000 0.000000
-297045856116434345306780866792919686956151910678158769997423046558083882081266403276616444387696624795648.000000 100064347632181203121927852788591240596735788870155477195539477400960437218411210711878994008021990899712.000000 0.000000
0.000000 0.000000 0.000000
-165964854193946130851634548467226928682100016850123270706949012352422127981486852673623475481758440357888.000000 87736359756902494578682221043165655743247412633252711156375303737452084904487788922907800508576944881664.000000 0.000000
87736359756902494578682221043165655743247412633252711156375303737452084904487788922907800508576944881664.000000 45533371919485364227035308428149670305625405083166629314658844402716311712951296961898478932533801123840.000000 0.000000
0.000000 0.000000 0.000000
-83808895621833028598233934638470714495838993670267346170202740168487984862652080585876043732047594782720.000000 -160910402060379895799622607505218677581248993254540682482547254782598630156301653845507050430853990580224.000000 0.000000
-160910402060379895799622607505218677581248993254540682482547254782598630156301653845507050430853990580224.000000 93044754705955877848162776802777694506007725593516833822728755945828147412665625028576523857682067619840.000000 0.000000
0.000000 0.000000 0.000000
13550419901302083766403697955194408382286889225115620736634306825447355601520833880714836183624412299264.000000 -9420399070273195324265627269351597109298008765430006075848703512229895715647609733712628682086739345408.000000 0.000000
-9420399070273195324265627269351597109298008765430006075848703512229895715647609733712628682086739345408.000000 3348363234029951997500754612359253342404861912348788477868855945445406572124494805512182350550797385728.000000 0.000000
0.000000 0.000000 0.000000
10828926220284570694195623479255456785595916395550186391079084624348467756258672355256019765961135489024.000000 -57523072586347835404349704510594326186481976763761876558920536993704234097790130434804748193803834228736.000000 0.000000
-57523072586347835404349704510594326186481976763761876558920536993704234097790130434804748193803834228736.000000 31002205310854738233107114714637695859978756024720569034304637831797383985917585266298885570302939496448.000000 0.000000
0.000000 0.000000 0.000000
7117838706818461024226959319924675711849232575293981032709367069480487959707665852948288124443001094144.000000 -9969209561374325954003324176199090365115250084324220715674254506122539024212992017250682441057823621120.000000 0.000000
-9969209561374325954003324176199090365115250084324220715674254506122539024212992017250682441057823621120.000000 4669251004083626127653124602362888163617996929474371822767147349743170416527937795012914452524712329216.000000 0.000000
0.000000 0.000000 0.000000
1172839828730915391767323792966557756426506290603297547184277093541750514266432951522984087531680694272.000000 1286219045218579815246945473984774868899441546942771798306816802727417513013639682262555149600020234240.000000 0.000000
1286219045218579815246945473984774868899441546942771798306816802727417513013639682262555149600020234240.000000 567986954546702727553781724212104778466240578502127531856166127090735701788627561455409626707342131200.000000 0.000000
0.000000 0.000000 0.000000
-492895592122520032143236059306695937571546177225665105806069733519858328209089770263704358534879641600.000000 745807192788751284122609124148677635290687526127831916535222272055559687936852548512188105191596228608.000000 0.000000
745807192788751284122609124148677635290687526127831916535222272055559687936852548512188105191596228608.000000 430738061255971026920568983152083109526356336475391153387081724973702121707464694485227679573176483840.000000 0.000000
0.000000 0.000000 0.000000
-9339132707366174172318775409100338889247783101467945997929067593575076317569056665277110474291726516224.000000 22123227473385532398341745863100953050209888293088283954863438402794019049753693290218320791578821525504.000000 0.000000
22123227473385532398341745863100953050209888293088283954863438402794019049753693290218320791578821525504.000000 12697788030138450564792032741820261019414993481024878816983810150635469613692328096647896886726457556992.000000 0.000000
0.000000 0.000000 0.000000
-4003228250978144355954559363174149344230183433378013186025331243959624384670585055817898609446668468224.000000 4897804828965905466170657654696306706801373908071820270238156469756490333793145514059916218037226700800.000000 0.000000
4897804828965905466170657654696306706801373908071820270238156469756490333793145514059916218037226700800.000000 2542734255555392493008115758462037132369570362496771780132847246600819040462864688830445957238667345920.000000 0.000000
0.000000 0.000000 0.000000
-65390790320709840713148184230829941521678380378074038960733039129775756039518890107621282366646206332928.000000 55390494365787311464073615207404946443283511916557488415311689716977791710499775526257246305273694388224.000000 0.000000
55390494365787311464073615207404946443283511916557488415311689716977791710499775526257246305273694388224.000000 31088880377835725118802599352832569350475186051089364518203743731008139504618620440851127423012152803328.000000 0.000000
0.000000 0.000000 0.000000
-15846095335385191157975595109212512140384367702767434393683770659461851043190776008450075066518558736384.000000 -7064410892791197447360487725655068405176438465142223947215273937671758240332974538366499888088471306240.000000 0.000000
-7064410892791197447360487725655068405176438465142223947215273937671758240332974538366499888088471306240.000000 5188538878688321216154462532935963352241925524580597136537337361937026646130287780471931958210066382848.000000 0.000000
0.000000 0.000000 0.000000
-48712433607022038039211520088845368888352799266208131584761994236705539599569236009862061557754961592320.000000 -3554674593942487510742656104222110377927553305996717731510334814601999681541930635124649687643850801152.000000 0.000000
-3554674593942487510742656104222110377927553305996717731510334814601999681541930635124649687643850801152.000000 1067100181300932327772320707248274263308690027186275185530032085518652926115506049513936238987217731584.000000 0.000000
0.000000 0.000000 0.000000
-171238661243359435331362149940703565507986216017721780114408723049361354140772216195208329264308793901056.000000 51571661524728752817058182720437257360575707054224265375077274308823251657169423104460809918434213101568.000000 0.000000
51571661524728752817058182720437257360575707054224265375077274308823251657169423104460809918434213101568.000000 21735928066195539366200263191808018744225571933710801888463898760738741924738450577076630909481692168192.000000 0.000000
0.000000 0.000000 0.000000
143611755600928125020742143711437622976702764827730969697096366951999752471671446948265933948665724928.000000 -1519333565806372151867429480264697337907616118265307220058504145367766126654062704705918195900971220992.000000 0.000000
-1519333565806372151867429480264697337907616118265307220058504145367766126654062704705918195900971220992.000000 2096005993378266933752688118569187899500748530326824504066305163561188289706580275245200003157209382912.000000 0.000000
0.000000 0.000000 0.000000
-3443081579391456225111357753790831526304872547835197614859374074943545032263420298451365761590203777024.000000 9279895218691204559994893637204968150450892899354230866766024153104705278450724323594228367976982118400.000000 0.000000
9279895218691204559994893637204968150450892899354230866766024153104705278450724323594228367976982118400.000000 6174402823645338843103748431571656486930235329671217466361513255718474335754339475389514305777925357568.000000 0.000000
0.000000 0.000000 0.000000
-70375026477858296087839624136249506557074355550048618180675117499788073975398692658766551683323396096.000000 2490002845166354754154432471590244612214374267344680953335099045000152446039554190856180933828722819072.000000 0.000000
2490002845166354754154432471590244612214374267344680953335099045000152446039554190856180933828722819072.000000 1583587774351025939963003726970039888273417652255554195128582187648817532340182580219892803956427980800.000000 0.000000
0.000000 0.000000 0.000000
2844161158081511035265909884653891618989864615452963628661938280845577748487794472266271818867642728448.000000 -20823183731972140126690372926724895614246542045964793403048485431926104681497829920635528587958969958400.000000 0.000000
-20823183731972140126690372926724895614246542045964793403048485431926104681497829920635528587958969958400.000000 14646550393524013126849800828557550688384615904658263746790007813026516894488775066772158247656264564736.000000 0.000000
0.000000 0.000000 0.000000
408124829323471096316488693236931866174437359757498923467791795571958126790866986236017945748449525760.000000 326627028965689115090393275977098145963697523119701478314616221369871797606057269959081213363614646272.000000 0.000000
326627028965689115090393275977098145963697523119701478314616221369871797606057269959081213363614646272.000000 124827460883440287923448246229397121269862901963942391796594136773487000694415824050902455340505235456.000000 0.000000
0.000000 0.000000 0.000000
8856600581361156554419020999175440344647750791712754183451328757267085241006376299655008078943177670656.000000 -9792469622764141286530664561881671353662366993502401614791631581888084337321330440922468054995210076160.000000 0.000000
-9792469622764141286530664561881671353662366993502401614791631581888084337321330440922468054995210076160.000000 4430264803068791830694103450946640170535498569470533386065351234598262439545138466320351225988924833792.000000 0.000000
0.000000 0.000000 0.000000
84682469177816172617738057515807223775769237271749942708896079861249103191239684015296692476872306458624.000000 27696497756737527716598843695219666092688809198120055050003321720897767449476516698746881259536337862656.000000 0.000000
27696497756737527716598843695219666092688809198120055050003321720897767449476516698746881259536337862656.000000 6221018179357235867496125445336211414428510670770768959311973574737494390434149983724276522051493167104.000000 0.000000
0.000000 0.000000 0.000000
-30843283476228682037726624441129951775573856154772180431109313714040702358369792486626894287327348129792.000000 -22292947271768532368772196823788380796793464468508127503309946733733001696752376599640720012696851841024.000000 0.000000
-22292947271768532368772196823788380796793464468508127503309946733733001696752376599640720012696851841024.000000 12382626908280268443325871802602203852792842617856812533833042647412819685989889274519433765530814644224.000000 0.000000
0.000000 0.000000 0.000000
4691014899476400067065739241408178502415758917626022130849562823601139548403242069824173420427652104192.000000 -3645360294043954313369006872188616932871407792500020318912563575590291863489622063315278024843047469056.000000 0.000000
-3645360294043954313369006872188616932871407792500020318912563575590291863489622063315278024843047469056.000000 1381417872656306961340701156190525351401376370842012420686883149581131872903730076087821939816739635200.000000 0.000000
0.000000 0.000000 0.000000
-35693330910902947216933889712823402463679996143030656871192977942997145981924938015289543152634307805184.000000 12393183846143785495430653601667474706436199323142458140773272670764898003673574548779934735797724381184.000000 0.000000
12393183846143785495430653601667474706436199323142458140773272670764898003673574548779934735797724381184.000000 5581823675514987087190862891606893643451623508248374127952115253486234875861431610425217867866299170816.000000 0.000000
0.000000 0.000000 0.000000
-367818853334346209200383561236903927677962812288878059961239774632909033808367508495935884532838356221952.000000 -20999355825856650924242706731049421247360997556673781838020132158291001033015043871585084173482687725568.000000 0.000000
-20999355825856650924242706731049421247360997556673781838020132158291001033015043871585084173482687725568.000000 2303177465030019343171642891286430868202767684716106299074655291015373415369607435970474600979585040384.000000 0.000000
0.000000 0.000000 0.000000
30421822031469892496776378653335699321538141179995663238481705767642970221135183562613462180484811325440.000000 3717787480285908919382707476674565698398828936744104237324182211707732287075527859714737941699929047040.000000 0.000000
3717787480285908919382707476674565698398828936744104237324182211707732287075527859714737941699929047040.000000 3362149424456857976931699375167907271869966529848816865042202519895476047650484496563945444297528049664.000000 0.000000
0.000000 0.000000 0.000000
-21630650593164489374348899572568551513283690686205928366514039597845471784136697998397058069138642042880.000000 -624400678082751968634983920394679389585979257518564272406498599560702499343494518649552793205729132544.000000 0.000000
-624400678082751968634983920394679389585979257518564272406498599560702499343494518649552793205729132544.000000 310237623129618426281708321489544793440764289353306674813712231143205817272283770735772264647983366144.000000 0.000000
0.000000 0.000000 0.000000
-2265870669957529755709741237454665552842994884154639486422622710306683908503448111819616166614096936960.000000 696731205858076496691836599151947565391693874281246046906601925818273901889243048912491720374094921728.000000 0.000000
696731205858076496691836599151947565391693874281246046906601925818273901889243048912491720374094921728.000000 253750134117721964790876780910493627135094210045057999441264802982188071499279978782966866440819310592.000000 0.000000
0.000000 0.000000 0.000000
20542209579902035181317294682344503672125404902753211602969372551773562142512226431510318583129435013120.000000 -6287807433920787781445060135611415546781368411675121855001533064012938245385871730692703361401186418688.000000 0.000000
-6287807433920787781445060135611415546781368411675121855001533064012938245385871730692703361401186418688.000000 4552999345707646578782373496726085621373729177530466220592034617738783712294832251207538782433085227008.000000 0.000000
0.000000 0.000000 0.000000
-5338311122029652859677278236098919482224571529010980772696068304503024264694330053212148116181236056064.000000 -9394705684893165915402367310353759459691462798017035864974734485577119510652755542592098082816817889280.000000 0.000000
-9394705684893165915402367310353759459691462798017035864974734485577119510652755542592098082816817889280.000000 5420200591338532131406081095134835839047004371240660878509598190382562689627318650184342376736658292736.000000 0.000000
0.000000 0.000000 0.000000
4161528465147187538274806405574660435041891026079689676218777815742751817796193592597255808131098738688.000000 -24491090255604664009058824236571175483443610674269099934484227261729615158898202483979392812432435970048.000000 0.000000
-24491090255604664009058824236571175483443610674269099934484227261729615158898202483979392812432435970048.000000 13347108394002229242096549031406039582433988305888421093475012013826858232678626251576792882530685550592.000000 0.000000
0.000000 0.000000 0.000000
16121140892095396465725090749162609030273783197855063949715036582021027080642006323959384872459469586432.000000 -36951646680073008049812927748458590570885181886663255255181607057372451036595261625121196311058042585088.000000 0.000000
-36951646680073008049812927748458590570885181886663255255181607057372451036595261625121196311058042585088.000000 18795679582254702895259039106534356574448827188401560728116116939067961451336917201741247906430289182720.000000 0.000000
0.000000 0.000000 0.000000
3066997201110239572694012311116153405944289872273934104108923010097915891800041871336015976442187743232.000000 18253446034353540750689747260089208797994402264059997403639595934058171098454374714368602379236304486400.000000 0.000000
18253446034353540750689747260089208797994402264059997403639595934058171098454374714368602379236304486400.000000 9967360082797764841819778494756913107860750770660473536362487358433727097858660195651269154329856049152.000000 0.000000
0.000000 0.000000 0.000000
37240285637055082785224095579837876226956797988774300973080657908662732502373712513159773598722985820160.000000 29407454281496439244093423280213244741433313186567461956200470544027754644425529001351383265923995533312.000000 0.000000
29407454281496439244093423280213244741433313186567461956200470544027754644425529001351383265923995533312.000000 11181864121358242994200707818038427178256986196503904352521632021645345925340639965642103649697475330048.000000 0.000000
0.000000 0.000000 0.000000
-97646644026632522314907860271755361847627467346897285864836129421520355819234524061425198854643753418752.000000 71269578400600651495683080877369853360679684567252188245919551374704637707851600950186404287088001286144.000000 0.000000
71269578400600651495683080877369853360679684567252188245919551374704637707851600950186404287088001286144.000000 39952539770641331366801591945719887491721656843415189443158447637427818751384818637267343577898563928064.000000 0.000000
0.000000 0.000000 0.000000
8150832625090951013456841703868590004706413646030941605706450157744602106529928858235926634468221124608.000000 7159161156865702902380823814870517377000663627954221115874563434715291830547985022946993606807873650688.000000 0.000000
7159161156865702902380823814870517377000663627954221115874563434715291830547985022946993606807873650688.000000 2523792287962213231658050808549849306477855404858367593802139681736801856620305382188741112756787216384.000000 0.000000
0.000000 0.000000 0.000000
5389861771218689809260921715813596560162237471984624436078904555571610220591975395192039894667774394368.000000 -4477553841119679385840834487160881913510708330057978486501182872997508252465717844157665679025798905856.000000 0.000000
-4477553841119679385840834487160881913510708330057978486501182872997508252465717844157665679025798905856.000000 1744400348899986018573735831132511278714331093431489914612784920408297703247120569164540673392077963264.000000 0.000000
0.000000 0.000000 0.000000
1360193651051552161088191492532192976888544644283259744168997862432138294530966107907180804355875930112.000000 -11957016721166648713684359373410942847482726193793225012750038459884903845815026243277564051137350336512.000000 0.000000
-11957016721166648713684359373410942847482726193793225012750038459884903845815026243277564051137350336512.000000 6590516398624312882840258317129661308317038641485400203361870391390491784136550053513312823914340024320.000000 0.000000
0.000000 0.000000 0.000000
67833731684487965973561667606846494263515046626902311023830098607657616263958335241094587841351923007488.000000 -31898429680226230363876027200902305333348090266735223812493798468168998998844000770516766319182964850688.000000 0.000000
-31898429680226230363876027200902305333348090266735223812493798468168998998844000770516766319182964850688.000000 8412650459119755527797169734966568745917931873970239516119421620797262421169556717138262790293424177152.000000 0.000000
0.000000 0.000000 0.000000
-16391003437549403166844668536887834989078645355957225370887640193054223491885177943715854232175817785344.000000 30338068723940034955616533298529295690922686511022413018806371580935214894620994819082430718736481648640.000000 0.000000
30338068723940034955616533298529295690922686511022413018806371580935214894620994819082430718736481648640.000000 17474296943642332776673337470713404086118336631449605278657108632384816611956435332721189712172121325568.000000 0.000000
0.000000 0.000000 0.000000
-10402039949693653538240525519156293576879120558119030538133757928169493571337543011629490966647275520.000000 -807105480049909315419262868674698742441450102733366964545580709264869536749842505466144807291191296.000000 0.000000
-807105480049909315419262868674698742441450102733366964545580709264869536749842505466144807291191296.000000 122306376764645465324651835639638516911999160401179902926139420388997644196957939104371131134509056.000000 0.000000
0.000000 0.000000 0.000000
-52976638872979211761401739408144199226185719508130112441288684590583797957344695804533229283677518692352.000000 19401017677511798919594266290699249685982483697133318374325777330130105361766225374164421932289672347648.000000 0.000000
19401017677511798919594266290699249685982483697133318374325777330130105361766225374164421932289672347648.000000 9926630274188984746491188656370911256578682909696258306426689368104788579969678045797753601895671267328.000000 0.000000
0.000000 0.000000 0.000000
5638033299928932477301688187994461171298816532027340868501977833383471772973922806879025455440924246016.000000 -2641485702586280093842585535853664292760802128945050956296105913050897485326835767968079654945472643072.000000 0.000000
-2641485702586280093842585535853664292760802128945050956296105913050897485326835767968079654945472643072.000000 727781047892515889541577472481557415053779444063161917100650305444316646088662877976075449667178987520.000000 0.000000
0.000000 0.000000 0.000000
-755187312508932387028061200990040933145109908565007534071967858163814779164648175979540544529685807104.000000 3234848106439481495308296873923384157398160237469371291799149926289142772399244799224058008909140459520.000000 0.000000
3234848106439481495308296873923384157398160237469371291799149926289142772399244799224058008909140459520.000000 1844786166948208976333907187935803414672098515460758191703746904479729957663247760712016786016788545536.000000 0.000000
0.000000 0.000000 0.000000
-708501103293516570140752520496420764030679997851931518021949672828444037276761754560827521275277606912.000000 1000848900648339476364622376703349195068277037223256580238662701895728885122246065013913918001131814912.000000 0.000000
1000848900648339476364622376703349195068277037223256580238662701895728885122246065013913918001131814912.000000 571069530178013327634607007882064543203425491985171708796903401476984675489567078593117873770812407808.000000 0.000000
0.000000 0.000000 0.000000
112997904878098925037191096054257535107831447737556186099081325169732593793648682139000669977839941976064.000000 -65528671880470249921608236370815204330770359749144957665911759484165138630867439636266578073515435491328.000000 0.000000
-65528671880470249921608236370815204330770359749144957665911759484165138630867439636266578073515435491328.000000 20826512333429083127053800473712008717137260468521094154565411745758702701725722710919234200238636924928.000000 0.000000
0.000000 0.000000 0.000000
5943851464087683940564149820227279896744369118382698525064976637798448656223962555774288455437417185280.000000 33997057939219866642039747942123373467692872716051575570413302608758812651938924589761208646686319050752.000000 0.000000
33997057939219866642039747942123373467692872716051575570413302608758812651938924589761208646686319050752.000000 18344989106201554236823055652073488007340517865148489212098899779684168294118686652268131953815939186688.000000 0.000000
0.000000 0.000000 0.000000
-6291232718068916026497673773318819900755658864505231801030686322504312745442493707453789181579462967296.000000 10933777100022219701426666378744990949786333099132154941596673434868490810567654097128283547183764996096.000000 0.000000
10933777100022219701426666378744990949786333099132154941596673434868490810567654097128283547183764996096.000000 6305585815335084013688806924308713856325586662136802863546667018905978415278212090451530271921620910080.000000 0.000000
0.000000 0.000000 0.000000
-7759287623148545365056784152413315030174794654923760287028147249171890295395406559845424507370472472576.000000 -14321186227589601749559907059076940507972126918357384507905873631308354932409044360815798012627487031296.000000 0.000000
-14321186227589601749559907059076940507972126918357384507905873631308354932409044360815798012627487031296.000000 10088053714976315711045461714471726435948467352018584378839381841652522480357519094861407214651180056576.000000 0.000000
0.000000 0.000000 0.000000
623668275929620242960447300994841372967146245856216997281843713124429833793733467128646138909949952.000000 -2828149286597739188315899914873424189966053541178511298855520336545602267475539674427849900680439398400.000000 0.000000
-2828149286597739188315899914873424189966053541178511298855520336545602267475539674427849900680439398400.000000 1572716326769258273769400516095160532669759436600844064131962511373758702351345945511731215306693017600.000000 0.000000
0.000000 0.000000 0.000000
2835686856373768959582306998117291159074032880524049303321843211930706011468074730033952623802856767488.000000 -10111353246859155913943040268687091870820404204541352742466301944014597611679744560080785297131979145216.000000 0.000000
-10111353246859155913943040268687091870820404204541352742466301944014597611679744560080785297131979145216.000000 5345964121169160987886821163630773215996555190425176939368400676563501804967879715494324882867067289600.000000 0.000000
0.000000 0.000000 0.000000
-7005153461412138525577929334136819989485017598586155635835827574882383753148603343046414641838027702272.000000 3468586975095341393872702280032725349364422410910754031466006182416800855078635624619220284624087285760.000000 0.000000
3468586975095341393872702280032725349364422410910754031466006182416800855078635624619220284624087285760.000000 1767419944481583029742977739212099274183635989205033977429365458364794296442879362175108298259199688704.000000 0.000000
0.000000 0.000000 0.000000
-243003078560595931438126059758300119905763776151786054213331581031514536503956024862354481007482235781120.000000 7779663283295454777676291035273434715507834407331602601618211723678373412871914467773530041017545261056.000000 0.000000
7779663283295454777676291035273434715507834407331602601618211723678373412871914467773530041017545261056.000000 1558279675996391485749629749924441398797239510456836933989729291668560844986418626489009080838293291008.000000 0.000000
0.000000 0.000000 0.000000
4463780734225569844741936881846958732345305080540930352264531682912475760343189648235220973469413933056.000000 -2457708156953166207734083410358969056351723114786301653594756014826550877161661699997192260149504376832.000000 0.000000
-2457708156953166207734083410358969056351723114786301653594756014826550877161661699997192260149504376832.000000 753680569391329861328808615530164645510397179617088326498200528927501925120962265386825245990525599744.000000 0.000000
0.000000 0.000000 0.000000
-279839295428054999718049933081565854189993795048295477955111009221852489038310239683504571512038359040.000000 -4098493529957309955444693724516458010186608971140707393179906804110051369194593224714366661488352952320.000000 0.000000
-4098493529957309955444693724516458010186608971140707393179906804110051369194593224714366661488352952320.000000 3493997298812255868917580104368441267449177679670573348440558764539280038451297209085678887324212002816.000000 0.000000
0.000000 0.000000 0.000000
9046512885448319385726746554171907444454314670433295129641745157863120526790673932403131830041025970176.000000 17183124181014266356236509959857965547236789040610921897239126215422718234194900567196273975858300977152.000000 0.000000
17183124181014266356236509959857965547236789040610921897239126215422718234194900567196273975858300977152.000000 8912944260883916615108648919662749982608871033899387008449277686213068885955081900589984421178190594048.000000 0.000000
0.000000 0.000000 0.000000
-312791483089552306233852312631259249531252295244202455291313815671867125489676401413366910009537986560.000000 -4633956844363037748120310474540247311510199615229721216758573550896442250561626464224870849043931070464.000000 0.000000
-4633956844363037748120310474540247311510199615229721216758573550896442250561626464224870849043931070464.000000 2584697501237820930531256203813179774634825603946492742577674899477371316581966517160569673740734955520.000000 0.000000
0.000000 0.000000 0.000000
2013035188399676598275286939282491403721110685461611483081938681042043964761405396326375122856388329472.000000 -263054879356218673943957772054317689104944394251701084240307670353051512496042279204737980818905890816.000000 0.000000
-263054879356218673943957772054317689104944394251701084240307670353051512496042279204737980818905890816.000000 22851254074847226012692003002227023050437316095101160643785011424951298801885500818126325744199008256.000000 0.000000
0.000000 0.000000 0.000000
34102958788373815948179405923841616734537501536642974872590637311283524979919129983006245911421324886016.000000 -42581342477065484709734022810488082906135103237256667888643136467748634638054801412174641468573055188992.000000 0.000000
-42581342477065484709734022810488082906135103237256667888643136467748634638054801412174641468573055188992.000000 19321419778881816225170820722103814032732586692369346620651449468341455782288289846401880903718770049024.000000 0.000000
0.000000 0.000000 0.000000
170393951182766569990579726982334382203114628998878228376104085542173110328832305704389097474530213888.000000 -317899529939452484467494632152147739400023665741319449395920414913853976454367977913086751459457892352.000000 0.000000
-317899529939452484467494632152147739400023665741319449395920414913853976454367977913086751459457892352.000000 147380707800421153631821147138743075549819414543416190465881616665490472049966757385124143409852841984.000000 0.000000
0.000000 0.000000 0.000000
131180155373072444676138862654921449122593430817432872604084345451010422680025756861939573731778000584704.000000 -30530206688106041040196146422722648964797763696571669915364193981553924294293230445847633114478380318720.000000 0.000000
-30530206688106041040196146422722648964797763696571669915364193981553924294293230445847633114478380318720.000000 4571853258560138903480668762655718054389751097974215399453975116134827483386982393720159037709642366976.000000 0.000000
0.000000 0.000000 0.000000
-126067082723523993130011639234649920469927541045560653560717728995138714089562067161317426223200075776.000000 -1331468141612216676094918587868645741746463313780669059010766979495211526278165230071130368115971457024.000000 0.000000
-1331468141612216676094918587868645741746463313780669059010766979495211526278165230071130368115971457024.000000 742521002465615670943116797480412682886480273933022587655166685177820843451028921618582014578388893696.000000 0.000000
0.000000 0.000000 0.000000
5674207766660436388499873465286484389921219457637118116358426628939993697805817419845617721019239235584.000000 -14322773695345592428420786766363620048692554583810098766559832219185594029294197887073270869716008697856.000000 0.000000
-14322773695345592428420786766363620048692554583810098766559832219185594029294197887073270869716008697856.000000 7364738890789467825139457362965987060085842709520189938786287983760575746142814418724308162743745118208.000000 0.000000
0.000000 0.000000 0.000000
13119187189740116147484160407729696147311570703348323454749397212833951780768000599436154675318677831680.000000 -17089212678858588715065922889286074706402719500850084155750660848762274541082302367889488307691288788992.000000 0.000000
-17089212678858588715065922889286074706402719500850084155750660848762274541082302367889488307691288788992.000000 7845109059676536800784784400432867685521591176877139867355629586811320368383885169801277404278035578880.000000 0.000000
0.000000 0.000000 0.000000
-706517317259541673552431987861485563895906947520856012773329753108683713748518224027092641304906039296.000000 -1076636437865370277600384423057131188440874719873125208155675194314909425938951726550217463538407964672.000000 0.000000
-1076636437865370277600384423057131188440874719873125208155675194314909425938951726550217463538407964672.000000 622163810386300994314080585976374282495102683408700879106707117972716503366910966882067703671801511936.000000 0.000000
0.000000 0.000000 0.000000
-8665896975857500424690401017710785031826647973300586976991779060951165433182410993036191250422115074048.000000 -1557756664100394482012535139991756812636114694381488818330098687327316532614278298655517495916352241664.000000 0.000000
-1557756664100394482012535139991756812636114694381488818330098687327316532614278298655517495916352241664.000000 693074789967264095403642482991091944373679991689858223653735545845792076645666927031329099537753047040.000000 0.000000
0.000000 0.000000 0.000000
-8389223106313583209826572743029240889677276171864194064268478595278378725746174671790600255198313054208.000000 -4509676646800989057927611183090891139366357782345052506324239760023095275576990395780877742916069490688.000000 0.000000
-4509676646800989057927611183090891139366357782345052506324239760023095275576990395780877742916069490688.000000 3453042428884869384551360457794304874918085101860330401044562763232443526609395880889482886581627912192.000000 0.000000
0.000000 0.000000 0.000000
-1346648813591228920326275082024694310653451243262591190624657163235247322226219461171161057722720321536.000000 2408489362324055912451938828468198917061646270507150449389485252534304532406631086189629855819456577536.000000 0.000000
2408489362324055912451938828468198917061646270507150449389485252534304532406631086189629855819456577536.000000 2034913978465700155599146485998987258758804704875932855482670919551273485895075210801557533338737049600.000000 0.000000
0.000000 0.000000 0.000000
6567974523392751542357205956701657493304227443178151214875883466762718399290756432374417154839385473024.000000 -31266514758537150152043937855388986666817492859016965734637568381583763986049644880707562487340427378688.000000 0.000000
-31266514758537150152043937855388986666817492859016965734637568381583763986049644880707562487340427378688.000000 18269284579852155484630781907006892252675064892120544509995832454535062118494781804525438117799155204096.000000 0.000000
0.000000 0.000000 0.000000
-18499446061923868126241156029575420776691532836173630498633602797973655123948631021206097346904041979904.000000 -3032522141427940889602170181338617344195044895009032351829019016891745803784651709851962435965496066048.000000 0.000000
-3032522141427940889602170181338617344195044895009032351829019016891745803784651709851962435965496066048.000000 972594942312213195399026405886066740582661357244020107205159114025949553577315204676019894126672609280.000000 0.000000
0.000000 0.000000 0.000000
-63822430597771799905612771539107716312296562506619903347019091145212187243917677997328822718607627649024.000000 28117614096864919269501690086004823554161572475676084084088885531639856194602635034526326027780913889280.000000 0.000000
28117614096864919269501690086004823554161572475676084084088885531639856194602635034526326027780913889280.000000 13834771938194921252986393058607558373045632159554654332956760812037486509663761053968593990860060753920.000000 0.000000
0.000000 0.000000 0.000000
11259530214681357554185459412748169980890832049412891081126763685028004322288511568979633769544788475904.000000 17137950969470800305919641992793478620712570458034286025342966765001447628799035817618633686562906308608.000000 0.000000
17137950969470800305919641992793478620712570458034286025342966765001447628799035817618633686562906308608.000000 8166037408029995568144290268026712359719147411693435077412648580781274617746615767093892069466610597888.000000 0.000000
0.000000 0.000000 0.000000
-108831327759803702533953983836936374956827772892630247985142852684899493440357987737191661743430824886272.000000 -42371290092765753832099796981080212088426406434100135812078385066390442150049145333105649518659942481920.000000 0.000000
-42371290092765753832099796981080212088426406434100135812078385066390442150049145333105649518659942481920.000000 22701324347144354134876017447451168840308225161894879827675665005208037287687207261432331220121276121088.000000 0.000000
0.000000 0.000000 0.000000
80149480822241318610212774591474505884029223507469249720375852783982612946487283327058738991204862525440.000000 70446130808672967239054172559101797636238152231614623517495739176442167257047987101008270839020039176192.000000 0.000000
70446130808672967239054172559101797636238152231614623517495739176442167257047987101008270839020039176192.000000 28170143063885702431136038954133610232776846824278698517437602927688172591382748676631672237527343824896.000000 0.000000
0.000000 0.000000 0.000000
15586733689399894287230325706991657461855285019948036042959709096602056459913273816644611871522611527680.000000 -34889044106627874082415199367981545349650244489259093975785408715238689935922583926200231852414861312000.000000 0.000000
-34889044106627874082415199367981545349650244489259093975785408715238689935922583926200231852414861312000.000000 17625942167336216755872780689330862556928235302528361024156834779975399705755502444741315908469063155712.000000 0.000000
0.000000 0.000000 0.000000
4398945401107543382350941473780381009907885070169602841078419225086242971504376568931273509969864949760.000000 -11765947958071335665110255721340088892265500458269086995206881059044816606216862816792553264704032604160.000000 0.000000
-11765947958071335665110255721340088892265500458269086995206881059044816606216862816792553264704032604160.000000 6083368480204108129613675232374050417012165539172820548418687322388172548200365251096463109706947231744.000000 0.000000
0.000000 0.000000 0.000000
-4575711882730826492907827724352037818950021559088682678830084822955315710460500151903228226021196038144.000000 3041158717913107216597336371766341344818542919414610708313395006084774054466459045620643742389897265152.000000 0.000000
3041158717913107216597336371766341344818542919414610708313395006084774054466459045620643742389897265152.000000 1693557935558896204048807685578006677992407358493659630574392623596144376593123943338301687565983416320.000000 0.000000
0.000000 0.000000 0.000000
-13493836988288968201930637509399717855252467764544231424230045227935016103838719375802119583701173010432.000000 5571251161277037568332317525206022289535568961526171920779015312303749961954449968046898014276164780032.000000 0.000000
5571251161277037568332317525206022289535568961526171920779015312303749961954449968046898014276164780032.000000 2680328180093631356867842737040789042737327538902674138212751794090916792741588877966426724875257249792.000000 0.000000
0.000000 0.000000 0.000000
-6889189051522580959876886651498712016854770253991458564145430409825120245885527282718745458594966721789952.000000 -195453160870120000938394388484000202010626828227679230306813266176912871236999661588220437711085434306560.000000 0.000000
-195453160870120000938394388484000202010626828227679230306813266176912871236999661588220437711085434306560.000000 11032855577670043388027413746331566552185110181451944185173770174817166185281948706037977683204268621824.000000 0.000000
0.000000 0.000000 0.000000
11252148636873661849331344048541440105467560156506246659380517248769816073681428889680011796242312986624.000000 7368965729569433932521780170865278914162941674823668011877531496083411753037430862651307185593689047040.000000 0.000000
7368965729569433932521780170865278914162941674823668011877531496083411753037430862651307185593689047040.000000 2526474340764500223561494683587905299575659006079132269458457870247573766161530921726452730108810625024.000000 0.000000
0.000000 0.000000 0.000000
7461538016723887518683194297918437548322910362123279551952445092631069178629694150629831534025080045568.000000 -3312204023782465073474986363324485058277617388105725530119309793093186007998359648449686637739857936384.000000 0.000000
-3312204023782465073474986363324485058277617388105725530119309793093186007998359648449686637739857936384.000000 867787675341845503952348260957226542979719596488380692398474103060849162624659163824694316231213187072.000000 0.000000
0.000000 0.000000 0.000000
-22502593801242716083750856355598056536271476848289519193884969359862831598157985738316158947734526623744.000000 10866013738269467645502188016324071235971702639955855383129348042293353973359953380812643517757397139456.000000 0.000000
10866013738269467645502188016324071235971702639955855383129348042293353973359953380812643517757397139456.000000 5503917089302664972898311579443570277579994958707461880859304017083905584321086626362196626196624572416.000000 0.000000
0.000000 0.000000 0.000000
-9484050619493299545285279927088956798983697046524648978834569773107773065561574808122357743390698766336.000000 8103272762957992351150349218131277653452226843013698038477329971766471443043256526258186610638858485760.000000 0.000000
8103272762957992351150349218131277653452226843013698038477329971766471443043256526258186610638858485760.000000 4527080369423674018923258695868123016098815438805297112109214066486813266874780704038369431173126422528.000000 0.000000
0.000000 0.000000 0.000000
-12536642803917202976898672160439472276761600065229215694726242944090893233787060008481964825431924277248.000000 -12159123550861775755253684152771300093898888699857848346569102048741053912352841244982855253989231951872.000000 0.000000
-12159123550861775755253684152771300093898888699857848346569102048741053912352841244982855253989231951872.000000 6902573063849484885588417094321444048053702603474581419159284491590671811515389431209921484096985366528.000000 0.000000
0.000000 0.000000 0.000000
31255579865123116735260057132744343697872842404129579580901675907920260266700433073909027973379517317120.000000 7912262881405196067945328943514821705939778515913671908758426918601880419499438149169725798188931088384.000000 0.000000
7912262881405196067945328943514821705939778515913671908758426918601880419499438149169725798188931088384.000000 1316004956920002245310913604138409535781043691121909183441749732868431024407156713275439117710550630400.000000 0.000000
0.000000 0.000000 0.000000
-80887893650142120992672077113762335261973251943469567191707798303848793433683364976102047819935692881920.000000 53333134883172783872213582057151496219169035946259217881905737666532575368854012418249427298158163001344.000000 0.000000
53333134883172783872213582057151496219169035946259217881905737666532575368854012418249427298158163001344.000000 30165050438176685987497602028902325232385756178277347338079620583666351037787088514572248999454174085120.000000 0.000000
0.000000 0.000000 0.000000
547889076653422413647473477294055526349293280254754508957619730192609953601007853983501066738094571520.000000 -100618393723431884083918510104579461528817793937630868475736108834547487069356040728484295517361143808.000000 0.000000
-100618393723431884083918510104579461528817793937630868475736108834547487069356040728484295517361143808.000000 330960333383508112748111648428947001666885483538739854646235789167651842623958380619691836451086925824.000000 0.000000
0.000000 0.000000 0.000000
-60735049347775060767881574348063210645821522904248704436101281036579350829789405233691381690958585266176.000000 -19120164711660746553594866515562710233813936645934678854033595592200902972090814436974025974121729359872.000000 0.000000
-19120164711660746553594866515562710233813936645934678854033595592200902972090814436974025974121729359872.000000 8157318701872793270666570259631098795071441986503224269053958502674753579853153191766374439239030931456.000000 0.000000
0.000000 0.000000 0.000000
1481130414352027138544388760401529564727709241784951883619658939632656553220856023828658351938646048768.000000 10968656110242624735263537237347620059837026849954448652224995814972930138071735176922967556411185168384.000000 0.000000
10968656110242624735263537237347620059837026849954448652224995814972930138071735176922967556411185168384.000000 5968342991245255130398752987710862306675708236859133032974458266389737836938593241384317368049883676672.000000 0.000000
0.000000 0.000000 0.000000
-3634769943700086817147422159071979359840125098447182371447642086061345990990062753967429619991716036608.000000 -3975242406853007661801314616917900652129372627830252414480632000363842307652906739589983187544425103360.000000 0.000000
-3975242406853007661801314616917900652129372627830252414480632000363842307652906739589983187544425103360.000000 2352851084489028672892141111179386600339399813170438890101572949830029379216477420543537016697004228608.000000 0.000000
0.000000 0.000000 0.000000
-3503030124292418094285309101030592190270697765968446682022918648511408570414007501145449501609326666579968.000000 237557768758829588579917413803300303997365792206366532928631442292000185385795017821124805039287798071296.000000 0.000000
237557768758829588579917413803300303997365792206366532928631442292000185385795017821124805039287798071296.000000 31736978158768701372823423188248648476762034057162180492434644356708045351435872467393120293326075985920.000000 0.000000
0.000000 0.000000 0.000000
13927972469901561222347475263544309175731710643178900395902890530401733756369906668411103648779960582144.000000 6564031505427264331259700240514350075869720657303281910940015636668503306937706293753115437103763685376.000000 0.000000
6564031505427264331259700240514350075869720657303281910940015636668503306937706293753115437103763685376.000000 1812156674292900743734139142481867523991207423054750351867670854413297115480608141294001423300706697216.000000 0.000000
0.000000 0.000000 0.000000
-3088223303694381096160752068211582121902327173812275583375013644122168326664732997199213796519518928896.000000 -2638724683318914441619411534671756212118909777869708535208992480561681342231464676537118068175714385920.000000 0.000000
-2638724683318914441619411534671756212118909777869708535208992480561681342231464676537118068175714385920.000000 1482265148455264345013121774160365829202863602013892446820250925789379739929789452010832200983019257856.000000 0.000000
0.000000 0.000000 0.000000
-635932809264411900272751407265464825081036938713053314114727501854668875427560034446139955360467737640960.000000 -122851010769257856657927228626447713885117133203255451573849516158286964610625867200702006789028561551360.000000 0.000000
-122851010769257856657927228626447713885117133203255451573849516158286964610625867200702006789028561551360.000000 39617019716575105040978651968189869575373319350401855262644932359849446920648186765948663340629116321792.000000 0.000000
0.000000 0.000000 0.000000
279849567630487910141232071981225039205336102720076697134164095760090226593585952245687197868750798848.000000 -100930664669938590211561259964955278211324688625979095927208070826008533363933232610737401257424584704.000000 0.000000
-100930664669938590211561259964955278211324688625979095927208070826008533363933232610737401257424584704.000000 22339041462198149793674159453103332771512189940291204163280610424655259321041095141591891421960339456.000000 0.000000
0.000000 0.000000 0.000000
-1666231539663018809428324538180578649593453600770102741467056891485635180776191230278559176312857034752.000000 -3099132332222110948661139438023201607321461408644127975439562515812181668778320622678704927400787968000.000000 0.000000
-3099132332222110948661139438023201607321461408644127975439562515812181668778320622678704927400787968000.000000 651015516101926604848158735673223506326133793794333530172826222265551257472181077498770784527170142208.000000 0.000000
0.000000 0.000000 0.000000
-2539256145776898523051055612853207157649160859272892618959830241021127337481150208749565993169148968960.000000 -2028867930170441711904374189491197603182685153732531062444536042589456179747925500788559293834504175616.000000 0.000000
-2028867930170441711904374189491197603182685153732531062444536042589456179747925500788559293834504175616.000000 940453712678538114028917732083498765102799763734413007135270932413123118293312142899070005288728788992.000000 0.000000
0.000000 0.000000 0.000000
22953463215292341846164140231746388700215958781345916075334942013007763521287646877917917147965442490368.000000 39002168595893553389634729323543147332588454364549959077224614673925822241139721426219587007013061656576.000000 0.000000
39002168595893553389634729323543147332588454364549959077224614673925822241139721426219587007013061656576.000000 19537854945861475728102374325353262889670183533653167480237943276356390529122747591478956407762309873664.000000 0.000000
0.000000 0.000000 0.000000
924262121117512509557774553867818479859237855335850981147913376664675340698228990076105814561320337408.000000 -2818996014049531564222074275938729046447946456562867408025551115228830683569556036166897395071344181248.000000 0.000000
-2818996014049531564222074275938729046447946456562867408025551115228830683569556036166897395071344181248.000000 1542940879522815263719543677952126887977028157508419805505604041507912244691767941359316205578418651136.000000 0.000000
0.000000 0.000000 0.000000
-3605500044733472473777009590644402021187426976766185874254973390897978824679290471341890477595453030400.000000 30202200210475083815536369105201007718640495144960751946442783108682077797764639749388540293371509342208.000000 0.000000
30202200210475083815536369105201007718640495144960751946442783108682077797764639749388540293371509342208.000000 17298446998867312613107343643541350400028550045989152825778777534377461750260987683916379262668597362688.000000 0.000000
0.000000 0.000000 0.000000
-24517907141121598491301418729100861445636264398906607451687380999378456989530813762333162487669780905984.000000 -4689870323276871575449750234430568922900693935004110294433356636832949339582340223560146699379231686656.000000 0.000000
-4689870323276871575449750234430568922900693935004110294433356636832949339582340223560146699379231686656.000000 2419460174120929325308787836642300039020216577048035161399881077619894841144705138934758605359570485248.000000 0.000000
0.000000 0.000000 0.000000
-530477013164503269418601708984313387952614788603667489193018100568676833464090817293568952493481706651648.000000 27129867675205690009177001049787056588721182910021035001655836902277460237694766297476521907501699956736.000000 0.000000
27129867675205690009177001049787056588721182910021035001655836902277460237694766297476521907501699956736.000000 3429762064811971565750662295550780374500323041357634674291218834786202667033611111620034231925097889792.000000 0.000000
0.000000 0.000000 0.000000
8786589042305109223402292636199661509064357765306062545901412841278368635680072392857742544927698452480.000000 31109662405498984609939111411794050742655476506103049331213745404839065647680360928711769827252392427520.000000 0.000000
31109662405498984609939111411794050742655476506103049331213745404839065647680360928711769827252392427520.000000 16434958917377615086695755692897751351247258198810657236884119455595651109647366688118631336161161773056.000000 0.000000
0.000000 0.000000 0.000000
308070745817904616282785598515723685516637645987414819681366536922845051937028362139538690809004032.000000 -22327882416918946344657532855774463959873958226848214048711747927939978374482507359578991578054656.000000 0.000000
-22327882416918946344657532855774463959873958226848214048711747927939978374482507359578991578054656.000000 1081469924207389364709038702804815136783574591461344486131299131226486071105338485180405458665472.000000 0.000000
0.000000 0.000000 0.000000
-138227012416483964554851627303916279975261913607985422680992476401747052121033626893122737352610049687552.000000 94893616495236469672732368275856744741363451087992408081112614716353287609904790857459490134324567605248.000000 0.000000
94893616495236469672732368275856744741363451087992408081112614716353287609904790857459490134324567605248.000000 50758129426246729564831067683194253723329494139858506280518820947018104637326830011508690191411520208896.000000 0.000000
0.000000 0.000000 0.000000
-3154381885595980058628811864866558300458496971621726150755955502845058318531507165706334971720565260288.000000 -7378328754304261320513699242534396761951923755674548175081731419738957813750589988471060888434822348800.000000 0.000000
-7378328754304261320513699242534396761951923755674548175081731419738957813750589988471060888434822348800.000000 4249542201447944022384107338003040788485908216068026130470470435887073311089847334415166648412293562368.000000 0.000000
0.000000 0.000000 0.000000
-106866481302908542377938057646388334613440407276999498913457621461792256882209811291176576365068625641472.000000 57334244619625436951738524255283694826632583365889239341811016770395098201229257911402019391285577646080.000000 0.000000
57334244619625436951738524255283694826632583365889239341811016770395098201229257911402019391285577646080.000000 29389762233241229375125126442261031431912213134106952600834812608935935092480970292042357487619587178496.000000 0.000000
0.000000 0.000000 0.000000
27457664745898123249603775193889877730272609057744170164801611294342335218946555808580607724559016132608.000000 -6633295275953029892037110962554993920190955716320645155050989875947660181272389131130591826017909735424.000000 0.000000
-6633295275953029892037110962554993920190955716320645155050989875947660181272389131130591826017909735424.000000 1135604052753105761077820228767503489146538345260073318439384991348411295302465304455298824171729977344.000000 0.000000
0.000000 0.000000 0.000000
11026968949949894563870829457690033838590936348645036706460312738023248610876248969965070389531826454528.000000 1575067229078411607990718073947708125138883498892423341383274310094530458543659211253300613956727996416.000000 0.000000
1575067229078411607990718073947708125138883498892423341383274310094530458543659211253300613956727996416.000000 463144191463226993559552023378310270633852360969961775177596608225356051411964846107262653286894796800.000000 0.000000
0.000000 0.000000 0.000000
150071186195748339762959891548494873434517760425143562276822095406540291076004180499973808563027003310080.000000 4248949961189906615037531187174282186430288481908271641983423480308030333381607370267605936929790492672.000000 0.000000
4248949961189906615037531187174282186430288481908271641983423480308030333381607370267605936929790492672.000000 340890983187739843260900405103223752830222784110102411452821398411515564341158118518232516581285429248.000000 0.000000
0.000000 0.000000 0.000000
-68097218373509525454359003274966083417989103310827562768503137048919392140497317505162497292213447294976.000000 -56538700643342077512969914287261993175906258179310574646628040800525757875718397160524909987958601285632.000000 0.000000
-56538700643342077512969914287261993175906258179310574646628040800525757875718397160524909987958601285632.000000 31665273118289194638842662921537668695956456265263411950672192286382752228548219929912391642075111620608.000000 0.000000
0.000000 0.000000 0.000000
-38507720745169093232973565878477473057054687178470454950891389880268805336075400320538986661406765481984.000000 1208676989895834355480312707799426436485914065379570747998060225684424581102026462328019549178113818624.000000 0.000000
1208676989895834355480312707799426436485914065379570747998060225684424581102026462328019549178113818624.000000 441867624287362022137477239387365670329887964931855651946143428724091440807914560268030777811263291392.000000 0.000000
0.000000 0.000000 0.000000
441427737402485995504806970207354960606546216497149867505730863017743753363985977004478690808549081088.000000 -271753238460591867659536834257579466477804775769438655992038500787166932435966913668161666552610947072.000000 0.000000
-271753238460591867659536834257579466477804775769438655992038500787166932435966913668161666552610947072.000000 89755846510838783014319818843098863883565116406958411124115407169942298865206591590307415313474387968.000000 0.000000
0.000000 0.000000 0.000000
-49127981573506223853108504730484533410192597448523540140735879732557169429060993970267310356843986944.000000 -368516611238100969039202094295185392614037353105568264269437843816419153859651183172856591388168421376.000000 0.000000
-368516611238100969039202094295185392614037353105568264269437843816419153859651183172856591388168421376.000000 208481459024045309866070113388772913926722546938220146836931996568214907802111891342548411850615160832.000000 0.000000
0.000000 0.000000 0.000000
1530168095699652770139984708452997188945438800410573447971781106408645492019547641160324516577940602880.000000 2121373593383999879737905950454046299627627048973908231917650145596754311674046244865096849973728772096.000000 0.000000
2121373593383999879737905950454046299627627048973908231917650145596754311674046244865096849973728772096.000000 1179295916795432974396694942317930360977896640309141756603664453296460660758111990957047075519768559616.000000 0.000000
0.000000 0.000000 0.000000
314638145926486334829576364926869386892178737419549728031945004996556770833872487610716697244825812992.000000 110419521473366803516765732804024271799853304030387187136531482780018316894762250757410594922984112128.000000 0.000000
110419521473366803516765732804024271799853304030387187136531482780018316894762250757410594922984112128.000000 23879029029959284614212311914719554769238343991021535027825883629859542844999834157907007780872519680.000000 0.000000
0.000000 0.000000 0.000000
978577040719396487031023192666298805839583827337857883999113346558971134336218860118457599979920818176.000000 1096692431490067043474999575552964410575880289549852368586855455904832439991806327311454420311155408896.000000 0.000000
1096692431490067043474999575552964410575880289549852368586855455904832439991806327311454420311155408896.000000 481492532553601977952917945557213854244375138644339282675683203734336048667240662001659427405414006784.000000 0.000000
0.000000 0.000000 0.000000
22407019977137291710906305024389960664680625502307168097384084958757464682549562936132918692681011429376.000000 -1549203592850193917172190377699343921744515501017121520838537178133191195739157897072577001049127124992.000000 0.000000
-1549203592850193917172190377699343921744515501017121520838537178133191195739157897072577001049127124992.000000 79031040443137427450353215361337609206121136940813538967025390260525287122743229060079222905299271680.000000 0.000000
0.000000 0.000000 0.000000
13907352424710116153396140475199149460576336946508513726288281931063378410387923440372125163616640958464.000000 -47987952080110824517138170717640764355273630072392802283285970211087718468015399599640481342796333056.000000 0.000000
-47987952080110824517138170717640764355273630072392802283285970211087718468015399599640481342796333056.000000 129862825911553845868425187210834371912657899300581771938093486742044671977142257587377449234532925440.000000 0.000000
0.000000 0.000000 0.000000
-7559779096517215067156693548420337490592782278206843824295511452034033184689289767453363244881791680512.000000 11660386752179561615254350397275824574642316519997067335885621827844843621585349137948952525915908210688.000000 0.000000
11660386752179561615254350397275824574642316519997067335885621827844843621585349137948952525915908210688.000000 7006909233697357422970016508644247515413759740687971816314832251811005244170099412895627035509090418688.000000 0.000000
0.000000 0.000000 0.000000
10177771771349575288605885545380039139417520906609693429289284409342348633025499954069035159497899769856.000000 -3151134580841119438949260940491857256022676986780791386005666749127841541154124476591427721318207848448.000000 0.000000
-3151134580841119438949260940491857256022676986780791386005666749127841541154124476591427721318207848448.000000 650144912682207107189646845363611034847473405595664238081205979732080660544311589351977444962222473216.000000 0.000000
0.000000 0.000000 0.000000
587616403400422741814574004367846241448572497625852766438591914367147425207514059662152593400813060096.000000 -2654507544751345729070257418064046862471440857605235840131501737332229697700935312438182654224380198912.000000 0.000000
-2654507544751345729070257418064046862471440857605235840131501737332229697700935312438182654224380198912.000000 1571642507032714512042011482594292059421502944345732141870487125588172974536456925752483143322917928960.000000 0.000000
0.000000 0.000000 0.000000
1422827997186158429937120647680152402733789486646679022534322056143000010404510814717261355077559386112.000000 2599901914127195253776821392103306615208312394742571448121944777023035078289418897065089848384319127552.000000 0.000000
2599901914127195253776821392103306615208312394742571448121944777023035078289418897065089848384319127552.000000 1277691384991693007626665813622950336526538351932842621091116114129109585602466423871066249319684243456.000000 0.000000
0.000000 0.000000 0.000000
-94097882622729360659692440754954759901680211494908482214194467958779071978339645873013299190720161120256.000000 -29625194659457638676624464223335761248132117042261269652457301800853799018248722382141297234943819120640.000000 0.000000
-29625194659457638676624464223335761248132117042261269652457301800853799018248722382141297234943819120640.000000 12693443285892932527120753809612255616776391506630092060502715378117765584880300387199725235460898816000.000000 0.000000
0.000000 0.000000 0.000000
14953957494318110672435726802771453353361868324825562506431646664479087526584149725984909252340379287552.000000 2561462771073143284925264433052277648357492239536622699730311487022694025745695759521723934389152251904.000000 0.000000
2561462771073143284925264433052277648357492239536622699730311487022694025745695759521723934389152251904.000000 287081191852656850452413664737476611749075684292441054676005593812131920615179364596127722263548002304.000000 0.000000
0.000000 0.000000 0.000000
13413312281982513949103057661089416974611643514609203190152347357010871769838047257041815595483784019968.000000 -7765152147532354921887998869298091782894461897475774744944386804400142447727598353389656114373901418496.000000 0.000000
-7765152147532354921887998869298091782894461897475774744944386804400142447727598353389656114373901418496.000000 2873155054867970975511252657474832105713540546428553107246364289404089677802352564961431038694684360704.000000 0.000000
0.000000 0.000000 0.000000
-584954699172775824038647682856666366259845253950390885941507082139932174414663778767638834724107372724224.000000 64340506647438650540425693074310779704805655234797352066058797660509794248032419574631401497905355292672.000000 0.000000
64340506647438650540425693074310779704805655234797352066058797660509794248032419574631401497905355292672.000000 15101407908005932386750994827218396066574147966001874981609593895456796321132931491445337158410171318272.000000 0.000000
0.000000 0.000000 0.000000
12698286663589714316185345640315537666223041266105836438140127481064630200222041001523762861186983395328.000000 -12350781629919356753713901787248520704357884458760596233947839657560809134666062231338764046820733616128.000000 0.000000
-12350781629919356753713901787248520704357884458760596233947839657560809134666062231338764046820733616128.000000 5144420758631525557447458308949439466207685692252276582073792641937185058210844745374168627644341420032.000000 0.000000
0.000000 0.000000 0.000000
-32643442512352953764421180937825221053660733981930015142795083562144175688948511349418179594945191477248.000000 8841507373864602968523016504279877235391070754471475230225876701018425137265750196199518052540051619840.000000 0.000000
8841507373864602968523016504279877235391070754471475230225876701018425137265750196199518052540051619840.000000 3477453367787960625843819973095813843913869261295297403303158716409143846700294542951018336525599375360.000000 0.000000
0.000000 0.000000 0.000000
-5347612776885267825491898595107030242392737955429142185758763976987467373222882915397758365500346204160.000000 -3431758623952990868407215498442675107293764406750890334422709515222744620600622069368757483841792245760.000000 0.000000
-3431758623952990868407215498442675107293764406750890334422709515222744620600622069368757483841792245760.000000 1854793774638852444761820890662529623399373868521811486226785686542728718433864663935039691342349336576.000000 0.000000
0.000000 0.000000 0.000000
-1238251796477089661426848338956522312321668945282805492803917338598676254109491961116907035423041126400.000000 46616085036216444278546219181693038601431855836883030004334027414875642147756146931927552423446177644544.000000 0.000000
46616085036216444278546219181693038601431855836883030004334027414875642147756146931927552423446177644544.000000 26017170682241289542288624413234633123932140009656199448750585667002029725666540218257640985905516773376.000000 0.000000
0.000000 0.000000 0.000000
-44683877885177114543039938953613532095647804566597217302031717333871742713781904677567889674824172175360.000000 -22544946704876815742258259028371110127880516653572577760146107842841825452270863435782996277707742904320.000000 0.000000
-22544946704876815742258259028371110127880516653572577760146107842841825452270863435782996277707742904320.000000 11557595880265330771003095739948410185456611874152219344282404004372082117187675265841272032832188841984.000000 0.000000
0.000000 0.000000 0.000000
11887744249521273006156941642289843325325700895069569400509230910863377862191942909458406314325842067456.000000 -22661938181427446644932465054909972372269923923713738654144574273406125034840722317169896973313847066624.000000 0.000000
-22661938181427446644932465054909972372269923923713738654144574273406125034840722317169896973313847066624.000000 11247868863849108370661862772694084182102049013231173013064399443626772364917176758149381979314579308544.000000 0.000000
0.000000 0.000000 0.000000
4304636290459908980727748495094494812640594233095735226279301437383501454050658433727750491476175355904.000000 -2056151019096952176517310544388609535871816795152064956071204394258941332073757579987791885981947265024.000000 0.000000
-2056151019096952176517310544388609535871816795152064956071204394258941332073757579987791885981947265024.000000 1831093078722735270277259840547304264610210986738856691076244225995686872332499312022600197922397093888.000000 0.000000
0.000000 0.000000 0.000000
-3034301673245211817787364078730263636402273429939128792113635953114926895492788103065202478926243299328.000000 -2290944945840543468562319383183550888957014804133508408419820200137790867177062263076843118669280051200.000000 0.000000
-2290944945840543468562319383183550888957014804133508408419820200137790867177062263076843118669280051200.000000 1505699763737440274519265788725107775876348467354273611455075842772947724719363113783224267858585321472.000000 0.000000
0.000000 0.000000 0.000000
27773707069517537966401474864759540655495310849335192540313016871900109458082599979950806733671230341120.000000 11445930439243355720993611320095834741723565643651845617634888798982135815912390922067796838006191554560.000000 0.000000
11445930439243355720993611320095834741723565643651845617634888798982135815912390922067796838006191554560.000000 2863487519736816681981017508338863528188410398289323816384235561657996081348826337272470918119970308096.000000 0.000000
0.000000 0.000000 0.000000
23271541906251227119237179146651809545554076776860903489624988155811612002321470159533710705067114364928.000000 -17658773785781632169201581692726031143226037479539746497149234366824141616758233888531019768897340440576.000000 0.000000
-17658773785781632169201581692726031143226037479539746497149234366824141616758233888531019768897340440576.000000 7271084863888902682747152954649943588341597237307546245002154748104412089153323057021170044917780578304.000000 0.000000
0.000000 0.000000 0.000000
3615928295005773098504798897402769950171347971980958884340981739204257645012044894375151941127673741312.000000 -4781271091508657742908479759570833501484498692605927150103505025644582161272550398862542906292831256576.000000 0.000000
-4781271091508657742908479759570833501484498692605927150103505025644582161272550398862542906292831256576.000000 2203047284716340202702150895652111446195836891147309862598889368840918533198854298094704596521484025856.000000 0.000000
0.000000 0.000000 0.000000
-498070427438968730948710515802570081268167745751864596531518981902660800904937497518269217927482063192064.000000 73134559080084171622694384559401711540132025257917593123172476639757201954175134038664794211356870967296.000000 0.000000
73134559080084171622694384559401711540132025257917593123172476639757201954175134038664794211356870967296.000000 19170991076704015828878318468024978082150184530289530583990134590586147475975626065890835111106681241600.000000 0.000000
0.000000 0.000000 0.000000
-3147821204666299838512633012803522226288777902831848418070381855573729667271919220728515911020091193425920.000000 -21118480956185811275503204576676673774488840450323651907832830192819907800252839095794707626958375616512.000000 0.000000
-21118480956185811275503204576676673774488840450323651907832830192819907800252839095794707626958375616512.000000 1061702581664677649771146329074321915952278963860510167016986654741057333165242998194915197565660037120.000000 0.000000
0.000000 0.000000 0.000000
6250040347013440384855594915174297361101267343922222075601379757082873060022002592627681149317457903616.000000 -5837316058946699181862430331832777864072793287228071864507403827918141534315238179225462622672329375744.000000 0.000000
-5837316058946699181862430331832777864072793287228071864507403827918141534315238179225462622672329375744.000000 2425553322792738057591641674117933629312132899142697611650457607517532525925616983903876546783405408256.000000 0.000000
0.000000 0.000000 0.000000
-3076080839100202190738030062031436227827381588283803749988930207137931745636750471773995324560298800578560.000000 690201182894455500222220618178290383575012162620720543842710727474341350628243644081286990590111763136512.000000 0.000000
690201182894455500222220618178290383575012162620720543842710727474341350628243644081286990590111763136512.000000 245961341299468922702635155145864445934951270079579962666049605699259479240656711134668618846470427115520.000000 0.000000
0.000000 0.000000 0.000000
490119443318109039456723974991795794392392607280384384402508019354498432228593622312835014452848885760.000000 -404479690111036068726953130709047577382049336643162566335460844577574354779532233957526044564642594816.000000 0.000000
-404479690111036068726953130709047577382049336643162566335460844577574354779532233957526044564642594816.000000 157064887579082486412323628487819230619006512337134428792356752893954127716775848694074514460251258880.000000 0.000000
0.000000 0.000000 0.000000
34781191906752470475430238482015410476961795139050005333755545445988476444042984738807233048909642203136.000000 -34414977838683479967257333069107465710382902792932460255215025347706891943448482605291224783997047406592.000000 0.000000
-34414977838683479967257333069107465710382902792932460255215025347706891943448482605291224783997047406592.000000 14432047057132415733973805373014122547714574909582949324577308260771797458406958278107625931939466182656.000000 0.000000
0.000000 0.000000 0.000000
1868933790988576734062117137484323842444733795134538574683566900758295392389652565766794252437373845504.000000 -164894225452241151032264265239631721206340563078611679778724450010142386891848236444065927263384764416.000000 0.000000
-164894225452241151032264265239631721206340563078611679778724450010142386891848236444065927263384764416.000000 9648022072645774661416588777332165127966467021064741130900706381849916859690065507511184896800325632.000000 0.000000
0.000000 0.000000 0.000000
5761552131540054451457664779935549477766542365066523175652718522204445932867924304594190625918949523456.000000 -4673074944915613653982356994632642922893218298223211642843481116926048607570492625895645878803469697024.000000 0.000000
-4673074944915613653982356994632642922893218298223211642843481116926048607570492625895645878803469697024.000000 1662082666405099276255016257782205639238927356801875639937184823819036696534100130611572255015554777088.000000 0.000000
0.000000 0.000000 0.000000
1436699213649310782163379457592446499935396017634786071502502714431087366183133489988229074948653580288.000000 1879047980357150620432283567916356152654058484448904489011020832463385830224871207125088119298447114240.000000 0.000000
1879047980357150620432283567916356152654058484448904489011020832463385830224871207125088119298447114240.000000 1179729398825513815105561966010447220165475889373680980488595502259645030738067277912229979651708026880.000000 0.000000
0.000000 0.000000 0.000000
-929656406061168983267540993943419913354878145036949183649236573041444581168276010676154788878491844608.000000 280300614032211727211201861625487336767046371238807903195144755291663611482813936307510492349979426816.000000 0.000000
280300614032211727211201861625487336767046371238807903195144755291663611482813936307510492349979426816.000000 118345457873105936685226522205280110582963962516960366930582583427276906687681430421775839178927374336.000000 0.000000
0.000000 0.000000 0.000000
81526977245580903600185404107713523960887135121529754994969349495126778938797477825436837202129584128.000000 -1270627991313327466275492586026208813928831818889119441046673240478618245658010692436803270352832561152.000000 0.000000
-1270627991313327466275492586026208813928831818889119441046673240478618245658010692436803270352832561152.000000 754596741613298365255365292496301258212460823266088580094663990559031582369246329155554873043761233920.000000 0.000000
0.000000 0.000000 0.000000
-6789543823995237604207890414283279244711858951081113371655139505237704853118328300439376956749405749248.000000 79265103809940437773247385578630855972225170022870869640852382079549833905612794171599775868599442341888.000000 0.000000
79265103809940437773247385578630855972225170022870869640852382079549833905612794171599775868599442341888.000000 45782423257498779562078104532461951040536538827952973717680804254339460526376430591796403417988351393792.000000 0.000000
0.000000 0.000000 0.000000
2940028021074078475161377076499807767077207638664425762373416218006288547052873578380138423785065807872.000000 2072071397816867036389965356537823386135700236873269367588125196157587114264070599645420662735952150528.000000 0.000000
2072071397816867036389965356537823386135700236873269367588125196157587114264070599645420662735952150528.000000 741360511672067224690000909008219511489866257419864940947591008309977112094960415923918605752612159488.000000 0.000000
0.000000 0.000000 0.000000
-158272228678979009040851862313909037851929112308022846455688399114782092280446085627571867427781709135872.000000 63997190253300207513582265095172569859274402976181133131298546982144023562736945536002342636263435141120.000000 0.000000
63997190253300207513582265095172569859274402976181133131298546982144023562736945536002342636263435141120.000000 30618403401893471622638661386380978998467270990405502968623003485732039150340930267409899613180557000704.000000 0.000000
0.000000 0.000000 0.000000
14989735639268202511714416978773321944124524326831348221927113115691236347534686629965154266291319603200.000000 -15821457023603778756259544030344173345345682726190065764566982628752080185770571899037610627577243762688.000000 0.000000
-15821457023603778756259544030344173345345682726190065764566982628752080185770571899037610627577243762688.000000 6805580981204543173894699879687313365982636751325804105141515078264419946368464427160090305008425238528.000000 0.000000
0.000000 0.000000 0.000000
5622600452818037745500585829309549958513741078069761709325344782981959406701408737401222410489848397824.000000 -5366710486865236307872512886318459842755669579377505188461390536324608721829162953523340506681644679168.000000 0.000000
-5366710486865236307872512886318459842755669579377505188461390536324608721829162953523340506681644679168.000000 2576988808157902319694022408781284011288363759685265315796428062902651287909952556791515754275901800448.000000 0.000000
0.000000 0.000000 0.000000
3052261303954067619860676078001975179089212736119621003221899983785481645245015080613069607018382229504.000000 -169466437898397597977713668743221968204246254655768234381104940149242651692753717921169606728740765696.000000 0.000000
-169466437898397597977713668743221968204246254655768234381104940149242651692753717921169606728740765696.000000 44948595743392243059051867901003153755958775863105546189345673753941626609039103147797365834077175808.000000 0.000000
0.000000 0.000000 0.000000
-7926292546957653589136867376168997367669385108633640318310954802739527188055842675498758893181832527872.000000 -5580814898228875053552740958460879441731831004626357531742849416844818562008981660373022076705041285120.000000 0.000000
-5580814898228875053552740958460879441731831004626357531742849416844818562008981660373022076705041285120.000000 1873865880562893653754255048390809750867928370028288355822187164459817919170334218094912228002967322624.000000 0.000000
0.000000 0.000000 0.000000
51713461949890523124824989754524804846280456935660018023610224716532766954909221252610357501385630547968.000000 127123497160826586543270662276936545763304017399672341410266592493084599979469602193603636042520741281792.000000 0.000000
127123497160826586543270662276936545763304017399672341410266592493084599979469602193603636042520741281792.000000 65182541421542242498440972089769342025928618165787986485970854701391520796609944606043318314840914657280.000000 0.000000
0.000000 0.000000 0.000000
-755620339568840656626174528935869654392572048746247195339693659975100277039315727160080806753639333888.000000 2733230736941636391115482659482904776849570417035393901145566435146782324099425070141947564888642551808.000000 0.000000
2733230736941636391115482659482904776849570417035393901145566435146782324099425070141947564888642551808.000000 1756795884149202675962657348437844483552736963489195058479373273827500479692292831391928258951519404032.000000 0.000000
0.000000 0.000000 0.000000
-4923888072746379803984203977845926277976744394572113588240921744008910069606897987945359054267475820544.000000 6828845256449647616071684130522736438066352833058802903868466358998948891863637259026400155438503952384.000000 0.000000
6828845256449647616071684130522736438066352833058802903868466358998948891863637259026400155438503952384.000000 3931585695614583874121456980319144844706242834398655613163306843105939205403319159402226306627670114304.000000 0.000000
0.000000 0.000000 0.000000
-754517524733096338979548001651992465022988441859788475165715172956381772487443481422209630639937814528.000000 -647892798660397773817495811977417210779155573615551387394472149044830487674116670840394953727479382016.000000 0.000000
-647892798660397773817495811977417210779155573615551387394472149044830487674116670840394953727479382016.000000 398000362031397815438706223101154863082987257498495015873555514110224191859959758904235091826936119296.000000 0.000000
0.000000 0.000000 0.000000
-10569115676589755643858665947444650955384888194558705680225223828816380577443751307517373842276858462208.000000 -6848728467328978590822828013248524790260610580597709549394263918922131392277935698040939278899691388928.000000 0.000000
-6848728467328978590822828013248524790260610580597709549394263918922131392277935698040939278899691388928.000000 4124940969793726976119975520876858545829563844081793909812216582237718738073616768567866763889629724672.000000 0.000000
0.000000 0.000000 0.000000
-3790338994542197868940545306946679824423189718759721998065218986588898386243372923697011302210362933248.000000 4465148934745549310015061941594591302658727337405883978165351080520159864103162702033099440998628458496.000000 0.000000
4465148934745549310015061941594591302658727337405883978165351080520159864103162702033099440998628458496.000000 2803130345268052541082843608615799466289440740354554022461356352318557010473580929756410823409523490816.000000 0.000000
0.000000 0.000000 0.000000
6133587907311363460577090184651606144659409603755332147476710030286855327454882424596606785075500023808.000000 -204775879241219058613581939180314270450517425548578924284714807197414795608499758652160886347845861376.000000 0.000000
-204775879241219058613581939180314270450517425548578924284714807197414795608499758652160886347845861376.000000 4706630908319741894567030828143390527343261811461665897682884322009081197466029919544499744679133184.000000 0.000000
0.000000 0.000000 0.000000
949609885793792538859515681144496683930891800971049499501327934187798424526328516516064304511945015296.000000 -955321053481570667448370806527964291310491125718411251270847202371136269791616827801018405865740304384.000000 0.000000
-955321053481570667448370806527964291310491125718411251270847202371136269791616827801018405865740304384.000000 403757883494492990819067716714859861383595572801291641513857343314051506596206616089076450447652290560.000000 0.000000
0.000000 0.000000 0.000000
-91970127207124088981639152609058862507500419723685344021821965479384225407612417450922738834164913537024.000000 102781059352898545948814922872151853370769500803734820238176622343947106199654938281332510012442239041536.000000 0.000000
102781059352898545948814922872151853370769500803734820238176622343947106199654938281332510012442239041536.000000 58825320375186831555353395980821352740001358382462395225332606542461984266608724767853232366614491430912.000000 0.000000
0.000000 0.000000 0.000000
-40923598087244568231847251748846218009924571935085383275342287619715660314914524794828872430684223832064.000000 -9027657043670866299951798971497786785842275242280974196319435025468450674985938530134947408721404231680.000000 0.000000
-9027657043670866299951798971497786785842275242280974196319435025468450674985938530134947408721404231680.000000 3017941547536995453029338593322337045920528154955697538480197261442690784323308462721687139479833280512.000000 0.000000
0.000000 0.000000 0.000000
58703798872203085882405685698460495506544266363900289732309039254010626127908332899075657829026875047936.000000 69227248657431997834638673865735061003509032248992861449065170364054033067979341298692767270682859929600.000000 0.000000
69227248657431997834638673865735061003509032248992861449065170364054033067979341298692767270682859929600.000000 30907489134735014528047964329807013040591965525447370501899411035468685347126513853062929244547473997824.000000 0.000000
0.000000 0.000000 0.000000
-37474743194957384268892933286479275409041157859843690128863481497336628258613726522161134252230174572544.000000 -42641616582707313948828847777137463583567783601860930868671271301069165587734650131993603444434351947776.000000 0.000000
-42641616582707313948828847777137463583567783601860930868671271301069165587734650131993603444434351947776.000000 23572710751097354868186877956441263171902568320026916653297985755151600904627924295573938082908832006144.000000 0.000000
0.000000 0.000000 0.000000
5773490965817097610208710129570963253861246105523904236940868350954719089633394341789291316988149235712.000000 -4836342942762340760428933077682534646048381843974560317845039972385227352448453730378978772486891503616.000000 0.000000
-4836342942762340760428933077682534646048381843974560317845039972385227352448453730378978772486891503616.000000 1891475859143188297792790073478205130272992605530064483243357599971864658747885131531104753615934324736.000000 0.000000
0.000000 0.000000 0.000000
17755635103099734523791109880440985432181892988662106147639857809529308682008954539289442240604412051456.000000 5720169194295191221885377907841949920634021618244467413596050500336112244401222741326480879508225261568.000000 0.000000
5720169194295191221885377907841949920634021618244467413596050500336112244401222741326480879508225261568.000000 1268017724099528600030332032921233820458306792394282551854563660763016238150632588463399480251184578560.000000 0.000000
0.000000 0.000000 0.000000
106081442001220050355331532789425238728144304303611743275823233845484172426963957531022393550863073280.000000 -1863158172161485763682927145821524523892974266302580574751531534553283106261061813066895646737771266048.000000 0.000000
-1863158172161485763682927145821524523892974266302580574751531534553283106261061813066895646737771266048.000000 1029582855909785608775270830741760781537623347564228150472338999719236501574794928415184902464571703296.000000 0.000000
0.000000 0.000000 0.000000
5087744888242129019566963454260628797340917140558105687285682402220266836374652464891292531420439773184.000000 -15901893592064938466829285003400933161411612170743433455004571954103272400421919965190885222854871220224.000000 0.000000
-15901893592064938466829285003400933161411612170743433455004571954103272400421919965190885222854871220224.000000 8489369045969446359453368998332787266962103638365996602497350573554861586167919990013502834072530976768.000000 0.000000
0.000000 0.000000 0.000000
-75956423752356631036506256337549482326674395605850548903545863388567491759715941651362819402865676329680896.000000 -816090567048532588584288936458563898499528892850318205963614453644716428649335212645172666494195165298688.000000 0.000000
-816090567048532588584288936458563898499528892850318205963614453644716428649335212645172666494195165298688.000000 17592554786355621832372225146579855323432493535243228349126889533525462513599214278806485497680934993920.000000 0.000000
0.000000 0.000000 0.000000
-581235834264026262235531927662655799904382252302732279984484916792485159275291742013953472008266245472256.000000 8316810818730737015197504006364419076390298996309694276833383183656651344580797684387019026203739684864.000000 0.000000
8316810818730737015197504006364419076390298996309694276833383183656651344580797684387019026203739684864.000000 1004031004552629042021829367646457936779713747974228924030283439920516459806805465689039024874504323072.000000 0.000000
0.000000 0.000000 0.000000
-54153863262069146689523132954611428210341768841982636251982762259550012161825545086863068294035581960192.000000 11524153728045470521145034239509857020469465086015695492177972759694172388169863439790545209748946419712.000000 0.000000
11524153728045470521145034239509857020469465086015695492177972759694172388169863439790545209748946419712.000000 3946294549304027322351068549549415896924784896299837445481926508106539611140047874395120668714570088448.000000 0.000000
0.000000 0.000000 0.000000
-8115410420031079846722094488157253606379671773071290127914355355608766965418352768360946096913350918144.000000 -21156871288676248843722415778873087763177620662370940999315072597351453553358447166928887217046692036608.000000 0.000000
-21156871288676248843722415778873087763177620662370940999315072597351453553358447166928887217046692036608.000000 12092780156230914891506433976712632403807659794651456714292670300375775372357786551733645398021232394240.000000 0.000000
0.000000 0.000000 0.000000
186510627054403310314924197836480164911493247868344787005759307614888970228364157405818650889508972658688.000000 183491637874922030972902217027103101384702437358504593796789148014912392592821800032864349053160687403008.000000 0.000000
183491637874922030972902217027103101384702437358504593796789148014912392592821800032864349053160687403008.000000 77041199751006954453406369368629899211754956182265009842253837853553165305188693017835789561815803887616.000000 0.000000
0.000000 0.000000 0.000000
-4575411899796457328861984341004059036672252241431436597206663755026694740926424450446788958907275411456.000000 392322176102091145804764070687328012249949422824923103273149650005024754812885291319058624140630032384.000000 0.000000
392322176102091145804764070687328012249949422824923103273149650005024754812885291319058624140630032384.000000 152345835475051580513679767948560938305235290696799338284714774453456295661599465096775887840706822144.000000 0.000000
0.000000 0.000000 0.000000
-1603124430863638545332798572420348182010915865693716726684424407339934013384915790148882512980321889157120.000000 -140581185013117112164399511486381004161309924483827750130843803784035823149363710163703578598837866987520.000000 0.000000
-140581185013117112164399511486381004161309924483827750130843803784035823149363710163703578598837866987520.000000 23656077589107525285145264055891734479582407971590299970690224360186178773942087349188276058275281108992.000000 0.000000
0.000000 0.000000 0.000000
14057780930866524659971540620764958938627664377123967406986888050060972402440596456127780743352665767936.000000 -5605418649376217147517675417883448448736320734457898449825972271292228305348323010079102203423539331072.000000 0.000000
-5605418649376217147517675417883448448736320734457898449825972271292228305348323010079102203423539331072.000000 1926138235393286329584531395222344850739710154518828236709173064266189088752751150555844738320363945984.000000 0.000000
0.000000 0.000000 0.000000
18733122489056359623387688354559798905452820812330467501149479905806589926615025311023560987045735170048.000000 -26938505427439248623531099862897362279354042446119278164718048514827192321326177015233466379978579902464.000000 0.000000
-26938505427439248623531099862897362279354042446119278164718048514827192321326177015233466379978579902464.000000 12674550807300937846343297933512226828448409425887489153087757169621347552609321769337047718032050225152.000000 0.000000
0.000000 0.000000 0.000000
-95382529778405436345368202161948054522465292736546773656394462202521335933164527366936332598605449789440.000000 -46915178710773522798892006165899652840851587897970328092650920416208726437523909519096970191523983392768.000000 0.000000
-46915178710773522798892006165899652840851587897970328092650920416208726437523909519096970191523983392768.000000 24338069431736427311347501549756771282878957984088251115375501196922121098267835142130297766865289609216.000000 0.000000
0.000000 0.000000 0.000000
16982094295609987670813406883860252098635410050977113618561734741834817360529223566560372844087910334464.000000 -9673898754980656491596688180997191330234162266965078503707361381940915317497662305193492341535354650624.000000 0.000000
-9673898754980656491596688180997191330234162266965078503707361381940915317497662305193492341535354650624.000000 3256501213177657684730426356490250032991721841565549210541385051902620924105864706110782536223436046336.000000 0.000000
0.000000 0.000000 0.000000
-275044974374475075885150744337540756175619784470824104144656202490305371833890880446110224451778123923456.000000 36093846523969905724528842281540441773219575397310597948476768011491152566807017547518386687107248685056.000000 0.000000
36093846523969905724528842281540441773219575397310597948476768011491152566807017547518386687107248685056.000000 8643998440974683265709808798974042619262942176545715559548941377185360210132288400983789303075662987264.000000 0.000000
0.000000 0.000000 0.000000
6725059093073590421223793442648037734036631479771217015669876064633196598397310688674202166776702173184.000000 3913825220774601136013811731522318498432612671625020896810617101811899207475449826382266118073370017792.000000 0.000000
3913825220774601136013811731522318498432612671625020896810617101811899207475449826382266118073370017792.000000 1245765336919834824815672878721065850035939223798319332639577252236092182473255011074910780953024528384.000000 0.000000
0.000000 0.000000 0.000000
349753136622395708733257846289538174045044641896268224444796633446372870965831071622494555575202873344.000000 -163839810071050577797499760471276229328280492573272969539236924143943441692451268208080965076705607680.000000 0.000000
-163839810071050577797499760471276229328280492573272969539236924143943441692451268208080965076705607680.000000 73326146167471184971319761784489765236422673834558255799172041995159774728931571355820103731020562432.000000 0.000000
0.000000 0.000000 0.000000
-104469262464562921666020504496253497629571487994986403257134312858702473722993665147437140924589133529088.000000 -3442767355722330480001391695002468639403155564287768556009133628483249899216023881421186473137434263552.000000 0.000000
-3442767355722330480001391695002468639403155564287768556009133628483249899216023881421186473137434263552.000000 513461474974478856940023637884316416843754893172627879911921318865614141948989320323812548276234747904.000000 0.000000
0.000000 0.000000 0.000000
25034349692286032096533220184271129933463068343849706497687432637694551778083830189716430421379187212288.000000 -15953231712289815180711128179712658707667563615932246204461284913028156572945467513157183660494367490048.000000 0.000000
-15953231712289815180711128179712658707667563615932246204461284913028156572945467513157183660494367490048.000000 5738710082738418452779517081298644846149165088737860365305557680058790951468047229897149762116159275008.000000 0.000000
0.000000 0.000000 0.000000
-30821568639434340357477074861763148782661204807828335469865012244902863080163011998750756995072922746880.000000 -33810225633747385704984551353173797661631754116181585897756106957839448206449496225960499853625143590912.000000 0.000000
-33810225633747385704984551353173797661631754116181585897756106957839448206449496225960499853625143590912.000000 19892551953073612603031347453522196061702119985513428137306061727436146116164399384326820295526160793600.000000 0.000000
0.000000 0.000000 0.000000
6220799734595145478470207601557907522575256760248462505368645874603751805213185020911358552057380339712.000000 -218143078220015758837037306937466230948293951137454519461069156194925931803909438094117006198439936.000000 0.000000
-218143078220015758837037306937466230948293951137454519461069156194925931803909438094117006198439936.000000 8664172072872126718845716218088426418166192139229335835421492375703279139139579307528782344446017536.000000 0.000000
0.000000 0.000000 0.000000
-4396965686743180871004626301852920308184042035015617112573529737294805057333272995212531012413421518848.000000 5539383816407534090678895317067567164766103373118594848835834987837961334826887106582871306668148260864.000000 0.000000
5539383816407534090678895317067567164766103373118594848835834987837961334826887106582871306668148260864.000000 4012931762000700415838586760648156467190915260882507073151961486401023488366090360501709697415523598336.000000 0.000000
0.000000 0.000000 0.000000
-41984212232894446471383081143909141680883843749974985071449362591670283868690899876617791619334018170880.000000 -9845457455856820192313588503721850996174020216280101140105530313463649368691046865777304963313469227008.000000 0.000000
-9845457455856820192313588503721850996174020216280101140105530313463649368691046865777304963313469227008.000000 3603183653957591220759875594453769394497406448155543370936416226037226233845691958175236332249910607872.000000 0.000000
0.000000 0.000000 0.000000
50325462591577489078660151239599857418067119921631956231550560055795947145387077694967514172940951224320.000000 -58881397066780065226837980739380703931788878149885680099959215621411909330513116480616558364240182771712.000000 0.000000
-58881397066780065226837980739380703931788878149885680099959215621411909330513116480616558364240182771712.000000 26208537186622499786576078681892875122042991075271558863313071694576400490088949172978548491258939047936.000000 0.000000
0.000000 0.000000 0.000000
-635941367168073004652405187946886067561318211223546184364633349765715287186919792620353672371871330336768.000000 -49443375417175916641184583479707994629704669346408758422237806096780183091098604203685266849539939106816.000000 0.000000
-49443375417175916641184583479707994629704669346408758422237806096780183091098604203685266849539939106816.000000 10668653835237271220647419363704871010240724421450724699120622953451868210079069550934003160917695528960.000000 0.000000
0.000000 0.000000 0.000000
-3037388143090418354408683554265566908258028433786829498534020598049961260572688646354535400627387760640.000000 12058253345482322477046989267265404896679950222776177315633416406095276700075333359941147652270241873920.000000 0.000000
12058253345482322477046989267265404896679950222776177315633416406095276700075333359941147652270241873920.000000 6874693372443743268698791479616537784420847755137480038361922269156129413509441713987576550472909062144.000000 0.000000
0.000000 0.000000 0.000000
-11915155961063133463097373168122329499694932605896161502199077777044757784444625859889660641764517609472.000000 -6970452142265968169028660744601302992427834622682054554547275376414061622067426480081475400646344572928.000000 0.000000
-6970452142265968169028660744601302992427834622682054554547275376414061622067426480081475400646344572928.000000 3687984816402982198139722470205786347550269394411832547577852390241621231091346537412988092938216013824.000000 0.000000
0.000000 0.000000 0.000000
-1798289459842679834778075734459165958856223097010563742021052594732642723461009519829143477082264698880.000000 1513536074437057622691697745001588806609823367569289011847074683078445488047096912867269788336444669952.000000 0.000000
1513536074437057622691697745001588806609823367569289011847074683078445488047096912867269788336444669952.000000 1195279932851015341239835498625516394865516246438179092446719777265864995125540783507923099092779008000.000000 0.000000
0.000000 0.000000 0.000000
-272672725281220681721766079845263306334930645019050864644565578515346022961048790243656969005920419840.000000 -2037815654575905688584656298318049513346299332254173159393008276222668127223390073994021848139805229056.000000 0.000000
-2037815654575905688584656298318049513346299332254173159393008276222668127223390073994021848139805229056.000000 1259508641603110529684612126852336874603473572880661488309728687900581870781546433606750496828078161920.000000 0.000000
0.000000 0.000000 0.000000
10985969743763961962761227354106536061464082849613241415888728650458980493456185550728800888409330548736.000000 -2630131906796237358054629359848807002880284333393628289316546913480465935395829705613967612220075409408.000000 0.000000
-2630131906796237358054629359848807002880284333393628289316546913480465935395829705613967612220075409408.000000 472635293839406332623364242859279423336564633470451640336516000014118969420122226997502216585923788800.000000 0.000000
0.000000 0.000000 0.000000
-29021656767945048748496610450476800030963756018324748583806747967878588298794367475663762657538341863424.000000 1284873702483965669156351354405185970589933005810526528105766638407490885848541743339855914273517600768.000000 0.000000
1284873702483965669156351354405185970589933005810526528105766638407490885848541743339855914273517600768.000000 442979065124027500684227307466666665697605188317831296277735165207299797654176776220925099889393664000.000000 0.000000
0.000000 0.000000 0.000000
730923438501333190977888850705575017542211769572366875210814353371181750164496292144117213204500709376.000000 -345193778376394119708060062198396844604980998884390147993022355986986259850631134967792029057608056832.000000 0.000000
-345193778376394119708060062198396844604980998884390147993022355986986259850631134967792029057608056832.000000 94797731640676146735225506071253265946771320437973101507624798259628139587840140726735964724631961600.000000 0.000000
0.000000 0.000000 0.000000
-109524447447515287077902937159223626583545538946206046518509107193388925309670603765173522161967336259584.000000 -20588622734791069453631070572130776572168116984290643025442845730855901842815260293409586640216309891072.000000 0.000000
-20588622734791069453631070572130776572168116984290643025442845730855901842815260293409586640216309891072.000000 6405451184131313801625765758364355110976159542318176535623217600464869814059185659536743455613949837312.000000 0.000000
0.000000 0.000000 0.000000
1312529757966882751343916848686250865621688795400859984162228055251641053637758045666378924645668618240.000000 -486312063909137668289753509454447827659107719570629810997913507991733328893473861878330213726129487872.000000 0.000000
-486312063909137668289753509454447827659107719570629810997913507991733328893473861878330213726129487872.000000 110222940995911184583269774203893880537031166291493942032946295955682770311221137575044252098401140736.000000 0.000000
0.000000 0.000000 0.000000
-15015584662163699858547358136525264681247811235122138870296666360092893059229410056006085255701900908560384.000000 -161967914556511302303546461900068348425277643722882635708760129409316650128487048849039758278446007975936.000000 0.000000
-161967914556511302303546461900068348425277643722882635708760129409316650128487048849039758278446007975936.000000 3515419277943825494234627967329377617288907614926084924602178086669762011738793580017151421941979021312.000000 0.000000
0.000000 0.000000 0.000000
-596693668754955597593850609050429331680106890370140649078494920156647751011958676099400692755570098176.000000 8427423488439388931721754163209241437743201765547945921782530623076567965977846353031979716821034991616.000000 0.000000
8427423488439388931721754163209241437743201765547945921782530623076567965977846353031979716821034991616.000000 4708829934724546161838104668923856890480748770127937825791638107645216594339596755868936398675462062080.000000 0.000000
0.000000 0.000000 0.000000
1289493471533617565044958887949813594885741195721960923079341289503221125302802682478704141724947578880.000000 -882640629091848044841885148872592023037612554033759420737757434406109638738545501478663266554076987392.000000 0.000000
-882640629091848044841885148872592023037612554033759420737757434406109638738545501478663266554076987392.000000 535995197012933760072278442006638158714483830466985492250341974612402905431680115734525939518229446656.000000 0.000000
0.000000 0.000000 0.000000
-93675662013600340829877890727716913245364365263829945861809351050396145385618001252736410884255451709440.000000 -30662393740863807507353548819681850804364367475681182888774531417276363358505769211947606157305128681472.000000 0.000000
-30662393740863807507353548819681850804364367475681182888774531417276363358505769211947606157305128681472.000000 14140149723672318068456842562300651372311199269500900553318968519332865991873840070737497265597086433280.000000 0.000000
0.000000 0.000000 0.000000
-121189363627761058603156292245553723517914450053924125199574958053781884470400232346078423921545082568704.000000 17163421516033270278054607333485233815549923523368154357021272862517752685962481576560377320454823608320.000000 0.000000
17163421516033270278054607333485233815549923523368154357021272862517752685962481576560377320454823608320.000000 4480330171603715184171979788676570381970579173843925249235792154874524334759393751225620020698386792448.000000 0.000000
0.000000 0.000000 0.000000
-104048346386072861998393344104702286822150306799234072221924013765535502189574643865049818659107391930368.000000 37223708361499915288552845874513684510437683307922437858338162738158189949413720977313472863638736863232.000000 0.000000
37223708361499915288552845874513684510437683307922437858338162738158189949413720977313472863638736863232.000000 17042036197844508613507805620259680145927837883015102075202517123181744334231532055934409207171097034752.000000 0.000000
0.000000 0.000000 0.000000
-2496838256111069900304982865582467259231988363030360132971632716786278205096435892895816848376437145600.000000 663261335258043760919598508967028066288467226834640524761840074757591747644240081157870248376288673792.000000 0.000000
663261335258043760919598508967028066288467226834640524761840074757591747644240081157870248376288673792.000000 261200202190826471966053009804279612533221107392863795118408320620616710353295318421185301198193819648.000000 0.000000
0.000000 0.000000 0.000000
-24815895109085601120691988741157926423808285059432931019056273399109631581710992715885769062156802719744.000000 34897553322320954702554125701663116200349644139379399105073356422447298709932548195559724022069209333760.000000 0.000000
34897553322320954702554125701663116200349644139379399105073356422447298709932548195559724022069209333760.000000 21571375113163828004142882172179558855011518256344679097217966105293334661040488557945293358615651942400.000000 0.000000
0.000000 0.000000 0.000000
-8349817338967907115349610502189028662718066694582887302908233255026527567860320373859058421870480366501888.000000 -341393290403773413875724743499576328787728024070271069270141059353764530431539987657829123176830148280320.000000 0.000000
-341393290403773413875724743499576328787728024070271069270141059353764530431539987657829123176830148280320.000000 29547495461296511988480794420863601129145732843840058701160215563448914038613804670345973025906454691840.000000 0.000000
0.000000 0.000000 0.000000
18246314389356965310937498239518867384830858927050486942221506325246047563378153061873469876704682967040.000000 -30723210681802139959087506819653900807223629815072117346923089437206722627540842817080657959872186286080.000000 0.000000
-30723210681802139959087506819653900807223629815072117346923089437206722627540842817080657959872186286080.000000 14094016891895684417927926473351035498286540576156282683566072692890210541043269007149432876886434775040.000000 0.000000
0.000000 0.000000 0.000000
-3656298184932338060747182703265010146262534673591201957497477728944803054162142505306979608562501681152.000000 -752293114833928395578148815914902778783691341936226117139517017301264884723820938130828210515321290752.000000 0.000000
-752293114833928395578148815914902778783691341936226117139517017301264884723820938130828210515321290752.000000 645827505888903113175921170272579727851610572302888914931923742115376466405823475650012414726620839936.000000 0.000000
0.000000 0.000000 0.000000
-107292791416527474546572652672759440969967608623346120555114788998027520565418001969996933136489142812672.000000 -103113782432631182136122836050483385427914086086540141602042734386080905834850111029821113917841382309888.000000 0.000000
-103113782432631182136122836050483385427914086086540141602042734386080905834850111029821113917841382309888.000000 58407082030665533130285990611933081966382722380755070603084074651844389148055050968279090231028660305920.000000 0.000000
0.000000 0.000000 0.000000
-6499519859266576413594122794497545041360701074554476849262960488502703661213856089089322368922774667264.000000 -995939264318463484719825948974191243059320647025355024407429888896303646746301670627554997505831731200.000000 0.000000
-995939264318463484719825948974191243059320647025355024407429888896303646746301670627554997505831731200.000000 1040247474729318557179071522038698528976052289603672483582772715489304333100265960310194657559719182336.000000 0.000000
0.000000 0.000000 0.000000
24738249272625983591745910698650291207819004821403792422200909662421667614111179637399857452903756201984.000000 -72473584914805911751533763131975496616427412050974531496201291482953230552999256896021689292376720277504.000000 0.000000
-72473584914805911751533763131975496616427412050974531496201291482953230552999256896021689292376720277504.000000 37776915727332525888038236833613167467912997210924152040953954464096932184718658463604644325783593025536.000000 0.000000
0.000000 0.000000 0.000000
-932521551915109615865613683800055932211430737779385984344458792468178490523066278978963913835653627904.000000 -1376023671408797476153297194644381460825305383712466971326278884101890174724247381629036048894985764864.000000 0.000000
-1376023671408797476153297194644381460825305383712466971326278884101890174724247381629036048894985764864.000000 793540768303782862780056912333050716625791059036579448683233052678972046049617842654077857978296303616.000000 0.000000
0.000000 0.000000 0.000000
-263448255766778211729469749790916251664388057755004405671680431985761497387554328040768511929598607360.000000 760554181352369629470811542394348199519327081342444290902124962423095658237712617344840662575053012992.000000 0.000000
760554181352369629470811542394348199519327081342444290902124962423095658237712617344840662575053012992.000000 436642793008213477604513579312672789081956628120398627664435208859933058379554091254500038970691289088.000000 0.000000
0.000000 0.000000 0.000000
22921060382697941158767342062694648722792383930889657138363981266152746746071532015891385340509856727040.000000 -18806176834134687599701979274087053627497760224960533163947402747312016674265645864308694790107561984000.000000 0.000000
-18806176834134687599701979274087053627497760224960533163947402747312016674265645864308694790107561984000.000000 7294049416929546503523811173398958033154806793342372740454175687629588083260208482676393451867837825024.000000 0.000000
0.000000 0.000000 0.000000
-9827431404847644561535063577443862929769084719278583870419674956743431064398963916300950900587913805824.000000 -36572676039583145846714202200827503577207138059302054586473304045920642892613514270037755559205855559680.000000 0.000000
-36572676039583145846714202200827503577207138059302054586473304045920642892613514270037755559205855559680.000000 20816981633161536386128028681086183296309239927925871761083727124100362542400984753644604707370233233408.000000 0.000000
0.000000 0.000000 0.000000
-354365547654622133367936158542093005268861484034107648661981987517132091668994266953038600689351282130944.000000 -71569710244508087220302995177004237045939392185687770021563623942913360811856633733144820813947889254400.000000 0.000000
-71569710244508087220302995177004237045939392185687770021563623942913360811856633733144820813947889254400.000000 23820792334961837936273968813801578860447608052642178387640019362240670314120977626951620854445198278656.000000 0.000000
0.000000 0.000000 0.000000
23035305805534357227146668560931188930553090512986753554896346194099176234499533221395510644349652172800.000000 24354578562713379287569373188927963355540975565924371243245951649619266197801736265973221973536175816704.000000 0.000000
24354578562713379287569373188927963355540975565924371243245951649619266197801736265973221973536175816704.000000 10482088730294841006726540331483444797676840319893885310592544673106185094163350411540954731609501728768.000000 0.000000
0.000000 0.000000 0.000000
9265415209590418370227038500360346826198420058692757714950528876073455060773271714548315580572412936192.000000 1492186075393495749285064144587736516053660321549978998741337449972913022835305250141022572975273017344.000000 0.000000
1492186075393495749285064144587736516053660321549978998741337449972913022835305250141022572975273017344.000000 328663745134055486704611534143626077055047840662268961144808685822765302521579685475148341379730505728.000000 0.000000
0.000000 0.000000 0.000000
2086307329712000764090825228992693002671215180049487105515754443856523361784925360806600602962874073088.000000 -2814785401470432014190813465033196306009620868393738882290612902183343132806289711808295880529704648704.000000 0.000000
-2814785401470432014190813465033196306009620868393738882290612902183343132806289711808295880529704648704.000000 3377467544018608798768612804338569079280725437581318130706451146616827463442437362243132921503260082176.000000 0.000000
0.000000 0.000000 0.000000
6861793752383537841285783370635119697719548821074944038204736707559274426157282667171544724878231863296.000000 -21970543091293906191606180620092207800802412657336243277373195622122000135123199710164207127091180732416.000000 0.000000
-21970543091293906191606180620092207800802412657336243277373195622122000135123199710164207127091180732416.000000 11531011165586048898329786832509223003662424672562416513735508981399308508752391745625485743784755986432.000000 0.000000
0.000000 0.000000 0.000000
-370850734563405998236662636519641122575227922830918130167311093618894506819433302074104135195307907481600.000000 -12664050669363042960209831251036419105667866089974258018683497270803648562431977944046084997628089597952.000000 0.000000
-12664050669363042960209831251036419105667866089974258018683497270803648562431977944046084997628089597952.000000 855709967653119093564470835771953204493291956393324552241912933549861063740895078039877386551083139072.000000 0.000000
0.000000 0.000000 0.000000
-221589740757430145452736787723561291511082041990064237427559197704222976395649839343673170663944749056.000000 -9771699979288701360523057130575376361068755207516391410210318448790965794938272216351526495061402451968.000000 0.000000
-9771699979288701360523057130575376361068755207516391410210318448790965794938272216351526495061402451968.000000 5373177706417701455480887250543374320479924480527906609539306093992375629529642958321711451942019923968.000000 0.000000
0.000000 0.000000 0.000000
24170643649716476137883780205547818762567435886615658560399333359726105092802803374006913980443775729664.000000 -10917044256898902332449173824789124630926546079085233349213147969612027094091101461433388979277237583872.000000 0.000000
-10917044256898902332449173824789124630926546079085233349213147969612027094091101461433388979277237583872.000000 3181676362103785686151026398125262434240756419100615025452993696974747058325765040603978271078121209856.000000 0.000000
0.000000 0.000000 0.000000
-9751812356567446117573036923499268299510354738432097790803142090582543447851262228843998021102908473344.000000 -24588326905494759394244903908833241648019534485800914981038098150314508938621177767240152589036007981056.000000 0.000000
-24588326905494759394244903908833241648019534485800914981038098150314508938621177767240152589036007981056.000000 17818686156417005027032952580834772282041912088553119300470543302791680057760901347270068997653390163968.000000 0.000000
0.000000 0.000000 0.000000
88167770816754403376508073279724817821185618428082500343411681465478096311080110577114763406510689091584.000000 40550975977227103326322739260076108080791197956327135374646540897624847826525684573424418431609688031232.000000 0.000000
40550975977227103326322739260076108080791197956327135374646540897624847826525684573424418431609688031232.000000 11094191933661809783720007509547713503601486478070860158781514785176635029854786040468828263250359484416.000000 0.000000
0.000000 0.000000 0.000000
-1068856946272458912255366498685089976841580329716521511692325474004036534948601501942683732140592849747968.000000 397547577619280371559158692841566381709241477388553584558521603666400664785367948960337175135669924659200.000000 0.000000
397547577619280371559158692841566381709241477388553584558521603666400664785367948960337175135669924659200.000000 184250225038687286042966252308436407343332110333699536015398472716722163249218148414415074333792388775936.000000 0.000000
0.000000 0.000000 0.000000
-29246695518255581512728074313926973005419965323550849014865483350704304175119855094798307486527695880192.000000 27729223225990397841998035154704341101322779630931782500892657187187697650161545487912402132286077665280.000000 0.000000
27729223225990397841998035154704341101322779630931782500892657187187697650161545487912402132286077665280.000000 16889256996803707833100501558363049563763004400089119979273886072490472134706422080665482375679304531968.000000 0.000000
0.000000 0.000000 0.000000
9872420881630035594606787025773072430527620801303439940917703023603880163697165833102019824051749388288.000000 9021334399106091147223620108737523798072480692376728693820003205493109201127347370035501349426973114368.000000 0.000000
9021334399106091147223620108737523798072480692376728693820003205493109201127347370035501349426973114368.000000 3679056219679056637307147562003016723672215908681479087309318767837776227065034733701234716746484547584.000000 0.000000
0.000000 0.000000 0.000000
20390110835582367978999420223286451614529755175224103623442988338538249948407453870622084661205536866304.000000 -7748061954783813365828272398890288846608963899964437374607783735560511584998254743396896295223337943040.000000 0.000000
-7748061954783813365828272398890288846608963899964437374607783735560511584998254743396896295223337943040.000000 1835683790246155597037630459387441831686175120225908546561003480097170419428638151892392706145257521152.000000 0.000000
0.000000 0.000000 0.000000
-6017031805842259175063690911987056669176086507715578916496754303051042378939842139494471713243491467264.000000 2443356041722544356592010354294397566522162502210664693578480935498225010395094721664203837302072410112.000000 0.000000
2443356041722544356592010354294397566522162502210664693578480935498225010395094721664203837302072410112.000000 3371852065318336782525011851210632689761441531029352345355722413970957089502409047887234186268951707648.000000 0.000000
0.000000 0.000000 0.000000
-14263902675153142191005950705283535935872219314762024162961203317922175889989774382089070181935875096576.000000 -33661573935479945995825743874754414368213818019462726166821579661333955689282590752922035178755577610240.000000 0.000000
-33661573935479945995825743874754414368213818019462726166821579661333955689282590752922035178755577610240.000000 21067703447079435906820145760675614449402854093842495547307891512411580242085826525311603180238131953664.000000 0.000000
0.000000 0.000000 0.000000
-130499297415257370155639405968800754933515533118025928557923448825779286948385202232355168381006734426112.000000 20107129584753744922807503943255442550181068472283019128484424160020332773625356379645630019858279170048.000000 0.000000
20107129584753744922807503943255442550181068472283019128484424160020332773625356379645630019858279170048.000000 6653957208454008452353885487531484859379944952464120357649667171488860350623247563605599677946953465856.000000 0.000000
0.000000 0.000000 0.000000
-1399500115317335278304292665244194500973681104131146864808347464710280054708794154537190622251332927488.000000 -3249578498290344246411415784415079273306336206517724075052765738441898230787323948648083862341839486976.000000 0.000000
-3249578498290344246411415784415079273306336206517724075052765738441898230787323948648083862341839486976.000000 1906545736357346280410936707081862185156473025080361025449423742851246200792552184475476341222759464960.000000 0.000000
0.000000 0.000000 0.000000
-126437409055662393333815730813821986386082185752353587592149049450210613114696159107069303418272088064.000000 -340846352197004265614565391366495661699987251306805430280768447273267768715424864955461342514389188608.000000 0.000000
-340846352197004265614565391366495661699987251306805430280768447273267768715424864955461342514389188608.000000 196505270748747978839341082142083648346225367657149591036700996691170928792429051912145420238666596352.000000 0.000000
0.000000 0.000000 0.000000
887179405474598330455038831477657015679037107214372918902402807526385515788388926119295087441860362240.000000 -290368253179757880820938700847412333648617026950256872434018608622829838065960895072074097263042887680.000000 0.000000
-290368253179757880820938700847412333648617026950256872434018608622829838065960895072074097263042887680.000000 418304377075664529286043976663101882812455179827922485117840255602203605086430596108331057769099558912.000000 0.000000
0.000000 0.000000 0.000000
-606814490853699849755037635310688556136447563922123795393643586194525501744028410204321119925539176448.000000 -1741488047037032520199618307646561993335877958295946599246132629958626161053344862430453945361024155648.000000 0.000000
-1741488047037032520199618307646561993335877958295946599246132629958626161053344862430453945361024155648.000000 999926774739041139730066814868251163767029564148291502839717499764366453088251878954358806811284340736.000000 0.000000
0.000000 0.000000 0.000000
16176156034477848471436780626086088327344719019245054217273260964689399748360310269697143105226996187136.000000 13358221447856172891376141159308270540320450130679060066007232227530807641322141123560098506080516046848.000000 0.000000
13358221447856172891376141159308270540320450130679060066007232227530807641322141123560098506080516046848.000000 5654036873977011896380125384690650427007795536663701028841111266609279989926517910026679454476319850496.000000 0.000000
0.000000 0.000000 0.000000
6761964160028979419289264856201706247029045388253089893504097009249305677599197178591138443730064769024.000000 -13326837478820723408632057535178857623352498308866268537205042838893516069693408771727034871210036953088.000000 0.000000
-13326837478820723408632057535178857623352498308866268537205042838893516069693408771727034871210036953088.000000 7651334644192903106180151372205625026881324485308241807939325052258382192598960186501518945883053359104.000000 0.000000
0.000000 0.000000 0.000000
12188943532407172240627203023726667008366233739546615669375551719716731527002229770319821536294439223296.000000 -22177392125251234188081532806150022331611631375754536250939222678083015012966521268617593642457174638592.000000 0.000000
-22177392125251234188081532806150022331611631375754536250939222678083015012966521268617593642457174638592.000000 10874255062092841795639726851257621757928809287691008859689481828303909066212846169147654232122729693184.000000 0.000000
0.000000 0.000000 0.000000
10559666773132267770780847614736935956894059172981379967633158465593426652791260661608227341703963475968.000000 -5614585813987851588012793702835223671663864361177680220290068753892011470736984219052683327781556191232.000000 0.000000
-5614585813987851588012793702835223671663864361177680220290068753892011470736984219052683327781556191232.000000 1682601916613969003098148081815135676708022046393780959826407903341415292812263818034949558424376967168.000000 0.000000
0.000000 0.000000 0.000000
7920619493048688304374427582102576748417432924599019291192625374947555064120232767239851657638151454720.000000 95336750700592184032526974304128309470391232932754122985037798447784849162725253745522495273484419072.000000 0.000000
95336750700592184032526974304128309470391232932754122985037798447784849162725253745522495273484419072.000000 337770924322552910774345427940460962645405901114194800192560380273198287853610105332980736086138421248.000000 0.000000
0.000000 0.000000 0.000000
33445128185651132723685031505613298618095290423314737183511986670539088959025909393181483436411277279232.000000 -21902877207975343631696276017330305373130962795390010877085351345914686101119485173059209016644454055936.000000 0.000000
-21902877207975343631696276017330305373130962795390010877085351345914686101119485173059209016644454055936.000000 8292479688671532852397550426993421365521878995913220698855224888078622697999035984472411351579629715456.000000 0.000000
0.000000 0.000000 0.000000
58031780467104056049503696388350093748146203243513082882930557184964358950586378429701345004381798400.000000 -3872889838352996788373435631401643923074783259498749819239305443989290433793985025781556242667098079232.000000 0.000000
-3872889838352996788373435631401643923074783259498749819239305443989290433793985025781556242667098079232.000000 2371021193402454555029033966169558653772793649570565087105232862338365615081795621406307330805901295616.000000 0.000000
0.000000 0.000000 0.000000
-7246555913799901601339968241511551122956341644426346387568216877713202833600560985971418512060059746304.000000 12661614349299693356806975516284277568819784811879669759219408093917572230702482240860973403064923848704.000000 0.000000
12661614349299693356806975516284277568819784811879669759219408093917572230702482240860973403064923848704.000000 7307057493708139669428894282991377463377261071945003956361798145764294009777921722060700491274289938432.000000 0.000000
0.000000 0.000000 0.000000
58106267690003960516342480642807176819052513177623400536253035302864309572873503640204692529694638080000.000000 46289009271313196521291674226457763188335944127216279634464587718721884557448132145464682840612161978368.000000 0.000000
46289009271313196521291674226457763188335944127216279634464587718721884557448132145464682840612161978368.000000 17537815035421811911748284508649255694732815621895699281064725099239475485756441325437721836113448927232.000000 0.000000
0.000000 0.000000 0.000000
-36433451755714677606243124988707867618519646135873545684726930883428499239720108866600131993726965776384.000000 603848526084390347481534886783657369458556962645492601623699413457399742436895204100412475227510931456.000000 0.000000
603848526084390347481534886783657369458556962645492601623699413457399742436895204100412475227510931456.000000 77749462700401800805660909756010920865081870273627812553442741158429773651919000846365264259498115072.000000 0.000000
0.000000 0.000000 0.000000
-5817991415073701698466096355012150304507403031592041974812623261297247932669149034182747471091901399040.000000 1561159526308766663486353643445828823898481648172089043961209276226801238378783564757335313543048724480.000000 0.000000
1561159526308766663486353643445828823898481648172089043961209276226801238378783564757335313543048724480.000000 629607933606737873055845717698948914748567810668557783407806515862132170967440644975453635879779696640.000000 0.000000
0.000000 0.000000 0.000000
548827902464060500783894270293376310705327047541451051206016210927832996944567619077950162546433458176.000000 -1359248518342600445742801193197258240358961454879731855764697225953595191630359990858915964081168973824.000000 0.000000
-1359248518342600445742801193197258240358961454879731855764697225953595191630359990858915964081168973824.000000 347152008734481463014912675984314169880798756686251793946388525484719873771395788764824296199922122752.000000 0.000000
0.000000 0.000000 0.000000
-85723691313214250956833509220309469887433065425062195051295293928906140508892816195315504421437177856.000000 85797268691906039626602072378139929373728438195249959246182342819474657800845683242060819138361688064.000000 0.000000
85797268691906039626602072378139929373728438195249959246182342819474657800845683242060819138361688064.000000 48887269046448961322620495426739124525961354229512311409561178147415080206101246617168872343475322880.000000 0.000000
0.000000 0.000000 0.000000
10171575598608247806980448905078749152012567185321394328358560228211084331183937269146510971618077966336.000000 -5877697723975920676795320514447109933485341167509235878159112248287003145873964811145333532609923252224.000000 0.000000
-5877697723975920676795320514447109933485341167509235878159112248287003145873964811145333532609923252224.000000 1862102239087764941870887908947314911777136610323039688328533053237825478138657440797677504756245856256.000000 0.000000
0.000000 0.000000 0.000000
8568163101348298853046181327739562541787567093663696673470170678714583744703959612751020299529486336.000000 -4597558747664427591360812679714986295316861648896513499930099812648241593067922864491906700511828508672.000000 0.000000
-4597558747664427591360812679714986295316861648896513499930099812648241593067922864491906700511828508672.000000 2554110319274712065870648151946168567629245308109260671143863682260367762105377190715252400154797408256.000000 0.000000
0.000000 0.000000 0.000000
-44631708843963226552076402091791831705198414807773915366873399192588365584230807652358120177299313655808.000000 -2588893343531898869495023869397777707551422424223991379147519978751507417474116449128293729437854203904.000000 0.000000
-2588893343531898869495023869397777707551422424223991379147519978751507417474116449128293729437854203904.000000 795028466789949940820104511606169116806245886588565963445617129350291573231483163996443174313404661760.000000 0.000000
0.000000 0.000000 0.000000
10664008584608355549010886982013531005411240263696496175938465554830811503960962039646063148611781263360.000000 -9559191190838993698272974071352342975350716236692778745853373237362466761615771149025185905016276254720.000000 0.000000
-9559191190838993698272974071352342975350716236692778745853373237362466761615771149025185905016276254720.000000 3855102467034610157722120022031865716197964717905576476813252140724723190062716659713099133680854499328.000000 0.000000
0.000000 0.000000 0.000000
634395588512948104296800908290157206334052516626320689488707412843504187718984093360696902116937039872.000000 -189751585046408705838682353488215572168991326873069917067934170836124712596456513238894510752900579328.000000 0.000000
-189751585046408705838682353488215572168991326873069917067934170836124712596456513238894510752900579328.000000 35844564286880254533010395575497243253706867663086017831507827156779390447392961636722911441806426112.000000 0.000000
0.000000 0.000000 0.000000
-88279898610057996233156502587701266767189632098916211052426127205937791577240768854039868380677530451968.000000 -3548351713002960042568399305715028517933701794102906090111713792087903012370081929312177387607599087616.000000 0.000000
-3548351713002960042568399305715028517933701794102906090111713792087903012370081929312177387607599087616.000000 947734589305917914905776702759969345702382299307259679035864908728574800428710250749002779906612920320.000000 0.000000
0.000000 0.000000 0.000000
176361478920574447956781843470045888007743583181650127339208817541884769104861315385509389311808634880.000000 -57240546611590673919451113160572049858832315145548422350356217919068946693623401108390228635265531904.000000 0.000000
-57240546611590673919451113160572049858832315145548422350356217919068946693623401108390228635265531904.000000 11574637024961492889352541543672150451029182224501909889320238569386700308834371915935015370089299968.000000 0.000000
0.000000 0.000000 0.000000
-8189164322325458786835130655716502323953204504665193388294952909749190204368044326989260050339997555884032.000000 161784084257043758434205004038613888179395732891447322478525605303108294297231945697218258139643784462336.000000 0.000000
161784084257043758434205004038613888179395732891447322478525605303108294297231945697218258139643784462336.000000 6432862869937141381333088901913896855477256035777212641349132917961630706886207124159724804054703931392.000000 0.000000
0.000000 0.000000 0.000000
284388612474173056866537771421544290857641237070869931840992609662781070042034892940838795313380589568.000000 76818051877988936140098992281924104379736765606531909720863967203813205283833970167141210259741212672.000000 0.000000
76818051877988936140098992281924104379736765606531909720863967203813205283833970167141210259741212672.000000 89787607594179734228012984094407014029209347619293746700030278941383677369587057387017780681676685312.000000 0.000000
0.000000 0.000000 0.000000
5576444489890788459974331577467812248868320985673942519517365541185359779862715764103791266320267345920.000000 -24790230957437044620226001998183157584634675610350041025517164684770747598361537823187475142734249984.000000 0.000000
-24790230957437044620226001998183157584634675610350041025517164684770747598361537823187475142734249984.000000 94693004561605631318698949136672350723061291414814428698674806272563918777939107424957194439753728.000000 0.000000
0.000000 0.000000 0.000000
-687100349597391301128197465755568200435138139444280302880553630062205694101842192447308005510167396352.000000 6875625136979677475078058171208998026653636672399141871972343667275131148223753025378626399644598403072.000000 0.000000
6875625136979677475078058171208998026653636672399141871972343667275131148223753025378626399644598403072.000000 4147351624472838243763872084775297467200388589661888781244413770374432700322192360828151616133568397312.000000 0.000000
0.000000 0.000000 0.000000
56141715364917789607519539768019629336061587444251068439734138520731912531489419962512737986338573254656.000000 -55614159666189485200964185987467764542603298561714437359594942990037048532314772346456353873710834253824.000000 0.000000
-55614159666189485200964185987467764542603298561714437359594942990037048532314772346456353873710834253824.000000 23367325240198840788146975660911604098456100878083967459679156643389730878037497488352134064461496451072.000000 0.000000
0.000000 0.000000 0.000000
-2683578494217238104727602636334993300947201169908037169342742833758470538383880948368266669519794077696.000000 816224160526729331787141748404732076425294033342786538163813145511395935750391605414078334748151775232.000000 0.000000
816224160526729331787141748404732076425294033342786538163813145511395935750391605414078334748151775232.000000 209606241915031641108141131316066973167443497674637684971432888087629937867492199113987667680066273280.000000 0.000000
0.000000 0.000000 0.000000
-1151325665247779391957468473446840923306739287149331416380139977249905469338804684772728454229742583808.000000 11628879206837306516174923592170136433103993423911752165649281575689056113488641604641006685099351080960.000000 0.000000
11628879206837306516174923592170136433103993423911752165649281575689056113488641604641006685099351080960.000000 7180716342877239192084048501778741046160840048827292071629433232593091006931693887294185329519660892160.000000 0.000000
0.000000 0.000000 0.000000
-13333019433015063155855901291657290480974561410067053746831423294210028330372241727720841841532223881216.000000 2601014741006834409347509372622798313444139241732313333178786063806706461388524470204234379120405905408.000000 0.000000
2601014741006834409347509372622798313444139241732313333178786063806706461388524470204234379120405905408.000000 910906348545859799833737799401337019692705092813731460642426360607022503598395524704287213271566516224.000000 0.000000
0.000000 0.000000 0.000000
-39944669040662856654731068928171194704978537997346006017095075858738137786751114754508091017045747957760.000000 -1925551441666211987654959896420141923828386165044207585364955134556582989921745357239881432540861431808.000000 0.000000
-1925551441666211987654959896420141923828386165044207585364955134556582989921745357239881432540861431808.000000 619456593984240458875129602532625461334607075175349551964877842767418328121584959738591126672042360832.000000 0.000000
0.000000 0.000000 0.000000
-50316629876396963638623189046294313748282278815373722422720254530236110716413430660038147295617744896.000000 81393156367649816900636969252582514979160070887210624379273591336046617618667537452227472126675779584.000000 0.000000
81393156367649816900636969252582514979160070887210624379273591336046617618667537452227472126675779584.000000 47192273546579305937217557540305821433623835742167097314616627315149154921436857273109633691088322560.000000 0.000000
0.000000 0.000000 0.000000
-19301929528640365290863413157550298118653942073588279616570534941465570671173875517828392661046410608640.000000 -14209574114982436249874369606704648841302653288480580178254226760271078071669443280968015035752452718592.000000 0.000000
-14209574114982436249874369606704648841302653288480580178254226760271078071669443280968015035752452718592.000000 7835359197061737209011165890329400660493579037454263159894360648837276850052545337445092279917484179456.000000 0.000000
0.000000 0.000000 0.000000
115387373406434678832631721082872650602655142810235573272367279320888696528878409667239375911333658624.000000 -77922654687750778309549253911722857244665955545212624984764333057805440530050339605288801872432332800.000000 0.000000
-77922654687750778309549253911722857244665955545212624984764333057805440530050339605288801872432332800.000000 27211461553757779452404890019885576615915926268974470097031853628091057221594420981483459129097846784.000000 0.000000
0.000000 0.000000 0.000000
-8900352932775464807734907516041872718367685016813033215690696638586127434432288501960853837475601421697024.000000 -107783691250309021922259648786622760557341290981459968568988807728599954262796915993415930112163845242880.000000 0.000000
-107783691250309021922259648786622760557341290981459968568988807728599954262796915993415930112163845242880.000000 2661289713505977884171559716067462437104412377997595469219678597241583632652775020374728359309245153280.000000 0.000000
0.000000 0.000000 0.000000
-62065999155463562686924466671735548626018783263197062788243662112898499768907986431989863986798669070336.000000 -21439973515635762751356603998589053549875928549169446809216307676049300833470898225827151616428507922432.000000 0.000000
-21439973515635762751356603998589053549875928549169446809216307676049300833470898225827151616428507922432.000000 9388049851770421940284064125177739954624421731461268316557548263264518736915222230056753661853864820736.000000 0.000000
0.000000 0.000000 0.000000
16885917490987792763266037870327166420972708183871779668347839364508935356348140869271480540864020742144.000000 7715655310361063329593504090350804668004837980410781662996286933153925278211407920447400579182853357568.000000 0.000000
7715655310361063329593504090350804668004837980410781662996286933153925278211407920447400579182853357568.000000 2066479906647485148696195508259792977197064197323568242634398648320618040969174604377716300805736235008.000000 0.000000
0.000000 0.000000 0.000000
505791617274873312070698640341208675025850787057768883160948193287302724081523500412868695487384911872.000000 -3334726479459685402565617945175416776254720648875484320127405849479930359607399207903511901010514673664.000000 0.000000
-3334726479459685402565617945175416776254720648875484320127405849479930359607399207903511901010514673664.000000 1809679712975927225077202976270528691429519784894352534700800347123707526066683355031649407907754147840.000000 0.000000
0.000000 0.000000 0.000000
327986343447680578540066772223379482951138595287479046872393687558846856448750731348807103451358035968.000000 -451099434012180338508532534756482272881951997435104753513324584545719650114640528907906051751406469120.000000 0.000000
-451099434012180338508532534756482272881951997435104753513324584545719650114640528907906051751406469120.000000 340097504017911616439176254578228485329880231050265347494053477369206860309042047160505978037144125440.000000 0.000000
0.000000 0.000000 0.000000
-13846853091733033844421780803528648458801158826179509582607507138225114110050126054092816180318222417920.000000 -10509780879620171209129512105412200531650494141886362235749043566856219290697255076935707042223606464512.000000 0.000000
-10509780879620171209129512105412200531650494141886362235749043566856219290697255076935707042223606464512.000000 5845413136503138909058879638817460639034419099908824615748916721937850520068819269922602088781368524800.000000 0.000000
0.000000 0.000000 0.000000
338779158772361475533119547943928899569809336182193684222799697192815127699746891051936873205379104768.000000 828033205852650402369622862919023198001415712115874375958639945174458807682148012833637852873100361728.000000 0.000000
828033205852650402369622862919023198001415712115874375958639945174458807682148012833637852873100361728.000000 424364763778714281949601391223236475377476688756393001473196376947397771401453288169751548865072332800.000000 0.000000
0.000000 0.000000 0.000000
-434157246235352385824911915622817614205040768910989436684181130660229678884907382543550014043245772800.000000 -302365354358169794594802129838766801477243799041387300499398437886122005594223785211569691766017753088.000000 0.000000
-302365354358169794594802129838766801477243799041387300499398437886122005594223785211569691766017753088.000000 165630780636237246170285006814404415694246083308803387366616824789022855146058180245302570025251504128.000000 0.000000
0.000000 0.000000 0.000000
18779645428606809509366333414432554875772513363075373505129369238154711303726472454663658745239607181312.000000 9883711556568637735153606940118416698092255537757699469683701554609064189096587273752920091161977159680.000000 0.000000
9883711556568637735153606940118416698092255537757699469683701554609064189096587273752920091161977159680.000000 2937280082028296340627342084277144549816113224724419510283701252823279396727925529804257133570279079936.000000 0.000000
0.000000 0.000000 0.000000
2339770908885817264204128189516270472130716018125841177414748131866379299701186321627292915858474532864.000000 -1258141359628609439261418929575159770865415554314809518362446010001864776088844525897327031558999113728.000000 0.000000
-1258141359628609439261418929575159770865415554314809518362446010001864776088844525897327031558999113728.000000 531752656957154842866747665074267122785475724488681334849839507013342085526013003606088302599306477568.000000 0.000000
0.000000 0.000000 0.000000
6531323333763149062669600548504574616282114246499006542647491872068775445703234166245970881501628203008.000000 6595835959109029692457551026463765853325293519560392328705841903046814061970550365991852953980941369344.000000 0.000000
6595835959109029692457551026463765853325293519560392328705841903046814061970550365991852953980941369344.000000 3047686952203606457395176434611331922695995682796697259757702751224903377773715918848524757325035077632.000000 0.000000
0.000000 0.000000 0.000000
-62099158358620266551441487456929228734547102337921715769900784261130791221917171552178165685169900486656.000000 -39931226947384509553246040292159077941154949092555219325679266770759076970255248447268802342838316564480.000000 0.000000
-39931226947384509553246040292159077941154949092555219325679266770759076970255248447268802342838316564480.000000 21589574230431880833077235510913493595829760818994994452139758491122989581831617267558490893693275340800.000000 0.000000
0.000000 0.000000 0.000000
-76918598143831743261722178750098008153654522876598374402218864109021857744546092735845747888383154192384.000000 14274387107186621240368378231906893998757575326329020653216538938792152459596159965958790267383375200256.000000 0.000000
14274387107186621240368378231906893998757575326329020653216538938792152459596159965958790267383375200256.000000 4511991808555177509678970598567074757885019402732480170926330303333376505171228587101879133208865406976.000000 0.000000
0.000000 0.000000 0.000000
-243733824459466685326357507168522212412157830213351039759152064106365902566199072076505950060207314829312.000000 71441746303739483383078149825206618228724816281056345196780974058879539221133907065013488959270944768000.000000 0.000000
71441746303739483383078149825206618228724816281056345196780974058879539221133907065013488959270944768000.000000 29700220727023117087975387568941057285313550014156950852774361567693412136288696260995886263381568520192.000000 0.000000
0.000000 0.000000 0.000000
-109022624484107281949640375359680974429090784696639558464418431059745978109317133340497269993374543249408.000000 33485549805155906631937416926376110569641646913670020575682145412304029599183465144123665711376646537216.000000 0.000000
33485549805155906631937416926376110569641646913670020575682145412304029599183465144123665711376646537216.000000 14251438499012615922262256587843317914428400642579607599444167399966395417569359199537662307154729631744.000000 0.000000
0.000000 0.000000 0.000000
-8317420382193599337469220802490226817609186287257945112554289565252679292051018541610356770585811353600.000000 68775911728662747586331841278030096596949531372803115542274129230064725596185146345353398004949998108672.000000 0.000000
68775911728662747586331841278030096596949531372803115542274129230064725596185146345353398004949998108672.000000 38815043695320708302572599454465265892764471564989863088079984670864182136134444368349073322110166761472.000000 0.000000
0.000000 0.000000 0.000000
-38303631724603060102479444629823808874892862441900534982677016925593698420106739826306543057025458241536.000000 17988971551967355737358090784296605690531692830937216244330797312791269209530181994811606358977025146880.000000 0.000000
17988971551967355737358090784296605690531692830937216244330797312791269209530181994811606358977025146880.000000 11206887284756130433727996322794770770895685151867315782735869304388032506697532952785320535260823289856.000000 0.000000
0.000000 0.000000 0.000000
-52264241133625897811179543411668531821051912131583909018753493954656823562078680367734176767466757160960.000000 10122225744480360539323848080791958645720541146478833154797112192278336042520475238557045092725672640512.000000 0.000000
10122225744480360539323848080791958645720541146478833154797112192278336042520475238557045092725672640512.000000 3270723467479073092111468769509492265587654852086174790574912582745119070954619824142231937185644281856.000000 0.000000
0.000000 0.000000 0.000000
14421981019145760373189815493265955394494294035806546362472218530340981284049892226720861554171474608128.000000 -11307462456241480782723979529197186859726443928369157825150234750377084663235318502776510960436588314624.000000 0.000000
-11307462456241480782723979529197186859726443928369157825150234750377084663235318502776510960436588314624.000000 4838392148486898988865625340733865045760423300405017710487043114758977227185213763756325324306954321920.000000 0.000000
0.000000 0.000000 0.000000
830961590518743895450664246433367957658061641004562710494449359290341813520504381351637815449735921664.000000 -936991970429355097745379273181311947693650270112926001250146523760795450545571925201190959303964491776.000000 0.000000
-936991970429355097745379273181311947693650270112926001250146523760795450545571925201190959303964491776.000000 412621817496428599384168707238722399163355886814895226461677549702771720118176643159948001851364868096.000000 0.000000
0.000000 0.000000 0.000000
-17554177086190290167442510314612195060461633656167057541312344312680492113201763774252404480335545368576.000000 7368550071662022010203356916553368246162357901374263949483834853966293229204789941357136957766448971776.000000 0.000000
7368550071662022010203356916553368246162357901374263949483834853966293229204789941357136957766448971776.000000 3572185002212001004584103681236010220076130979151675319095111866160136401921833377132386582116689772544.000000 0.000000
0.000000 0.000000 0.000000
3722954388623624555473005488317718486088324476322405195790000359070570273586496106479013690184057225216.000000 534448919358579580229747655202718112826920344177120752199492244184901274340722068763453634850678898688.000000 0.000000
534448919358579580229747655202718112826920344177120752199492244184901274340722068763453634850678898688.000000 58393165857267565920400363562405828076113558173459087442759157709676529045475021067028234200892309504.000000 0.000000
0.000000 0.000000 0.000000
9554049766389770032739091165282300214057628000697901417207649055458164512404321917701004845733216518144.000000 27449898261044184458537232262663585023702667331230220098335552994509041335723882857431970643879600848896.000000 0.000000
27449898261044184458537232262663585023702667331230220098335552994509041335723882857431970643879600848896.000000 14264917047303009766678858285356379817158878965607481250751169576558484236811128521733825799654851215360.000000 0.000000
0.000000 0.000000 0.000000
414336636884430635185584916925539685224632990669245582988812959567014657418384177589022834976962379776.000000 1752156565136631795030713105795416020056894756429641863674171441400382019267246411345884823777208958976.000000 0.000000
1752156565136631795030713105795416020056894756429641863674171441400382019267246411345884823777208958976.000000 1458119994048309701517512100303054431265443095934774052586107610277195844733392813495994280391450034176.000000 0.000000
0.000000 0.000000 0.000000
10984392338227899440704130216131498725714021363858481952655157351165674802646390160432658913632540688384.000000 -8507036922221341472149700727541425390001356153897317341865834981824326033166401657355480775102858002432.000000 0.000000
-8507036922221341472149700727541425390001356153897317341865834981824326033166401657355480775102858002432.000000 3546647070979267757804368255671586363635451922859987927587892115379001882042749203993496015755259412480.000000 0.000000
0.000000 0.000000 0.000000
-2709577224484162541927946685636171637028427274728097498747985979450433598300818071494569672412286156800.000000 15385318967294863048984197454923300845131327862387786641548127491237374981002362717953835392384607715328.000000 0.000000
15385318967294863048984197454923300845131327862387786641548127491237374981002362717953835392384607715328.000000 10034084978073103038614326019040472469730098194853421731284372674044416443382842156623588726240452804608.000000 0.000000
0.000000 0.000000 0.000000
23114817215884144371729945381053128341460776394935749925993638521106168093059631194879083709835939676160.000000 18401721737925211832555725936528655429564866800257223523252375553223595856765203331255417595415882629120.000000 0.000000
18401721737925211832555725936528655429564866800257223523252375553223595856765203331255417595415882629120.000000 8086354381456750133924265932920161104943222996402031382451719984954028695174523214571758031182728527872.000000 0.000000
0.000000 0.000000 0.000000
8510123705145856692435332261556845520525676937131339820114134924704915702912335747259983769145490538496.000000 -4465631856449384813947955979125278220527697053005035374578317196567829681270407208368738116434734874624.000000 0.000000
-4465631856449384813947955979125278220527697053005035374578317196567829681270407208368738116434734874624.000000 1330580191390646767667724614248346043496926530942033396774855587554128833571196532650822072422916685824.000000 0.000000
0.000000 0.000000 0.000000
-76742512439027877888574449213198171330128277023786999140624934035432028177269761820232022050093995655168.000000 25860625698058972047401619553668924941799457996842750700333858197874551778750149087013643117918662164480.000000 0.000000
25860625698058972047401619553668924941799457996842750700333858197874551778750149087013643117918662164480.000000 11477535786175466102802874091006371192727783025842630172659283483144833672619194198360446685426848104448.000000 0.000000
0.000000 0.000000 0.000000
1780466245450283351722397176176916879777648210298039597527934005453627979214471323018992333950600347648.000000 -763899363131338855140024526089224693377964560823390886282469517176335846447319163737673494457915277312.000000 0.000000
-763899363131338855140024526089224693377964560823390886282469517176335846447319163737673494457915277312.000000 553233947820599800563743271944021788330869738739611541119525132134242127419701317937204958864395468800.000000 0.000000
0.000000 0.000000 0.000000
13626590336546617108058426540526006233865730558326035910786553474008886336491286432597200002574375190528.000000 -910330620900525580181355870737483770610867812278747468266561926833432072618794853179762281738196221952.000000 0.000000
-910330620900525580181355870737483770610867812278747468266561926833432072618794853179762281738196221952.000000 129383526934632868245076723447419819419786444225813639391616145534454764653195419649100467466305273856.000000 0.000000
0.000000 0.000000 0.000000
-4724863143636097351203308464395916614612902965906874420499996806397964849677654707781009079747326509056.000000 -2595460396909413583709202432993280304872171415994408216458299332618497226469938297828316145068860768256.000000 0.000000
-2595460396909413583709202432993280304872171415994408216458299332618497226469938297828316145068860768256.000000 512878870056103808907054366769426932729887183393212271372878670626499330405806399828025106730336649216.000000 0.000000
0.000000 0.000000 0.000000
8832713985817546145181557428958075867499741183900764516749889464832714614505578093907564566473458319360.000000 3186146344456901152965703963916030717681213014589303207657387173414003251473369957644656437188859265024.000000 0.000000
3186146344456901152965703963916030717681213014589303207657387173414003251473369957644656437188859265024.000000 796573558638087982570896984019288457200370833139039039827587983819294770759504311375377107521818853376.000000 0.000000
0.000000 0.000000 0.000000
-4361257895137683679756835874952113154971656643882784121256393663850460400236226185897474459035357937664.000000 670383150932902042590492710372172531050737309078062954544892195996810278470879874001852966207230050304.000000 0.000000
670383150932902042590492710372172531050737309078062954544892195996810278470879874001852966207230050304.000000 206350646229895280592216500558355770097891609626348808942173930818413074199055051363610980434655051776.000000 0.000000
0.000000 0.000000 0.000000
1466023159759029906517347559045384457503490553495245420721706700353929470646512467015693950326306504704.000000 -2504665200312675514196637100314547799324256050228411068242175714163764136801742886663207860596350386176.000000 0.000000
-2504665200312675514196637100314547799324256050228411068242175714163764136801742886663207860596350386176.000000 1198358109108913880021229351363430706796051544819356963447177430159801960052532432671137311791819784192.000000 0.000000
0.000000 0.000000 0.000000
38341816672969740916689321482102874808636079349222071074113836542558374980082964040364901144429854720.000000 -78210447078573420320922515373898255722300175022118469916028019805426554538125998335302450481960321024.000000 0.000000
-78210447078573420320922515373898255722300175022118469916028019805426554538125998335302450481960321024.000000 39206154002438546813866357165899244441805533354900833506287685832636647361594386019663536225295269888.000000 0.000000
0.000000 0.000000 0.000000
573024578733451478506295907599118659791260273579946408170600309827655795681646676030852817014199681024.000000 -657249690526764027699272721834972471963707200415780583473299008552979352682334282002306880847891922944.000000 0.000000
-657249690526764027699272721834972471963707200415780583473299008552979352682334282002306880847891922944.000000 290727852115754914753106601825855039765385008358993688642591913213827919995549438460332666342233604096.000000 0.000000
0.000000 0.000000 0.000000
18616852273148782112915470088219938132449285346038138030220319335109043605515438830918862653246041751552.000000 8474568506642507251052276047736733166432813716391470752677900474033432898521030414040080751974913409024.000000 0.000000
8474568506642507251052276047736733166432813716391470752677900474033432898521030414040080751974913409024.000000 2906967274068761073486313331313126759439931976598934800090363860699601943581773788159953705993578217472.000000 0.000000
0.000000 0.000000 0.000000
-376676001909901529002049384305512492318744615774387010017664902402254529231945338161520153080770175434752.000000 -34320520592143802037470183629069136678875956590831661325568318164530015548622356077027689428918319710208.000000 0.000000
-34320520592143802037470183629069136678875956590831661325568318164530015548622356077027689428918319710208.000000 6349953619818319160738564564644579668383181065869161589972917706662923278465584870955506592096035274752.000000 0.000000
0.000000 0.000000 0.000000
-16902976495303199320374831501080537181575863209659206800586374952928896645728393096522309434758693650432.000000 6913105619726585981827867502812852758297755059788419008026322046081717876319792409553262029110889152512.000000 0.000000
6913105619726585981827867502812852758297755059788419008026322046081717876319792409553262029110889152512.000000 3667537594035997538332620002302045078291624406222510215938782427746110443968239080027883512879741140992.000000 0.000000
0.000000 0.000000 0.000000
-33316483484087586447543912831234758999532956094009610522224650075000344764423507239546919224508371959808.000000 -44732042411061524538527149039722558818636820242374211625595542518015303485086511764880054828868053237760.000000 0.000000
-44732042411061524538527149039722558818636820242374211625595542518015303485086511764880054828868053237760.000000 26104236616523803001113960562133741999836023164021720531511632410903341535297862261920794073376862765056.000000 0.000000
0.000000 0.000000 0.000000
1459639429447315600875119314786789371304867806199224724163047627799986100322631843883040408121267716096.000000 -1039240238233595050239478454822677533712868485060686963098473549413737630955458065528919809982321393664.000000 0.000000
-1039240238233595050239478454822677533712868485060686963098473549413737630955458065528919809982321393664.000000 911496764382004724664214909382964856689520869260233553902489886139253125784723055437198482984262434816.000000 0.000000
0.000000 0.000000 0.000000
2314967860174243940231555027969800237303851436767395893963611184125436673838564427061412350491692630016.000000 781863842303238991845468549357145152168182781964706989328661320636205076706907995561001119370130227200.000000 0.000000
781863842303238991845468549357145152168182781964706989328661320636205076706907995561001119370130227200.000000 382141427408012542228238675353374691038958157297048386997215094234138045494178613160344271343142830080.000000 0.000000
0.000000 0.000000 0.000000
3937043852558611237913317272528802541503343910886693801636368853586882166032749209173970681535001526272.000000 3564344008488894730038519329619071811340082070811390682967176596362761678440823620644562710779140243456.000000 0.000000
3564344008488894730038519329619071811340082070811390682967176596362761678440823620644562710779140243456.000000 1443085851600684172567826963473569094567027593301982353844467704994333800799372699751589043705219121152.000000 0.000000
0.000000 0.000000 0.000000
24328212973899527899302494553825021645279257561250725164574114737221241892366765020568668508362842832896.000000 16304524502972824690452159982549251540867198355858293054401092000699458059392768891985369993754890469376.000000 0.000000
16304524502972824690452159982549251540867198355858293054401092000699458059392768891985369993754890469376.000000 5667214939096651727269036360332157642488950466638700226721986293657332489442637431600579944415062130688.000000 0.000000
0.000000 0.000000 0.000000
3504943958192257596345197656479875399968796480530127163383506687898604702001772910822186852505977094144.000000 349965126447798084164819134814472254807460472617527271575208015848540839410702998329287687497364537344.000000 0.000000
349965126447798084164819134814472254807460472617527271575208015848540839410702998329287687497364537344.000000 752224612106763025201033599556611124710169645343468671619951930521807919240241275881154686300786262016.000000 0.000000
0.000000 0.000000 0.000000
2486578548908673070483398173814385050284043350067837994228738139853582948747247860495420043021873315840.000000 14361997507684646533862027945241185930776785062245505958931203644871015147756653687722882015892313473024.000000 0.000000
14361997507684646533862027945241185930776785062245505958931203644871015147756653687722882015892313473024.000000 7762838289532600621801887130400034920133256513910983379761720096467004447156791694129326281551029207040.000000 0.000000
0.000000 0.000000 0.000000
20911124034427263139279385952082457438487509879453795280439960563832055407523459594630571785852697968640.000000 15163176939083331868218040033560772903597764597814171418003930381774788364068626663399714861289775824896.000000 0.000000
15163176939083331868218040033560772903597764597814171418003930381774788364068626663399714861289775824896.000000 6238875626254164452484532599956122799796993755927947793190630663722797057285584910068761003996645163008.000000 0.000000
0.000000 0.000000 0.000000
1581799068432598163845095877934157613677444992424282077164425443906950377450366454703817084191713001472.000000 -2823243697545785119451342788477631301717021620337942195682879372612304611069673427644496306006923411456.000000 0.000000
-2823243697545785119451342788477631301717021620337942195682879372612304611069673427644496306006923411456.000000 1438459304103169074445819428978194796144467381156857672990560293443424847252735890221006710324420673536.000000 0.000000
0.000000 0.000000 0.000000
2673410725087284790471593578343222526675338597282643189683936206464840652198579685389345555151641903104.000000 -1192827615480539608121395804632099680521642064251910301296193008592415524875860095463819752438168027136.000000 0.000000
-1192827615480539608121395804632099680521642064251910301296193008592415524875860095463819752438168027136.000000 313680589009241915503087577922798201937994352351104576447886457453679272846568780916430299977985556480.000000 0.000000
0.000000 0.000000 0.000000
-21493770652942724820980425720446736838182475342048473005888027345806596012421293098764236514655266144256.000000 2788612478223902329751688508219456826724656579966093992576966783556046091488675678304650690582330474496.000000 0.000000
2788612478223902329751688508219456826724656579966093992576966783556046091488675678304650690582330474496.000000 694023347432524517121625041750892191492336313256706874597853470102396969208273959044689195297904001024.000000 0.000000
0.000000 0.000000 0.000000
-532569487115446842957416553780051438191754850714266443037429162277582446922188529417644929880093567746048.000000 30214838322764901835866180684188451040217700081920492846955068679721132274207325213942709834735419392000.000000 0.000000
30214838322764901835866180684188451040217700081920492846955068679721132274207325213942709834735419392000.000000 3363378741735519145099937364873251248443154796360851253704516761671127147488783911081133465534791155712.000000 0.000000
0.000000 0.000000 0.000000
-8252695297180037145637926891192381449776324634935259168380179675968614207895589104044532267722899193856.000000 3577377496430795160273604022188966770641073533331697822863208473466470981134047042672367414784783548416.000000 0.000000
3577377496430795160273604022188966770641073533331697822863208473466470981134047042672367414784783548416.000000 1874762106286872168032125721241870220099325795379731468299342816575746854970381823197500586393948127232.000000 0.000000
0.000000 0.000000 0.000000
19424322720480495941771899850821237979713475470739321142728083115079670473621174018657936977795833921536.000000 16230740849109558937233204240138130830642491569592477549791763966679655433258895704203830915239832977408.000000 0.000000
16230740849109558937233204240138130830642491569592477549791763966679655433258895704203830915239832977408.000000 6342195337531327301785589846483879901771411441643096649376661551996059899661958529064455719003220869120.000000 0.000000
0.000000 0.000000 0.000000
908938810306632066697152345808316166459397496207332917302994067819512611497577270416264170597091639296.000000 -541635368269946561750418518170731568152101132417837185120159526254473964568482934377515467017105178624.000000 0.000000
-541635368269946561750418518170731568152101132417837185120159526254473964568482934377515467017105178624.000000 175800638852301535113494904086803646727602887247289286558417677110296582977503497704712626437913313280.000000 0.000000
0.000000 0.000000 0.000000
-20956909562952354901289779104397601099930167915935500408573072315403658601398805737513972572433729909161984.000000 -1039008547644585244512702201358718306477079767991816032514594320480828171334562757860916120437227849252864.000000 0.000000
-1039008547644585244512702201358718306477079767991816032514594320480828171334562757860916120437227849252864.000000 101572227164298099621966108027088970056937804825299294543994809750431587084344162373471048376548920918016.000000 0.000000
0.000000 0.000000 0.000000
29276163707952085540525330260757100467383101164038335824333781777173715945608775266138549369407673466880.000000 -12043197645688326607074102351425480320471422126886495800302658324940161355061193141702384140590568701952.000000 0.000000
-12043197645688326607074102351425480320471422126886495800302658324940161355061193141702384140590568701952.000000 2972946144060134666034945785429257548986056702135653792026225697382160094529826076446313603857094017024.000000 0.000000
0.000000 0.000000 0.000000
26225038760775082631259582222721976500944115215206513650794495863288852358121698819543567121331272024064.000000 -58690853981640830102487937158045502312156509166995957716683019480921299238574992938188589050889718726656.000000 0.000000
-58690853981640830102487937158045502312156509166995957716683019480921299238574992938188589050889718726656.000000 30794735286740649894528330741453150729671971108342151648634859203831363214809752448017019236895223185408.000000 0.000000
0.000000 0.000000 0.000000
6025577043542163602814634825249040499370358344256252456546374225158829247125732173118214447090053939200.000000 13206042842093836229972514955178986247985158093236677032359806569907733266438888412537681711501492092928.000000 0.000000
13206042842093836229972514955178986247985158093236677032359806569907733266438888412537681711501492092928.000000 6670911934283903259580779784899023764351167512817127845811149638393014811216100332664276825132257771520.000000 0.000000
0.000000 0.000000 0.000000
-121276426308123956648608246767004753230025633687431437920165432190249739181611558498169933031391887360.000000 166915505503358283368327538878743173125046635398312184300985404470679003346083527834144887465572302848.000000 0.000000
166915505503358283368327538878743173125046635398312184300985404470679003346083527834144887465572302848.000000 96155024484651706908144705433923428802965730142798950006877230108747515837247186356519252964098965504.000000 0.000000
0.000000 0.000000 0.000000
18623112662136531113680449159784776864821410512621743795971268975002994852676200319354754224804589469696.000000 -12540750082187816406454323348342295869204838172408836792843676737970788274566514268860797362456259198976.000000 0.000000
-12540750082187816406454323348342295869204838172408836792843676737970788274566514268860797362456259198976.000000 5348044965100256082016153411253473768819070854787409292723355128025888286501555887067226707285722005504.000000 0.000000
0.000000 0.000000 0.000000
-174652493615518935064187860069664051732216415503437535573412635566173434448314912479308537396929232896.000000 4380009384445728625797683674588833185894989904803365899317950583786347629140342725544607473970708480.000000 0.000000
4380009384445728625797683674588833185894989904803365899317950583786347629140342725544607473970708480.000000 218789257002999940258552932998357183085983644479116905381714002603628685986652618772483682582134784.000000 0.000000
0.000000 0.000000 0.000000
-59736752724421786654294926313521669058851926739699512238691969312107804194134537267910761195263416598528.000000 721055685282770319230548821895628640537543968745358868967244810860492531125096389520747087039601573888.000000 0.000000
721055685282770319230548821895628640537543968745358868967244810860492531125096389520747087039601573888.000000 4074304701224267029471316038778645239929989558869769892097689953640017623212942726105530867409670373376.000000 0.000000
0.000000 0.000000 0.000000
-11035890594166517550059876891056236883220806141951053139380708998633094593928757997902971802337985691648.000000 3903210755555789969969950638995592442571371553439804255913868649791235889611509092796467168035637035008.000000 0.000000
3903210755555789969969950638995592442571371553439804255913868649791235889611509092796467168035637035008.000000 1658906100349700735044893838704773540848258334917861474738150599748527791002959559600565237577007759360.000000 0.000000
0.000000 0.000000 0.000000
-8851365674001640536001540001637275530655989440647346216179805830908896978502194385507023380514481373184.000000 -1675745679595817464588786433557154637769066510496903160715449197360674990293927279602135215172808081408.000000 0.000000
-1675745679595817464588786433557154637769066510496903160715449197360674990293927279602135215172808081408.000000 586581256018283876133080571309970534499083988003961106507641685331441436053198392737018005639563051008.000000 0.000000
0.000000 0.000000 0.000000
-65205010907362420855431558328962784317641755476329218935121489019988473825566129635393817494984815804416.000000 8049559669823798141530112504304647382722512953981072973574736112161786871481665254348177562308981030912.000000 0.000000
8049559669823798141530112504304647382722512953981072973574736112161786871481665254348177562308981030912.000000 3815144075084968924277487801597102343156569369743828562510146259041132176873897947057683943996402958336.000000 0.000000
0.000000 0.000000 0.000000
-657582459312734890251794937953872530448727891059771414664461554390491163726249927234142058535132193619968.000000 -9114911425014050193818686231211335360164898301840372809872455507516249886133477905193673954936974475264.000000 0.000000
-9114911425014050193818686231211335360164898301840372809872455507516249886133477905193673954936974475264.000000 995719323449300817968172584178310045187757179047534989742079104859864996014740467039782474739773079552.000000 0.000000
0.000000 0.000000 0.000000
-29022018679298354689144504388299522278223740893115887904971277689933443815134444387898622570743189209088.000000 757714972351610980924295095780576116396968008446695880149829626925242306643299644520637861354306273280.000000 0.000000
757714972351610980924295095780576116396968008446695880149829626925242306643299644520637861354306273280.000000 301137464932695387874065400674346551176685575445912965613736175820996021347136109827881900371823558656.000000 0.000000
0.000000 0.000000 0.000000
-4130685968770727471090850740619615265661258978382643363957054478476013984461562964022209566315242323968.000000 -4012982719127417731053282268441277707114895149546867781359804525741419614282276994149034582769670291456.000000 0.000000
-4012982719127417731053282268441277707114895149546867781359804525741419614282276994149034582769670291456.000000 1964287352044180826299976527136040254920128003130692899022536970402775024127166512395235730233434832896.000000 0.000000
0.000000 0.000000 0.000000
-2945740106799819972775822562093997805628515525429044346286796742347692636097807797878862052267797774336.000000 -4776207688400768670407747943228554121823417959821964208998973944712754267406487898240254162636202049536.000000 0.000000
-4776207688400768670407747943228554121823417959821964208998973944712754267406487898240254162636202049536.000000 2859387721603773936547984547676274876996135447351579413503622851302640809940671599429226655334679969792.000000 0.000000
0.000000 0.000000 0.000000
-1038106659810467357322736249042054322793204945793176057845794119082363852914560768471255146068691604824129536.000000 2052297530320022187715844245079083845247992078669736078619809604615812477366323283460714581295373257539584.000000 0.000000
2052297530320022187715844245079083845247992078669736078619809604615812477366323283460714581295373257539584.000000 8433594740555948118709865795375452599304825369763053890750302404861496812516849951015686074784236437504.000000 0.000000
0.000000 0.000000 0.000000
9661110756582291700238848226278485773272421306618013560184817829240348843662781863778032670952659091456.000000 4687764429871051679728412990186514030789869670070529893939767963694348568338750165813019105246857658368.000000 0.000000
4687764429871051679728412990186514030789869670070529893939767963694348568338750165813019105246857658368.000000 1264660184735683675305988028273838544267249195957687885096461977007802021865223814444524386753760460800.000000 0.000000
0.000000 0.000000 0.000000
-27076686312749713992224745820486611207929694260925566227815968801420299871634084011283499567129236078592.000000 -6185014668617122829429228599293775141302857195548533917340596117186573551257089957693267278662413058048.000000 0.000000
-6185014668617122829429228599293775141302857195548533917340596117186573551257089957693267278662413058048.000000 1764612066863512540182079328673654491313919751415022137978051439687277788047547569505164728361222668288.000000 0.000000
0.000000 0.000000 0.000000
-627824072814712665661240705574206547724902324323252847402453503634868947592697580519225743961234662752256.000000 -38670897013878395163522600570144264294358703710099268754799310875703124931547144713890887014882312454144.000000 0.000000
-38670897013878395163522600570144264294358703710099268754799310875703124931547144713890887014882312454144.000000 4658954035938632157943310983969531029919980552503964821770630478868116859683625603218911953078653550592.000000 0.000000
0.000000 0.000000 0.000000
1926059786015230875366579559481010872910645334075141319333627291170069620652762852730827212722635014144.000000 -10326032821454791815425224550475667602744638376197061941171033113865386190928022730340548763455334645760.000000 0.000000
-10326032821454791815425224550475667602744638376197061941171033113865386190928022730340548763455334645760.000000 5565634963052686501859770467674348639908296223265009377997656430752194705195539344622112683686218432512.000000 0.000000
0.000000 0.000000 0.000000
34387744650811949510341251587537039947972351574935370240716076221503328931526208396636054334263382769664.000000 39008384149073058440019074062317367300637957758618530565509120764366326216049606990501589001545514483712.000000 0.000000
39008384149073058440019074062317367300637957758618530565509120764366326216049606990501589001545514483712.000000 17193876499629390031339715949432341035971381014374594966898839205255857876382501828700351532949806514176.000000 0.000000
0.000000 0.000000 0.000000
8521580336463406209459090315002434784221940096772144258181612815265258550805919392926285701703960363008.000000 5097812739191757184011004083705112658059706952512691686971264511738133746038756385562995451426368389120.000000 0.000000
5097812739191757184011004083705112658059706952512691686971264511738133746038756385562995451426368389120.000000 1658682101025380720751883342881503343543520811996168068921447760855266814946713853257598152759249469440.000000 0.000000
0.000000 0.000000 0.000000
2027147336450575318704371030352378536704098156469916426819066471483112333361251832315933780282638860288.000000 -4428891125021890391948521795479124265314370625982678110237619258641967348167156004456213959567873146880.000000 0.000000
-4428891125021890391948521795479124265314370625982678110237619258641967348167156004456213959567873146880.000000 2240412588664761951426191649835300020454817011478713631873754859910091500662295762568214134993992024064.000000 0.000000
0.000000 0.000000 0.000000
-22626149084251956199425224829291044476102700291557397722558768638109167752069754544477401904516652072960.000000 26904609630595413785790594446032447624552498703410991060201708755376220623882560849335222470094897545216.000000 0.000000
26904609630595413785790594446032447624552498703410991060201708755376220623882560849335222470094897545216.000000 15431111070897137523953985046515313131146631262380260088138827282668190295872522967220177626189059325952.000000 0.000000
0.000000 0.000000 0.000000
-11555902472821984287959732920642750655752655047472811319281974596641380670970958643384588603224804556800.000000 -59494588042838462449533495535333979954195189063231714420636711566179439080689700206919195945746632278016.000000 0.000000
-59494588042838462449533495535333979954195189063231714420636711566179439080689700206919195945746632278016.000000 34698256517160311428031235349246305276822594865118015122478113960955190158588482496268146961342296752128.000000 0.000000
0.000000 0.000000 0.000000
158601407116559323842063232436207995566610860901426283343445193053105092424061936978852518005424783360.000000 281214376855882270234280972946926344929414048264748758281941973682453820535941424387274250947311697920.000000 0.000000
281214376855882270234280972946926344929414048264748758281941973682453820535941424387274250947311697920.000000 132681937019454539716894870721343708262200811401816490014861920688905309755082579565271898376502247424.000000 0.000000
0.000000 0.000000 0.000000
1546323056112004021127733423332428184028233621867952875801316958243043130646490778860532671365989269504.000000 597779460532439134174651397539452559877867938369052126469836307293598367770477444457856162386476531712.000000 0.000000
597779460532439134174651397539452559877867938369052126469836307293598367770477444457856162386476531712.000000 147563591272391418411012966995680479235306075334989264312804756451857711923558345780084677950899748864.000000 0.000000
0.000000 0.000000 0.000000
-22720077992004587664918978328639831323783403656603141153504083041497995535718732114611334757127875985408.000000 19827425887666616058195816373239817436601063314693043413070665878498975205518548800271434889579743674368.000000 0.000000
19827425887666616058195816373239817436601063314693043413070665878498975205518548800271434889579743674368.000000 11158185015858769151622473159124776472016189334088905522333620731615915516962520258219337501139718373376.000000 0.000000
0.000000 0.000000 0.000000
-22316757382698276859590128155781436552325325297308919724702804519041281005240513962281402042303503138816.000000 885490620931544360554646005436535509415154373891728417603673816127085192794081293031985120351107416064.000000 0.000000
885490620931544360554646005436535509415154373891728417603673816127085192794081293031985120351107416064.000000 1014191949912547194796851871808646887412972793989030306737275011770544626321466625252074912425428647936.000000 0.000000
0.000000 0.000000 0.000000
-32282710679971638768169996441026077937855958026786873591452968430734707441783206018442396303985119068160.000000 7399382254376608884712674699244683782170805626433951618758223588205647788553023627417344674554854768640.000000 0.000000
7399382254376608884712674699244683782170805626433951618758223588205647788553023627417344674554854768640.000000 2884825265459399936008588001112114532317342239389714046672593797485052629299961012888814082778606862336.000000 0.000000
0.000000 0.000000 0.000000
-31471085452000632963339466019869011914526272592942359304401765295665817981222883125539470729567117770752.000000 9872649812853224202932871128305719098672811503353816445704520197522136534890561390759368171862318120960.000000 0.000000
9872649812853224202932871128305719098672811503353816445704520197522136534890561390759368171862318120960.000000 4530579538107124333959005457176119879833170632514770486720081578363381695842353608273228195898568212480.000000 0.000000
0.000000 0.000000 0.000000
-12362960818901183254529962088420449164997986693395122413561534637014915855366598909925957755584294944768.000000 75365967483556477194795617894930038048489569559698890127144432054612213485142566948051178495754226368512.000000 0.000000
75365967483556477194795617894930038048489569559698890127144432054612213485142566948051178495754226368512.000000 42361932048822370988128416643846857161785369415184530100992471693737955332565794688565556588861510909952.000000 0.000000
0.000000 0.000000 0.000000
6236797730023404943739362421228419827494474369877434505372433691404268822112337218641631010626622980096.000000 -15409494944958780130287395171543104563589944874592696237842534412784196501652126295373108252478296555520.000000 0.000000
-15409494944958780130287395171543104563589944874592696237842534412784196501652126295373108252478296555520.000000 8024766797913817802506378604882516664320781146047954653605071131421758026913100236458482056600183898112.000000 0.000000
0.000000 0.000000 0.000000
7975283770744945409279441503326011349649117845675454517462038602453036317168492741704908797776951771136.000000 6448837886318006700947099647721594375190881846379112808145581979857935837397655480349527531554632368128.000000 0.000000
6448837886318006700947099647721594375190881846379112808145581979857935837397655480349527531554632368128.000000 2527379627255284787320770052061521664116908704722528442842110580930351269491332660696791983130064977920.000000 0.000000
0.000000 0.000000 0.000000
5316761930944865383507515783669457729524147288663466652143046937759417951017174399053157309790508023808.000000 2210750494030635910191793180140723017513034284305477478634922743445939508509994397133702541984214810624.000000 0.000000
2210750494030635910191793180140723017513034284305477478634922743445939508509994397133702541984214810624.000000 557101698388036846266369042240943817609005130253160684884073939626129989479054983011704519517204905984.000000 0.000000
0.000000 0.000000 0.000000
318855416631068378380684534876481155954473211548258043587851704374602469058361557395583769581862256640.000000 -2474893001338367959359208896157024349038657059855709910886918418026744290449739913113995658549646065664.000000 0.000000
-2474893001338367959359208896157024349038657059855709910886918418026744290449739913113995658549646065664.000000 1347162962857365133197930306179786911782596752796877012094320976032998283354869741043967436403008077824.000000 0.000000
0.000000 0.000000 0.000000
-39924733188268352577513716903404338392964142065098115504574418453499290928702531583333286870950845874176.000000 -44692272528476765185215260929643720590882532683002118207089621181255570004721543471079059204938106142720.000000 0.000000
-44692272528476765185215260929643720590882532683002118207089621181255570004721543471079059204938106142720.000000 25490219636751740391318001530227690037586715155807100954859614163189736511843115526685418517851011022848.000000 0.000000
0.000000 0.000000 0.000000
-105189580337840291827571472546107290146585153827706545092183573795966374917854819191264738582995429176115200.000000 3385742968887020755919753473402081670721127265744383079928317838797149845957573732876175599608546780512256.000000 0.000000
3385742968887020755919753473402081670721127265744383079928317838797149845957573732876175599608546780512256.000000 218674705557978376648200616855572488360263783210815388755537170237978858228206739422586656617170319966208.000000 0.000000
0.000000 0.000000 0.000000
1067513365537484552934570250593617650320075325707278565071650218248011981287672935898981529059778887680.000000 -13002076283607133709995143351737203034241574662577332391038084165965380961857816528715496424862344282112.000000 0.000000
-13002076283607133709995143351737203034241574662577332391038084165965380961857816528715496424862344282112.000000 7141588349773109961579867732480396501596967297795626304882218036318832514308376265020477620306468405248.000000 0.000000
0.000000 0.000000 0.000000
50904973763603692671874024019395237022713864037881369875596991710811563335847725653857000845693943808.000000 139903892392419595055480879166733133946932886800270101276918824351169716113472049003928876550709051392.000000 0.000000
139903892392419595055480879166733133946932886800270101276918824351169716113472049003928876550709051392.000000 72641205198713415563214698747860882433719815001282116808142797823593054313337973800756837531745517568.000000 0.000000
0.000000 0.000000 0.000000
11487347370580341603995786942995779972084624086648236066779623980082778642809210813181708322119144701952.000000 -1163533041358170116323532197979324205333286114085812025419170167757541214218430621233174071082227859456.000000 0.000000
-1163533041358170116323532197979324205333286114085812025419170167757541214218430621233174071082227859456.000000 140123745533376379477439202522258601907460916091421967847793065697129481859677989847201077752852643840.000000 0.000000
0.000000 0.000000 0.000000
-1624820747337474092988514255369337699816619846204538403918498388812733144673801733745390916668616395980800.000000 521352237103619045272826125513967704377176517534508632083077069133039910996831460581179026560628855668736.000000 0.000000
521352237103619045272826125513967704377176517534508632083077069133039910996831460581179026560628855668736.000000 226536962259864610986294091952491548677126745082632433395690614204553245171802293831894275543029646360576.000000 0.000000
0.000000 0.000000 0.000000
2320311183051752303037823507405832814667098408838679583484857499068446034578327215422253540059012661248.000000 983262953231511027540433169465502942392228024065369731804121257240052306066803715019500500344966742016.000000 0.000000
983262953231511027540433169465502942392228024065369731804121257240052306066803715019500500344966742016.000000 407143062428626873389167224872706094976944979389249564230512492219466677254622801915347103281814962176.000000 0.000000
0.000000 0.000000 0.000000
9613182561621034679367871021997729234704291602003064305828035595925190960776624120723936218595578609664.000000 12439062149961032977826593339651317834737228609086712515929792473478223625204591910287648576750030422016.000000 0.000000
12439062149961032977826593339651317834737228609086712515929792473478223625204591910287648576750030422016.000000 5901261774550456992663360084949027554045600541116755436703525030676118937066760497748119761571033382912.000000 0.000000
0.000000 0.000000 0.000000
1026971953938108659679397552816704172466516438949361398247925379891820978633802707302869496467422183424.000000 719101786698517685828984169736592858073980581287766116252787957253691451782155102606489939053316669440.000000 0.000000
719101786698517685828984169736592858073980581287766116252787957253691451782155102606489939053316669440.000000 825152759725941554019998517889471178042418994017092260847770976766549614384897827687056065777144692736.000000 0.000000
0.000000 0.000000 0.000000
-75716064436244272638125001339026836886866956515782198275066718696298168065413987030203401264852631552.000000 216210134989814169212598286713197326532457815044795024927512284228319912135358707032849218172717367296.000000 0.000000
216210134989814169212598286713197326532457815044795024927512284228319912135358707032849218172717367296.000000 124153672640045479034912044054194562575663991718090909254063926023790403153434259206359050945380220928.000000 0.000000
0.000000 0.000000 0.000000
-166200056791097379822908919021830060708081739772809287100786637446033191029378940741468734798448025403392.000000 -84349643307649638438520873501852189771887267216498103569151068277035434106027795646056424879200183255040.000000 0.000000
-84349643307649638438520873501852189771887267216498103569151068277035434106027795646056424879200183255040.000000 43067749237041568841379260895749475527738375988404425624486312835030784399800440653434931124556810682368.000000 0.000000
0.000000 0.000000 0.000000
-243335241921040325095159473399755774494717875759249715326564514882419553813835654055739137806670049050624.000000 -43618661007872332067622024847886648676640767744742868100298312861696220170132764241988186860509871472640.000000 0.000000
-43618661007872332067622024847886648676640767744742868100298312861696220170132764241988186860509871472640.000000 13264343102175839612168498079692625261221355698181021323522352746939904054837231623098881876189538942976.000000 0.000000
0.000000 0.000000 0.000000
16799229381234395613312052812770510541367106040671144343314044209142134989297510187166015055967863963648.000000 12768511186860258017983426438792695673246040391705369821592002191535010759162653588634795967330408988672.000000 0.000000
12768511186860258017983426438792695673246040391705369821592002191535010759162653588634795967330408988672.000000 5314912109701518996506127708648111136443859445676394414980445539923526812510538473819779162513835294720.000000 0.000000
0.000000 0.000000 0.000000
-26416526126943206085191290297497726213953375395523653521757596899265646122524240999357121321141639577600.000000 -2363171351458125277712184544224781798568754605998871931025391862815247255217132165013779971853099466752.000000 0.000000
-2363171351458125277712184544224781798568754605998871931025391862815247255217132165013779971853099466752.000000 797566998004818486894343121632705576429440710066712349383121431093063534870209576590734253156066131968.000000 0.000000
0.000000 0.000000 0.000000
-2083737740190295518376847631318342456246364249258720372553646005060668542174535440507183481897093169152.000000 -3435025509090885519610354654776456643224174482006734890938495844920395935108664152687918608826710884352.000000 0.000000
-3435025509090885519610354654776456643224174482006734890938495844920395935108664152687918608826710884352.000000 1991698478822400258861437142077893606673954486743625072521709225854819071953054146694452900306534531072.000000 0.000000
0.000000 0.000000 0.000000
33414283385792324239416926824801713382148783818026613918502988134158765867932913914515202766234328236032.000000 54421853667836714781186689143961409572796180316140547738688186278816727242100621379634620656799782535168.000000 0.000000
54421853667836714781186689143961409572796180316140547738688186278816727242100621379634620656799782535168.000000 28721384070103244594553334203108779265340779336139625727284065479775604080065537802633362960032678805504.000000 0.000000
0.000000 0.000000 0.000000
154738420588668632815825162954247466115544822965091734781390025936550783833688199005897969927642188611584.000000 55438674222883986481691752995323031969741776796010310878362920721525251118262983583633018575454187028480.000000 0.000000
55438674222883986481691752995323031969741776796010310878362920721525251118262983583633018575454187028480.000000 12571927572412418230327165861840956639433685123801931105152760789185457017103966033145398146446357692416.000000 0.000000
0.000000 0.000000 0.000000
9910945477199300165143285094024135763851172499842063289831308355876902584633171679004291557694648614912.000000 8469713133828950591469868839377380010892247519063383964044491577429654911942775072642633923264765755392.000000 0.000000
8469713133828950591469868839377380010892247519063383964044491577429654911942775072642633923264765755392.000000 3393196091643858981252983485117844563639379480619044415867559991649766990569301860851513019400473018368.000000 0.000000
0.000000 0.000000 0.000000
-194906484162361101642688842519096083113594866468162213813742061322344614395083233734705980224478310825984.000000 48686401006099002656352076636778104979561785470656350848774953750290007944758506129691531312764026880000.000000 0.000000
48686401006099002656352076636778104979561785470656350848774953750290007944758506129691531312764026880000.000000 18627493070697338020686046322190224142154929094120429425972941646617624608094061339546270813607876886528.000000 0.000000
0.000000 0.000000 0.000000
-51526824170487122207959216374197292020680231935857986817922281176027815580381224902530119257497431703552.000000 -12564064881415300988898483646786751567055399304671537553411011296723112211007480550220479933135649243136.000000 0.000000
-12564064881415300988898483646786751567055399304671537553411011296723112211007480550220479933135649243136.000000 4719199747535135387424514417739162236478386957900115153338657614998783653549633710871225303462383190016.000000 0.000000
0.000000 0.000000 0.000000
5110885967191921141233027774178459636817195846078100913536289405946584541308689136073574002623577587712.000000 -5759972348295641716484915072678246583497741739008183486525459509093364838347347432920764102829288718336.000000 0.000000
-5759972348295641716484915072678246583497741739008183486525459509093364838347347432920764102829288718336.000000 2557273862265168515215034613071165210186911536310259019802921234353210509214281988207953872858229243904.000000 0.000000
0.000000 0.000000 0.000000
10374615724558117052729432425167333698615685708835758634776678177932955628051279603464470248468227555328.000000 8730754755789764242909804783643103816255157580157852229161933491683689662608772852271849657698648850432.000000 0.000000
8730754755789764242909804783643103816255157580157852229161933491683689662608772852271849657698648850432.000000 3407711803451820787643276755961058941889304662661334937114024778415312582272666129492160362036871561216.000000 0.000000
0.000000 0.000000 0.000000
-118157048416649536611733811047590360337448296049299942053238828342611102953713907109930747242783669485568.000000 -82496292451664349846552620647646271714176667968576829994764996726891345784217256840278265990374410420224.000000 0.000000
-82496292451664349846552620647646271714176667968576829994764996726891345784217256840278265990374410420224.000000 45196813102379793684395585403572979573556642883691268034954083453930110786731763065879390664834624258048.000000 0.000000
0.000000 0.000000 0.000000
-1152170303356212646620351090658478839975095144990115106263912909883956127074656008506876749415826063360.000000 -32125860528696066621600940741437431045114122433324846469621661116406472043494147813263303487092714110976.000000 0.000000
-32125860528696066621600940741437431045114122433324846469621661116406472043494147813263303487092714110976.000000 17951258072389347589122519994293040408117442293115098191443117571057402155162300065223929989644098207744.000000 0.000000
0.000000 0.000000 0.000000
-1143650265195761545476339881244653773917817532851042004167990661552098759170171815810902364960236544983040.000000 4531495690114884862263209925401636225934708133717608477937212358020192221099634912498322546767888908288.000000 0.000000
4531495690114884862263209925401636225934708133717608477937212358020192221099634912498322546767888908288.000000 139055168575002975044950339813859657080257837165228671951940417711770531020115328342508526399622479872.000000 0.000000
0.000000 0.000000 0.000000
349028071332224873798153783932211038346020564155303488193595374524044996387422186695254813871410511872.000000 3181294842817128435323129606600107441535877276577375933291381439607998781789408980464665509544025128960.000000 0.000000
3181294842817128435323129606600107441535877276577375933291381439607998781789408980464665509544025128960.000000 1738562550635006292556001697768398806426210788454856751843794314551554513076209231142005409845027536896.000000 0.000000
0.000000 0.000000 0.000000
69358212690539442015438417607129073401985671277882569127599132405945721856760201194737943179165696.000000 11306882739674067693942093843892358207109607835983304064383097221297511807892756942855831386324992.000000 0.000000
11306882739674067693942093843892358207109607835983304064383097221297511807892756942855831386324992.000000 1442343025845908880508801731367254984166475443777841376513476442393240272374463464354874031865856.000000 0.000000
0.000000 0.000000 0.000000
1353848180428179384626950752251594782105153269388672455280245473537354939671131107054931007126074556416.000000 15584234222701924968541577554620728235698866849747205406222539338852757589217060485631227358345821159424.000000 0.000000
15584234222701924968541577554620728235698866849747205406222539338852757589217060485631227358345821159424.000000 8553335417024880425925480964744722102063971751835381533050249866686268562672577792954763798052062887936.000000 0.000000
0.000000 0.000000 0.000000
-10764952311773639608270377967825634206327787103016985880391457803511733065544214776604249127037079388160.000000 13289457411523167234065719223936316976269793017391320257122793922430223756868755570899632806162115592192.000000 0.000000
13289457411523167234065719223936316976269793017391320257122793922430223756868755570899632806162115592192.000000 7613556836789768156295193601187339771006436112095823772441666041441142223848416579724065607670745268224.000000 0.000000
0.000000 0.000000 0.000000
19506718171574974695774370160236260548631763528624815067583941369415886043792280331040794001723755593728.000000 -7772792054844869315681960562979881511475721349201255222106264509240823186910155133566023878942625103872.000000 0.000000
-7772792054844869315681960562979881511475721349201255222106264509240823186910155133566023878942625103872.000000 1879076627661997352518626621206385195730555206865839787111706101937560038188787823288399328119776870400.000000 0.000000
0.000000 0.000000 0.000000
5890985036483537351368494677742173224483363430662830458642980255585236313638034926179244418810031112192.000000 839940632455236644947621650234319366777981850244893721731708417442882121416649998233307167713090600960.000000 0.000000
839940632455236644947621650234319366777981850244893721731708417442882121416649998233307167713090600960.000000 278921029417513466182130035205677753441347914636350688105602648662481075925643640189722485759598919680.000000 0.000000
0.000000 0.000000 0.000000
-66994956701205058221713671139481876285993966759470698946119720637635168209258382957050447343185297408.000000 330534527423861025738636084202960615154823452671132419772304466962821163458556500667600720422257033216.000000 0.000000
330534527423861025738636084202960615154823452671132419772304466962821163458556500667600720422257033216.000000 188096277150356959881960423506920258177190124515165898762505741854590756364173127975301939891825278976.000000 0.000000
0.000000 0.000000 0.000000
-45190251873899623634697718190411056654775190106019902937696492284120714948275883080950407421365254619136.000000 1521233095203552925265720905700886439570663496488771007436890174298448759914076765903860686013169926144.000000 0.000000
1521233095203552925265720905700886439570663496488771007436890174298448759914076765903860686013169926144.000000 357026092625966210267665585187760283110928180954716762771577327698309513920036184899429596761616809984.000000 0.000000
0.000000 0.000000 0.000000
227371778554415856670826133746058128988453750242797204138566690947796898837546568416890212002914369536.000000 115542533887993541953430132504805184956767503197414101645873214615843966382630256991483203150264926208.000000 0.000000
115542533887993541953430132504805184956767503197414101645873214615843966382630256991483203150264926208.000000 33489182956908205642480052908092900074751879960045767182193055025691933808548323944325111486737285120.000000 0.000000
0.000000 0.000000 0.000000
265354307201173226286973305165418220067442809780332839428078831833152032696908258396588459142475153408.000000 18885097097102610843018583822647283180726714992286775392992613001332881298679003249310071601644743688192.000000 0.000000
18885097097102610843018583822647283180726714992286775392992613001332881298679003249310071601644743688192.000000 10573943912947225300088109701539811995590336039127278452836678009146688534562229692759435640891190018048.000000 0.000000
0.000000 0.000000 0.000000
-16929147246338887483067455435334450378184490760344189527594047685406636365135908720919651247219613368320.000000 -6676862612405093108896858292650021356906849325671063230539378002951061196742528079076073137087275073536.000000 0.000000
-6676862612405093108896858292650021356906849325671063230539378002951061196742528079076073137087275073536.000000 4387375444042959018453279317219287935303503977245047504448022712479742698749526401464586605245142925312.000000 0.000000
0.000000 0.000000 0.000000
1272463210592445966353383879863102488014279200080598376355438169387113341182314746106996368762470400000.000000 1004415728625893594285240282276680706647599626350419247970941341376772075881558595705264462248355561472.000000 0.000000
1004415728625893594285240282276680706647599626350419247970941341376772075881558595705264462248355561472.000000 827268852113370882412739959250813924089758398217972775152640514066594976685330955226085899957564342272.000000 0.000000
0.000000 0.000000 0.000000
-3047509115343713506869342293438140123335383966822202987816952011031687371913125514613197101235039109120.000000 3157976119609349095760177636049692810302617496959654197621043371127951101284370677114615837237528494080.000000 0.000000
3157976119609349095760177636049692810302617496959654197621043371127951101284370677114615837237528494080.000000 1799912573069541727798543466143932473680281684351543599817311948919011798581222022054868997623060103168.000000 0.000000
0.000000 0.000000 0.000000
7940639672102960681404900623539443734784316219136459777724379819948935270704291628514223503167176310784.000000 14054697969438530385442950840554334863037817165651371265550597081120462089010756289739641717208513511424.000000 0.000000
14054697969438530385442950840554334863037817165651371265550597081120462089010756289739641717208513511424.000000 6892932176935201882289003566375180857945998919729150118977809302614186593488568896140419342308296622080.000000 0.000000
0.000000 0.000000 0.000000
-271579714040990021112109493144183822653373425201592152012636634180497883533400325049835377779036651520.000000 48790724100054755149284308871044553255860696229201019337410276811845980990449447874158544522525540352.000000 0.000000
48790724100054755149284308871044553255860696229201019337410276811845980990449447874158544522525540352.000000 14892079826918875873458099623740766903625428350142483241817842857215582234289004737605211062821453824.000000 0.000000
0.000000 0.000000 0.000000
-1952592187424541559791983451819920214536107889091396642665105297397674371195712008077346871026844172288.000000 838777040148155919803477526936386307318157381974973338010401397275218375533319065684828924551322664960.000000 0.000000
838777040148155919803477526936386307318157381974973338010401397275218375533319065684828924551322664960.000000 410369043875294213897784495785227889511756539456367216631241099709501124836080987956445723565467107328.000000 0.000000
0.000000 0.000000 0.000000
-3583882405979398186931529885697310060830848876489967825335169578737111062512341730766588321988893212672.000000 1924613117884465988555353636578123374107536332040824548913690786221543373441537621278374496080874176512.000000 0.000000
1924613117884465988555353636578123374107536332040824548913690786221543373441537621278374496080874176512.000000 1002362544640207972357866185927580930737104861851305728851448171788119243799506826148151987871047221248.000000 0.000000
0.000000 0.000000 0.000000
125817860634293092666315839627960961132374114628000511792754987491703965028107125191109274634515644416.000000 162320666952510559635552105703265124867283762821666767132587623000292864680791211283556297679359180800.000000 0.000000
162320666952510559635552105703265124867283762821666767132587623000292864680791211283556297679359180800.000000 74429083728892055036374098774340785376909857234624294237278609876788486805518884157386550315600314368.000000 0.000000
0.000000 0.000000 0.000000
584982231657133104681619540304049849594312010421809339186225050516496935689223367562230713638574882816.000000 1976471331546720959077265009254517215886871123827568349551621599450453183471902025508948252995230892032.000000 0.000000
1976471331546720959077265009254517215886871123827568349551621599450453183471902025508948252995230892032.000000 1432066486565255216145152157505958661780321056708493644577523979839119501870524013731623399511352672256.000000 0.000000
0.000000 0.000000 0.000000
-432162914097774671609417830649372507642906888201759877317237388737764393089261857889357228868510941184.000000 323184253365635028651203852460774881024617954317699077152328209771702752472724248757409006794724868096.000000 0.000000
323184253365635028651203852460774881024617954317699077152328209771702752472724248757409006794724868096.000000 178819815869735442999952241931406339221603373826038622245485053153921025511499026257260279545794134016.000000 0.000000
0.000000 0.000000 0.000000
-60616479560947318810015535649241192136752143506308490010427053959957759767395278827865398688339336364032.000000 69254988654785447363777975277518637375092678024918711007781469689908159461358670007926345067827472367616.000000 0.000000
69254988654785447363777975277518637375092678024918711007781469689908159461358670007926345067827472367616.000000 39634841394949440077320688240457851157687316247096798241666466804172745907865223332836708897059921461248.000000 0.000000
0.000000 0.000000 0.000000
6066833102510785976269782750848796028271510696346986272806956943845206620547316049749479610657919729664.000000 5083846350106795475965068572444740781965755380188466115426393006497270164067602579383154428915233062912.000000 0.000000
5083846350106795475965068572444740781965755380188466115426393006497270164067602579383154428915233062912.000000 1745943392410117862387734521269923356919505319173730718619827176176456936273487075860355908850595921920.000000 0.000000
0.000000 0.000000 0.000000
40158212344570753677871331940077813713433270111939256141404769388961582642787140849075233808625981980672.000000 26702370423376064577915253738665059423253852059835867416259887016270562468198575044137137940262473957376.000000 0.000000
26702370423376064577915253738665059423253852059835867416259887016270562468198575044137137940262473957376.000000 9215475325797061650538630510506540720500007207946770392357609067481282084683819229245015928515919347712.000000 0.000000
0.000000 0.000000 0.000000
20459721339437256855540299851567816789164370485976042583428165450742724111438768845122851176965342232576.000000 25412406852810087955943099621561186686996884152802617289209470100878265890891894822614911399840450609152.000000 0.000000
25412406852810087955943099621561186686996884152802617289209470100878265890891894822614911399840450609152.000000 11544410774080505649852465890945119056389399826191830473982980685717851946079190225920402142109466886144.000000 0.000000
0.000000 0.000000 0.000000
6605688976273878733068436201300658721292551176933268284098355073104129713273474773551342455488184844288.000000 15868301840984707611138410172355411530202980399731821809229945254452669106198844584588537694226852347904.000000 0.000000
15868301840984707611138410172355411530202980399731821809229945254452669106198844584588537694226852347904.000000 8106051821035141513950071430360075358983972376454736000257140903576719341755306817950830449645238353920.000000 0.000000
0.000000 0.000000 0.000000
-2005966629671374178479747868745693147303956974289602866567155988617110365066384648664736857696461914112.000000 8566605050237211220098463282741886117284427395549137053181581818781897632426805062362692760821852798976.000000 0.000000
8566605050237211220098463282741886117284427395549137053181581818781897632426805062362692760821852798976.000000 5600427648959403217730966329920511590826701293604605939914240456319549874269250092064872353395803947008.000000 0.000000
0.000000 0.000000 0.000000
153242012429136000387805591458618209949411175647129757123222783011998022403812683502252246184473846087680.000000 1016754297561903171181592428268451117795573901561689294141975278388300021902047493388457476273972707328.000000 0.000000
1016754297561903171181592428268451117795573901561689294141975278388300021902047493388457476273972707328.000000 55799140621182009777799675669731559791894311080920708970200978080122845826235424531538210952392474624.000000 0.000000
0.000000 0.000000 0.000000
-162877495868815250715155572823896208962116753926133033543706679528153108121496422376901071156762334032035840.000000 -627656474056999722748355466367952922492660183492919753271350347586615357224199401275025876160112641441792.000000 0.000000
-627656474056999722748355466367952922492660183492919753271350347586615357224199401275025876160112641441792.000000 4881229389333666446470154472947630513967919874133026137955559969057684888917115080921979225695047385088.000000 0.000000
0.000000 0.000000 0.000000
3378194572814708060728536803854779972770582994304331546945223524087741115482028332760619426106920927232.000000 -10008179337741632312608629077292348688596768492446778136755717112083887289192179567600748598719821119488.000000 0.000000
-10008179337741632312608629077292348688596768492446778136755717112083887289192179567600748598719821119488.000000 5062109064462583412402536557061271371974658457297138406333512631727898544797707614753041843352804261888.000000 0.000000
0.000000 0.000000 0.000000
-1205136457556968407830240755100664710106455130275291285911556010258004934344633372955219606482645417984.000000 -2686964493951771525254513334668797413600981505425108547207463556118784008022359579722960712581324472320.000000 0.000000
-2686964493951771525254513334668797413600981505425108547207463556118784008022359579722960712581324472320.000000 1588824078897610745164687860499120325668435457131680187426375461245689326249593402369081381027584147456.000000 0.000000
0.000000 0.000000 0.000000
132282002101935823853291207725282821297552847016755274538194379564687120425894472458806492676898580070400.000000 52289627959467183976801210017863644877691963611865032065030986991186465313718353639654298273262681980928.000000 0.000000
52289627959467183976801210017863644877691963611865032065030986991186465313718353639654298273262681980928.000000 12532455572130818979158220331286080344456379855372534997227932243824126964408112125330573608341393637376.000000 0.000000
0.000000 0.000000 0.000000
-19627089449254977020685207619344344705323537855953338237128032716003446393645804254189231895867587297280.000000 -30850312517956341598876344284370594399901793026239556668052520001106967544795509627445025003762809307136.000000 0.000000
-30850312517956341598876344284370594399901793026239556668052520001106967544795509627445025003762809307136.000000 17801467881269494577429997808117715574400244948902238672739216439337475926856950486685330306176806551552.000000 0.000000
0.000000 0.000000 0.000000
-272615404299239568402197015930983920975276474705359829522376061450858064767489766105115265276760293376.000000 373993296067964849776076895784834240254339413655168863411613130679663087111346887008813841217329561600.000000 0.000000
373993296067964849776076895784834240254339413655168863411613130679663087111346887008813841217329561600.000000 215432488298094664710289320889156943445713606653938654181290641633226906690269417140749112299384471552.000000 0.000000
0.000000 0.000000 0.000000
37802825487653280516687003886911563577073566727218913690603587239817651666113645334677246197954976415744.000000 10912834932167678466912746941585787059259900177955076837967088315017648534864448283500625202608324214784.000000 0.000000
10912834932167678466912746941585787059259900177955076837967088315017648534864448283500625202608324214784.000000 2413491172440049260345433404096015209984311047743682629151114725969383104187024768348275177214693081088.000000 0.000000
0.000000 0.000000 0.000000
15614758590237162386025399138225951073944960063383338787674800417131942022605856650373145184693871706112.000000 -9849184843408152781171170920635578091041277846439401045813374953157606980714612617579645516790817095680.000000 0.000000
-9849184843408152781171170920635578091041277846439401045813374953157606980714612617579645516790817095680.000000 3309850182809362236304204874725774481699646465886360068301985219116788726937263048616939418012092465152.000000 0.000000
0.000000 0.000000 0.000000
116147623007422371872258666373743304216547262494721843981705740611488297234938522921624600474967605248.000000 153375261034171665001822527201152743775886720124971682849478372455712856605473659496748584946148311040.000000 0.000000
153375261034171665001822527201152743775886720124971682849478372455712856605473659496748584946148311040.000000 70592827583422619437111290152851996396006554857320803771872562856729374803959119677570282040288346112.000000 0.000000
0.000000 0.000000 0.000000
1212267830393525561166143073438683204337585987057678036150354194662424909241612895737224444293127602176.000000 -267670841813523672942957319159025352625325969004430609651938981915455480231232350355565612263014400000.000000 0.000000
-267670841813523672942957319159025352625325969004430609651938981915455480231232350355565612263014400000.000000 38175947211541336041505831230989942447852978932642322236887613344412793455000806420264409791142559744.000000 0.000000
0.000000 0.000000 0.000000
804998390060666706296524336204618968228449905994850093898105582204171317344026246462550445390781480960.000000 322499191769023165789327435955669435461583696726754998899161679004123564535509868855680909615927656448.000000 0.000000
322499191769023165789327435955669435461583696726754998899161679004123564535509868855680909615927656448.000000 77865760589027685438771049956907252988077561074358165462503601864884123836266491446252025780633600000.000000 0.000000
0.000000 0.000000 0.000000
-13951512889388143714426352652139268226194678815466945558149422536460391188611871148032306469758701859241984.000000 -305143445343999871026689208667355579330138193446307060069091432326246764895194428637642409133209584402432.000000 0.000000
-305143445343999871026689208667355579330138193446307060069091432326246764895194428637642409133209584402432.000000 13479106653853012303874124360839185857559460616241606977560572651602526268103191047267944201869777174528.000000 0.000000
0.000000 0.000000 0.000000
17922382296504330501292885883102588436437206443507545862020453004067413446876558622426144387301044649984.000000 -3393087042473363423765650046353252844283033134216367568585068970437532834561716709085280953828175249408.000000 0.000000
-3393087042473363423765650046353252844283033134216367568585068970437532834561716709085280953828175249408.000000 613632851025213993113452914051714667014870582554692958891318752035717645238717010782247581341569777664.000000 0.000000
0.000000 0.000000 0.000000
-26647623308698280863828839514949935030806412081349792646696368132820361845232454932418696893684690976768.000000 -31651380091157781667380711264518628221611297502842174179374745104020034211965241567050312746974524211200.000000 0.000000
-31651380091157781667380711264518628221611297502842174179374745104020034211965241567050312746974524211200.000000 18377439868225464156203107651796545832087498829174287107234769895489678158634754596027820123012126998528.000000 0.000000
0.000000 0.000000 0.000000
132877461551323262265125473277316246165099172765689351848320277049998436403997692273322574651847631437824.000000 -78659348868844233126150348770820589925549872238169332627486221105021673674202876277128876336098767273984.000000 0.000000
-78659348868844233126150348770820589925549872238169332627486221105021673674202876277128876336098767273984.000000 25398599090402210559022864515349262656571936400648842154988812177189661627348749623109690660500052901888.000000 0.000000
0.000000 0.000000 0.000000
4078438510955340151323430508430637253885662097757171709188367584886265980788399201264871957871774924800.000000 -2514298262720128853758114049803582702212648083834591686171355859395343493270006111587073689002742644736.000000 0.000000
-2514298262720128853758114049803582702212648083834591686171355859395343493270006111587073689002742644736.000000 845564198350196389231523605920721841458356285965307397310724048433885120837953198600736385502879416320.000000 0.000000
0.000000 0.000000 0.000000
-1066975418250330656820446061869080620418357012989924102557608901390521977487848734779896834972067137847296.000000 40530843049524136643179486180516294568794991389444241662817604978735410420063556019105616906584120623104.000000 0.000000
40530843049524136643179486180516294568794991389444241662817604978735410420063556019105616906584120623104.000000 3388309219880876103297718062301974212353564084243438947461149446974875288891930702888182510574492450816.000000 0.000000
0.000000 0.000000 0.000000
-952306232072399123277914068599844229788939225213149567320723922337986691804284488177949600720214818816.000000 2098264336261674536989799165808385248396078112419995370883657513144390697248374489569981527486684463104.000000 0.000000
2098264336261674536989799165808385248396078112419995370883657513144390697248374489569981527486684463104.000000 1440684162061104383353139494127093965246525616121679420439630422633508943034249522389230326831969730560.000000 0.000000
0.000000 0.000000 0.000000
-338995699200404606466944177333342544883176533172356862937128489785009130162260054355839524850185875226624.000000 -203193689890129859617207437147897562210666177272862456799806506841937987819317699880685578862984159035392.000000 0.000000
-203193689890129859617207437147897562210666177272862456799806506841937987819317699880685578862984159035392.000000 108141805269853238437262552384047498076984772405850253145155472392121226890284908543897044681542709805056.000000 0.000000
0.000000 0.000000 0.000000
-3709345524831974363950982362443929494675324076302678864736996952431086930207885053509608889539578822656.000000 2160338837836133969071364376764790078150187095367981415545886325495819631298060915596516919010949857280.000000 0.000000
2160338837836133969071364376764790078150187095367981415545886325495819631298060915596516919010949857280.000000 1255231164937016920445420068519186675676759222138344329293782806586883759704752537532961727906383396864.000000 0.000000
0.000000 0.000000 0.000000
-41073720180253243060918774500493114806083530935791528569462795098422382784539617788583800667833481822208.000000 14876699415938504311676564354127912954778581334864612892471410298098225725242901411838785754995827408896.000000 0.000000
14876699415938504311676564354127912954778581334864612892471410298098225725242901411838785754995827408896.000000 6802061580342473382173516247147841385850278815125871862559616321754958003853713348849273140292207247360.000000 0.000000
0.000000 0.000000 0.000000
19239220200458119009446697808073682744217567295917804686278175308317834479522365064046672631250099896320.000000 13509670836604218796226229953293239060036351437850623988609569977409152851499903220383355484819693764608.000000 0.000000
13509670836604218796226229953293239060036351437850623988609569977409152851499903220383355484819693764608.000000 4794797619075411039106863629968832422617205923232328484452706331692056446513040631974228574757160222720.000000 0.000000
0.000000 0.000000 0.000000
4336250659415822491946149771025030247873494879340551098363064512790101377612844172231948902306160836608.000000 2628308304387949394879841186178371505909716670308541428588164114121001721193526014628764170422079979520.000000 0.000000
2628308304387949394879841186178371505909716670308541428588164114121001721193526014628764170422079979520.000000 859038661524901600203732423922005178922802919503058845547901578833228876063808801711354684172924878848.000000 0.000000
0.000000 0.000000 0.000000
40495205223807705147616258196401104672929706425049833168531529402965362570125062727843904865272405688320.000000 -7943845445605503711486541593828860699276701047636613429840775406433466217033307139687012446246925238272.000000 0.000000
-7943845445605503711486541593828860699276701047636613429840775406433466217033307139687012446246925238272.000000 1015962805322740432453932651794125390394798301468109758076258833510728125137169239529418167772258500608.000000 0.000000
0.000000 0.000000 0.000000
787677493641333051788154654476806149067477112587751735612681291932185295092191191261062408404524335104.000000 515392335093381958274024494445809046852219346134047317856563772132466651426155834939872077692465577984.000000 0.000000
515392335093381958274024494445809046852219346134047317856563772132466651426155834939872077692465577984.000000 177100112755366666734113403366477018515316643502263603106493738000325129226184525511916562026317479936.000000 0.000000
0.000000 0.000000 0.000000
-153024579672408879132066875824544196847234888382270104601382470460124220354987351582658783597184853999616.000000 2518073254857707613056938081431766560126854025903904339109697904599216368093266777406561248864007880704.000000 0.000000
2518073254857707613056938081431766560126854025903904339109697904599216368093266777406561248864007880704.000000 806554810469451955195253432922439238607143481019900259896727647042159206174538012379629758621578952704.000000 0.000000
0.000000 0.000000 0.000000
6153019361590214276067403864702576192672716664181049582846921778090816424601021202990079776338068111360.000000 -12832018195252741081385211101304397980171357631456374828106493101590610655115304306812910886610400182272.000000 0.000000
-12832018195252741081385211101304397980171357631456374828106493101590610655115304306812910886610400182272.000000 6451553609306396720318630128535756612924308373667843210800617736103518898586144132259323629980784525312.000000 0.000000
0.000000 0.000000 0.000000
5431041868202648320105615205037378969699778985919236737554437154755806808072020747783645675467025940480.000000 5741400578272656760508696089941138156141804156997883270083447361942343870157297864784579505413561516032.000000 0.000000
5741400578272656760508696089941138156141804156997883270083447361942343870157297864784579505413561516032.000000 2470818329342919755414073918930339572775036710427168752601530744383108846633136646988536424473810698240.000000 0.000000
0.000000 0.000000 0.000000
595776655110996439351531984474333207163788908565964978084547719082669733283367515644496560268680110276608.000000 -34713478306362956364670009670081385981041715269183240574363929357660243606879068420847604632400871555072.000000 0.000000
-34713478306362956364670009670081385981041715269183240574363929357660243606879068420847604632400871555072.000000 1356719500667414866270981396663480050713409644317618257599343062760686626270346412608626404261407752192.000000 0.000000
0.000000 0.000000 0.000000
-5338896891775246667121263531754285291211090974627913660783035355254250130141756595478211704664442798080.000000 2903183850976894588574326502134905077291197853041777531389826674796934411431749482786234798232074977280.000000 0.000000
2903183850976894588574326502134905077291197853041777531389826674796934411431749482786234798232074977280.000000 1665740269383389626769264571105047737767004658616901915456549761755363346434090254790215183230853709824.000000 0.000000
0.000000 0.000000 0.000000
8080980512012471675032453352024541737936871768482906731663732744189059847573791295489435513369846087680.000000 6653470071254190232757589128327612072142785499287621324135324554881289709115919909166262058028848119808.000000 0.000000
6653470071254190232757589128327612072142785499287621324135324554881289709115919909166262058028848119808.000000 2582714799176403842012462152152681121253548514450103481371643078587374683034744007155041276598918578176.000000 0.000000
0.000000 0.000000 0.000000
11002758258165358226531624637254418410879157569172106507858736625708680873453944338393292032245235712.000000 8291757193706228573707910341325529693322406076403495202044930898330380928366153039272998324948443332608.000000 0.000000
8291757193706228573707910341325529693322406076403495202044930898330380928366153039272998324948443332608.000000 1827520716817691182518462080856456928235963198544224075516690085457255717065989759713538165185783529472.000000 0.000000
0.000000 0.000000 0.000000
12892786411453217574493262668190355253234437823644270437482864701818091384495927878911516711371461885952.000000 9542542725725374759237885436332004485786301870833608495159090472702440666296733706813084972976053420032.000000 0.000000
9542542725725374759237885436332004485786301870833608495159090472702440666296733706813084972976053420032.000000 5417734965388902104692015840990471636111168941617929783884084591910386967588310863059432347339535155200.000000 0.000000
0.000000 0.000000 0.000000
-2428328181819522501318183918556839956505277835465784599481963539838126860643288883978782868674985941008384.000000 113645138244183738583487468016369115077916594030969357041306186540724601550462445812831319756924073803776.000000 0.000000
113645138244183738583487468016369115077916594030969357041306186540724601550462445812831319756924073803776.000000 10494378852470718034571527638874224530543488401174619887619485917958913519107979355697337310737470586880.000000 0.000000
0.000000 0.000000 0.000000
37353797756213701473904594744058070775534789980812696623397864275714095967839677092435954546421423669248.000000 -52337956539310594545988082806177711048459265676284484858008744384186320875861478098695233512293894455296.000000 0.000000
-52337956539310594545988082806177711048459265676284484858008744384186320875861478098695233512293894455296.000000 24474889129761494823565135045564467419543873725425569163731688218109992900605299088107929228407348396032.000000 0.000000
0.000000 0.000000 0.000000
2481367313833626384825879415655218054336564567786529964478942560856753278551435319714752303668274397184.000000 -2708187580636565349656221596021394458098242858557361514530027960580094440657686709800652780004024778752.000000 0.000000
-2708187580636565349656221596021394458098242858557361514530027960580094440657686709800652780004024778752.000000 2031237722717609391305723643576947622406759840639207697289783333856986735229854912995272297967037448192.000000 0.000000
0.000000 0.000000 0.000000
687883734488003289037549337196620580373308235250618985448325267980293012118670327538933848792979472384.000000 -2114131898054060778949880419857777987388772873115648663133412327254383374038732348650319679484147531776.000000 0.000000
-2114131898054060778949880419857777987388772873115648663133412327254383374038732348650319679484147531776.000000 1248304131989100597820773110560961763769467137690326465170723219788341708822467846179712512687381413888.000000 0.000000
0.000000 0.000000 0.000000
-78447638531902070585529935980705662264793057145189351919492099476678665616874934458330746012576979615744.000000 -143106840083631745062420087162563968672052409538205110559738656753886058466959929100677212446058403069952.000000 0.000000
-143106840083631745062420087162563968672052409538205110559738656753886058466959929100677212446058403069952.000000 82582854867133406172701577709741039041343851937007344650324318713470862246567221528529564720135388790784.000000 0.000000
0.000000 0.000000 0.000000
2890593970264905800030659482194917652754686718207266727822045202404504041091225080706850533548622872576.000000 2527074973711328833857533315189561546489552382573782904417097102146078709328060624307117416388797399040.000000 0.000000
2527074973711328833857533315189561546489552382573782904417097102146078709328060624307117416388797399040.000000 1008271439819844325170640579995956663195577630315354960245797385595993220756260610421696457137522212864.000000 0.000000
0.000000 0.000000 0.000000
16537225953581605427265827816604784496367165575112226224091959481032073601939318231074335956493058179072.000000 -28073732487344845982222509311975843241012380547753094504528281343546635358428752829940327102180076027904.000000 0.000000
-28073732487344845982222509311975843241012380547753094504528281343546635358428752829940327102180076027904.000000 13724744917639200062277194067506019424401558353701259748822740696521007107588958614854964523724204670976.000000 0.000000
0.000000 0.000000 0.000000
-1498079279454169280115786607341540697786993142145431654639975748298197763225190257572367248485859196928.000000 28981678160439532746472433474894900307185904526509751181015702214115236254317443889344025975964706013184.000000 0.000000
28981678160439532746472433474894900307185904526509751181015702214115236254317443889344025975964706013184.000000 17128031359674590483320079937677910177570966454386963827526536918117530222529257281564640417627064238080.000000 0.000000
0.000000 0.000000 0.000000
955139641355025234081937875080018583145147476661107961357698812172552497283656003022009896595605159936.000000 -461662506636859362094148663468857743952954386325554935335854478734894395627808295728620017541728698368.000000 0.000000
-461662506636859362094148663468857743952954386325554935335854478734894395627808295728620017541728698368.000000 811067733864212262236454825902473279555967651978714146362653830429340818024328089022574305712462102528.000000 0.000000
0.000000 0.000000 0.000000
77041981687481951817659762978945254274408981865615157992237093826869875424454444869066193926790548815872.000000 -6770572988092784950715802694745840046028035049831636394131672137129221505968086707816368520533561573376.000000 0.000000
-6770572988092784950715802694745840046028035049831636394131672137129221505968086707816368520533561573376.000000 1191251541733481849481280209284759079453739307649173229639948524759981149503534809779843801035348901888.000000 0.000000
0.000000 0.000000 0.000000
805259644862861364209961082469799839056743613452948953390307914572546050055621512801716097398045933568.000000 -140677548553327557370266107943539028537570629501869188818293664819886042623473407222670480121884835840.000000 0.000000
-140677548553327557370266107943539028537570629501869188818293664819886042623473407222670480121884835840.000000 106628501130358485042911149703148149771222077264339479246065360304339602328231615464050658317866893312.000000 0.000000
0.000000 0.000000 0.000000
103080774328905758009950214530467690498564309110567176829121430016521171261788128177861857116160000000.000000 3696293781333279894733946678099101487953926796878589843853317347715371145912365327416437542042241859584.000000 0.000000
3696293781333279894733946678099101487953926796878589843853317347715371145912365327416437542042241859584.000000 2009440529869344659941926452209499397625483390722079770316400862787233021637471807748957822032654893056.000000 0.000000
0.000000 0.000000 0.000000
-34396337670301152232961810795488532814408311540616713178531910298676516517725367932222339719630610759680.000000 14525691999342697158181906114730299254286195355024688658722343921809792218833334772455553592339273351168.000000 0.000000
14525691999342697158181906114730299254286195355024688658722343921809792218833334772455553592339273351168.000000 7113109312813846563790163719560102968166011960704986267645644608917069435408880523429442844503276781568.000000 0.000000
0.000000 0.000000 0.000000
8537307751796874160062402162155773580851872372199406331002453595234545447219805496159504222040398757888.000000 3656960875044181563594857692947479904521954887741919968675111432819044465368469527962979971916047056896.000000 0.000000
3656960875044181563594857692947479904521954887741919968675111432819044465368469527962979971916047056896.000000 977994734307204041764554859602145890556914136529194677428116869610451413517757090733579882658334244864.000000 0.000000
0.000000 0.000000 0.000000
-4548534170689218690929398158247865719832131175914243786522265915713286327053526479417784634382017888256.000000 3460690276414869652838682831422071037452454072114722852866307948114435633217538239836385608878010662912.000000 0.000000
3460690276414869652838682831422071037452454072114722852866307948114435633217538239836385608878010662912.000000 1899759415691416657203649662783436756868115892569538340091762473706423548730352307376403375452464349184.000000 0.000000
0.000000 0.000000 0.000000
-46994730460817710887428757514163498286755310948668256759484211021075299254067355726289644491153938055168.000000 -18400103470273647240425860410680158915245282210871770906411218362028021303320064834431990777125774819328.000000 0.000000
-18400103470273647240425860410680158915245282210871770906411218362028021303320064834431990777125774819328.000000 8699795659411111876245560790703977638118247431524805679738716431610869055587351132367129119012438409216.000000 0.000000
0.000000 0.000000 0.000000
-2173157168345073876074618173895596853422947191391971243352686190443923118595461936583132901501671833600.000000 -26576627492186952546408860971832071799341037574462639532484011301505650651628412850970107922897017241600.000000 0.000000
-26576627492186952546408860971832071799341037574462639532484011301505650651628412850970107922897017241600.000000 15725016296407412528138895239276160242906129656267393315083983401795535423280811341959268654524468822016.000000 0.000000
0.000000 0.000000 0.000000
39931331487222556655536107822172763689655045581637519428832454877930045335843688591948130147880446984192.000000 32591486342141999458210790757858099313875012242469454759485245023131240692326764699580493352726945595392.000000 0.000000
32591486342141999458210790757858099313875012242469454759485245023131240692326764699580493352726945595392.000000 12590551699847538911943547577895525415948456516796837098016204064650955122786613253612039089165158055936.000000 0.000000
0.000000 0.000000 0.000000
-6648609988404361177512078434204662809087825008823013752948310739240571790599647871648822653790728486912.000000 1468409464549106632038902591575204406829064268774036472085903468517424214022611457811330304896233635840.000000 0.000000
1468409464549106632038902591575204406829064268774036472085903468517424214022611457811330304896233635840.000000 512375521828836638749758048481618687405701474436988154901284456994465287697444726396043674891401035776.000000 0.000000
0.000000 0.000000 0.000000
-16114223783846686315488885948100783668526564695985444136440679460453034865076462142812647839208463925248.000000 -5797330410133945697183527226285648132713345506342391776143232674993163596052279415767786421109020164096.000000 0.000000
-5797330410133945697183527226285648132713345506342391776143232674993163596052279415767786421109020164096.000000 2681740289898996880050045131991769293559924117180460138093565912592899156621515007787095489993500524544.000000 0.000000
0.000000 0.000000 0.000000
9232100352035233146779022917078283940996918624648108041150561472002286069698754003551242786036296712192.000000 2733547251953381721940081248558309610303020990045831408831014264013930254914351759176833855334784172032.000000 0.000000
2733547251953381721940081248558309610303020990045831408831014264013930254914351759176833855334784172032.000000 558451426798712375295825836299359138310449832135333987798384086883211144694144842424648692803754262528.000000 0.000000
0.000000 0.000000 0.000000
-10188147623264035958713350174434996117542880843221247175224089023827600648638115820664468197465386909696.000000 -5774968050305633915488466471416158784000189514673627123781840689077725913146620443008709291291933933568.000000 0.000000
-5774968050305633915488466471416158784000189514673627123781840689077725913146620443008709291291933933568.000000 3059032705687037377641589743531600550898599680962289689514730232054954718610863663855412493548150325248.000000 0.000000
0.000000 0.000000 0.000000
-4484361425059812484535023647102225694825537740535871743539216326003344462552220401333520042007919067136.000000 22910481842886745745358111649657963645383340137140539363756059020860406010552380153828203698662959742976.000000 0.000000
22910481842886745745358111649657963645383340137140539363756059020860406010552380153828203698662959742976.000000 15337563707855466522091036306871999782166792752337744323157017175823285390509277172913919406325100445696.000000 0.000000
0.000000 0.000000 0.000000
-38838358544793509422938010168124360437318547578428520251578761522984481877768469517406497723224508334080.000000 -13227961662890362253649745224470081261708415792576955781938996027898496866053960270764395989127185563648.000000 0.000000
-13227961662890362253649745224470081261708415792576955781938996027898496866053960270764395989127185563648.000000 6183798230067268650890279331992971803756702143262008222538767513469338130654987457256382317103427878912.000000 0.000000
0.000000 0.000000 0.000000
679494204271372976900401051676693193921597941944994791889239438738461211846238424065458081019683930112.000000 -8023584422827098784496509682512183538424959947765149765021671623187309396444078433878718120198009782272.000000 0.000000
-8023584422827098784496509682512183538424959947765149765021671623187309396444078433878718120198009782272.000000 4384196938230921012060517136078754928115729863560650940036869854509152235723793131623410041588719550464.000000 0.000000
0.000000 0.000000 0.000000
-33376519511483027412478156963798216444180914640947897544709938037451851615220893067045906886753645494272.000000 -9615119973685296730138212404242002087050859512902649609290948462011741846580384698921322490029584416768.000000 0.000000
-9615119973685296730138212404242002087050859512902649609290948462011741846580384698921322490029584416768.000000 4169644945494910282806836401194283460032278586097300849437578912494857169478750103559203642970073989120.000000 0.000000
0.000000 0.000000 0.000000
-1994487009429098442036819134562342744089450705184547938639648901870816270117836876307261441673720233984.000000 5830847536545275304473634010828756779027502559184254456854493829321649279392748352258145611708314419200.000000 0.000000
5830847536545275304473634010828756779027502559184254456854493829321649279392748352258145611708314419200.000000 3277730701290857007626964343308172793842432529341124675477467357117681269597517857896170673141694070784.000000 0.000000
0.000000 0.000000 0.000000
-3140740502410777116320183217592548752333800118081976529906038649592427755252177857818684497954909192192.000000 -1322766343753945335254844420944994684032223209781046118922407830905753048694102859796674312616066154496.000000 0.000000
-1322766343753945335254844420944994684032223209781046118922407830905753048694102859796674312616066154496.000000 642009268770199275278531295565543585867225171565486370442462825775366576087806862017169581692092940288.000000 0.000000
0.000000 0.000000 0.000000
725090371172561266905553191261958634565905833469589364743648484524695932198049324587731777022521769984.000000 -305755347034837289260307724782671485890473946729375374072815974352777693546912939240991276656039559168.000000 0.000000
-305755347034837289260307724782671485890473946729375374072815974352777693546912939240991276656039559168.000000 76085511712375175579062078588729971316046504993783280128847048982190424747441720780147501969644191744.000000 0.000000
0.000000 0.000000 0.000000
-4677972978034687294492582902961387295470895997784850489686500584117775305390485887598838899991224778752.000000 17807193346339629919392731932270510945810616960372830730912655155033020661215013331669279253161972858880.000000 0.000000
17807193346339629919392731932270510945810616960372830730912655155033020661215013331669279253161972858880.000000 10173579376711777708819885009489236797644730315127735107080429310310525932579276854207036112367156985856.000000 0.000000
0.000000 0.000000 0.000000
16852879396032511023306720726734101707668637815600360666353248639646323392992970463865106399202170109952.000000 9153167593828900557739004183002771655110898197435313879717025165640435620029727842013316937004588466176.000000 0.000000
9153167593828900557739004183002771655110898197435313879717025165640435620029727842013316937004588466176.000000 2684896411630707193074848628936424366433288953879972250850113573952912876610514040083170329078041411584.000000 0.000000
0.000000 0.000000 0.000000
-2168265681445048520636464517139014093644053146265689696665578115675776365012307165621368787032975867904.000000 -4690578408034826674037532851542976859079162330727900133055445060330458009952479663335339540826340458496.000000 0.000000
-4690578408034826674037532851542976859079162330727900133055445060330458009952479663335339540826340458496.000000 2716049051724629449446067134778385568060174933619395849215511266199912067655531376292449965636621172736.000000 0.000000
0.000000 0.000000 0.000000
7189276326926498666998519128571762550494237467810622122311653577214160664345665133709065778913920155648.000000 -3097867717772244502714872216741056099424961945828859340736483951322857389580005829891244596564122927104.000000 0.000000
-3097867717772244502714872216741056099424961945828859340736483951322857389580005829891244596564122927104.000000 793820951025483576983349954425416902269908768310908853889213807437041823593579308585810342682503938048.000000 0.000000
0.000000 0.000000 0.000000
-15795043976591754069578139949288659250935835489768152523112567322404917608679952529985732897324700532736.000000 -1097516679412022853212480249882243443945928269212368450727899995332864893695754518667694097686524329984.000000 0.000000
-1097516679412022853212480249882243443945928269212368450727899995332864893695754518667694097686524329984.000000 387500368456183467435318304101578987099403301966998014438840129320201286389289632588501470765624852480.000000 0.000000
0.000000 0.000000 0.000000
-171234843851595914546347226464101656506089469774972262115043212395154368654215626124795306845199495331840.000000 -37563288123225473504837563933474187935233905042601668532062799173197631405347075825513587440583798947840.000000 0.000000
-37563288123225473504837563933474187935233905042601668532062799173197631405347075825513587440583798947840.000000 13192207604599591704918523710285458878957545228483491354879302129190842892105869270684451747762351898624.000000 0.000000
0.000000 0.000000 0.000000
8665162856761976869774823954799087548437382911353218757763905104623541747476287727120857355859871662080.000000 35365301323076789154519999379218825185773653013744118938323052394711461149060966384315971001146572537856.000000 0.000000
35365301323076789154519999379218825185773653013744118938323052394711461149060966384315971001146572537856.000000 19684771344579633337985322203913169281562415068404447736016603438327698141252505630895138948066242985984.000000 0.000000
0.000000 0.000000 0.000000
-1188637395103290079172012716745083061061726999517741907041186972817380016665412175556597608052420509696.000000 32524643104108516485628493242281096664041201971513177705284339015111077041628770659875004021434340081664.000000 0.000000
32524643104108516485628493242281096664041201971513177705284339015111077041628770659875004021434340081664.000000 18122359192593462358049781305796427146832208683775121389118611347697882278804037749794625237665439547392.000000 0.000000
0.000000 0.000000 0.000000
21895728239609476990768460679542203445195253809308262917996267028884863837730784102347763656324355719168.000000 -21955433993819346727196286485460061561928790433800867790232465914760011898579851065531534798937533710336.000000 0.000000
-21955433993819346727196286485460061561928790433800867790232465914760011898579851065531534798937533710336.000000 9482226440012438850197467963715960837157565950689389379381712802873951386410839561399909400709487919104.000000 0.000000
0.000000 0.000000 0.000000
7410420645915945338273204296013433168686258106339606936236122377111477447040488856797895343831403986944.000000 6022551022298165002733911017540732213731536495697935838810906390683977039434939365302606758385813553152.000000 0.000000
6022551022298165002733911017540732213731536495697935838810906390683977039434939365302606758385813553152.000000 2573094654002721618277359837269491609220364377401670969132434727261453828576907506317601864226606940160.000000 0.000000
0.000000 0.000000 0.000000
201356274076446704690477685803694819592386738305899625694154000663136870925678904571143270004294680576.000000 70524215844616740538547878250276857304268375757928401606251886277925119103877895996798176566739730432.000000 0.000000
70524215844616740538547878250276857304268375757928401606251886277925119103877895996798176566739730432.000000 24697446438684022047277769650508454265541306101007626228255866348483956547297531086595811059546718208.000000 0.000000
0.000000 0.000000 0.000000
-54143797214461636059178571381254156581220750293911041326805360867263406786412686053747670307368974942208.000000 -12455064191808884565148764002299202597876458710259269773273142811825159526701900949596617767708587458560.000000 0.000000
-12455064191808884565148764002299202597876458710259269773273142811825159526701900949596617767708587458560.000000 5040672048278662099014912386334087360556724335630842167699540519100659541030514526929687927825656446976.000000 0.000000
0.000000 0.000000 0.000000
-11545014204607371987654857542828875551709995262687127449609181020764316982837214071363212195833835052597248.000000 -61891079311239021024483134881490407394069781054845806084937229638787335435484016837804456901524225785856.000000 0.000000
-61891079311239021024483134881490407394069781054845806084937229638787335435484016837804456901524225785856.000000 918734218175331177982118481942269438022822289774742809574115706693190916334608241126246375881065889792.000000 0.000000
0.000000 0.000000 0.000000
10323558223328434663849879176660462130199601133210693861455902880517918749377909804598099675024979918848.000000 7155537379699985989117640723811411379159796008949544070086085429417808911185009102352600436750401142784.000000 0.000000
7155537379699985989117640723811411379159796008949544070086085429417808911185009102352600436750401142784.000000 3628042496633906895633623482938545538033860524976262823336441463506400243550377892315592142631542456320.000000 0.000000
0.000000 0.000000 0.000000
7186467708570233247587151782797512878128095284586496185608320752598650798710588097502889489563826257920.000000 -8947081149426780936424482423825835570953342567774679334110588315870566593726426626006800310520399265792.000000 0.000000
-8947081149426780936424482423825835570953342567774679334110588315870566593726426626006800310520399265792.000000 4056544355478527464012547206454744633537800716714156453560791625525764686534278816732026050314432937984.000000 0.000000
0.000000 0.000000 0.000000
38102457887924208308702779659398320484923340725425398686901253648193835756291108657395404490595639492608.000000 8100609043538762855613763721329853645709762665910808619843144612136580779235878712445287359025873158144.000000 0.000000
8100609043538762855613763721329853645709762665910808619843144612136580779235878712445287359025873158144.000000 1401908129037724025555583048300539443513158105910485979982431848704158647544427275770194058408164851712.000000 0.000000
0.000000 0.000000 0.000000
6239843346548037601597114085473028104982851968297001971101602871292160178307257468266232956963419848704.000000 7569559106652696155105509267698529852562714433895893466482154836013428719680098950408748302546033967104.000000 0.000000
7569559106652696155105509267698529852562714433895893466482154836013428719680098950408748302546033967104.000000 3406276288137826203925639553096956628109189332334402778671187183418218426265546696118057031030513074176.000000 0.000000
0.000000 0.000000 0.000000
-7975477220959491144924123848065279811135015924933916188279406252075465794805894729013955604965803163648.000000 -4036576209947751141803247567088502711162823410953943424463033628022755525260447637256090297335134814208.000000 0.000000
-4036576209947751141803247567088502711162823410953943424463033628022755525260447637256090297335134814208.000000 2759961780314530257478685978784586855640452370712585914888124306648629933869548313696675708625901060096.000000 0.000000
0.000000 0.000000 0.000000
-2457762475011729918846712017036534032096142507708055092131807309535489225894748592286428685046552461312.000000 -2805718348795959224111639159526907266816653800261781570580536432924493824983537558164716588320711245824.000000 0.000000
-2805718348795959224111639159526907266816653800261781570580536432924493824983537558164716588320711245824.000000 1638030702522564656715679585727399444671263166096949478858919256205154057281295723142484032343022501888.000000 0.000000
0.000000 0.000000 0.000000
1050975331428966910124368482636805902904632456790382674675277889911608198302017733793230350920835923968.000000 -2346228811739940339215293125455764671793145754008776683678504026505167375454130201969293138281063514112.000000 0.000000
-2346228811739940339215293125455764671793145754008776683678504026505167375454130201969293138281063514112.000000 1257357702195955720647605956203687660795057191865410803161005423057795169750507531737048645205607055360.000000 0.000000
0.000000 0.000000 0.000000
757661617428247276842588182238826573557286790508386071471687889546210874231161998246529338987457282048.000000 -2311147482845702741674399792501177933817806870782091789032053011093792905662391154084777850841367314432.000000 0.000000
-2311147482845702741674399792501177933817806870782091789032053011093792905662391154084777850841367314432.000000 1208582597074001324904825657364925692337422448780219303935882569373175056676393212862399546794004447232.000000 0.000000
0.000000 0.000000 0.000000
-19716568186262618102857056619243323211608401556138790385871748562871541268608812293392757639657914630144.000000 7008700489884552285707199085116341955857346550968217830345905571733194239084335092726621792378590068736.000000 0.000000
7008700489884552285707199085116341955857346550968217830345905571733194239084335092726621792378590068736.000000 3168836368587401442018266774920620967902505230529826185183533631139957305233317742656836612659615891456.000000 0.000000
0.000000 0.000000 0.000000
10005755212415312176271425069726727653447405655735433417125467847465079405985822966863970047568642048.000000 28454606955681237564579562967561454348863561353187902263184480753221610005900568208427627048727478272.000000 0.000000
28454606955681237564579562967561454348863561353187902263184480753221610005900568208427627048727478272.000000 14836872266839032487876359472339508191572035806432179985294035451893314855130325991346740184269979648.000000 0.000000
0.000000 0.000000 0.000000
39642392487079465152503896027214985903012651163226385430611485862759571508982887568488149562113640103936.000000 -16118810518209729509735366895611106619494279391134974461701220558399537037967789595925490918476824444928.000000 0.000000
-16118810518209729509735366895611106619494279391134974461701220558399537037967789595925490918476824444928.000000 4153336425926816821068957962562238425129932704692236631706557417008831570532781664162029138741070659584.000000 0.000000
0.000000 0.000000 0.000000
-40623567307669069052555429222550293269124427548668871592441125556275614522902480263668061501138619334656.000000 28904190844548422148666551934881492809253784693738600970175937421466950582886802893826761416842399449088.000000 0.000000
28904190844548422148666551934881492809253784693738600970175937421466950582886802893826761416842399449088.000000 15883495947177295763437097279550902585419978903444285432582505711229981100369109644722798160723140673536.000000 0.000000
0.000000 0.000000 0.000000
-38018519756376229365421258586109086400348585462613329125905242370210414358796357608155506248845390512128.000000 -17676724857816610717389327784489681970810875501840244163379214656131888328784758434368028743607976460288.000000 0.000000
-17676724857816610717389327784489681970810875501840244163379214656131888328784758434368028743607976460288.000000 8854300216635731258592139441770111574560171086150663186373650669092276230848333814747258066667311202304.000000 0.000000
0.000000 0.000000 0.000000
76106012327759681793891024875870606243470608766295981409583897415473205488714248911987964674700214272.000000 28416499737339746034386145857293181019894506770872492751435900587280182103979485442535002054376554496.000000 0.000000
28416499737339746034386145857293181019894506770872492751435900587280182103979485442535002054376554496.000000 6489502134812580595411236174274981924459625909535223648028441250376991831727050218209770561769308160.000000 0.000000
0.000000 0.000000 0.000000
250274538895735912926161070427460807890772564948922074764037397960271235251927836598595908758331719680.000000 196322271484544982265084621262013188246998141724489783075237402666224416371051681970417689380186488832.000000 0.000000
196322271484544982265084621262013188246998141724489783075237402666224416371051681970417689380186488832.000000 74366647686057718496342556410946282126430514860535552598524174618172292009153224889191613311005753344.000000 0.000000
0.000000 0.000000 0.000000
-26018281274921932604931820339328832997436537228324783697226369992855667560287147445735053192830134517760.000000 -835023280942617525555883275741202229857144783545806063262989814558083387704651665685299613923379511296.000000 0.000000
-835023280942617525555883275741202229857144783545806063262989814558083387704651665685299613923379511296.000000 123178015974492963840633486401091910875953815402579616855159568301484623545203396816534038723570958336.000000 0.000000
0.000000 0.000000 0.000000
1980217098481933400224314770335459532581522318512978914582084541656206192575840767930411665685481521152.000000 -1089965367958344496342754971637241891186340679220539369057516943409307651985527952391825093873364893696.000000 0.000000
-1089965367958344496342754971637241891186340679220539369057516943409307651985527952391825093873364893696.000000 334181051000340986032195784202764666715119128905877021683500640176559007919825111158135398967350919168.000000 0.000000
0.000000 0.000000 0.000000
5122475271384757475229143380966300904379642425140054176920075928398168366983576478686538998463430918144.000000 -3840417690140642586462529306799185251174926344431801496403112461022287493018550709289536178129496702976.000000 0.000000
-3840417690140642586462529306799185251174926344431801496403112461022287493018550709289536178129496702976.000000 1423449794122404160796223581276908606410270052406220840288857164603806453918670072238591127486705172480.000000 0.000000
0.000000 0.000000 0.000000
10074399707870087730615613131908528126724913071833647697414201065736546897752107198235068031393387773952.000000 16445030870218786378506280409438785226020529700787412028242257731595426969108606633023896730224025403392.000000 0.000000
16445030870218786378506280409438785226020529700787412028242257731595426969108606633023896730224025403392.000000 7946285408842420330399559664193369103934864250094198288302792174056370679322668926659945969077331165184.000000 0.000000
0.000000 0.000000 0.000000
39630332310203728077877010416529192212898941826133962819457267674878073674443616934475186882989801865216.000000 -1336317715202938188141104532362963466079873455069272773595930151949172213624664325289887512308584808448.000000 0.000000
-1336317715202938188141104532362963466079873455069272773595930151949172213624664325289887512308584808448.000000 30818158277593406973402384214732230931736963986599956167687913245303249685776621728303278669734871040.000000 0.000000
0.000000 0.000000 0.000000
-150940432443627844346975262730336794166092262549277199517397614533373146943509047490919247921413951062016.000000 -28487404586716764258174932458806855300932769369950722073662296051455092957600429590030332618465880309760.000000 0.000000
-28487404586716764258174932458806855300932769369950722073662296051455092957600429590030332618465880309760.000000 9131644521898617805553277657382360186092309757839863244189970763274010142488539435041295527427543400448.000000 0.000000
0.000000 0.000000 0.000000
-19200633607746528425480037132798048967907260623169837786472119935577985979139252011235728151281596891136.000000 24614003433135551549070996354865895738666289118829095927053987730899437126156967125707620773222609321984.000000 0.000000
24614003433135551549070996354865895738666289118829095927053987730899437126156967125707620773222609321984.000000 14614910829430332082061231990309632876159152541733405749401866834469267705745974621836088295329351335936.000000 0.000000
0.000000 0.000000 0.000000
10648039976512346187467318668649560828614557402751715668552100522346066900453566778659906422319349760.000000 -362556907234795993837125770286593862002553074415946922752266913845854295664348924105498314631727284224.000000 0.000000
-362556907234795993837125770286593862002553074415946922752266913845854295664348924105498314631727284224.000000 201869722246914520588914936649569649553827115640403678783161535983093084559912768707741569197994409984.000000 0.000000
0.000000 0.000000 0.000000
-2789460916162539302718145143397877674475465037154824864987780275386918230618126408659482100932785733632.000000 4744086810499758218931220188059308347027896562730447546434325304577536614911544515871193883660215386112.000000 0.000000
4744086810499758218931220188059308347027896562730447546434325304577536614911544515871193883660215386112.000000 2738169957290205997384303184751947778990402763537778030077040718710725728940210200434129653785583157248.000000 0.000000
0.000000 0.000000 0.000000
3406607021825998085215442605135642084452951732306140000485155225866065397973162629528609613217653587968.000000 -2238277971829827394739271913620908757443529213250396897820643876271409631244408578118035237546915528704.000000 0.000000
-2238277971829827394739271913620908757443529213250396897820643876271409631244408578118035237546915528704.000000 827941227333739594047376785911157320663295830853295435210395301486018652566964714061827685587135496192.000000 0.000000
0.000000 0.000000 0.000000
-69320673077763362366289482897709063333557298568535102230048157116199167005744700604959440463082261839872.000000 -32720765874209384948605348360907689923611849361371428262047844939868313040158974126164045724563068157952.000000 0.000000
-32720765874209384948605348360907689923611849361371428262047844939868313040158974126164045724563068157952.000000 16463487510050203530006015002880626092168016623021969323052991448914187361535031921094702713656804638720.000000 0.000000
0.000000 0.000000 0.000000
48287624183702905019369415314805165557382412291988325150540054913772563823824601551767131980015008219136.000000 47530739829024482713655691119273789065032818268563279170016453766434821117779638283868132249605945425920.000000 0.000000
47530739829024482713655691119273789065032818268563279170016453766434821117779638283868132249605945425920.000000 20300466956166615353779151587107965660380371431669471313351340161725835399736395324500150739080503623680.000000 0.000000
0.000000 0.000000 0.000000
-55904362519476466548912978612237646127887389564918203980881736931352825243147029289164626647476233830400.000000 -9992111570235847716294254667011583977661360105944927993720920150049543062245502430032802899579539292160.000000 0.000000
-9992111570235847716294254667011583977661360105944927993720920150049543062245502430032802899579539292160.000000 3138833446575608574076481183844827953621492440229704403135837236978252814866234777377786452974743060480.000000 0.000000
0.000000 0.000000 0.000000
-1974890687307639477130036982479760047135584590958846842699134117174050132806233184646286675978592714752.000000 -2071047271053911681902702162498519828805838271660135243078895455716520895753506312091126900820816166912.000000 0.000000
-2071047271053911681902702162498519828805838271660135243078895455716520895753506312091126900820816166912.000000 1187144460371035880515312462162297580065427731454517548603521812562739418790333333800958701199943532544.000000 0.000000
0.000000 0.000000 0.000000
4300412773607984573442199972677743623169843299233807829174349599255590014712051911798621036951522770944.000000 -242859841095438042958960336412213017579386021011044516048140400811135414177708513035920948559253340160.000000 0.000000
-242859841095438042958960336412213017579386021011044516048140400811135414177708513035920948559253340160.000000 9397028183721027052982001131379931195994356081121894456912821265309270701940041225081020698029195264.000000 0.000000
0.000000 0.000000 0.000000
1489058452504908642689585519054053634002157501933052272553391266215178070709001215646797244250399440896.000000 21675671880785356190737922219778011917116562878606160068769017600793086812918366966234677228861894164480.000000 0.000000
21675671880785356190737922219778011917116562878606160068769017600793086812918366966234677228861894164480.000000 11929006417229142438657159147197195877188273001442945431279608393787180160844118647839681290027713691648.000000 0.000000
0.000000 0.000000 0.000000
1194061028589886757767595489418641816729552682367558641250195671681032307833378703401449032779472830464.000000 2792088352857873852698641531951275429687208122223785169132334630028653478739333289059162488742292226048.000000 0.000000
2792088352857873852698641531951275429687208122223785169132334630028653478739333289059162488742292226048.000000 843034335930497299736078653964097855348310498940370642401405551536495234859329011295903053375466373120.000000 0.000000
0.000000 0.000000 0.000000
-9074477530686456920110542039516784559284274736263653690388175981558496741854795485156131358358068264960.000000 4014921845394664586488318301721947366524027014155102684823031453054489027477001303079730879756702318592.000000 0.000000
4014921845394664586488318301721947366524027014155102684823031453054489027477001303079730879756702318592.000000 1942249296530229401380829470075736995160577946061727561523997821009889659611956551847400743569830445056.000000 0.000000
0.000000 0.000000 0.000000
870745725502954954919055102881468238883309357526913803564496501195982095476842987296972244911212462080.000000 -1112222826420643220087129123660710863235165150621199560789758638380995009742519061476464327791755657216.000000 0.000000
-1112222826420643220087129123660710863235165150621199560789758638380995009742519061476464327791755657216.000000 1105938307655133726827304488679014726740617786551430285470951788343700598842293081364094606020813258752.000000 0.000000
0.000000 0.000000 0.000000
10356552181899835542890089529629789630019004998165099744475385123650181766446507888719821448680864481280.000000 15847800260977681279317186463376985632917162596673617635909986214665869775761857087122791387702665150464.000000 0.000000
15847800260977681279317186463376985632917162596673617635909986214665869775761857087122791387702665150464.000000 8320248772282529692056187812217647826772409922775597002151894168341498217370061335825876973911602626560.000000 0.000000
0.000000 0.000000 0.000000
-58314319130111967822711831168876043267979059732737707104968557738753447245150552677915138332661548843008.000000 14298836995514151406678761954653262414207375402065573778920012289113278069615666227679523707237406081024.000000 0.000000
14298836995514151406678761954653262414207375402065573778920012289113278069615666227679523707237406081024.000000 5394508065073646465310429970222854052691006879011120312635080357957418141024834371484777164575707496448.000000 0.000000
0.000000 0.000000 0.000000
-12429156813663482217939630018920509384491706333925994537032546709267032531229974546422606350891781980160.000000 -1414716166911734046250534493358084551889633501641826827709195980721294312932784780413680578752294158336.000000 0.000000
-1414716166911734046250534493358084551889633501641826827709195980721294312932784780413680578752294158336.000000 231975531776921076584722694361681879157442566057893958940463070023658097148573846879846011803743027200.000000 0.000000
0.000000 0.000000 0.000000
3869638351752387395901425837094023761719164288187282012855641185266489642333256073391886101530001014784.000000 2284007972839555722637523167199388726030367872477308745320034094092080217715754978654168693316488527872.000000 0.000000
2284007972839555722637523167199388726030367872477308745320034094092080217715754978654168693316488527872.000000 659863007539660058082217147165317804736877437856201138686528718136917437770718569952789684923748319232.000000 0.000000
0.000000 0.000000 0.000000
427519155335979686424528661073719474640806708581289548844477442918608409277741231764472170240778002497536.000000 -487763969446926445339588816335299319815310110935957355729170610745179181482366190697834096950253228916736.000000 0.000000
-487763969446926445339588816335299319815310110935957355729170610745179181482366190697834096950253228916736.000000 215401915909765137777013235965270465385751971538026133626713246366800038706505355572387463670788400349184.000000 0.000000
0.000000 0.000000 0.000000
-5308357294113773676625284464330989281148648523077811250353139325322277024744921532210569405304609439744.000000 -7228243202637851501232455956627279336473439688317008345550911152596914741616641378842411045151064457216.000000 0.000000
-7228243202637851501232455956627279336473439688317008345550911152596914741616641378842411045151064457216.000000 4630924864462845811534772233613829620008393320615950749417863801877902615074540746884484773443232858112.000000 0.000000
0.000000 0.000000 0.000000
2628555309719077278325867002571332527354238345634017863063207624514131604205903782966012204315479900160.000000 605152099528804373624661585047552672800032490944108827444681074533172288649421029780294005500145565696.000000 0.000000
605152099528804373624661585047552672800032490944108827444681074533172288649421029780294005500145565696.000000 89704556008893637207061554561492019266864857416231028499227988072600963989482315928492486050428485632.000000 0.000000
0.000000 0.000000 0.000000
-79527894886244608220258345338012084183941114568853705741064451741166798787409216197842629150285271924736.000000 18418803564977436465950674559481000105636339717797733966104943546551711498396611987151786838980600791040.000000 0.000000
18418803564977436465950674559481000105636339717797733966104943546551711498396611987151786838980600791040.000000 6548750132303310287533679066897912396067478590023067375030537538779553706730401033066400035280714203136.000000 0.000000
0.000000 0.000000 0.000000
3116728592261311540002121766384734761351194999028120824114028743282923241029893079808335708812214272000.000000 -5700315762331055420603237025590896076687464005164794959320228040470680520132881491565350273673622192128.000000 0.000000
-5700315762331055420603237025590896076687464005164794959320228040470680520132881491565350273673622192128.000000 2811021303346017497178780204494997910530400985688277990566428645430198511764673848139827919990525263872.000000 0.000000
0.000000 0.000000 0.000000
4627447444196899210047413032209843869800159439331608611271429528033824265928063244738534720539486846976.000000 104276514941234143703089302483731584561611565507792286619040327194905184938138605459582560240010465902592.000000 0.000000
104276514941234143703089302483731584561611565507792286619040327194905184938138605459582560240010465902592.000000 57550251718093661003188487156126303479085308969873275273587090078248993069633124895764801397682482446336.000000 0.000000
0.000000 0.000000 0.000000
7723013975391616749200288239644251517673700976177406316059173267288830442602588980294027765759545966592.000000 8603886955623865106090709072129190128007152589113801591439341480581538830124761063345207100153995984896.000000 0.000000
8603886955623865106090709072129190128007152589113801591439341480581538830124761063345207100153995984896.000000 3769824880702965194064832590656587754723650141382302801959723894629219851295876904013219865231380971520.000000 0.000000
0.000000 0.000000 0.000000
9754531168054977439993540096991975869032673101736456201020551748186901808971097619035132831745668284416.000000 6557867948409662196167362971256781977585897022112652181750662107660626260640036942870091035784507293696.000000 0.000000
6557867948409662196167362971256781977585897022112652181750662107660626260640036942870091035784507293696.000000 2646027787740413461771228628879272198999201537266273236419578348276941366974872191492094790033892966400.000000 0.000000
0.000000 0.000000 0.000000
17920052062985632555682153896644987952451254428973657030259598837957501896429438111762900308776760377344.000000 -26596244210110505290314413927650026469494449951074647246371102145519725592968801583713965209842083692544.000000 0.000000
-26596244210110505290314413927650026469494449951074647246371102145519725592968801583713965209842083692544.000000 12601498966332017402099724579917666127332538329070098471848936127951939946618617227855370056615340277760.000000 0.000000
0.000000 0.000000 0.000000
6155849790384325734715064013299883170484631588821783952881677354487474306138072646806238908966122815488.000000 -2758867901229524059026367950324994718601933420649454603722915182968925742464338613426749627798384541696.000000 0.000000
-2758867901229524059026367950324994718601933420649454603722915182968925742464338613426749627798384541696.000000 1020276822590701872091406370451918385030809930957296830568153950507712001377751367739369586000671014912.000000 0.000000
0.000000 0.000000 0.000000
-2257534252880078246748277283487929207218116474224447766629261747924327384121218716590183951588728504320.000000 -1267924922790262127576375746628566869244568836210491594491774310676615017769561827923766207349354659840.000000 0.000000
-1267924922790262127576375746628566869244568836210491594491774310676615017769561827923766207349354659840.000000 667260137337547296317321315893044755322394892448719594377337660159787525239912667553868475522757951488.000000 0.000000
0.000000 0.000000 0.000000
22966264210330727186342426173927444880685328118047169682542100212236868506574535323898127240230571343872.000000 -23737524912498258174592908837144945501864048345724685200762779737358378827739101102172778126036164411392.000000 0.000000
-23737524912498258174592908837144945501864048345724685200762779737358378827739101102172778126036164411392.000000 10368764335399907104500201841250485120154204845701263984712550686172645894581878012574612938914709635072.000000 0.000000
0.000000 0.000000 0.000000
77230841617526158530712937087331131876512408160762630345277794970686770964038326596184133171211665408.000000 75761935307440443554005154866192318956239530677317737474483834535641684432390453936865432032916799488.000000 0.000000
75761935307440443554005154866192318956239530677317737474483834535641684432390453936865432032916799488.000000 31712022324490010965367490294415103201669718323040538809778164563040369597165524001043499637551398912.000000 0.000000
0.000000 0.000000 0.000000
-30383722361431154563455062209677815401074871794244464083580593425701339543557122337188155767158397206528.000000 -13619507920208689737598161795094071111691690114099259652177887794827515492938615610091762425131840831488.000000 0.000000
-13619507920208689737598161795094071111691690114099259652177887794827515492938615610091762425131840831488.000000 6907495945111599245045419392057167798003394240402240493914151426496419136442325781425365836591058124800.000000 0.000000
0.000000 0.000000 0.000000
-9059464497939705748887161018730593306694109561992830626248096454350348111837416337190932828816624582656.000000 1374108051450334803679974170904209739853347800683652529596610103009610372125691146759930450796733267968.000000 0.000000
1374108051450334803679974170904209739853347800683652529596610103009610372125691146759930450796733267968.000000 369612186776315086329791603507555864141116784077426418611448049622940967585392387692892197900922126336.000000 0.000000
0.000000 0.000000 0.000000
524339077001820937819693620149795125132457345408486858796065792236700153650149127524066115048312955469824.000000 437825984867722622626736101894659836733544229159125243860833889547631186991545666416370172825557509603328.000000 0.000000
437825984867722622626736101894659836733544229159125243860833889547631186991545666416370172825557509603328.000000 170976988275639327610968125801272603568619591038826920420693780172059487192783845876736717547185008279552.000000 0.000000
0.000000 0.000000 0.000000
12476579882736702619026983809064407815918724120428308613830073100752265968494974959034311019028319043584.000000 -35217356775534880204063495107590929303788939433934322178712587282877128012501898999657759281205794045952.000000 0.000000
-35217356775534880204063495107590929303788939433934322178712587282877128012501898999657759281205794045952.000000 18298743506085368206561445527652926286116222245548109227434590511589871009846940795641441400366345224192.000000 0.000000
0.000000 0.000000 0.000000
1755333984003715944535536510780287568971983727196186966974807133767935540320668803668812563586238906368.000000 -204063937076534588780662654892239819850075158519972590362716370506775319199410462570981019654440353792.000000 0.000000
-204063937076534588780662654892239819850075158519972590362716370506775319199410462570981019654440353792.000000 213085295863102892525186163991788765016984067973849543390525568921894810728862335265430815142962003968.000000 0.000000
0.000000 0.000000 0.000000
1040708836509433648834665250747317330028782556681945637215735362827834234689308839236105034904662704128.000000 -2467084614038975371846798386081468812474688706921151065009593842274225991973660319999200759298817785856.000000 0.000000
-2467084614038975371846798386081468812474688706921151065009593842274225991973660319999200759298817785856.000000 1278583983981668903525358528574285371693861564672197248889871469927203175332721575164100638001487413248.000000 0.000000
0.000000 0.000000 0.000000
583313489912144961216977304904867474008303897783588705845382583652834091064695492401860140095642796032.000000 224278344112784376513538388878811871120345735008120652058266252372176086008710016251836455359290015744.000000 0.000000
224278344112784376513538388878811871120345735008120652058266252372176086008710016251836455359290015744.000000 52360712391895929195059680856122553862358075550849783144073232534848233464728540739726637718050963456.000000 0.000000
0.000000 0.000000 0.000000
-85053369691547469037784997909787423561299810947146598917508279100317646535265281258113415981322731520.000000 -27271965579242663127478866604075347420763341602559734650810635311041262375733397454613155464968404992.000000 0.000000
-27271965579242663127478866604075347420763341602559734650810635311041262375733397454613155464968404992.000000 11865898487664089418324708226402881939303045742948690001791824980727851833966510485362331125572173824.000000 0.000000
0.000000 0.000000 0.000000
-1128463255987218104951393262869472694179062293581258663290599854846319834661045445485626898842719879168.000000 761648194707328563202334483647977954124503508941617502355330039279632540592142310043256633506467414016.000000 0.000000
761648194707328563202334483647977954124503508941617502355330039279632540592142310043256633506467414016.000000 415178121763763780367867096410229012576277753126153663425783526374826026915345549193237304135823392768.000000 0.000000
0.000000 0.000000 0.000000
-2386670840160428014459253256034617215676960039399171344598716204246066559187611560126171613723811936154419200.000000 1063639229247133280755086909881051402876471537664152305897299799624274024950719868503456434632644739727360.000000 0.000000
1063639229247133280755086909881051402876471537664152305897299799624274024950719868503456434632644739727360.000000 947836859541453118467790633801091651417112750195145694127408215148106445859631403978413328417540800512.000000 0.000000
0.000000 0.000000 0.000000
-71317688754069851609437170571781072101269964365861756175216039648817156497164616004270126844814032896.000000 114615943252947463834162742722322919751234210611981421188860759651058191789279966336733070391051812864.000000 0.000000
114615943252947463834162742722322919751234210611981421188860759651058191789279966336733070391051812864.000000 66139726782845621744790329902698332295153641607736362814802213605389004208094301746840166430706499584.000000 0.000000
0.000000 0.000000 0.000000
-7134226073327482465809443419698667393482121263440059920903517181406376892964928826141827528821881962496.000000 4832339170488179155358243423323032663298627309066650694911457143413969946086641260265444476274387976192.000000 0.000000
4832339170488179155358243423323032663298627309066650694911457143413969946086641260265444476274387976192.000000 5049071046621781703478655449414072803426088510152681026757873521277896333444484077811414944610462466048.000000 0.000000
0.000000 0.000000 0.000000
-92688219036631753615152999602642695948740397493900072556483980172058554843458377002385313382493239377920.000000 -32701486237102454994003390827457722074744210834064192602329633201169999290305759874978780613214658887680.000000 0.000000
-32701486237102454994003390827457722074744210834064192602329633201169999290305759874978780613214658887680.000000 15109366412809259701134712557920434366158850602350323877083557183648901122547775980410950135770723123200.000000 0.000000
0.000000 0.000000 0.000000
-12493916860791122134704866840549828620015918243219732438117638282996959640214011042257321377046428909568.000000 -7940617046291122077715261909558894609269528136867937804369058836311509113258261241065139281445955567616.000000 0.000000
-7940617046291122077715261909558894609269528136867937804369058836311509113258261241065139281445955567616.000000 4264382616983732184767316484473584051228037521671971906048587872668365115523917800847717552717381500928.000000 0.000000
0.000000 0.000000 0.000000
-10155128451498198707628524874323608325103609483621386175121557588858945146977413242514952693070530871296.000000 7795388264077058729588295586491423249442922617272053900489873848442513643142164261758702600324632281088.000000 0.000000
7795388264077058729588295586491423249442922617272053900489873848442513643142164261758702600324632281088.000000 4416133313029950737506009382995854458474322915023660568777131966434026481386037437809699857888559759360.000000 0.000000
0.000000 0.000000 0.000000
3047177470717255244097243729091034487423772980817288817174845610771071628361697933960584450552908218368.000000 6442670311607529437225764297142803031485473161848633108681797412374970369741072784869763607681298333696.000000 0.000000
6442670311607529437225764297142803031485473161848633108681797412374970369741072784869763607681298333696.000000 3245392620790076122984290522833870061914252463060400037464394348142796879551647314708383913721999654912.000000 0.000000
0.000000 0.000000 0.000000
-5875653430353533134922293477360290388375080971927813717316450729296701929612824218093461418092701679616.000000 -2328223249408147696080792465435501036866772015679047503680916228831585883076246306229629383085154893824.000000 0.000000
-2328223249408147696080792465435501036866772015679047503680916228831585883076246306229629383085154893824.000000 1104466591312229248407447221919794896873357316895669701108919448206617908710391131402075124067041542144.000000 0.000000
0.000000 0.000000 0.000000
-120515901610671904195498030194000480185305135208683976884723570223787604895668625074619001864869262655488.000000 -40193640410276532030599144198943882316329932045594423066689008740781418996881974429522835954140717252608.000000 0.000000
-40193640410276532030599144198943882316329932045594423066689008740781418996881974429522835954140717252608.000000 17670240038911636349510803050979864480729709187972019349108108533890693084707664124584031262091962744832.000000 0.000000
0.000000 0.000000 0.000000
-10680059905256549474007949190254965461019616548584412995442546745770580827949422063844937640968309440512.000000 -31781824924385952590876017714496107939450709018811656892225054633964205591028237938661023101752501600256.000000 0.000000
-31781824924385952590876017714496107939450709018811656892225054633964205591028237938661023101752501600256.000000 18346527315470676520280407641174773496613555002426477268898686200018268430523555035362784953713490395136.000000 0.000000
0.000000 0.000000 0.000000
-19323200102152489694313370434589986232747141311527843588309950070222448060530954504941228910805254144.000000 -1449450010677343646831066114088559119888254429825067244145413766403247466099352901370482554101022326784.000000 0.000000
-1449450010677343646831066114088559119888254429825067244145413766403247466099352901370482554101022326784.000000 807541377545850986829003543891555568393077147636657753672154312358588840196932046124128985578016342016.000000 0.000000
0.000000 0.000000 0.000000
23263391795483415073594297791518091754443682760008450050953869523245069375910465660633560299981219299328.000000 -4710636104673196941320031488583026499699543201592626723854555679418244821870766164061113204630848798720.000000 0.000000
-4710636104673196941320031488583026499699543201592626723854555679418244821870766164061113204630848798720.000000 2627955984625464774688304879186826735397980468326171579164381747953797681927481734741257221168947003392.000000 0.000000
0.000000 0.000000 0.000000
5303116074702691968424253097089248694632125544948757587741025834763252744672248877443455160270312177664.000000 -4620796334307188156203019558642938548527328814065224071382932368716990520095131914059023264231955890176.000000 0.000000
-4620796334307188156203019558642938548527328814065224071382932368716990520095131914059023264231955890176.000000 1840359076082863362139985159607646560419033482304956134256954803555483257278722229709184901455959556096.000000 0.000000
0.000000 0.000000 0.000000
1579784249090968926118603327957747290140632450367583072780806245184259261899978317236058278204975087616.000000 526973211760501389470035045471613592057260827934470603983478237626433739268585986863301557259042029568.000000 0.000000
526973211760501389470035045471613592057260827934470603983478237626433739268585986863301557259042029568.000000 109424052711319993547165194641600874884074283625309000426005909843149769574710839586274743754726309888.000000 0.000000
0.000000 0.000000 0.000000
3053445671080002910088542077694105826288946284629118393338806273744693737009648564417234278809147015168.000000 467757244044877393428617395579715763870153181717526251831376300458064066527556416797121727096957173760.000000 0.000000
467757244044877393428617395579715763870153181717526251831376300458064066527556416797121727096957173760.000000 47944878663808994698878762821985665828731881058812960571506977828703821856585508436792576081632690176.000000 0.000000
0.000000 0.000000 0.000000
11113093973450005516864880796041093631952159781902351330117825188298526168351374305836650588734568267776.000000 -11080775194827988807066791498005694675573537673278434049567805361095014216218194635128995311776333561856.000000 0.000000
-11080775194827988807066791498005694675573537673278434049567805361095014216218194635128995311776333561856.000000 4854163164640738605165169475055031561921686045729248671156962750496166377301745431148671986764265553920.000000 0.000000
0.000000 0.000000 0.000000
-3663090122300267085562532011667962642683128477445032381876054130137813772783613899649514091679903121408.000000 1007395584541399634728619137501126670635746065720143601836299570962139368196106721468813741931578261504.000000 0.000000
1007395584541399634728619137501126670635746065720143601836299570962139368196106721468813741931578261504.000000 161940253719498689856914119986345587036125450881296561850858685798591372357717177276285839119396896768.000000 0.000000
0.000000 0.000000 0.000000
-90003225833660307698998756040734054906243900642404367946263382336477134665300192968235167774198670032896.000000 36462920901877962600897454648256345760167723078125437620665580120179687675984856649384060990497033814016.000000 0.000000
36462920901877962600897454648256345760167723078125437620665580120179687675984856649384060990497033814016.000000 21050482122125384358876825429273405640968280128911407625890309818454391168794732669398501875222361145344.000000 0.000000
0.000000 0.000000 0.000000
7872825287645331374635810918345134241112075842401105641483948928665016151428337179929323515569699291136.000000 -5880126239263217831620294422282550726978673464568065759297339855775269412105268430685207328020479606784.000000 0.000000
-5880126239263217831620294422282550726978673464568065759297339855775269412105268430685207328020479606784.000000 2491721265930195958727110811216676344598157795087351034917508180969039592643165084653390197862533431296.000000 0.000000
0.000000 0.000000 0.000000
250075373591002933691512432289044804429657475341725509379069295025370633482445578004708676986086621184.000000 86502898444209289646720080055946186262387338002123141024833636421995214387806514584125860709629165568.000000 0.000000
86502898444209289646720080055946186262387338002123141024833636421995214387806514584125860709629165568.000000 18483342027216737453660282550434021665869258264451730514111605100646615477681616106585516483322839040.000000 0.000000
0.000000 0.000000 0.000000
-62793279365149733646298401928637898547345575455409364182149375210276254251844931380893899182552662409216.000000 -79769669892770345586858348429013957038081214323197239105706199690994329147098493232079796164963803856896.000000 0.000000
-79769669892770345586858348429013957038081214323197239105706199690994329147098493232079796164963803856896.000000 45808483476797901840194101333932784093321702320010502834995236946174635719702060841886358959642640384000.000000 0.000000
0.000000 0.000000 0.000000
10718376129437377648721057277138761274653571550426786816051441951648713839862739779015160792297200680960.000000 -17146974135772784494801631495534950061117118285135471445595557371017316026393196697577030936093939204096.000000 0.000000
-17146974135772784494801631495534950061117118285135471445595557371017316026393196697577030936093939204096.000000 8253800427021213830193914090714518564391294533621994976181685117554060172371473532438283068440806686720.000000 0.000000
0.000000 0.000000 0.000000
5505323815039923744861333236290441848829879156835836269566476844988035608100387319458369708083753517056.000000 6135986400023583185109196947483504416133117006760931490491380178967404892263729862153494389547333582848.000000 0.000000
6135986400023583185109196947483504416133117006760931490491380178967404892263729862153494389547333582848.000000 3066345202036224922446500272132324439607310765033092858358029323962345389996404288180626018000078635008.000000 0.000000
0.000000 0.000000 0.000000
55876684516903533101271361013270475066022328133447667292850648252541194122534210036509332044782218772480.000000 42344073471915887941577898981544827799225632774517202641274043554020790355635558841304857477944415617024.000000 0.000000
42344073471915887941577898981544827799225632774517202641274043554020790355635558841304857477944415617024.000000 15757884772504043101006026300593742991748586275847233190123350645251039685119766254905166336006801063936.000000 0.000000
0.000000 0.000000 0.000000
2072775534981392836403247259511258237233013400148454282788226097947272125645484925385027004493836845056.000000 -2779525400149796900898383018164655310270657918454286363106789925594954344842854049942636557147154939904.000000 0.000000
-2779525400149796900898383018164655310270657918454286363106789925594954344842854049942636557147154939904.000000 1837869310702093504024966319166982250350170354894769910527389687722074347167603901103663202121371615232.000000 0.000000
0.000000 0.000000 0.000000
3498565079131580321009465225227296185683347874040777263878291999398993905372369826028639125892543545344.000000 -348378747654062209197532931524568904707009893146846516493687093413147922089178847613200504765043179520.000000 0.000000
-348378747654062209197532931524568904707009893146846516493687093413147922089178847613200504765043179520.000000 31429551539424158736771904844778404632254251015802609140753295203622299314080193812553978971884093440.000000 0.000000
0.000000 0.000000 0.000000
86778742438809350260754369525551637358794735572754125254893312348453549359999111819040976522381885440.000000 173996401405917421488398546262836228163028939892380328050344101616638717802634125353705440439942774784.000000 0.000000
173996401405917421488398546262836228163028939892380328050344101616638717802634125353705440439942774784.000000 87012439825667244598895206891387479630940579220228373452787056236273474847789318617704909195559567360.000000 0.000000
0.000000 0.000000 0.000000
13788223392136837018827183218034196590623876227915592860931976836745009028610744379033417518242395586560.000000 2223793272149025089939875045443374334710924085282963773506293606566331483836211136580101003149941145600.000000 0.000000
2223793272149025089939875045443374334710924085282963773506293606566331483836211136580101003149941145600.000000 272030474055734977329821974575482621211978181633248521661062751813258568840387038841134982895377580032.000000 0.000000
0.000000 0.000000 0.000000
-113397463444078971695126836464276027195598712651610077204731221635239740488437014874133695594242244608.000000 61383660773371693823089816790399998883385684476784704351050760782670092146823047632812265585026007040.000000 0.000000
61383660773371693823089816790399998883385684476784704351050760782670092146823047632812265585026007040.000000 32044359908101052019091116909911928457462425903266506223015478486349635919630834577320022714676674560.000000 0.000000
0.000000 0.000000 0.000000
622878273496902710518269105689101896212137031961015754381292343456124355404950326583671980017336713216.000000 2778462271957469938810984758644376029328635476662018371329985531834290840230645584848579711443713130496.000000 0.000000
2778462271957469938810984758644376029328635476662018371329985531834290840230645584848579711443713130496.000000 1480458761817555367879769996503556257756693348276763213030571859217137892944397476462595999223364190208.000000 0.000000
0.000000 0.000000 0.000000
-589318982856472220036184155456832711032681591612611989363800196485012995028528024131831927332436705280.000000 -10764998613080206832311118840082977370725445435301899879332846249015238261406202970758326199435814502400.000000 0.000000
-10764998613080206832311118840082977370725445435301899879332846249015238261406202970758326199435814502400.000000 6065658573886720873724165445664938059251855009675009810052556319526397741660149458786687400537896255488.000000 0.000000
0.000000 0.000000 0.000000
227806384135611779236737949876174747092323134530506934870906771086568893649090211646816987842508790693888.000000 56443159174030568879845085595875124522257666903505080391882439220408445940139966364673640855402738352128.000000 0.000000
56443159174030568879845085595875124522257666903505080391882439220408445940139966364673640855402738352128.000000 9013965906248801322299684119969956506264211888921772673279125077861934252314162575749986888070933250048.000000 0.000000
0.000000 0.000000 0.000000
2236522934402371670215947007601411858543383251206704762529012430565216478353740934391602369284840357888.000000 2485806082179894311941833202068420633434687534542459594767781734991679025414491910116153308898683518976.000000 0.000000
2485806082179894311941833202068420633434687534542459594767781734991679025414491910116153308898683518976.000000 1284089020861707112175056975797912980950055192950640255556043923581098716900584073384399730830376697856.000000 0.000000
0.000000 0.000000 0.000000
83011943522314432892620402918808137723833506691363817467115210235712951400190260846821339699875938304.000000 -31874405157605069513242401914123769268224517085135290801538681009286274278615078617494078475716263936.000000 0.000000
-31874405157605069513242401914123769268224517085135290801538681009286274278615078617494078475716263936.000000 7512194633339466981320038762599102516601532282071096442198694448310689250095730983234083482324959232.000000 0.000000
0.000000 0.000000 0.000000
4008964637494526715018383465218352019287947458071926355760903132657397582138911075262804624352825311232.000000 -19770853198678253794032215697335381434955522020662681009387210051366028978660238216109516799308266995712.000000 0.000000
-19770853198678253794032215697335381434955522020662681009387210051366028978660238216109516799308266995712.000000 10611817240676589857838665744518325615713207462565450497579369624855387634900902319328938450954271850496.000000 0.000000
0.000000 0.000000 0.000000
-18687448459856126170006042695454225154303263643755245898385794264538665092528364828858294842411754455040.000000 18485155590829157433093076596452962130227074889483392200225336353960628504113067247619926888744224817152.000000 0.000000
18485155590829157433093076596452962130227074889483392200225336353960628504113067247619926888744224817152.000000 10333467320186444078170160958676733793101585044995258694863371113611188920857469002949061403730629361664.000000 0.000000
0.000000 0.000000 0.000000
-5868457116337394931609336106055892269911685414722403471768333791427057013864726347336048746000631726080.000000 6436671635650736327867182242585647420213006395258840081382930920339160022315283078645537202541344849920.000000 0.000000
6436671635650736327867182242585647420213006395258840081382930920339160022315283078645537202541344849920.000000 3677739806275944895945895547974495724128994571874531223746114174691768271119256877402172083383258054656.000000 0.000000
0.000000 0.000000 0.000000
3286281375739334914124169440215723503715313926250811178397495124506572312430124177296978769419188568064.000000 8287123903129062718900851928506656758023393917626935631128664943064679576194440515214312364762388758528.000000 0.000000
8287123903129062718900851928506656758023393917626935631128664943064679576194440515214312364762388758528.000000 5212779288429590997071050270964302029466859692737057499055189528057826383368129608521229864838153371648.000000 0.000000
0.000000 0.000000 0.000000
129360224247140242109955480008733571690077715457519824818307314794065573504847507276014533155487744.000000 -186976282502284230206173768824792579306185331091576361931596752609939260942723485960706579754909696.000000 0.000000
-186976282502284230206173768824792579306185331091576361931596752609939260942723485960706579754909696.000000 88041358752530714277856267006535656320250294685254921868365972459727486726141051170980969844834304.000000 0.000000
0.000000 0.000000 0.000000
-1780249229624151128470513455560271711788910455527746178193017539420212519380539616496016740210062655488.000000 2514071534449591343776925801743535287016617546854328598079948431997489764527876883294638624568617467904.000000 0.000000
2514071534449591343776925801743535287016617546854328598079948431997489764527876883294638624568617467904.000000 1448923679499567603150890654128507598405868960922356786137912861866537972555438606477027136198999539712.000000 0.000000
0.000000 0.000000 0.000000
1039988542807104009542550794236803735490785868230959590722566460328815606642147542892522875007933612032.000000 10444211888014452954814453164373879561049776102754777596127900908845665973102323884582128746312776024064.000000 0.000000
10444211888014452954814453164373879561049776102754777596127900908845665973102323884582128746312776024064.000000 7122622373455418636646041539729495135108925626019319765623252133027750915191623467955873260029670850560.000000 0.000000
0.000000 0.000000 0.000000
-5922462782329938415239342420613560725464343827687668412131514850829559073847977061374700791921370988544.000000 -6981662152605978457544587538879590069219528776156858448690905044419464313559218211772015175540127301632.000000 0.000000
-6981662152605978457544587538879590069219528776156858448690905044419464313559218211772015175540127301632.000000 4004592784057777901567520216825528121739496880121354234212515000125442626515937077871737821849041502208.000000 0.000000
0.000000 0.000000 0.000000
-20498334371728384154334026715608176467104907040803824425019494290561748173067809798708996612600906121216.000000 -17885077641622234427916836161684060302823296553808573075682793776341587997763964100764378602168138072064.000000 0.000000
-17885077641622234427916836161684060302823296553808573075682793776341587997763964100764378602168138072064.000000 10066770094876627689796854259988859091754873183258518699357179862517437501622097605576138476142135869440.000000 0.000000
0.000000 0.000000 0.000000
11795784984118065985426224326451230121312690402114926802865288631742093948298563630051414480483046653952.000000 6385399123388342749902771483548104425631136294748223148816964883843106639400389786232655516054434349056.000000 0.000000
6385399123388342749902771483548104425631136294748223148816964883843106639400389786232655516054434349056.000000 1777947728462357927034384678254150772026983447207350855418170742770597634140994177663264174556609249280.000000 0.000000
0.000000 0.000000 0.000000
1793954153328623264952213539220146140157361234433648119404231407433722855713032528739213147830612918272.000000 1367989624553561472742735595502104800303914971102599237025503138422359198700313881132159438818881044480.000000 0.000000
1367989624553561472742735595502104800303914971102599237025503138422359198700313881132159438818881044480.000000 510752668188006213148436179279367399126686818064721135272418408774905172492316276375858741688955568128.000000 0.000000
0.000000 0.000000 0.000000
-1741646861846162876113874068552355682953582788138041390533535367621141521547435160181493759700879015936.000000 802298182591438887071940506924774317384590881057566287581747865483138348353888983277928609092277895168.000000 0.000000
802298182591438887071940506924774317384590881057566287581747865483138348353888983277928609092277895168.000000 468105970399484614508029129329295501087090844718299298162166525314100513281420389609149304653010173952.000000 0.000000
0.000000 0.000000 0.000000
-63229090040366471275139897155188903408423055015045589270375076230391799067794299353922269978173024239616.000000 -53010832616260502009697189155369603423356158736595659196113662298492748507486936495829007553952540000256.000000 0.000000
-53010832616260502009697189155369603423356158736595659196113662298492748507486936495829007553952540000256.000000 29685686036652966821242631269447428391989180739789437989176200363468878652730486225226568724628639842304.000000 0.000000
0.000000 0.000000 0.000000
9866179732893408795518274240399961455625080009712007325204625135159722107514407958932198307753812295680.000000 -25013286591151689306072514527956634977348941381514736308727962383393347330133012723148010282576510976.000000 0.000000
-25013286591151689306072514527956634977348941381514736308727962383393347330133012723148010282576510976.000000 189971188205036613978292966682391155746629248715636175902726245296543116920326312553297457393174577152.000000 0.000000
0.000000 0.000000 0.000000
-11657798331985741748793989467644685774118548547099438548201437037606802710589562205562779381088661798912.000000 2114509916745954177467931818544403169300648339750388333185945283062561859267153755826768300158369136640.000000 0.000000
2114509916745954177467931818544403169300648339750388333185945283062561859267153755826768300158369136640.000000 654277481571916062761161642603834259080576124692042298064527969094039553974929113766398586295257399296.000000 0.000000
0.000000 0.000000 0.000000
369118515249917438202462589650913135489525020728628636558591473451432121046357330489779108617218162688.000000 429066227263316174983737194025771856513988620596264070323559677946217196557147455362506797737341616128.000000 0.000000
429066227263316174983737194025771856513988620596264070323559677946217196557147455362506797737341616128.000000 222711370360064220016468016580899940203602350458752606839941271977642279029138274547174222471742095360.000000 0.000000
0.000000 0.000000 0.000000
-21053389121467384462577449233140917371890275644483788950662529181743541493113889453238809277467631550464.000000 6716060545720004829387633957124763870986744268846902567040460962511901584559548307547444767469168754688.000000 0.000000
6716060545720004829387633957124763870986744268846902567040460962511901584559548307547444767469168754688.000000 3397906680512655496661514600119523476135471717615487671749529865807885709348578714002959068961628487680.000000 0.000000
0.000000 0.000000 0.000000
3537630669345342138153031216198169889420316429045679342239092967776254272536018421555642298486021423104.000000 8062989925387376989723596707065157345794953812086367849689222030652008499207061011147662286210218328064.000000 0.000000
8062989925387376989723596707065157345794953812086367849689222030652008499207061011147662286210218328064.000000 4099794146478486455847452038355887655943079188282816647926424392878720057893023333014050339848223457280.000000 0.000000
0.000000 0.000000 0.000000
7480268665001927186662591792085210625351547609323510317370954696713527837798723651819527123536187490304.000000 2748082939463141892570860192045287410040875780683323802160603759639816772922376412400397675484982280192.000000 0.000000
2748082939463141892570860192045287410040875780683323802160603759639816772922376412400397675484982280192.000000 734795322162887137796437600199066627737047079996342520548345328757198511759934792713748555535120072704.000000 0.000000
0.000000 0.000000 0.000000
-22607039093691685093773990758966976441015652948511663760305571421243139104832946357274193255044657184768.000000 -14720259143271985598459594737059915742231952496001685126349141554463969019191348441810001544878932099072.000000 0.000000
-14720259143271985598459594737059915742231952496001685126349141554463969019191348441810001544878932099072.000000 7976891721683788019372613008929541769432167942814536316459650521421721152281048528369727610030431141888.000000 0.000000
0.000000 0.000000 0.000000
106877245804533051193501379000397060424229577951641634234731288140178571996488774224153295475196297216.000000 -6023764908411460887648711186754668907102433394846487513624545100410738262781445303025694726628216668160.000000 0.000000
-6023764908411460887648711186754668907102433394846487513624545100410738262781445303025694726628216668160.000000 4755828868564792458855504649826816599614018792060658839053049306743960606422767978689268986443087216640.000000 0.000000
0.000000 0.000000 0.000000
4004053443254805959740163450889330967179235519490651754989745296790978043594670414362679892690922897408.000000 1764730461196341493021696074955291445170640265291051262024686153504231649760782490207692101246628397056.000000 0.000000
1764730461196341493021696074955291445170640265291051262024686153504231649760782490207692101246628397056.000000 463299103581093628008790870977912433125826271366955319257006861967605954234106700196884227052951044096.000000 0.000000
0.000000 0.000000 0.000000
26756340850291418441182019717466244276245800065384322133852447622680698864913323502431898823410017370112.000000 20950285834674448776933441143304956633704573168410065823476799994617694015562710990260792766779229208576.000000 0.000000
20950285834674448776933441143304956633704573168410065823476799994617694015562710990260792766779229208576.000000 7842581083469284939764247326467828982861572390914567065634558017550681194064539192286897864878365605888.000000 0.000000
0.000000 0.000000 0.000000
-1605011658508748297224294576516408585404555686022534938305288933674604682406452351363257137909352932311040.000000 197673482063888553769199739464308183373805802955104738390354128676318452094457154909347804109876469170176.000000 0.000000
197673482063888553769199739464308183373805802955104738390354128676318452094457154909347804109876469170176.000000 45376861848547376140969226967850623741448768667899092207782675459634866679774227173030464372259132801024.000000 0.000000
0.000000 0.000000 0.000000
688431258853017553429451346295550689750104707621895965616089679253778465048821356105295672367663546368.000000 -210381339972692965835987933656603836087505350163018527885372437110735462266632042941352566543066595328.000000 0.000000
-210381339972692965835987933656603836087505350163018527885372437110735462266632042941352566543066595328.000000 80551976282642619636844676856857385255675088517782662150979422298929351809077563759683496181097299968.000000 0.000000
0.000000 0.000000 0.000000
30122598727664322759645281122036215188221262710187394082340805065138380352603183859715046062823797948416.000000 41664130967752074254251414114824932587041630245037257084866325201261314764680465634570555208701180903424.000000 0.000000
41664130967752074254251414114824932587041630245037257084866325201261314764680465634570555208701180903424.000000 20201252971542285007873036065856502961942710982078717641255712037504852508550674389952639009369966510080.000000 0.000000
0.000000 0.000000 0.000000
9696628317224689376679414608511559601287794345037432160048886531811244950273419602285706423910235373568.000000 -6200488448630816213575391076519357812703242354896032781881974988335829911759925623534525176891683373056.000000 0.000000
-6200488448630816213575391076519357812703242354896032781881974988335829911759925623534525176891683373056.000000 2095439208242441445435637964700645142438532766075086870625990084751526795768811205249435715950132330496.000000 0.000000
0.000000 0.000000 0.000000
9681165336702849725250279388433448751343585784806157684632718172086062622808945809370212354918992314368.000000 -2791011487147877500541896487192692054920529473691485607629963307701695042138737614466335030604451545088.000000 0.000000
-2791011487147877500541896487192692054920529473691485607629963307701695042138737614466335030604451545088.000000 1661907337451524835539897505578872856131552217040388371539217116392104234167757637644055733819332886528.000000 0.000000
0.000000 0.000000 0.000000
-93309977357538519374451455694715373133583838564171938564329112216127881239477817693057583292521541271552.000000 25311690565166529482904476991180755790768439938897435736117216116556707480880178975212567422152740962304.000000 0.000000
25311690565166529482904476991180755790768439938897435736117216116556707480880178975212567422152740962304.000000 10097474380166713878393247876333990121063457826209856697189656887456222737826509684301648620641438400512.000000 0.000000
0.000000 0.000000 0.000000
-120452551399148766800048300098079198104238522694095093033042909908114770526329510589558758225381163008.000000 47764646364263571182524187489028244552316670901472463560394267393954543086405596980938588211950649344.000000 0.000000
47764646364263571182524187489028244552316670901472463560394267393954543086405596980938588211950649344.000000 22813684740967181787836819586220686051225144686537981845834752521048074559460559041485679603438583808.000000 0.000000
0.000000 0.000000 0.000000
9190290909153135492663802581189001037428128168265298987931481784520598530957758028795533665922929655808.000000 3550006420972528735978342399841301557265192793057261915874119507298587505713886934571950626946334851072.000000 0.000000
3550006420972528735978342399841301557265192793057261915874119507298587505713886934571950626946334851072.000000 824509371472994038391527971845137135673529208255958358794798714015004745098385732315662223399169556480.000000 0.000000
0.000000 0.000000 0.000000
-3819601287510647252262191826126102485294664175743877163497765360051601629338490877782179147695630843904.000000 4827907016497523742845727226247658749804767667590713733241976753938143718678838424524336508470101540864.000000 0.000000
4827907016497523742845727226247658749804767667590713733241976753938143718678838424524336508470101540864.000000 2730657595098923859743910434784978013616714492222813469351272956494896759683487298195739143265891385344.000000 0.000000
0.000000 0.000000 0.000000
280322269606913748201996168959285798528781222052809940854685533899694632593046746595080907515320336384.000000 -40973937623049619912157368744648264625729972317908248058310293580689166884665137594732371611136032768.000000 0.000000
-40973937623049619912157368744648264625729972317908248058310293580689166884665137594732371611136032768.000000 4039597994132963515853084672756082611112876655175298929982939362148175599140290102376200946308874240.000000 0.000000
0.000000 0.000000 0.000000
-27438005161795381970661799619919815319297631163406709808457851672293062544041182568707168142391110533120.000000 39615785845890995860662963223880875827423667097084936749591366827592395558144906767350650917237408399360.000000 0.000000
39615785845890995860662963223880875827423667097084936749591366827592395558144906767350650917237408399360.000000 25093176830009090929974523065416688961223345157351810177077828005208412795252325717064183629673645735936.000000 0.000000
0.000000 0.000000 0.000000
-6093445425804453555501930458730906382425945083664175536053917258020955644473749043326132035252125696000.000000 6954180908240347411288323590474609574051116506505134598010480982414988576950860622783681509099592220672.000000 0.000000
6954180908240347411288323590474609574051116506505134598010480982414988576950860622783681509099592220672.000000 3900114627294581070954855625190055449802021583245309825572251897940593445021125747201817196551445938176.000000 0.000000
0.000000 0.000000 0.000000
539796936935270859850008175558257931039461164420119276084315161008136801885096522645335759232997554913280.000000 167727826766080330633649922565561953172455267457122584876445637718440128841346092388155981076154657275904.000000 0.000000
167727826766080330633649922565561953172455267457122584876445637718440128841346092388155981076154657275904.000000 32727110895213833904695253473271012819504226842589314417426234850737768841609560681365207279024870522880.000000 0.000000
0.000000 0.000000 0.000000
559528154625941270478933608146626907357366037099815907308373316395808160809631272061623050476957204480.000000 39157131878878017916101151100546706857031562232895314191392017903164415114803568490914656813374767104.000000 0.000000
39157131878878017916101151100546706857031562232895314191392017903164415114803568490914656813374767104.000000 1833265110346427959845147163278541117206819332869154757780038457483840028151181013488902341077762048.000000 0.000000
0.000000 0.000000 0.000000
4852047555625967838352557167723379860323513015565020392995759805001675619566400192680052591948197789696.000000 4229615633267611920838319833910219651669834585347524464947496944251195552073916612323143926352764207104.000000 0.000000
4229615633267611920838319833910219651669834585347524464947496944251195552073916612323143926352764207104.000000 1684865646792995285539871694459250291585113051632580450209052447692917622384672498532764452918000615424.000000 0.000000
0.000000 0.000000 0.000000
13003985763013622290499914571145364377963106499294814806019092749578640688010028367610582397798613778432.000000 -29509450176327446084080741686211981014355406996545233371689132495495600412750649544082984800951707107328.000000 0.000000
-29509450176327446084080741686211981014355406996545233371689132495495600412750649544082984800951707107328.000000 15287233485729881719704307848054939471642817678862046744208929039786610118072444181980265630648311480320.000000 0.000000
0.000000 0.000000 0.000000
4720879169021505222028930149958481794602618645448921616188337763842850725829110310119507960971277631488.000000 2345009390558705893462346131232946160961047959321441653003070460464129007968427329516148723777974304768.000000 0.000000
2345009390558705893462346131232946160961047959321441653003070460464129007968427329516148723777974304768.000000 765869924499800444641746661976501649885708714175059254282912517252347491143502694290733236803032055808.000000 0.000000
0.000000 0.000000 0.000000
-14549121333446951204654987724101547306874030465876825315537662246632347091795420357457604346597838159872.000000 -17190285472501542845352974373446279656006379312034115626243429326082637092035388494318984742773289123840.000000 0.000000
-17190285472501542845352974373446279656006379312034115626243429326082637092035388494318984742773289123840.000000 9861554468816622300209764024685035166701359560252758926792995971443066405936346218237235217385876619264.000000 0.000000
0.000000 0.000000 0.000000
4828029352817883107564304851909650790279069835512451633465256099076558585260420440549352873496735121408.000000 -1873100023758811363987659488993352275982415273693105585995171533963535219475909135537610552259559555072.000000 0.000000
-1873100023758811363987659488993352275982415273693105585995171533963535219475909135537610552259559555072.000000 444561780521557388022952955905783224980176683982340181971566078414306626740556573942575852988491890688.000000 0.000000
0.000000 0.000000 0.000000
5293122095239474573304804836246212855945152693274137399732617337589628203643077985376540842896320888832.000000 4963536930326959048297562956282849212039300746280130128640071906440708230036747702312908466949520883712.000000 0.000000
4963536930326959048297562956282849212039300746280130128640071906440708230036747702312908466949520883712.000000 2120731687435860767145348320538200254167834665877327834726113742449306868580695311222406726327709204480.000000 0.000000
0.000000 0.000000 0.000000
-214637027367647585979937878975376080005543936168548309448074660467429481873043357341293834660464295936.000000 -2147367662897821065229730382387072797756230509891376488648340309378124731021720732354857387731422543872.000000 0.000000
-2147367662897821065229730382387072797756230509891376488648340309378124731021720732354857387731422543872.000000 1208997431029476111476001565268900097080047556173499233350645753941316339725031509479973877374213160960.000000 0.000000
0.000000 0.000000 0.000000
7135775624379487864810629579694581344680864074879633159619633092894176583855225208744933320030947377152.000000 -2757981027188657133758418795165133753701112386368939753455102556281578781630813258794289569632746471424.000000 0.000000
-2757981027188657133758418795165133753701112386368939753455102556281578781630813258794289569632746471424.000000 781340624355742813018340816499565089443869296013158233809440284196383758025822486136650378880290390016.000000 0.000000
0.000000 0.000000 0.000000
-73479070939388863847907211798326550006910908959452436041636210519593397057790006297265601013639303659520.000000 -3882734485914668961489214890218238395010176204939797828661598476211512525457137538441523777876927709184.000000 0.000000
-3882734485914668961489214890218238395010176204939797828661598476211512525457137538441523777876927709184.000000 693733489950184113466526518783701593185888500559690299390707856923892329717214772981136022840834785280.000000 0.000000
0.000000 0.000000 0.000000
61933842818644135532254668467136781251051722256592967372211345660145598557707630301905834228223836160.000000 95332764223903218870251433323685271982003591577063979307054089930141017199296168115425147778676817920.000000 0.000000
95332764223903218870251433323685271982003591577063979307054089930141017199296168115425147778676817920.000000 45529299521340984302177268187696060014004255763674768783462789935385693032960006728442903791128281088.000000 0.000000
0.000000 0.000000 0.000000
-794178695318881671752171880433979339933696553364431557871203318171050071756376086532619982386099126272.000000 -53108702119094134063399692778930360159356136173138012652075278948630427817824753636008994919656980480.000000 0.000000
-53108702119094134063399692778930360159356136173138012652075278948630427817824753636008994919656980480.000000 7019185721194711067212668069856610972861621812886171774455815656459492703777617477206933842698436608.000000 0.000000
0.000000 0.000000 0.000000
-9030243194637926963284329702083521740013569699427298565790948782204126783681827352328897142034792448.000000 -3284064937024072990983405395613797904872731789585741964510564135020705822693304795105985774104594087936.000000 0.000000
-3284064937024072990983405395613797904872731789585741964510564135020705822693304795105985774104594087936.000000 1821107747706358863433888820890546910089947687514002379802943831851723107479990390039557540832450969600.000000 0.000000
0.000000 0.000000 0.000000
9004489565704081988886328747472419325644264666969421677368415395353806247820041486768512798133676146688.000000 -4525538255897662371173867518804736906243361997962971322609588525556465184936718222229531061652629225472.000000 0.000000
-4525538255897662371173867518804736906243361997962971322609588525556465184936718222229531061652629225472.000000 1301283663549723603637556240118641157638847018211174287638275422278624660587479888682515305995519918080.000000 0.000000
0.000000 0.000000 0.000000
4233854781652759336809748797509641938647684650680055562110428866254483010296991295032141839562100965376.000000 6570780708126186586670823319578477508506660874040245298337737391996654259169047834597756680925412851712.000000 0.000000
6570780708126186586670823319578477508506660874040245298337737391996654259169047834597756680925412851712.000000 3037974340261405148544430898184668782567475661024390549245736403455327341442488501694277216408453513216.000000 0.000000
0.000000 0.000000 0.000000
-12504212215220449218898579000579458861992253721113293004275510559496988147183507437506411964328061173760.000000 3070775325405608867021579632710805966919348381884445997817118311490284131348203192740303070451841630208.000000 0.000000
3070775325405608867021579632710805966919348381884445997817118311490284131348203192740303070451841630208.000000 1376381836415366903077577512864756147167758374739261483264718106869834002187471252349584478272850231296.000000 0.000000
0.000000 0.000000 0.000000
52681454345921205000527852885636060748548092855688000541292946810527828661134479105364867634266592247808.000000 -50305793617822349386236114033522338233439542764001171630770961223228039671996089245199459896179441008640.000000 0.000000
-50305793617822349386236114033522338233439542764001171630770961223228039671996089245199459896179441008640.000000 20836431350419641523157041635272220631911835562824301146441008557073833133227961453465539728481135362048.000000 0.000000
0.000000 0.000000 0.000000
-190738167049556552236173401187285155339030937243284118137653410311827824786483374492577405375782796132352.000000 -26003280187309572572101912839545055977303005201608097406252799514756360039040730010578060381348626956288.000000 0.000000
-26003280187309572572101912839545055977303005201608097406252799514756360039040730010578060381348626956288.000000 6411402140848674863123485268812706815876420804614057847672033838633236518021622657444602227221573140480.000000 0.000000
0.000000 0.000000 0.000000
1453806493887511069763467391908503905865409052597185880432151357328005763155233326345294857558630072320.000000 4176234868425058358805444470831255266884235583131219820887386892985932788381710809963839083700165804032.000000 0.000000
4176234868425058358805444470831255266884235583131219820887386892985932788381710809963839083700165804032.000000 2243350628886399893787756566088289720146565342846891269254522835094455766518928532438441084166535643136.000000 0.000000
0.000000 0.000000 0.000000
4280838703709108489349563549841229580185726217915500040445260473080739194890947659272652271075842850816.000000 -6960364647512441734854798281572077391643578187097384990845779323128662824583419836957508985095440039936.000000 0.000000
-6960364647512441734854798281572077391643578187097384990845779323128662824583419836957508985095440039936.000000 3361058284682357135493555730739728779146220043738735884454139234250945314197274850952252694001342218240.000000 0.000000
0.000000 0.000000 0.000000
-1593770009718437740937952290793511336052134646511211816752221303105039315853821763762491365871415459840.000000 -6857225396350549545315850331284609917049603211203698391464138882954529126093584589465248357268481638400.000000 0.000000
-6857225396350549545315850331284609917049603211203698391464138882954529126093584589465248357268481638400.000000 3899855660197527650129157602596887204385573250000551776438415642327447210651103264694527021617346772992.000000 0.000000
0.000000 0.000000 0.000000
152943829956544143236278959875924395099134418292384027136353747156921975256635873257990246726314754048.000000 145728074313338726794117125528553174372336515880699884422368827547362092767033402545068819193861767168.000000 0.000000
145728074313338726794117125528553174372336515880699884422368827547362092767033402545068819193861767168.000000 60296997635516710958281647409851709350767338247378722600785337945047204006332572341058578583790813184.000000 0.000000
0.000000 0.000000 0.000000
-23584924401083940671221446088764864728851285401158779352946800593530735738028099221899991196645015420928.000000 7826784943619786947143446777769788135950000713487948533312367416021523376674195195868330040385614118912.000000 0.000000
7826784943619786947143446777769788135950000713487948533312367416021523376674195195868330040385614118912.000000 3557580762775162083651706112738584189255183789181823908545550033972789460389210822961699061556676919296.000000 0.000000
0.000000 0.000000 0.000000
8133544440650425087416597069962261935656126276178440952468150689934554520174035180190641348776900427776.000000 -3093561261030776596097095749080876947361840920853483341240302059056842075694920683829695468273261346816.000000 0.000000
-3093561261030776596097095749080876947361840920853483341240302059056842075694920683829695468273261346816.000000 729343676111847487738302928256807317385733749696220648614426693120409305421565043887842405799478427648.000000 0.000000
0.000000 0.000000 0.000000
1208826226819733969341235144307813130548504277854038748506221101670858272647194388342207655203156525056.000000 16347057674201263445444966922097726089896315598271202385418425411691751371820340418191662640125379084288.000000 0.000000
16347057674201263445444966922097726089896315598271202385418425411691751371820340418191662640125379084288.000000 8988149425353973431453014318036617833021573532567145777880755993174030940923728553278571049441432698880.000000 0.000000
0.000000 0.000000 0.000000
-522528750197741499674254980796940372134315988133605729633257726486395263248881666625328855216678655492096.000000 557743936984387963294068740988419829484120321080797254165523659338739506916017368207909667446798826864640.000000 0.000000
557743936984387963294068740988419829484120321080797254165523659338739506916017368207909667446798826864640.000000 318725875334251306876329891873935198254935592807070760711412086502351026666827676395205741731881309700096.000000 0.000000
0.000000 0.000000 0.000000
-38008694067072972497425987826776633688598232841263869596205540134973879387310462990045849941568238125056.000000 -8262378610837205022577056668868531771430259061122786898029488469434005784760983107478088483599546318848.000000 0.000000
-8262378610837205022577056668868531771430259061122786898029488469434005784760983107478088483599546318848.000000 2873721987219169026238881108263948388378052592453345634266740294475327190765823714404852400072584855552.000000 0.000000
0.000000 0.000000 0.000000
-242893880878296165640034284469456027187505733104490193999985279642398455784866907386854004191723532582912.000000 -669938017002662975876439233116864640574564556114028839397556488993196073676218580053587887761832017920.000000 0.000000
-669938017002662975876439233116864640574564556114028839397556488993196073676218580053587887761832017920.000000 15188841062629825616443991182327418087702589879065709833539805534451078474322891082514852087731322880.000000 0.000000
0.000000 0.000000 0.000000
24162520443535337507673649682666101347805827091471042949206693546385709988873383365057136419539924287488.000000 5585102691374130495358935092243673870777771715784887834450703573779112811862127752805686246111585501184.000000 0.000000
5585102691374130495358935092243673870777771715784887834450703573779112811862127752805686246111585501184.000000 1518895563232102523404022208661207457586300812881630560239001495251955031603537533159540963747746021376.000000 0.000000
0.000000 0.000000 0.000000
-2906799325124198185364893296702087570719666482668768069601663067679058956489781834914780165823149375488.000000 -2601093416628588720435386046861024826118553538450977616523944523762370495187019275362702190735796469760.000000 0.000000
-2601093416628588720435386046861024826118553538450977616523944523762370495187019275362702190735796469760.000000 1421384331567558881959849353006456646280835539526584530907503378550798375719523327445105553938313117696.000000 0.000000
0.000000 0.000000 0.000000
-878394955736024469597858380678041176129579150982957908477412584473496670007867205099177135295596331008.000000 719972947035355458266001630019061308912619600429493724116672949351358075665622803344205090036352286720.000000 0.000000
719972947035355458266001630019061308912619600429493724116672949351358075665622803344205090036352286720.000000 402772411325649871048201116733215578986995627462740902317067562374814871000371820611239907794949767168.000000 0.000000
0.000000 0.000000 0.000000
-1634135325646710166693178483093123374921997319080766313184723433063885522004305941178864082039166992384.000000 -1124166044681669480259425857871440467866696046569869535432607999995864472916030824861905510241878933504.000000 0.000000
-1124166044681669480259425857871440467866696046569869535432607999995864472916030824861905510241878933504.000000 615116088124320530597430465230492328683518537815878085522128294405886512578743162168959177957314658304.000000 0.000000
0.000000 0.000000 0.000000
8986297303090351410376351057358632144781221577211479730459618076223470091400870948679559816853015494656.000000 5978613175874769152257083528285916124056478648548518147535353586780256241560822041902103152654079229952.000000 0.000000
5978613175874769152257083528285916124056478648548518147535353586780256241560822041902103152654079229952.000000 2025365912471392339608947411763665705250438764402751738331490294260492786600363611988099752093307371520.000000 0.000000
0.000000 0.000000 0.000000
-3522879747300226379873814332280186335982190655268353101499699084544288266823943495158599726129811030016.000000 -39859098787058382409230671060510404733809136168125284180900942196349266246159729112167072287852985319424.000000 0.000000
-39859098787058382409230671060510404733809136168125284180900942196349266246159729112167072287852985319424.000000 24146097063804355124806650908043878089559968408124362431131254125962491264762216785401863656130385805312.000000 0.000000
0.000000 0.000000 0.000000
8170902263649102547869561129467682373038051594508314091200554513604340402241727279152364482761085419520.000000 9571930420102371062754935073747515155619625997354304862691158227035045505218318598755869791064902598656.000000 0.000000
9571930420102371062754935073747515155619625997354304862691158227035045505218318598755869791064902598656.000000 4262173838282146781738251193848350915515039049160255994644144610474359751423431432759427891330442854400.000000 0.000000
0.000000 0.000000 0.000000
-2179381820665622964876395208630034768553728288466349350802660072965976843075183985934043130194269569024.000000 1067569831027096226809518881505113653752017276070982469445698915117253784400005047165905429119149015040.000000 0.000000
1067569831027096226809518881505113653752017276070982469445698915117253784400005047165905429119149015040.000000 286615674458350965320611955706222317850546639111658794400720047252230333695156875409874867728930570240.000000 0.000000
0.000000 0.000000 0.000000
-34747904874310955831072494377287159491968695422041669416027720311095248559203166782641821681221596348416.000000 23919483339619650660330888076937131096661469558839516992960293861529903528061714231147558666301975035904.000000 0.000000
23919483339619650660330888076937131096661469558839516992960293861529903528061714231147558666301975035904.000000 13077887945183774093269924550535797873446664327402672285958173296386513651458383557048861175395131588608.000000 0.000000
0.000000 0.000000 0.000000
-12343472561386420384352201707252370490655523332228572868331935724981314941222193934315163684768392937472.000000 -94249122553691619922088489682667375147632791683142237615936839583028620603407420670065753288164136452096.000000 0.000000
-94249122553691619922088489682667375147632791683142237615936839583028620603407420670065753288164136452096.000000 53236133442616623869878427889947280205986982589505594112012684843907428946865467240650780135966287855616.000000 0.000000
0.000000 0.000000 0.000000
10432643081715352547779905863976007650896178904976537471148313665186849820615585262103870533110994042880.000000 -19021473054585025936434130557213478728771627110327125970944431142126390827032165275276732072583701200896.000000 0.000000
-19021473054585025936434130557213478728771627110327125970944431142126390827032165275276732072583701200896.000000 9375195217054081654727981570430753996638581663833657047131972222060518272971277598007320625137814863872.000000 0.000000
0.000000 0.000000 0.000000
1699389949331868434686102327073917336334782366357863809914958691169189688894394977058704707494239797248.000000 -373892869788972652259684901667753731440897644035626195235347245071025057189223883589914903763818119168.000000 0.000000
-373892869788972652259684901667753731440897644035626195235347245071025057189223883589914903763818119168.000000 53140428383733834278064759057464833678447298614698865936815958230313261417535791722397808462644903936.000000 0.000000
0.000000 0.000000 0.000000
-18279507924282200018352392762842575373322682324626615035501464943242045042898750862916594342408161853440.000000 17213704188296209294063281103417208393286753796525380626966492678727442508320778830885661146848321077248.000000 0.000000
17213704188296209294063281103417208393286753796525380626966492678727442508320778830885661146848321077248.000000 9750352185568289748980349971054027295369544210039460663873961614949286565462621916052385098088994308096.000000 0.000000
0.000000 0.000000 0.000000
-3805890684846834000173440411123507386519957825153617907736170791494992182177412284473124311161431392256.000000 1251085676891066118414539537991494309545602644736441225562795282926651598366348560348698449743823503360.000000 0.000000
1251085676891066118414539537991494309545602644736441225562795282926651598366348560348698449743823503360.000000 550039487821352724565170265392319787531088777016340184163132508425965861376136786103523890234883309568.000000 0.000000
0.000000 0.000000 0.000000
7361931125968115854662595539373862074171401360507122393376242369400448270251104363925056144332701040640.000000 -12687414799085963224102487138034747457198774527355520496901401147490524693437016917304471495159345840128.000000 0.000000
-12687414799085963224102487138034747457198774527355520496901401147490524693437016917304471495159345840128.000000 6430672009608421135905144936000703385499567558610015894286149623520828794064942830639812056984804392960.000000 0.000000
0.000000 0.000000 0.000000
-407029302763656372913028499927683776054232794083997915559165199352989109998219615950337493301358231552.000000 -585413233323594219577624275198881645819597712141032650985893456361385517578524186615066457843636895744.000000 0.000000
-585413233323594219577624275198881645819597712141032650985893456361385517578524186615066457843636895744.000000 86238711650701050385941653430065407405557010679244633754061549227883751485123037656563854964227571712.000000 0.000000
0.000000 0.000000 0.000000
1150113276672415658015820193595180298197953487978217974010966409597441629861684272767937595506390204416.000000 -39872922435258901432678546003450553419663572831467833720582178954632332433829743676537657539900211200.000000 0.000000
-39872922435258901432678546003450553419663572831467833720582178954632332433829743676537657539900211200.000000 921277704076602904394527175864514750297632053495935347568794851636169151543664747698287652280205312.000000 0.000000
0.000000 0.000000 0.000000
-225753099232129681842374591521127492165475162144170782729337364366291969471773488056289856037963977195520.000000 32332593995463224610011714405578833869774931206637400597386489224094680580401927942460285312322230026240.000000 0.000000
32332593995463224610011714405578833869774931206637400597386489224094680580401927942460285312322230026240.000000 8264547618966449589144611989706763934956336287077389947524020631531891838186600251058985625095524843520.000000 0.000000
0.000000 0.000000 0.000000
-25662742473899685700985402422242845339671236041640524433784138710085052633622862729566535495346123687591936.000000 -368588231054933033131066454227102146825823828769496561355925478655483141182652368901174076976851488604160.000000 0.000000
-368588231054933033131066454227102146825823828769496561355925478655483141182652368901174076976851488604160.000000 10571243900808115169534197748490094585021514282828333982550261396755228716706354648367627003944901804032.000000 0.000000
0.000000 0.000000 0.000000
-190375237647440179708773852471585412770501285203586121463472082252014197370136135337740150907319877632.000000 -389247402009652853938964329416438695863366176839447374467047202545236924737357361176378334209684537344.000000 0.000000
-389247402009652853938964329416438695863366176839447374467047202545236924737357361176378334209684537344.000000 224512704922058390516994215765457026606886297098910294073817827037781740414342561448508950287090712576.000000 0.000000
0.000000 0.000000 0.000000
538761428152920853441002977965869484541241436034919723915679812939139174614435418004421105159652769792.000000 1022381572163936829508856143754944233150863724474903806986577199315619729057971987697253614092321554432.000000 0.000000
1022381572163936829508856143754944233150863724474903806986577199315619729057971987697253614092321554432.000000 508493197195859808968405280833643476006330585663474393384782137855015737707227802549987315278801797120.000000 0.000000
0.000000 0.000000 0.000000
-9374823252271202861426717651704534988838666289922399149156844026014990138038672761098653453382179618816.000000 26675409664775562279519306359392476352241349087909200803549129365526644296840773125871538655562743939072.000000 0.000000
26675409664775562279519306359392476352241349087909200803549129365526644296840773125871538655562743939072.000000 15319081844246550656231079351462740924487179810719700200400436566844621942933422422732752859207892467712.000000 0.000000
0.000000 0.000000 0.000000
8528984913917616554889929914561637676976152636533312671862927705248197561291741989473557620120921047040.000000 2750065993561506839165677441169806169973837037437031745971251265734422976349484595876458668001914257408.000000 0.000000
2750065993561506839165677441169806169973837037437031745971251265734422976349484595876458668001914257408.000000 554616162817222386850751258928923521074259674932484119531784346166367380914225910179150514658331328512.000000 0.000000
0.000000 0.000000 0.000000
-35844171656666966186309385798984763238361592230785437512112556013578887415935307167761063212504068390912.000000 14843734173781803320686017389177683156488130322394575888214764053831103719655277467225102826122181083136.000000 0.000000
14843734173781803320686017389177683156488130322394575888214764053831103719655277467225102826122181083136.000000 7162225674961396575816102257582972736416078369073689744621199653477804733231760421313080848278246916096.000000 0.000000
0.000000 0.000000 0.000000
-10085761907513164897555371249693979252440804510974513087760644936309791115447658232184643610110414815232.000000 -23316444548311871407643366814386404411257050658125540259422244902649107466910285571620214404061396467712.000000 0.000000
-23316444548311871407643366814386404411257050658125540259422244902649107466910285571620214404061396467712.000000 13822050175398500558659009817831115617880025947125069797367199666843675305358026688107326946034669584384.000000 0.000000
0.000000 0.000000 0.000000
-4667696905195257407778935771828969189688085711339759812086493025338681482390139413514130039545910521757696.000000 -84968729073356324363048385372427442920713103664104628296426792879993837707014399752869624202678713188352.000000 0.000000
-84968729073356324363048385372427442920713103664104628296426792879993837707014399752869624202678713188352.000000 3114868301144101270757091553083563398976089514904495045055646225147249349467797592576978171207490732032.000000 0.000000
0.000000 0.000000 0.000000
-7442017912339803188109004078128349703916110801039671254053611327726100536954064700879105784532093108224.000000 4739447339526298018286235359119195688698636366210575063543051937715135613428983149643000932307036012544.000000 0.000000
4739447339526298018286235359119195688698636366210575063543051937715135613428983149643000932307036012544.000000 2558224672131939502298536153992725289983649127257588195459786096526829436110536224022235285047436378112.000000 0.000000
0.000000 0.000000 0.000000
25978044366935862405089317324356303521600872234885108240194575998230348204921216796264132623340163563520.000000 -41490346630480126980727260496183374108967903024567746882590293762811288071066905076773336570541207715840.000000 0.000000
-41490346630480126980727260496183374108967903024567746882590293762811288071066905076773336570541207715840.000000 19855075643275251148843596611882526214208757474267145523469915463383821012481218986322760225034017439744.000000 0.000000
0.000000 0.000000 0.000000
9413820564638022886154105008266498385836581007582890258447971191435706073404607672056424097766178816.000000 3877820819596174452253942067156092210861336342581021343982947626779362272207258939480873018738081792.000000 0.000000
3877820819596174452253942067156092210861336342581021343982947626779362272207258939480873018738081792.000000 939137107999979420018223587412125179019584561305542421721949992650707439588962120994803110652149760.000000 0.000000
0.000000 0.000000 0.000000
2447717620878460262329782815072801309363824535822799431459064804981964368613284172772385052405855682560.000000 -1658099833622960477131063955585136469916018333968922315160822939678862236763877664611290047761637965824.000000 0.000000
-1658099833622960477131063955585136469916018333968922315160822939678862236763877664611290047761637965824.000000 581087619893738049429172713231884587708537125832797661553322950830161447520692776151259876166989774848.000000 0.000000
0.000000 0.000000 0.000000
8079054183841249992618743005916637218529789098630868173951675441915067892809343933782611607403580358656.000000 7259157652946752518030204047110458156848815696307397023390355253334686690117876168686588672159917277184.000000 0.000000
7259157652946752518030204047110458156848815696307397023390355253334686690117876168686588672159917277184.000000 3063800414683236665100694554695014188719302612612763505862142559004118567995241962398720044348590784512.000000 0.000000
0.000000 0.000000 0.000000
1452784312709726035827207087811518750692755648277120553074399219036640580387619983346647346567182286848.000000 480311358002081370156466045015467235848873441948182393276431348950477751479012520931989171704529158144.000000 0.000000
480311358002081370156466045015467235848873441948182393276431348950477751479012520931989171704529158144.000000 101886759172064452707576053451330530097731120331248643759681396100591988495475783380412613781322989568.000000 0.000000
0.000000 0.000000 0.000000
-226275908559508176668207629869646345612567981840527742170061681650036616908068394220616370708692504412160.000000 3443164754264439559063171705113896672941257325031496027766831762613527199438899673135554279640204836864.000000 0.000000
3443164754264439559063171705113896672941257325031496027766831762613527199438899673135554279640204836864.000000 512131666212330674775466588355005501547010051760539946107061782649589746293114536389837126375370129408.000000 0.000000
0.000000 0.000000 0.000000
411445576246051562547463270026565030684250016932472119347527534686325868194011063358563678798194147328.000000 -5209785932717065426535998291987225719385198788931660512625789844579779887272796405315380327733421670400.000000 0.000000
-5209785932717065426535998291987225719385198788931660512625789844579779887272796405315380327733421670400.000000 2860359686548537128064448317551877826180542114619808256856111453742300298006912198045175873618896224256.000000 0.000000
0.000000 0.000000 0.000000
284378768104860386987346871355202432035175331616917703831423045996316916378138057363797866001698127872.000000 -141926278303442506179633527809479094085605565834315317407732034768988127738599910362236828420839309312.000000 0.000000
-141926278303442506179633527809479094085605565834315317407732034768988127738599910362236828420839309312.000000 69704878947484525348396679073678718802500546306045872239163743606220539682950957399123632431478865920.000000 0.000000
0.000000 0.000000 0.000000
30985817820571604357389775506233886854864734504377141655589998231790312038608974276694873967764504051712.000000 -20138641565706785159235276196215937240761956737847120954964149915855875087940006693631822172581550620672.000000 0.000000
-20138641565706785159235276196215937240761956737847120954964149915855875087940006693631822172581550620672.000000 6224788950506512451152129008548000835416096460553240154306920696725733110535774588393935520987065876480.000000 0.000000
0.000000 0.000000 0.000000
2825199566191829035894366806213840863261634480181726493900407167013826149312551004718576401849042075648.000000 -1483256498143427925008370548453190250966737122435621479187493184399713051593287132129388025900670386176.000000 0.000000
-1483256498143427925008370548453190250966737122435621479187493184399713051593287132129388025900670386176.000000 450629631534557423495690092169646105106956065682203099067638970487996730078406925582625044724499611648.000000 0.000000
0.000000 0.000000 0.000000
157836716550054677263072279489452464863373078425306370074750384548620397283851398740402178332871884800.000000 458938257892292900322536775197507489239023312901207520155318760918383171393615252783171012056510889984.000000 0.000000
458938257892292900322536775197507489239023312901207520155318760918383171393615252783171012056510889984.000000 240863836572377284607049954695538005453876884609563936242842680716324110287818117716478158318409351168.000000 0.000000
0.000000 0.000000 0.000000
1700093274288208217673925868565239901333312436041888100572631347231618572728723587815917279172634869760.000000 -4167054560136767286275269991327273808683990267753778132386729215200985524418810360725663921055345934336.000000 0.000000
-4167054560136767286275269991327273808683990267753778132386729215200985524418810360725663921055345934336.000000 2133918824513778322911439271467966734021980311394326644664933210277424040667724682287853874401305952256.000000 0.000000
0.000000 0.000000 0.000000
-16735682985666049366835408100203379075680059846228171991827571870921496574150268317853947698477870874624.000000 22615068647864492794332455108938376758050828418203253597322540762323700299277525037129706399406609137664.000000 0.000000
22615068647864492794332455108938376758050828418203253597322540762323700299277525037129706399406609137664.000000 13023183909124603342886039513633010775973231628174751329856712676047774252695734560190754456713922871296.000000 0.000000
0.000000 0.000000 0.000000
42401041939470917645930796790305550840491938706045451141896289826435219826310205780266276691922445664256.000000 38797579007316054540365307408110611649227204253811266623023092950433719908939699891739127779157029683200.000000 0.000000
38797579007316054540365307408110611649227204253811266623023092950433719908939699891739127779157029683200.000000 15784027191637193533809387514052029572718820055356713774425720175798589820545185072416389496836412407808.000000 0.000000
0.000000 0.000000 0.000000
2302188365549851450126169821779206270540623233147291648441006939838081861951763946140611606829777027072.000000 -3000251634593457047249870300131462968350408151164131187440661870456046414441541830269688072696997347328.000000 0.000000
-3000251634593457047249870300131462968350408151164131187440661870456046414441541830269688072696997347328.000000 1376822626481863151363077046714865718826825970645331672421615681576604652574683310130394326555305181184.000000 0.000000
0.000000 0.000000 0.000000
-27408007754621646297478736014191435906635821994013023194072163640481921123358517410486440657186396831744.000000 -18076491999718636232944583483581663505241361322691817774211641619520904863692665057719343305421257441280.000000 0.000000
-18076491999718636232944583483581663505241361322691817774211641619520904863692665057719343305421257441280.000000 9674703420152153061215798928182648317877623772353079863477016098886562148627252688134320078110012211200.000000 0.000000
0.000000 0.000000 0.000000
-3398865777987283181617864527704250870872326485285148308857170228026053437169512504877225538374300860416.000000 -4995237497177251795550335062152319815487172572666861653035896589136083546128190289202499649083031945216.000000 0.000000
-4995237497177251795550335062152319815487172572666861653035896589136083546128190289202499649083031945216.000000 3090015817975088791120442543565379788331990398702820355805131394100163349367250627184252690760275591168.000000 0.000000
0.000000 0.000000 0.000000
-45775945084945376028333139354816893828944615767615842946186943156274137298296973790178521521140959019008.000000 9080971659834062203902694221570946416342229223005891564289738023942272932803381514074552867720813084672.000000 0.000000
9080971659834062203902694221570946416342229223005891564289738023942272932803381514074552867720813084672.000000 2982238760491929497730367700382244965243291419364084097049506173368432767387455336224292491497889071104.000000 0.000000
0.000000 0.000000 0.000000
-183796814841291197760788212930029888354217747667014583669011812827396435948355135927377314836859846656.000000 347612288593594261318663384674659305592400713465854952196284440245694920713186073375957188498411225088.000000 0.000000
347612288593594261318663384674659305592400713465854952196284440245694920713186073375957188498411225088.000000 200703572123623750734177015175239454759042083911303619396521429196853404192618081418406380569557467136.000000 0.000000
0.000000 0.000000 0.000000
11763279892018268697095095201141529122779029796771552036763749003519099792763333776596663274675290243072.000000 3031780583980771524933161630481163654147123678296360185480104388293751738400086291478129309921709129728.000000 0.000000
3031780583980771524933161630481163654147123678296360185480104388293751738400086291478129309921709129728.000000 516219004070810891515014972755962368057528724109143510945393136248518615666705845446287017111655022592.000000 0.000000
0.000000 0.000000 0.000000
6769166330282306039439115305764157099994601528030842257165553905855852459426290487492753653152513785856.000000 4532042970753369588273499462483231235700928092071346781550740248234080290281880857821463074308498653184.000000 0.000000
4532042970753369588273499462483231235700928092071346781550740248234080290281880857821463074308498653184.000000 1633568668258062467203509738476210105869927323094491263141753623521670986887658346697251370520987828224.000000 0.000000
0.000000 0.000000 0.000000
-8965358960384622242842832675755851690590203501767887688570382237728295690991479302359615271686513885184.000000 -5903413076682224993052540111904880432335176735067365658429169420651713447722902064496561211456696090624.000000 0.000000
-5903413076682224993052540111904880432335176735067365658429169420651713447722902064496561211456696090624.000000 3231564145263905407702182128200994150890524598780151336699753498032355386977880993671755360340925218816.000000 0.000000
0.000000 0.000000 0.000000
-443200739541056459923019973898893058266886308925624736711310111534153231054715844553267446093480722432.000000 593075669602692842448414427197591991197002058193415755414577830257494953867881615497533160254259331072.000000 0.000000
593075669602692842448414427197591991197002058193415755414577830257494953867881615497533160254259331072.000000 333570491933395716602508267699640415230994906685348397349549773642552153341493050679811590116505288704.000000 0.000000
0.000000 0.000000 0.000000
1034756025398667277910642455667222200908906579674775751306324652243441621745941281764993179266448359424.000000 341009181320374221031599900194379385056861051527847167083558078950920418124007528859516425518555594752.000000 0.000000
341009181320374221031599900194379385056861051527847167083558078950920418124007528859516425518555594752.000000 72846601044749559599910286791797661598758012066627721789706570934201538665767192133310000236251316224.000000 0.000000
0.000000 0.000000 0.000000
327265160439555661475262837319627545439017071898707542612365890635492693453915833375229878023474905088.000000 -335812055553366617602952691455325153255154505659675763504634221690307692116709328926022090392304877568.000000 0.000000
-335812055553366617602952691455325153255154505659675763504634221690307692116709328926022090392304877568.000000 142994197730605418649935445308104082988839127079758275348153755888711050234156957024544999835112046592.000000 0.000000
0.000000 0.000000 0.000000
9787348495644850467380451404501113529703472963684536714926647126278520812009450403924287222700373442560.000000 -11064864881423416525897892783939545450083055343166438584456583643287365701882798434763257026658130984960.000000 0.000000
-11064864881423416525897892783939545450083055343166438584456583643287365701882798434763257026658130984960.000000 4870308046259778311749860467918971896030132644314794598874259891540333939156810785192394338794148462592.000000 0.000000
0.000000 0.000000 0.000000
3174765002471003848063619642441993419690325623420162928366760009226005871727278082966795412960752697344.000000 -7092405053262700858715583890876064204266099452197353583979737670807085303798643397789015780983432019968.000000 0.000000
-7092405053262700858715583890876064204266099452197353583979737670807085303798643397789015780983432019968.000000 3656210566009126058230592580170472875827793977934002630195605069775514115845680372908561717154342240256.000000 0.000000
0.000000 0.000000 0.000000
8168053399243470611368984852815889116153705584838480999987505970241567879040491302118714109662771281920.000000 9202462714333190122877242421046899728599985863399651014686783280687809486900762577358096003964239609856.000000 0.000000
9202462714333190122877242421046899728599985863399651014686783280687809486900762577358096003964239609856.000000 4806380982819056726913980953273824078207282718674847378009849280399904157522250464372268036898984820736.000000 0.000000
0.000000 0.000000 0.000000
884146405846770464211914440240942235822419461535784415254615332395984184225814298815521777766037979136.000000 2843959749889519597374335103293575721754923314754190336445539078893683778195498792422409426952616148992.000000 0.000000
2843959749889519597374335103293575721754923314754190336445539078893683778195498792422409426952616148992.000000 1529126939859317589975682932439699348890840950307188072982789326776917778530459902780019203035415707648.000000 0.000000
0.000000 0.000000 0.000000
-10466623337238677432677921737344144870160669434620484011293249160690081808255071731790017456258911567872.000000 1508997696507801482826554305061580752009772039173523205530501764799678301180124992812688993173360345088.000000 0.000000
1508997696507801482826554305061580752009772039173523205530501764799678301180124992812688993173360345088.000000 777172339650238561064106350897750208463683218284524472253953975777134545459471120626934089600387252224.000000 0.000000
0.000000 0.000000 0.000000
2521789496835020937931294428164068868625402590891929570380791602158980921548994484768677830213597396992.000000 4200720495577560818824811244259137724822981951831756989427221350047411411266932374521365831515142881280.000000 0.000000
4200720495577560818824811244259137724822981951831756989427221350047411411266932374521365831515142881280.000000 2050498820002993830639550863885351322945034591563658159348295868009708552436713999801293623304403288064.000000 0.000000
0.000000 0.000000 0.000000
1594443700073366005817636821406283787539347518766454187826049295890182409982734330850315111216793518080.000000 -1103031894257621053660803740429104588808393524915802400281270344802322937656951319290245911273652879360.000000 0.000000
-1103031894257621053660803740429104588808393524915802400281270344802322937656951319290245911273652879360.000000 455001208304691368208651871730848449934144985857937480361618181406479143673516690094731177639028981760.000000 0.000000
0.000000 0.000000 0.000000
-49114222176564707983389651562719619484151103209883722485376186120181139796998946052199967602656338247680.000000 -5402397415418581439848165232208873551185893214903452691744591959494648083673329965547529783307898191872.000000 0.000000
-5402397415418581439848165232208873551185893214903452691744591959494648083673329965547529783307898191872.000000 1118731927118752890646505206933008242923516975625212897455773927754299590765065130713040100988995764224.000000 0.000000
0.000000 0.000000 0.000000
189502218393205951511015989692057446143872113041687318662530537761960974427309290368617163982918123520.000000 145806116453126096547766338846599220566372673721242791884923690138849390326996246064077667529547317248.000000 0.000000
145806116453126096547766338846599220566372673721242791884923690138849390326996246064077667529547317248.000000 54689165259326976157071377946434902356794514376849718304416678042475991336298375053832931097584861184.000000 0.000000
0.000000 0.000000 0.000000
-332367315617739534695409058603666356521751996003241722471623682355022053989487686027854693191791935488.000000 -11612457435304462819020988143093380165023547296309328505438975130621370280418496936296619321346490368.000000 0.000000
-11612457435304462819020988143093380165023547296309328505438975130621370280418496936296619321346490368.000000 577587527687322797290602633901888161126327953001015395623585918910163970357101592158857168301326336.000000 0.000000
0.000000 0.000000 0.000000
3363159682182183806243130170197564932574197566355278645513073748779594964284133618957519106621447340032.000000 4303260094503331271715293630366862432115188827509517897994841696998030363054626013626146280139311284224.000000 0.000000
4303260094503331271715293630366862432115188827509517897994841696998030363054626013626146280139311284224.000000 1966648965347504912079443592177145967190107534619503886242290298562316725982253632704076154497927217152.000000 0.000000
0.000000 0.000000 0.000000
9401461923367173586191792921323115146568497420748182182161600449330486504523298630774827382004502233088.000000 4701604918156100935394240870905907409155365925606674453367463420323097963670221496925810316743312146432.000000 0.000000
4701604918156100935394240870905907409155365925606674453367463420323097963670221496925810316743312146432.000000 1347034108823410395720220015640431355284936312674423152729013748575897107816157139443633150384140189696.000000 0.000000
0.000000 0.000000 0.000000
4420200798737124936361762215427633256977228205627945907544196541144451092514246555405699494862271807488.000000 11309258318637332743821047107818190542788516169935722496023016116214536907641718738560575110942161895424.000000 0.000000
11309258318637332743821047107818190542788516169935722496023016116214536907641718738560575110942161895424.000000 5807197997768089367107790104806328142701365398283503555387503849636334864300315671113184591954636177408.000000 0.000000
0.000000 0.000000 0.000000
899082961084987891411082857059736408789535369257482229406590591055283844163613204576072053224890171392.000000 2737681948707981135582719409591752629391534983993579771884556445160640948351219340913908149035714215936.000000 0.000000
2737681948707981135582719409591752629391534983993579771884556445160640948351219340913908149035714215936.000000 1811012738820571533602700049897837685203762220899843536003291324759994850460218762150497424466849562624.000000 0.000000
0.000000 0.000000 0.000000
-326251781758341772899150709896307690140744793516963428277455017106703302934521555597651163632840013250560.000000 -26538955066493346720999813449938435855863475105038200553174697242050545019096912291990216723780438327296.000000 0.000000
-26538955066493346720999813449938435855863475105038200553174697242050545019096912291990216723780438327296.000000 4155339475401037631951779469333226805014241322331181727528325599136789579760250618087125691521944256512.000000 0.000000
0.000000 0.000000 0.000000
1857410087850166310406111815310776504773536984804297225803361771952419895728467581543333936909141409792.000000 -3583708239566095024354322324666692281602407779097488393799251032408032148825010650632015283583356764160.000000 0.000000
-3583708239566095024354322324666692281602407779097488393799251032408032148825010650632015283583356764160.000000 1790983915341415370360122192686800008014496266771027109798171812016789826037637900047235452331777589248.000000 0.000000
0.000000 0.000000 0.000000
14365212496172941550859455868119304730234352505717265126471536746252567372870165968950966664985690767360.000000 -13456160221717283444874006832214850869784174279927613755417269144036075587098603593285864367099647885312.000000 0.000000
-13456160221717283444874006832214850869784174279927613755417269144036075587098603593285864367099647885312.000000 5525663532316541493474883024493388089625016681841349543478379990836994288542268408309765357367118004224.000000 0.000000
0.000000 0.000000 0.000000
85308822517519800027518900603877055805578951788087574837763060817761383987332625873290531462596840652800.000000 30735767554949879489942021249528780891751428996086569281984911664600221491828009643566268298472112259072.000000 0.000000
30735767554949879489942021249528780891751428996086569281984911664600221491828009643566268298472112259072.000000 6800510892896024177730809676291512910804841624338042701430472715698724830902018911339572852996303749120.000000 0.000000
0.000000 0.000000 0.000000
11358279537084730906997616669247877400882131738664199489248480756502280791941903215576521348187087175680.000000 -10289822350687132817110070313546547689611630901537117793998801240709319717663465641525238776429419692032.000000 0.000000
-10289822350687132817110070313546547689611630901537117793998801240709319717663465641525238776429419692032.000000 4419056450710566057190929260833391043674832179080691937219186616305913039361265338251065402603964727296.000000 0.000000
0.000000 0.000000 0.000000
9160425252228823287771206662160006362980406114146487565198471631694260930557681055251263730703652618240.000000 -11412296761443466134140796105576499187797552031676629202489581776590449366978185293933683015583698780160.000000 0.000000
-11412296761443466134140796105576499187797552031676629202489581776590449366978185293933683015583698780160.000000 4464956398311208777689852190695724001018315257475848897977009505683809721787149786479443799452128641024.000000 0.000000
0.000000 0.000000 0.000000
-18679384986869496280849570948904831839402476946691382328303048247955198645913742961158874762924133449728.000000 28111854227786494151039824017441464844094230466831002146762748567687208829783095118256459828451801563136.000000 0.000000
28111854227786494151039824017441464844094230466831002146762748567687208829783095118256459828451801563136.000000 18767882474772456679663044512406829336901692803990295849555526633319397470409063401671258167931899478016.000000 0.000000
0.000000 0.000000 0.000000
83866094348209504333467344207545402338868473550766819088801182272400635549137851340754558740343029760.000000 -240639609120409750132082358373469871685976991589549940547916896913427681734877749368333199572952154112.000000 0.000000
-240639609120409750132082358373469871685976991589549940547916896913427681734877749368333199572952154112.000000 160392319808843633722398765732800884237617708476168666902709326082232337073697023510538712773382111232.000000 0.000000
0.000000 0.000000 0.000000
4387939736646552418434418677020463502859261792566122056134626326939426762763055147159599533594247168.000000 -206071314488885992261269854241586579760806291644263588409935173912640189174793982154469171484277342208.000000 0.000000
-206071314488885992261269854241586579760806291644263588409935173912640189174793982154469171484277342208.000000 115638450657388913583955954846989618152021790850949674346764864011214875605350046961968257991912194048.000000 0.000000
0.000000 0.000000 0.000000
-8545193599014287450367258815867175662836588794156438212345169386786759466318421614063902975665478041600.000000 -570724336128510756988871720711679458999613811503721524439710499098451690190502416455320321114758971392.000000 0.000000
-570724336128510756988871720711679458999613811503721524439710499098451690190502416455320321114758971392.000000 167865993196849633305143341546170895597491698557969927129421921613472620374191467754392357489432592384.000000 0.000000
0.000000 0.000000 0.000000
-621215818188213127086311962705105567673620053851738738199455034356322527128182966632956972462839431168.000000 1089144295002467263103558737573618016371250531131976174479001589956330484729872122520169001421862076416.000000 0.000000
1089144295002467263103558737573618016371250531131976174479001589956330484729872122520169001421862076416.000000 628758132690919684120818317413219273268889803702639977413766874572676158618636631250588356056144936960.000000 0.000000
0.000000 0.000000 0.000000
22098220749810892866471292100788213799152343574055193065192705457799269172875597081624121935642465665024.000000 -28853948402252353141231983126555820651122480888641079197342310345079576239502353159435993922337595457536.000000 0.000000
-28853948402252353141231983126555820651122480888641079197342310345079576239502353159435993922337595457536.000000 13045510553833705317078858251315366643759987733904346147155185971619397574748612957955333055425338671104.000000 0.000000
0.000000 0.000000 0.000000
1063024765477878706848300415251783029936361295004478535887814790748760264640641524549368485311317803008.000000 571083853907886581915202042563184286083446776495423745807444786968086276217016241202774844620054462464.000000 0.000000
571083853907886581915202042563184286083446776495423745807444786968086276217016241202774844620054462464.000000 276193455465365346462661243571920509017110939413681251318290174004381442740799760213465906834617401344.000000 0.000000
0.000000 0.000000 0.000000
-7810985971840252063666824744299266382125734409029999632657665291354395342147316926927111119317145485312.000000 -5778857771733970125577642008720686795742674914478812598921108930745328573930864542177278986680916770816.000000 0.000000
-5778857771733970125577642008720686795742674914478812598921108930745328573930864542177278986680916770816.000000 3191125056069842522816995046396692493946264656246355601700274384095342057912865385573004092325463326720.000000 0.000000
0.000000 0.000000 0.000000
1175644842162607890040061374652259768909689206090741967956452201165796745296860540052847432983663083520.000000 78006282671639301967438632903118589259947409159182839566625481687660299373877238200004633414680444928.000000 0.000000
78006282671639301967438632903118589259947409159182839566625481687660299373877238200004633414680444928.000000 3447212508493305631486508597966872549571502769707254529122865634790495274175232331564495685067735040.000000 0.000000
0.000000 0.000000 0.000000
5479976562961367490163766217124468392966070465292928465346001413427906365226155477806655074152747106304.000000 -3472308948505298340507184294672923732160456258881752065492330166047492840390390681763469589975157178368.000000 0.000000
-3472308948505298340507184294672923732160456258881752065492330166047492840390390681763469589975157178368.000000 1188431354282407768701661611634729721953957783442609704805133499085688963356919092224950839046412697600.000000 0.000000
0.000000 0.000000 0.000000
5821780419816866683814496919271975415427178194864526912087310836578124477782790343368476237885098426368.000000 -3776919246407672042696525279931646404901394561041211530743146404518557683340509753654015410267712651264.000000 0.000000
-3776919246407672042696525279931646404901394561041211530743146404518557683340509753654015410267712651264.000000 1728756220791820331445508145191424490230277877217984640142723867032779884648215435667251611283618791424.000000 0.000000
0.000000 0.000000 0.000000
-985090226619534829446277009501649585203612834471413565846805420676001010171111622137175980066843131904.000000 -4708085678116662048201043185248677184794850998688259295140028946265467391930644193722868670825779691520.000000 0.000000
-4708085678116662048201043185248677184794850998688259295140028946265467391930644193722868670825779691520.000000 2773258310897036126977656296442489166670583008105292204245877501461414705881328422945149713897729556480.000000 0.000000
0.000000 0.000000 0.000000
-19935252776632952822730612622042036629606376893411419114816501024985161189472130036701452199963547140096.000000 6992839814150596901085802452090851559961620040827269418659557067071061137995088389486896640933276680192.000000 0.000000
6992839814150596901085802452090851559961620040827269418659557067071061137995088389486896640933276680192.000000 3309476546833990474891033249823109597157361443455820105849045415316044952034208771097964394569984376832.000000 0.000000
0.000000 0.000000 0.000000
1463338344599019311274008517824242935423804934288737981337255164522465438902793854832768139467599904768.000000 1867162551169317937122093690554111459759929606961937248715792855951720969876955262076720010287743238144.000000 0.000000
1867162551169317937122093690554111459759929606961937248715792855951720969876955262076720010287743238144.000000 852138589443527831870613567922228327773026591777586700373619834989963038752257083413480190091773083648.000000 0.000000
0.000000 0.000000 0.000000
1429348375536795577976358378343045034080190868987780989901700568891062716391928130296385681287586775040.000000 3514921409005158717341330970341287968664560101013040365492070315840831391624600733978488775213167149056.000000 0.000000
3514921409005158717341330970341287968664560101013040365492070315840831391624600733978488775213167149056.000000 1802620209574448448875325376366904802103138990464874912420032171024029991288157700758488902042067664896.000000 0.000000
0.000000 0.000000 0.000000
-876037834502663806928207992347349533806859357654600783457101307224421591632734665482208289642004873216.000000 -1594674140090303364147437313195578636730643810388612744139316835147693100577050338471980431510899523584.000000 0.000000
-1594674140090303364147437313195578636730643810388612744139316835147693100577050338471980431510899523584.000000 474701001076388618918419693175257244809626161557123295827473841547081483779339591572911739188564459520.000000 0.000000
0.000000 0.000000 0.000000
-13020292345330870247746520650986015595055489194637731168611781521046843785804155609764051545502326456320.000000 -2733147982493851482899794886824806948476988862340768589013995152454634192376290577414252688677340708864.000000 0.000000
-2733147982493851482899794886824806948476988862340768589013995152454634192376290577414252688677340708864.000000 556757892401913812945941795805500758841337655649615956577516628523779444747890394113017525024711507968.000000 0.000000
0.000000 0.000000 0.000000
-151540670018720123571421101657457204579603185086718005260431315569303272957540933406980769007425028096.000000 -105639599487479966596492708949021398399880785092538250507145088270235871733889399021298305438098391040.000000 0.000000
-105639599487479966596492708949021398399880785092538250507145088270235871733889399021298305438098391040.000000 57964854535870404196364754844712289569619690920015141884698561347062447310520861801246448186032128000.000000 0.000000
0.000000 0.000000 0.000000
-625647522474891877682645308088488015970586318050944429879022042485506251218498103094521973948744204288.000000 162860945096752720964901775360865012570249130149979570264451080924546499670376130013292489106987679744.000000 0.000000
162860945096752720964901775360865012570249130149979570264451080924546499670376130013292489106987679744.000000 63484653999974422834954759783938967454712155976370508996568308898712699736283558344627483533922795520.000000 0.000000
0.000000 0.000000 0.000000
157792420455157308571073872364613863531780004456552389874726838275014087802163513484211029434176609714176.000000 27757069820926995224143024053388583173142123390499278084333291891489871746978601916332390414316275236864.000000 0.000000
27757069820926995224143024053388583173142123390499278084333291891489871746978601916332390414316275236864.000000 3254233994271639148103573289607570187994664326724105159547405802198703061164146825071303151094411034624.000000 0.000000
0.000000 0.000000 0.000000
15402186154813643499576945228194193475610119320992289078749240823075512386821709924830277041197468876800.000000 2518761298574086358682622222104481907887978417423150082845091841268735554050876875679920162874614349824.000000 0.000000
2518761298574086358682622222104481907887978417423150082845091841268735554050876875679920162874614349824.000000 394679268530263300554578385116117526449213243936984191220355241880202800078750706529330896833718779904.000000 0.000000
0.000000 0.000000 0.000000
1092327927174202736635316884851126125914439770737194326832210205460262732460278493768063248527595143168.000000 -1068075482709417098536276792921387582871473537745840178626319793749658740306910074724708166936452661248.000000 0.000000
-1068075482709417098536276792921387582871473537745840178626319793749658740306910074724708166936452661248.000000 394177067260192032337266064611767578829131404425580166725154689539097021578775203743078816937012101120.000000 0.000000
0.000000 0.000000 0.000000
34824559344751622159114451646201443756982883742738723087551388975577193193763376415435227363295709102080.000000 17898987523405792438554063172566690082865700618641586994080451425968738894215778743971968036534145253376.000000 0.000000
17898987523405792438554063172566690082865700618641586994080451425968738894215778743971968036534145253376.000000 5542341707573184927537899455282896975476366402520530131151886226305879396800660814902057333059961749504.000000 0.000000
0.000000 0.000000 0.000000
-24789050451410268687629159020471686330371615589593020152723834375192177659101625675017123206589505863680.000000 37922290460412261801013556876758220051456021073763889140691790967699144823241561844115859236424922431488.000000 0.000000
37922290460412261801013556876758220051456021073763889140691790967699144823241561844115859236424922431488.000000 21785795320373256487603922909583021094988163403492790865855714351799320539905069584878693932517656887296.000000 0.000000
0.000000 0.000000 0.000000
451763036547411400849807399898710970920527575297740766012477629228551515859386264030326511749623185408.000000 -327679909351514149039730328611160947414378598481969633202807971269945528236027023621625544978978570240.000000 0.000000
-327679909351514149039730328611160947414378598481969633202807971269945528236027023621625544978978570240.000000 121095583788177582820669713571104695815585042877873887982527042268370003798278014435793640745559130112.000000 0.000000
0.000000 0.000000 0.000000
-27438747321988392265425843219589553887441881506112232640983792751770459347596039834306052373656885002240.000000 -7844022601457547541384550561856501932157303256379925976194376024269754968041729684170138525878213148672.000000 0.000000
-7844022601457547541384550561856501932157303256379925976194376024269754968041729684170138525878213148672.000000 3218787662858398620712036751656712846740854403106585539530419414437938976371611245036835584766111645696.000000 0.000000
0.000000 0.000000 0.000000
4557228676337508101437181813505596629606104810255315304673866131359066009239951305039015781863035764736.000000 -3475278785124783463586578158813123677868259131955349618035796826229198035093024776809436834866176983040.000000 0.000000
-3475278785124783463586578158813123677868259131955349618035796826229198035093024776809436834866176983040.000000 1316764813413356387985173368054199005569290598364985318079572919102181566755731342964351112682267475968.000000 0.000000
0.000000 0.000000 0.000000
-20848779549201496807784370851548442815185085443567293828476052963466201398229517625088620164272621617152.000000 -9860863308029956918278326067503387638453708092072694380610221368617732517131910252237047046790925254656.000000 0.000000
-9860863308029956918278326067503387638453708092072694380610221368617732517131910252237047046790925254656.000000 4965096064689959123910869865566329308537719923818280183456616050604559227389850067112550772602941997056.000000 0.000000
0.000000 0.000000 0.000000
4537605953596887619900153052854009114343306936672608837238389875309677288465149556431017035899969994752.000000 7050159955322775704725334331183438656498432509774973469045426998154080182866982364541045006467571122176.000000 0.000000
7050159955322775704725334331183438656498432509774973469045426998154080182866982364541045006467571122176.000000 3373223274930258727794731968080430734499622863129741650032400723521942638020258518008330434152528609280.000000 0.000000
0.000000 0.000000 0.000000
7803683894098874818736202427632208256212405889805531170600879135545522043682089069344796877744989274112.000000 1649925738207691927919690131767377444740041953268099585765624636011647764352440099888643108841696788480.000000 0.000000
1649925738207691927919690131767377444740041953268099585765624636011647764352440099888643108841696788480.000000 368755430156991192617769365471352338167946092621663752180010618915108721824114089945249926715348615168.000000 0.000000
0.000000 0.000000 0.000000
-3125995805860490078024887709195977148623320731480783413355749411751495350593047151296710671283603743178752.000000 -136059149941864034059630196908676819108776502357900141379480450185586356629678362069930375056720090103808.000000 0.000000
-136059149941864034059630196908676819108776502357900141379480450185586356629678362069930375056720090103808.000000 11790162790328947141490681292499801736784620146638291626287259148265669950093004118764067090900430356480.000000 0.000000
0.000000 0.000000 0.000000
-14657027000467838470614461795475660589037941693513802781638319058433324177808018076438319881200018128896.000000 21314138181444999065531418882171659793324090522191448957668479857430402628824443194607349949374184554496.000000 0.000000
21314138181444999065531418882171659793324090522191448957668479857430402628824443194607349949374184554496.000000 13336649468518112118133514385722522876536926574790880752935008907994865701620928833502728227543186407424.000000 0.000000
0.000000 0.000000 0.000000
-16059399925410884058192743553691144368096737527674771910799390083677084893070024778306405896552448.000000 -44984994081437561385110248556588116585700562619570996987294534259723063356109531517013020203024384.000000 0.000000
-44984994081437561385110248556588116585700562619570996987294534259723063356109531517013020203024384.000000 26432002670723980117772541755339809975568875312598092049949003128572170701779049617882952759246848.000000 0.000000
0.000000 0.000000 0.000000
-425644244106535175503550111372210261557080629846636195095497879148489727256658021395486292684915211239424.000000 -48631072777095120685632706618716889496137609504089380215273261547105650916406536974898043327594757095424.000000 0.000000
-48631072777095120685632706618716889496137609504089380215273261547105650916406536974898043327594757095424.000000 10388535365329786470100714740547149011310360013780296713687431200412219987270124211608926723867389460480.000000 0.000000
0.000000 0.000000 0.000000
-7895804339736184744029763175222653358263999066039804125092934945343990884847777788038497457550319943680.000000 1592560707548922377869733757284654592103618222282514438729364811052203762119501034553393244007661830144.000000 0.000000
1592560707548922377869733757284654592103618222282514438729364811052203762119501034553393244007661830144.000000 529665909586690099944612271140281471252877574757204560407446609548082780784855390036347198769981292544.000000 0.000000
0.000000 0.000000 0.000000
-401776259303540821838146640909141572962618400706289424555127241087905185534000641169027736649158623232.000000 -1755638234990862695957658968104920740165929290238401104096840813305201789287012064361928717221293457408.000000 0.000000
-1755638234990862695957658968104920740165929290238401104096840813305201789287012064361928717221293457408.000000 990219165354271519801113216582990152290762345046581092166717266499573881794422010960351489928875474944.000000 0.000000
0.000000 0.000000 0.000000
-28875676054575412287951038771606973254382114504857694177395544467301209257662359956015210544574771494912.000000 -12995447361977796750093208484324975977452707630009959208441195150712082376322318459293138061343418482688.000000 0.000000
-12995447361977796750093208484324975977452707630009959208441195150712082376322318459293138061343418482688.000000 6444676812062629977483703309189969311405859415683746581014864700314416738913540197355909621533145825280.000000 0.000000
0.000000 0.000000 0.000000
-31979233038090716012049450713281737781165060365686366817598873612077493210488332525295790238450227085312.000000 633958208060160708915245947256192600328787015232661789883070369005472863435589487810478521747452723200.000000 0.000000
633958208060160708915245947256192600328787015232661789883070369005472863435589487810478521747452723200.000000 115501006744106211255365938003847730162988752341018687066658799319273478568155664255160413601547681792.000000 0.000000
0.000000 0.000000 0.000000
1819809658391122962211581503464931951347018168132041821907655950539847352872683453833822182877595435008.000000 105955023272250039723936600665124954044484357819136785413941406312152465773076965562887030283102584832.000000 0.000000
105955023272250039723936600665124954044484357819136785413941406312152465773076965562887030283102584832.000000 144895171012379352686347891972840253350899474173357394694374937939510093244464235653442228131387670528.000000 0.000000
0.000000 0.000000 0.000000
6624893264726218796369090399767929797617304133072861279850317799530030838114373813460533625801429483520.000000 9409449343795803257275608257612489442781249277041242694299101664857216880428670374789986846039712202752.000000 0.000000
9409449343795803257275608257612489442781249277041242694299101664857216880428670374789986846039712202752.000000 4414328958637058005565064185963885955204773082004920941809813949017276563878831966546861109378562392064.000000 0.000000
0.000000 0.000000 0.000000
74818327108660600029348664713262132514056813270432547373223279194074891962671222311130718321921490944.000000 55047985518797829789934642697125870577107449558104285355761651935186172458777870148231893483092180992.000000 0.000000
55047985518797829789934642697125870577107449558104285355761651935186172458777870148231893483092180992.000000 20181517201245012887586490426004939130900293513570372090236185672557687722101507570942517528477302784.000000 0.000000
0.000000 0.000000 0.000000
-38448104091670319291979410241360006262435271052312637406407662832128310575773524389344426016070730514432.000000 -14742779000616005046889826770478749208285787639630318148993741440426470856541822118249401825399182196736.000000 0.000000
-14742779000616005046889826770478749208285787639630318148993741440426470856541822118249401825399182196736.000000 5935290393845821200802465649531259199134797123385487078198466754518275961081652118921719672702171611136.000000 0.000000
0.000000 0.000000 0.000000
-164430572641914567801727285916826189110113798909181037986406016627796992151439370325703015770722245017600.000000 26736733841774541332958587117837193298150319361724701896895595704943776467613399624765173650329234833408.000000 0.000000
26736733841774541332958587117837193298150319361724701896895595704943776467613399624765173650329234833408.000000 7591813278947540976086251467967927828796004848365095719393341090224309171285672360934863460957750820864.000000 0.000000
0.000000 0.000000 0.000000
5634049723332928307574380156377054445618999492611427454903015450854485234299043292623097000686170144768.000000 9939811923970945114319773339008283007877799190883032090955460856578532119147703689135938960271863709696.000000 0.000000
9939811923970945114319773339008283007877799190883032090955460856578532119147703689135938960271863709696.000000 4872058181979407189489560440380575970609853986285823268370504071371032299513502062083819081485374193664.000000 0.000000
0.000000 0.000000 0.000000
-199263173769743705990350372563816976884830113270804178399795569545947320777810958860621451569804607488.000000 -1285501574245707852913126767490400052953886616201867264279104880511226796900177555100228385375709560832.000000 0.000000
-1285501574245707852913126767490400052953886616201867264279104880511226796900177555100228385375709560832.000000 403809093809520930585485727434618494389961425748221009612095826658539329319062648124204555836453814272.000000 0.000000
0.000000 0.000000 0.000000
-159059648441526073972856038593627365817504867202944961547094484695837950021141171056298099847943159808.000000 165191297668030253807124951675757615105340851028637096368137017963218357886681300255442758351238201344.000000 0.000000
165191297668030253807124951675757615105340851028637096368137017963218357886681300255442758351238201344.000000 251287108295181869904542862017182735362632698155356923588663856351931269550413648302049567678914363392.000000 0.000000
0.000000 0.000000 0.000000
1362005643150126663369185370328831931486119744841758715065672333123464810765899870862908189610700963840.000000 730313733340982169919420576955757587363197790025078814727452330236620724318342239303684276731200405504.000000 0.000000
730313733340982169919420576955757587363197790025078814727452330236620724318342239303684276731200405504.000000 287327661869692155718732906098341402989139638635978838417622560466586403865131052075520370269113810944.000000 0.000000
0.000000 0.000000 0.000000
-1344404542488667076559429666186810884542994823884101061178379414326039725757113190500370037298939559936.000000 2650046944152939238871847741229613876124050590382788547521500766108651366704699994731769228558981922816.000000 0.000000
2650046944152939238871847741229613876124050590382788547521500766108651366704699994731769228558981922816.000000 1780435995470989367346748589180916996159119298611894452776930635402955689021967938957892874253314818048.000000 0.000000
0.000000 0.000000 0.000000
14574367855733953266107251251282913090826538230363946051290573273841943760625304212463731328074479828992.000000 -7570347648098945369627896664619968802292764216428012737681874678946500194597200175982667154782397923328.000000 0.000000
-7570347648098945369627896664619968802292764216428012737681874678946500194597200175982667154782397923328.000000 2228943010492727869548407970709605460029098948367984166851373279264443875000279646872097873907287064576.000000 0.000000
0.000000 0.000000 0.000000
7016865234457232263825413336429860082002199561526852635257453443131650261092517913923041013861353259008.000000 1702881947601364978987470888065180388131453610298493730646836511277079606054258393744345737445888753664.000000 0.000000
1702881947601364978987470888065180388131453610298493730646836511277079606054258393744345737445888753664.000000 478379450850752672008312364505813707526444652425879965643512882982156867440930623298311390033749213184.000000 0.000000
0.000000 0.000000 0.000000
1133963739749132076718649295021622149794260280624875132355256086966727491806169774008871128164319887360.000000 -3771219649680206421347880674606609663319806652253077354457419288796964097322939111496899041781019049984.000000 0.000000
-3771219649680206421347880674606609663319806652253077354457419288796964097322939111496899041781019049984.000000 1983589130523000469380301923853125542418502475060622389524776784302433160086214683495361375841831354368.000000 0.000000
0.000000 0.000000 0.000000
7406067315398601137769561109114940906796740757966174367346392128913929279586219717952794168862600855552.000000 -7339260563107835936191361495527302269930898986218705610616707373050124880484820520208199851740860776448.000000 0.000000
-7339260563107835936191361495527302269930898986218705610616707373050124880484820520208199851740860776448.000000 3483889671608558372183289247222375450102582461751241237778821672648337698883173104306751407178236559360.000000 0.000000
0.000000 0.000000 0.000000
-5024413436843000132751221201446746176021575393583002301918789978596509859180588697836920654958461714432.000000 -24146040744614474931512811507948297833605095201517209708428426075551136434838486193702312396879627812864.000000 0.000000
-24146040744614474931512811507948297833605095201517209708428426075551136434838486193702312396879627812864.000000 13623737186846575937050829823995944559048824565462774134118152742383594822049693764090946851138481160192.000000 0.000000
0.000000 0.000000 0.000000
-9171178231260411888975892426647779380054365401957472884429390139014628784454887987160626363383664345088.000000 -7236595695673091649901913303865307677270205478614397371697811192174346690387033116901789466468542316544.000000 0.000000
-7236595695673091649901913303865307677270205478614397371697811192174346690387033116901789466468542316544.000000 4030610465146727834803022769190583876448536246553699298013244073027799839002789973834432619002265075712.000000 0.000000
0.000000 0.000000 0.000000
6770594061774451492418201588260453963135169043131112682205756332355557419360247075881784078781529456640.000000 -24041575240916112200418126015581186187147191594740497609242373178677626421265894596750527107101215424512.000000 0.000000
-24041575240916112200418126015581186187147191594740497609242373178677626421265894596750527107101215424512.000000 17651256727280280521818967985493328801878906180478627390685389451953838713906906885876067903035609710592.000000 0.000000
0.000000 0.000000 0.000000
2643915240609628359863773096525372800832416605316979727986989019207641743615382124192012767706348519424.000000 2952638426817166130677215047112826531695167060239065516937801061955385788578023893312083306345901588480.000000 0.000000
2952638426817166130677215047112826531695167060239065516937801061955385788578023893312083306345901588480.000000 1294785906565998671904970742057495577163144948751907254188612401652635785304124430944058638471543128064.000000 0.000000
0.000000 0.000000 0.000000
9363414740585724397784361707805955437769132393529809124955078359489628905789952685344147866757711790080.000000 10370590934658459442131007963978303232194284930956484911215871488084253740144033417546925442848572571648.000000 0.000000
10370590934658459442131007963978303232194284930956484911215871488084253740144033417546925442848572571648.000000 4518911917886009232932662119393170082007800349993002459814821641690411816290302902220068092484530470912.000000 0.000000
0.000000 0.000000 0.000000
-443939091405157106645447365410121550447122705999255578581228326846920548815976107360769203398538189340672.000000 -6300101328513402916501124493160696499987338559892516807303816262899285764196020832099239472359211532288.000000 0.000000
-6300101328513402916501124493160696499987338559892516807303816262899285764196020832099239472359211532288.000000 750162273626441186891587803221299039039324128031942734128522002548276815062136430323400826072231575552.000000 0.000000
0.000000 0.000000 0.000000
-18285267553548746609084570145489445337896755546696173060817941697800095671174230873426568984275869237248.000000 15475532382937597530429376553415570074482625072485103969114452605307275700493649053623807998280016592896.000000 0.000000
15475532382937597530429376553415570074482625072485103969114452605307275700493649053623807998280016592896.000000 9548504884088419229000605596696575189049526005081366280013458558143032075409864892392501230333608329216.000000 0.000000
0.000000 0.000000 0.000000
16434229771556506298577993283549341526676200430738650960507938842808257346638437755647450519193740378112.000000 5963508249398284846604249260283074915036669775532554186554306087234076339893974425726671236636465954816.000000 0.000000
5963508249398284846604249260283074915036669775532554186554306087234076339893974425726671236636465954816.000000 1924029754359587602002820121439138878282174071818669467774227295317691555799438489404683643023897133056.000000 0.000000
0.000000 0.000000 0.000000
578568346041517252646077344931154437332438211419294445745921148125233646397103197856899103561399402496.000000 355625292679612361885964865938238999352376992654765664593244313139320101317823546883483535362561671168.000000 0.000000
355625292679612361885964865938238999352376992654765664593244313139320101317823546883483535362561671168.000000 189337934259225891579625114702226898943833088925747640850009918068417376111092543272087710260837482496.000000 0.000000
0.000000 0.000000 0.000000
-29223296540132561911949495025168364130495926957826509570457551840512912807871718595184782246691209216.000000 -41018461155270749512303124381561692970769503032083171435306165819469068690403315182367614382530101248.000000 0.000000
-41018461155270749512303124381561692970769503032083171435306165819469068690403315182367614382530101248.000000 23638183312669667470407193708462241562788381275934474342664248471096121021149550707908919561054846976.000000 0.000000
0.000000 0.000000 0.000000
67806168698897731147016724047981703792338460957047401133889527601704681451323035315398807416581409210368.000000 28512211448135092551789280382920930274227725825188276515854348015588021102108933590829013380020205256704.000000 0.000000
28512211448135092551789280382920930274227725825188276515854348015588021102108933590829013380020205256704.000000 7127658830772527873620645177182877095935879836452395781951341078112860703450551404105662912782877589504.000000 0.000000
0.000000 0.000000 0.000000
-111441771587401336119070339525021729766491647716432733513715866522288003613686952526210448986825641951232.000000 -46701550648242186551803865376654782527042208423826636369113907054707941078613404708882936295322038566912.000000 0.000000
-46701550648242186551803865376654782527042208423826636369113907054707941078613404708882936295322038566912.000000 23038399677641800604092381639050198794682476400390365672576043319357742464683110711150256462412025692160.000000 0.000000
0.000000 0.000000 0.000000
21751611050552914401251673405814601010895920526477845755757832728337697516508504319915829677369449250816.000000 13183345530218998611389719269407004498327374543674446620080641399131498142958221749436381522799108292608.000000 0.000000
13183345530218998611389719269407004498327374543674446620080641399131498142958221749436381522799108292608.000000 4308275170979924349648952865360584897567493979358691170010576653338868415776511241205605751342657175552.000000 0.000000
0.000000 0.000000 0.000000
5042227347905717332101721359083311704301330620665845928376690274077256443379181101866408688299668406272.000000 4376132010468604952504425705582187250759066693880812578975553873294239532098402961161930816584018821120.000000 0.000000
4376132010468604952504425705582187250759066693880812578975553873294239532098402961161930816584018821120.000000 1674784589438722951699492936127483359727873574083197475001167183313452961632358538500283522856014315520.000000 0.000000
0.000000 0.000000 0.000000
-1159423687883143919052010434869927200595206705543054316745247240632132279239556169630959053793671512064.000000 338642216196647782645585432631765680298347089393862059850987558642561298799946960683678411593703489536.000000 0.000000
338642216196647782645585432631765680298347089393862059850987558642561298799946960683678411593703489536.000000 254464023791909805914633326739056463897948297879173745464623525245796186997152051307177825928048803840.000000 0.000000
0.000000 0.000000 0.000000
241614380914851731834332130761716896906597548354740297435499506698480735893363051044139330550469421432832.000000 145568362577423726168560139997095739876373576406129885977293074359456882904893353899216853217482737975296.000000 0.000000
145568362577423726168560139997095739876373576406129885977293074359456882904893353899216853217482737975296.000000 47383189650294864959499086195482255037584761218827813798196913262389941924867180958770194653413239685120.000000 0.000000
0.000000 0.000000 0.000000
-1672919796352665061476755822869845389141604376730135784225660612965643778904412002173941254749987799040.000000 460620707026677157747851870479876763546670716857223924536530185654759585144981857624570555838018617344.000000 0.000000
460620707026677157747851870479876763546670716857223924536530185654759585144981857624570555838018617344.000000 185258354109166387599220689509941420937862487700473299264268228517086862837712271381300123447228104704.000000 0.000000
0.000000 0.000000 0.000000
7845606273656237527835552147713617129878753983511892459882323165024444581363873803137955055040712409088.000000 2008281363369176116308954345017555889387091540964165663763914339012998214867735066872246430749255794688.000000 0.000000
2008281363369176116308954345017555889387091540964165663763914339012998214867735066872246430749255794688.000000 333748635878148709142999154014559451777173325695298698908600652349175552894700433027328583730104107008.000000 0.000000
0.000000 0.000000 0.000000
351889058831202361219527536342415997626171644896082488193035451887643741366145761755919174340857298944.000000 3291690953871205345345750582223260088956748930135159507746225620248078353632158271044122315257760710656.000000 0.000000
3291690953871205345345750582223260088956748930135159507746225620248078353632158271044122315257760710656.000000 1800557513381997019745214556010325077354329896027479448026838960921319465792837773749043395544827822080.000000 0.000000
0.000000 0.000000 0.000000
9134524891092072714158972623776966605120745067475814262234897706976099783410855972468040922451327057920.000000 853103039015960729951594057506268420533946261781130082202612717695034786583356432667422139203467608064.000000 0.000000
853103039015960729951594057506268420533946261781130082202612717695034786583356432667422139203467608064.000000 52780419587287830015113934132822569753709999411755322392107350737030019615288356035422758927962472448.000000 0.000000
0.000000 0.000000 0.000000
15911779472039911429155178055756282880659172222791229770601398525685907915293000394857052113920780664832.000000 14146223906881675578493617911166652845635276222907164796277727412187165323050428054882113251265721925632.000000 0.000000
14146223906881675578493617911166652845635276222907164796277727412187165323050428054882113251265721925632.000000 6958649713754933460883976770402691016569216406723357160643858568455258885071112296398623725159366787072.000000 0.000000
0.000000 0.000000 0.000000
-430947824529248474929736398536142775505966906049193733071240977110231133835499459776067968806872592416768.000000 -2730864490525548054614537103380150609769948826279864639479049988111298190358068101349744846874716667904.000000 0.000000
-2730864490525548054614537103380150609769948826279864639479049988111298190358068101349744846874716667904.000000 141863211258595066241797441968678488868639163464433952466720057903172415546548397049224247361495105536.000000 0.000000
0.000000 0.000000 0.000000
114769911928706063143590967101508111188982846208815208356701547688147525965285357309832118583863279616.000000 159870161382926566287950117989319712459923936968485482716179121646476668126245495078401048572460007424.000000 0.000000
159870161382926566287950117989319712459923936968485482716179121646476668126245495078401048572460007424.000000 223371954310822935385973024675491684304673181332469397828993243590678319932906010418286995022534410240.000000 0.000000
0.000000 0.000000 0.000000
-157616977697658775323287288554336625731666362901099026884074153991544495913662482151717883389356802048.000000 3714106442266298790887250731519349201285236136919654917475936865649587609952589664894011854838082568192.000000 0.000000
3714106442266298790887250731519349201285236136919654917475936865649587609952589664894011854838082568192.000000 2055661173261829188836689859149014953187163856131112251412109533451654010410412473916457183770480476160.000000 0.000000
0.000000 0.000000 0.000000
148054701385309598774310657807475888000015125836389181079056176484783577403468219450126816376271142912.000000 -45122509079877524978114407201988107350256912656189022495348491081316915461228221823859034294698639360.000000 0.000000
-45122509079877524978114407201988107350256912656189022495348491081316915461228221823859034294698639360.000000 38210219275298538561086487312952499803775436834844852615171516470689904871362399806685850330889977856.000000 0.000000
0.000000 0.000000 0.000000
-3316074886443401338395428719988399305995974924852678870120806101846590327292120572106224731378126159872.000000 -4021510289831614247097148034709801188362844342380019280502088915345331335438181192603594284584094662656.000000 0.000000
-4021510289831614247097148034709801188362844342380019280502088915345331335438181192603594284584094662656.000000 2306483466477353821107337577153315740350912123934692490064374732520512146149449105782216250553031196672.000000 0.000000
0.000000 0.000000 0.000000
8512215510343919577997775493329983368954095816823587224533783222051507883325268441877594281221107482624.000000 12342308264153420573958891132632916475995606349998371783416591473952656521782158281093053340025714900992.000000 0.000000
12342308264153420573958891132632916475995606349998371783416591473952656521782158281093053340025714900992.000000 6938417449016979844368702715026100243528375135675821096589900171482980766877682225037870393844060651520.000000 0.000000
0.000000 0.000000 0.000000
-29302654060075442423896875457343378562111475497122269362250032742346651918607129912309110049045640904704.000000 -5519339314526790719461777013967977863829786570170801350557963618961678368441405296128084380093715054592.000000 0.000000
-5519339314526790719461777013967977863829786570170801350557963618961678368441405296128084380093715054592.000000 1752604143531950546338394026345778900582224522803853672299932673421222768429564883460593442558440374272.000000 0.000000
0.000000 0.000000 0.000000
10643497317434252461222227852735878018045913207802162950734541225899992026577951970207859735335828193280.000000 33824996046150959523430332550147044930548196203709506516662819532657189749619784144386740745377807335424.000000 0.000000
33824996046150959523430332550147044930548196203709506516662819532657189749619784144386740745377807335424.000000 18174584695281018577729770615641119168359366894407442032478714378498884703653913224944086908281959743488.000000 0.000000
0.000000 0.000000 0.000000
29435102215732145786521167524616290316426077107053343117417425420216195181740047447138151139124369686528.000000 -5577060064925747644980227527042682795386780063167525301976951180226382160048357231066186477042967511040.000000 0.000000
-5577060064925747644980227527042682795386780063167525301976951180226382160048357231066186477042967511040.000000 1000574255536624034001362267511470123387850744480697901422748473207806010003842566803053449059709747200.000000 0.000000
0.000000 0.000000 0.000000
1626079982132959458018975512421281740067834155165448119216122711266179789855920404104847717168507256832.000000 -739255004580145304320469732446518385620967413602160525068232165809779814809243534972142704255140102144.000000 0.000000
-739255004580145304320469732446518385620967413602160525068232165809779814809243534972142704255140102144.000000 354385001899719578048649536948918114641754717889447249832458724865301966343757463701752335512304091136.000000 0.000000
0.000000 0.000000 0.000000
115832700673707934137416679811708332789462324340951833218560955959140345773650262376830862278813781327872.000000 99018406137869902777973440916757938920899989372997132117353101591870725099896039280077037791738838646784.000000 0.000000
99018406137869902777973440916757938920899989372997132117353101591870725099896039280077037791738838646784.000000 39103793057319593943109791487231338245698287938541052746716000328402281621589110272436311574340148658176.000000 0.000000
0.000000 0.000000 0.000000
4006741840716657250986475379272616461631380532491751770790161407094096829225898153054261040624936419328.000000 5959045002221381145672695286294725417742306795915816166011456312245326405000337795708784844828181528576.000000 0.000000
5959045002221381145672695286294725417742306795915816166011456312245326405000337795708784844828181528576.000000 2826057279050022282147508617631343766654108714320992581054295837103365591084981794032304408885559558144.000000 0.000000
0.000000 0.000000 0.000000
999572887517377162626672156909407032588604628028253370020053520804138837695094734539196127895061790720.000000 989370033069011575031766230667363338486904024413520474994675929367041005968579631143578895690055548928.000000 0.000000
989370033069011575031766230667363338486904024413520474994675929367041005968579631143578895690055548928.000000 412743278768766227351231367592789041796563922211927818671406638779742418061439239293456489171854032896.000000 0.000000
0.000000 0.000000 0.000000
-14402209880379565247613944525055544605800686636198465668049398724062671730080132568386350976720070246400.000000 -6069443164508438761637574189177307874317689797851098567949554856425402803037223639524731037274479788032.000000 0.000000
-6069443164508438761637574189177307874317689797851098567949554856425402803037223639524731037274479788032.000000 3092086099387357348147434702433930682620530428370842203781765867280934752738524414855524452115234684928.000000 0.000000
0.000000 0.000000 0.000000
23262218516624677939888173079949062776298478763207731636223112505769707958479194219662988069888386400256.000000 -12715108097557328808950293231676888479515275138249994256182782017455336948362531062780829690546834374656.000000 0.000000
-12715108097557328808950293231676888479515275138249994256182782017455336948362531062780829690546834374656.000000 4366993111734221893402653069229699207223917184016082371978729910327931608690346124111462939233345339392.000000 0.000000
0.000000 0.000000 0.000000
160859603358271326737354411963678556450541313139596377424906880531506491915734788220158960009362800640.000000 14921377342555004080639321677283630531748108741687289903097024497410257504619688337818857982163681280.000000 0.000000
14921377342555004080639321677283630531748108741687289903097024497410257504619688337818857982163681280.000000 917312323352553400778626190949091134586427097297363923519949729256251455768023664064110730877599744.000000 0.000000
0.000000 0.000000 0.000000
-6762748781819418522682124933398797865164288221761346758438317163760274169270209544796611424487896776704.000000 -5000663705931188698302157543931789357148249166023526072416699971276345174898401151749531873736594030592.000000 0.000000
-5000663705931188698302157543931789357148249166023526072416699971276345174898401151749531873736594030592.000000 3013489144286150411046188350745015142049343733283812489192469224147440900667394132144190696650136616960.000000 0.000000
0.000000 0.000000 0.000000
3215951158740145090271303858734074580696823197119768987374542839377213456689364838866544051666412371968.000000 -13524008644795765564202297089980251001792724255102144660545428706780203970164165835509770405760731185152.000000 0.000000
-13524008644795765564202297089980251001792724255102144660545428706780203970164165835509770405760731185152.000000 7214497278501844196429517036023411347295871743716068687331796255834299747698265803826368426321693900800.000000 0.000000
0.000000 0.000000 0.000000
20775057387094907321656255876227175060953322450548674535846762515827943103158479839362040027701468725248.000000 1200524061693325545464993566963066307404235044426874039650199138160797061217923679351370809766584516608.000000 0.000000
1200524061693325545464993566963066307404235044426874039650199138160797061217923679351370809766584516608.000000 49527776323496282584180336931774804051629931535744540307492832286093980079771659956966839093007745024.000000 0.000000
0.000000 0.000000 0.000000
-19027134786485393743614748398272090477018010539864010546516600677641581671654005847755625915910739669811200.000000 184742675825160218744559073121514723850954612869105014005835673013792705945227442783417936650447076982784.000000 0.000000
184742675825160218744559073121514723850954612869105014005835673013792705945227442783417936650447076982784.000000 3584385665890856840416853195122262441477180827792606755075602752748911417326787842724165240236982403072.000000 0.000000
0.000000 0.000000 0.000000
5931089244957593700715549726068167963081972912941306566983870376141750400669429518407781950126787919872.000000 -3826593620821852180251408305849824266631882963135517498672806486307728628624037270744123064067091857408.000000 0.000000
-3826593620821852180251408305849824266631882963135517498672806486307728628624037270744123064067091857408.000000 1300176901799929211294409954071617682832969980848610953760306105274482642773280486022088870440443314176.000000 0.000000
0.000000 0.000000 0.000000
-84855885317825215261904526638425053559389217956614140018245448068316226815941657127570710851598103347200.000000 19244616499144141487701292474707085665240266679908174477810251469137841979035191014854796934282012000256.000000 0.000000
19244616499144141487701292474707085665240266679908174477810251469137841979035191014854796934282012000256.000000 6904278214768476781894547100921508645097730069935774013264465252179604212280171984559525694137843056640.000000 0.000000
0.000000 0.000000 0.000000
7076150909144289001446514086611886708865486756394405921852670375134216522367605280190830651767531765760.000000 1712679098405666131237915145614211134547883682225240321756463427768320566143357036442151874085450153984.000000 0.000000
1712679098405666131237915145614211134547883682225240321756463427768320566143357036442151874085450153984.000000 266189403684650301320489084880344512252636630906616044351858248692838464831773671355315979232640761856.000000 0.000000
0.000000 0.000000 0.000000
30082691219496879107928076419217081295025559706476077408948341061911498016614346379379261457605406490624.000000 -12156713678235331822151764897922258319472066739259013901305838078045624461276906146913003425820049408000.000000 0.000000
-12156713678235331822151764897922258319472066739259013901305838078045624461276906146913003425820049408000.000000 3069080799838919768823660723227472459076211135910829022090077305248849596790532562778332387128377344000.000000 0.000000
0.000000 0.000000 0.000000
394817630061903847840553435963338059501229245276045596583632680206718820613978599265751790122933682176.000000 91348894437069928964213636625770926706989169797368475529297563869662678064515775678736309777084710912.000000 0.000000
91348894437069928964213636625770926706989169797368475529297563869662678064515775678736309777084710912.000000 98819851012337558529846535098220825034202562332638656338850243009130058017337719773035710730844766208.000000 0.000000
0.000000 0.000000 0.000000
1208553735746572509603008654709514850103440742340494993767939978400755553751324005457260590295469260800.000000 -794454249200364331705558306086169172088602520446470018903252969140185882341236861372910467882277666816.000000 0.000000
-794454249200364331705558306086169172088602520446470018903252969140185882341236861372910467882277666816.000000 318892958160350418138873405357139840787264775504545018530603681330059294451414327965739815195105034240.000000 0.000000
0.000000 0.000000 0.000000
-1353112843059697168536689518192102011635193809956265764345370648550559906513460031137805396247742251008.000000 -3798285493223821599448564891079574597837221091202422430818918443636487106329309738337838507044466851840.000000 0.000000
-3798285493223821599448564891079574597837221091202422430818918443636487106329309738337838507044466851840.000000 2180259069891322104887309965201313568589797320049286712930465640844812527598177443672118745865734062080.000000 0.000000
0.000000 0.000000 0.000000
1514820577472337334534480945022682790188041053710380282350864352463584885756043314249069804938258808832.000000 283907582565495661379462388333914610468521487504269805045595725970239585441817495335856418685425025024.000000 0.000000
283907582565495661379462388333914610468521487504269805045595725970239585441817495335856418685425025024.000000 40809144685189910589811294711598828418949801682471643267856949235006318233905991757346296566193848320.000000 0.000000
0.000000 0.000000 0.000000
-681380645622700252142509219643933420401543498514439321628879640574927532562338298522307863258559676416.000000 -427138661593609060702637464014223008498368011742142133705087773385493710849629293258531565631008931840.000000 0.000000
-427138661593609060702637464014223008498368011742142133705087773385493710849629293258531565631008931840.000000 205660531666568932068379823633520075709312695083529379862581018273014903980653245515142542923587911680.000000 0.000000
0.000000 0.000000 0.000000
1342877888116231100378708069775998381333412677430899605536079029982368275030890876305366331676845670400.000000 3500389940932581874001614594519807473729520805743673225418750040335405514566945726089967732370469552128.000000 0.000000
3500389940932581874001614594519807473729520805743673225418750040335405514566945726089967732370469552128.000000 1813299954639696675760410169768060370595273581008619673702457513817751974745909630299855154034581176320.000000 0.000000
0.000000 0.000000 0.000000
-6849718339956191409166916328861864583418599678286661180601997716309350326085962207798579099046172950528.000000 1322390884910319379192983635075255333024050680931918876789549663689923822547343310689701125102793392128.000000 0.000000
1322390884910319379192983635075255333024050680931918876789549663689923822547343310689701125102793392128.000000 441715965856268226856662845341820754374600287682572741554250508896806966310197801459572535212191514624.000000 0.000000
0.000000 0.000000 0.000000
1061820529440407246767429371718968240607812016199447349429491625182242405553458824409441914023571357696.000000 -862623745296329960443301735918767397892222655270392097054808569676615732010097933187659188695644241920.000000 0.000000
-862623745296329960443301735918767397892222655270392097054808569676615732010097933187659188695644241920.000000 332828696105825248580039251833293187840242760497271712138669600349694365914964092294944776677486493696.000000 0.000000
0.000000 0.000000 0.000000
807401132079623737386536399598480973216401050128205825932900051746408994223516137933185686312646082560.000000 -683643165359208391932347337412499665244125670360429838636888767859410391249992189363526460611372253184.000000 0.000000
-683643165359208391932347337412499665244125670360429838636888767859410391249992189363526460611372253184.000000 268779172912851795291165923796205721340178741806314363727726557368739177167108001471708174968099438592.000000 0.000000
0.000000 0.000000 0.000000
-293358706402518035684240886192006115115827459447807168207201793646119973393650938498253683860108663062528.000000 7158663583836076559829719844677017133726326212069252653994296795892162181656020513311388617326219755520.000000 0.000000
7158663583836076559829719844677017133726326212069252653994296795892162181656020513311388617326219755520.000000 348486203682388101807826392367971552009660629918658348192825720967534278521503580001809747943855489024.000000 0.000000
0.000000 0.000000 0.000000
227750690036852024995703707750175558449136233674006802623557853222361108438844092374040038152050049024.000000 271945449834318134390323844315382845924395162088158955632174821388859310804384336967519214666036281344.000000 0.000000
271945449834318134390323844315382845924395162088158955632174821388859310804384336967519214666036281344.000000 121798684323234860179327006693481148170116828027154898409493828485588922263228327444413797361751425024.000000 0.000000
0.000000 0.000000 0.000000
2916904168194594925559536765692085876843494758902168447744724293375251125065398781297147067257222856704.000000 -2383006597395434994579334854964014718433885730558736619274078403462906126808684905474603164205217480704.000000 0.000000
-2383006597395434994579334854964014718433885730558736619274078403462906126808684905474603164205217480704.000000 921137508883973588947024871196408843837819553876807407911582580641953490220129387786502888626130518016.000000 0.000000
0.000000 0.000000 0.000000
115701720765313922319557557344636559117047581320284400747201022360926871097643048178877157807155576832.000000 11861941473984622256336530234654546560283553977290109880410114560657554737537694268606426962945114112.000000 0.000000
11861941473984622256336530234654546560283553977290109880410114560657554737537694268606426962945114112.000000 47990925158541082854811086830410586975817835916586608598675324039998576396780127348603151283631685632.000000 0.000000
0.000000 0.000000 0.000000
29569050707939081341041691041618291181741053812141815162774525022674344437293061391506947968053125578752.000000 45879126256717568603176259059179940795776818617034202538679960236550888355705505521023028416627324485632.000000 0.000000
45879126256717568603176259059179940795776818617034202538679960236550888355705505521023028416627324485632.000000 21943375459686255419431347238715308940947321401124717904762827272815854345987746130323740342491694497792.000000 0.000000
0.000000 0.000000 0.000000
2910833590241029850064872928630006339888276413433269969200835285392492919192200489056927809991904067584.000000 -566245454092682235889775535419278611707300827918459055516291494112514628392548087887238484756980039680.000000 0.000000
-566245454092682235889775535419278611707300827918459055516291494112514628392548087887238484756980039680.000000 79056102442751355472292688689849385882837309916948785504004511572390321485512748292529569960686518272.000000 0.000000
0.000000 0.000000 0.000000
5452131750842393482759383157413048359247068469763085845849864536624701189685987802719504219615688392704.000000 10162349500841089441451496943719851732519166689357919405006377957443939399838086637706481956654759804928.000000 0.000000
10162349500841089441451496943719851732519166689357919405006377957443939399838086637706481956654759804928.000000 5283848748553096074279750639016636013243951573806941262707530118133287774827205388247182445216475906048.000000 0.000000
0.000000 0.000000 0.000000
6717694953933049419706689700346226748072265549238729865612025044329721709693083412069975630447739142144.000000 -1189344005857500239740099110912594003385597879506350600107544701489463484310903023885206633610288824320.000000 0.000000
-1189344005857500239740099110912594003385597879506350600107544701489463484310903023885206633610288824320.000000 251941438443269939127440611048398707712914517800976699725483943737052743445132855597039159459069296640.000000 0.000000
0.000000 0.000000 0.000000
-5110020985282747554821143976803973738067525616542355366611349158647978056475389280237109077362090180608.000000 3252741122454538097538032532988471030425176471486464129123461225688344971650871786474527101759552225280.000000 0.000000
3252741122454538097538032532988471030425176471486464129123461225688344971650871786474527101759552225280.000000 1991055886746478069829293907040938401519439907291388648436985350027586965288130064621991074437890310144.000000 0.000000
0.000000 0.000000 0.000000
13104284259571734911775717675453178976676147972576750590156793010992833885744350496803271662784575700992.000000 1534591366263192822156585950239774442238028718001134125789750877544441203834612716464276754749657710592.000000 0.000000
1534591366263192822156585950239774442238028718001134125789750877544441203834612716464276754749657710592.000000 121978000908745844474694532131733777191517544647876270452533687468975812915903067508083114254826209280.000000 0.000000
0.000000 0.000000 0.000000
836163592108840971841746805023150276739238726884614215368951692086886529021288064400023945664119439360.000000 -741738918657832328402731054558038283128489266554872776107990864978227484506886295421208811403189682176.000000 0.000000
-741738918657832328402731054558038283128489266554872776107990864978227484506886295421208811403189682176.000000 297798713442975052517496478460334304380034957866781839742576743237982982235262184055680181900878544896.000000 0.000000
0.000000 0.000000 0.000000
17022669561051860376088747418672850686683073145534447394773123677167957764502068442372395482614471852032.000000 -7725439520333633151151200081286420895023059368159341318170086717313951258228390829586407320080481255424.000000 0.000000
-7725439520333633151151200081286420895023059368159341318170086717313951258228390829586407320080481255424.000000 2672238572644565758900145086182205313881008589711161766432110186339604321026500570839692840572519710720.000000 0.000000
0.000000 0.000000 0.000000
-26390210921888320168295226396314634910121523071971865818425439015403898004594085047525946509740375801856.000000 9925466936425490214699342108449594508761633786605473682493699649983851892999635406615688034902054273024.000000 0.000000
9925466936425490214699342108449594508761633786605473682493699649983851892999635406615688034902054273024.000000 4620004753789516765188166283700713319287521202851643685466044459711866534283296177450890710971093876736.000000 0.000000
0.000000 0.000000 0.000000
-106188505510858359655150387680471061576859205748526528821055278889082526982902142965156649679978496.000000 -10219833218638405819784824840096263419794460730159000953246918356852924146515435668938938055131136.000000 0.000000
-10219833218638405819784824840096263419794460730159000953246918356852924146515435668938938055131136.000000 1328784801753247087843497602142163394576556267793064944796082126783531205690101440028573614211072.000000 0.000000
0.000000 0.000000 0.000000
-57397995254137835297535543070415193575892516801112651600014825717701442292824954674193312270377325428736.000000 18022740324969203304974505347642927262425058091962740566227301195025901988897357377811291943823927672832.000000 0.000000
18022740324969203304974505347642927262425058091962740566227301195025901988897357377811291943823927672832.000000 7733686842082867870577310774509903223947306447212573250964680723265156750153850320119677572185971490816.000000 0.000000
0.000000 0.000000 0.000000
-6221681720336515095844225638271246756221973183710931719435684457263224772441311188445986265998701887488.000000 -5754238647854321062347884521116827951238867511596097464223284260119611179478500927899319394562792751104.000000 0.000000
-5754238647854321062347884521116827951238867511596097464223284260119611179478500927899319394562792751104.000000 3531900897795544830733268608685810390224644361753651432412739076262974280343684248359860848582608289792.000000 0.000000
0.000000 0.000000 0.000000
19843756801948918033206558549135103684374711738545848804632166449578024489073427055339006661771556552704.000000 3766525381196520181504605256380687322172811666410445656343990007274964309511233740124897624944191471616.000000 0.000000
3766525381196520181504605256380687322172811666410445656343990007274964309511233740124897624944191471616.000000 465385555120115591992775004009464318600667870514255232463563040121623282357661211907118889052900687872.000000 0.000000
0.000000 0.000000 0.000000
3174551689111571489281871142091166790526616549351204225873808972449419972950840405283565148729872744448.000000 -6822186927471638494182516829823519527313273195113564971624568437194716384990767362615203756158388011008.000000 0.000000
-6822186927471638494182516829823519527313273195113564971624568437194716384990767362615203756158388011008.000000 3443818653258249680836897216963119063631910390329968944818433396767782180837260375644215832529436934144.000000 0.000000
0.000000 0.000000 0.000000
-40039493017290750710683361346268577277984846011171782936033420827644761924701699861592719938740199358464.000000 28563503193148596955357376246172282944481026741779391698671877834961851032758500267660226318430587846656.000000 0.000000
28563503193148596955357376246172282944481026741779391698671877834961851032758500267660226318430587846656.000000 15682947391065233531538764151626458875051211750214745141961810398787227450286268106508740351685302419456.000000 0.000000
0.000000 0.000000 0.000000
30367743932375974492669118046493629471371139204753999578040142299531394819717009641662228945308393406464.000000 -16107595222660650348698407028260149624400227561419739843693832473148561662713349570444082199308254838784.000000 0.000000
-16107595222660650348698407028260149624400227561419739843693832473148561662713349570444082199308254838784.000000 4943492049019739618588418543464502029867096097749866346184139586206316438611110968507015124363501371392.000000 0.000000
0.000000 0.000000 0.000000
-1601343237493499633576763896820535004972843632339764748800502608148151405136756579347276815373730578432.000000 -11324204365674119490059607510884844682524468557450545539494553596672831187738958559737755058076385280.000000 0.000000
-11324204365674119490059607510884844682524468557450545539494553596672831187738958559737755058076385280.000000 109828541437508177156252494854300815388699843919061026066820459611619242360835380326144767720278720512.000000 0.000000
0.000000 0.000000 0.000000
506253637550246857027139274149290504472672643363717720399768325286644410970071844146991414032667246592.000000 1662191396747296675817819375947152687952958833070371173754778575415806437627608526829845119089934073856.000000 0.000000
1662191396747296675817819375947152687952958833070371173754778575415806437627608526829845119089934073856.000000 872207568038865733909550856569072679173353141055521630667748098343620195980713422866507732490127409152.000000 0.000000
0.000000 0.000000 0.000000
-477070619421962611502909220591465321907011074512283916074172306938791629746675392575878484902572720128.000000 77691669429435290968345939002413727178105759101558974611087341472734285492007339409983244806796607488.000000 0.000000
77691669429435290968345939002413727178105759101558974611087341472734285492007339409983244806796607488.000000 24282449852902452154689766011710702665349614069165384106072908159326332015837133654837385056625885184.000000 0.000000
0.000000 0.000000 0.000000
-4000467186661078085624237973024267779816565155811435942826945495185467517685272160658150384309255536640.000000 -7834517300897494169544111178637598344987201776313737497716339207116072262213325126468139069007334473728.000000 0.000000
-7834517300897494169544111178637598344987201776313737497716339207116072262213325126468139069007334473728.000000 4519209751745409204988224853630218294286615133948686376464769030235224837845690057393381575943310540800.000000 0.000000
0.000000 0.000000 0.000000
23626208670768171238053776252937433567335060415731701416368572079298380429397656514917456140416707461120.000000 -176798221293436176455206630368591485283760430878271406440904144927044912900264019786782136051189178957824.000000 0.000000
-176798221293436176455206630368591485283760430878271406440904144927044912900264019786782136051189178957824.000000 96258653217997464038253828207794299430015474148853663369639661889196352295985425438292924949044943388672.000000 0.000000
0.000000 0.000000 0.000000
-19820761221400788382487641308721710159907752967367156193704532458973907520590538382360611255104294617088.000000 -6454131354567969490004837962881706475015039874618220964520047571223704976114956616729668908514990358528.000000 0.000000
-6454131354567969490004837962881706475015039874618220964520047571223704976114956616729668908514990358528.000000 2896120260096886668918927048142130998566892489882248855573504655272715004480595509329455324373857599488.000000 0.000000
0.000000 0.000000 0.000000
132878295501042678108928486535825463353151927352039961944188567745945157916596667554916207511017095168.000000 -224475174066715345131129963522837406674984559399774039391798519169539968801265689411734043413859794944.000000 0.000000
-224475174066715345131129963522837406674984559399774039391798519169539968801265689411734043413859794944.000000 189451424156052377272851731772994273424227583065171565169853568337394818344989406880103691429565431808.000000 0.000000
0.000000 0.000000 0.000000
6118083187356856495527642015886748767601953359808361562481292478369704855024642098945087166552878350336.000000 -2713143567045193873898043000314573017482149478632560273720214192329324164737918333458190987865691783168.000000 0.000000
-2713143567045193873898043000314573017482149478632560273720214192329324164737918333458190987865691783168.000000 710109960276064494464133566971440967921103885765885822780710218707679172899204722925282040633708511232.000000 0.000000
0.000000 0.000000 0.000000
277012358030881360919474021417418754976570477145607799413194308492372502182438876464275263607510401024.000000 -511362434832953751894048450053226634814518191922919125185007640252856711251395451435015371158500409344.000000 0.000000
-511362434832953751894048450053226634814518191922919125185007640252856711251395451435015371158500409344.000000 367721782764307605269745399158941816679221636071247503412418924491015780997489638698824047593986719744.000000 0.000000
0.000000 0.000000 0.000000
487332061593246004661277402402216980594109413952711574807188730075478727282802302370957571040676413440.000000 386292682926141750354118203295799698251659324236632559148411380731689863224650422672050445928821161984.000000 0.000000
386292682926141750354118203295799698251659324236632559148411380731689863224650422672050445928821161984.000000 214502982763069027422555077132721427090355992522151535505255600680162323792611247506708360390168805376.000000 0.000000
0.000000 0.000000 0.000000
-90816780495159550650340044643306552719532442605944852841607586075060600826450700140130448529519410151424.000000 -17400777411413796402960317454320601649974688980719702988697423380722503563456219327383938575846543982592.000000 0.000000
-17400777411413796402960317454320601649974688980719702988697423380722503563456219327383938575846543982592.000000 5588804704852828147795559307126616908056752564714353222712921132712378889283831009090433977737635954688.000000 0.000000
0.000000 0.000000 0.000000
588880222472454966557304004233340393014477678566265475776535612980152305807888976747241107342479065088.000000 -491244772901065045354599776751299303984090232306837341444858290073313733727708980514952084875240275968.000000 0.000000
-491244772901065045354599776751299303984090232306837341444858290073313733727708980514952084875240275968.000000 213499864350352189807291463698896083750427219375530616202899471170911830651378851586347452325490065408.000000 0.000000
0.000000 0.000000 0.000000
8966988191710326405377697439167227359401829758704628843110000348235586350256850936599647523757711425536.000000 -4988108630239386136614136574706252100652938308014933936923270945458789782412665918201056894878385963008.000000 0.000000
-4988108630239386136614136574706252100652938308014933936923270945458789782412665918201056894878385963008.000000 2091874831139334978676574411467534698354280646061583720029752166787489038650416967027488231297405419520.000000 0.000000
0.000000 0.000000 0.000000
-461606995338682222048718534652737194990530848885200557576204778844933277589402746116724453967524790272.000000 413478454535433007323663254888046763607220359129259074228056607631932824042342479609241406136282775552.000000 0.000000
413478454535433007323663254888046763607220359129259074228056607631932824042342479609241406136282775552.000000 230023933678948722719025328498007212111024028940271329583549394754720378736570054168481375017714581504.000000 0.000000
0.000000 0.000000 0.000000
5461940246585182706433075182141553745503200727219189877335984936670807480699475329020252658798224736256.000000 6662137588573658083250445232871117593150444048692110318859349349909445009827520898120940472029035888640.000000 0.000000
6662137588573658083250445232871117593150444048692110318859349349909445009827520898120940472029035888640.000000 3166132605413801139700802811804508664542786829715260292167826253973154286456963479275235776379712700416.000000 0.000000
0.000000 0.000000 0.000000
-8216811977435918248189118586020478612869616198859678160301171077762389487107290133554189085024647643136.000000 6113287051383889967601474279103262443496893254919472087444646453690563756044838267106840712453174591488.000000 0.000000
6113287051383889967601474279103262443496893254919472087444646453690563756044838267106840712453174591488.000000 3380313186887275956257458896763866325002729995106843637704876347052525188723400911924440405898476650496.000000 0.000000
0.000000 0.000000 0.000000
26867367534802095907050758124906790600020229238378193805505237896047363469945653360677877850530000142336.000000 4528501018408221407770880014751007168265487218759472390006133400212083324571111318098832491475604865024.000000 0.000000
4528501018408221407770880014751007168265487218759472390006133400212083324571111318098832491475604865024.000000 502818946833602648266302211342722540318996164249664690385763575151432528459573220443846755932086206464.000000 0.000000
0.000000 0.000000 0.000000
159292386708070345899582364204250882570649966726027256509822716031947760818649382656165717268934688768.000000 287277885720992554774263511030660626157980121836709225263079789837958691755658670494205323383545004032.000000 0.000000
287277885720992554774263511030660626157980121836709225263079789837958691755658670494205323383545004032.000000 142102617113404744435526397111640210545063860618205883223847530658886161516496383204202531780139417600.000000 0.000000
0.000000 0.000000 0.000000
-6020891260363248714531266702125451481045542716207639585287059045008845830697856706075568270260414971904.000000 -5621486997784765578480759748317013566824073844498515728496056950360734087715488496649481011386302595072.000000 0.000000
-5621486997784765578480759748317013566824073844498515728496056950360734087715488496649481011386302595072.000000 3784276092672421478839607686169580586766880263269997920334785131963246050646225608657847024614702579712.000000 0.000000
0.000000 0.000000 0.000000
59843420652874422571924130647368675971267614405022118526098194787342664986616846729747076368146890752.000000 44809617275254437819644986506967301148495309765172452790754021044953773487487112908072942155509792768.000000 0.000000
44809617275254437819644986506967301148495309765172452790754021044953773487487112908072942155509792768.000000 16578705767532089338510934238111577236441142814552024766630029375589128367782291022113117065439084544.000000 0.000000
0.000000 0.000000 0.000000
-83035490389141421202666758512815713036351155033241819279245723043188994498102667271741978262271755812864.000000 81463113739314905861533632632566423590194698420388256675899570425371855609163371295821402087366466732032.000000 0.000000
81463113739314905861533632632566423590194698420388256675899570425371855609163371295821402087366466732032.000000 46191186840687111394918093274884323374752092442603541177738082836897207440518109279508183156282825375744.000000 0.000000
0.000000 0.000000 0.000000
2510014687741741509865282414695581924616857662071390988457351661184745545869147895472853233112736333824.000000 -204576299145963807503474229455553659152892878815690731471488042164179520210989197062353567943422377984.000000 0.000000
-204576299145963807503474229455553659152892878815690731471488042164179520210989197062353567943422377984.000000 16567598022470737047907940850504502692776870116165904018250643965639758691307925251680219636013465600.000000 0.000000
0.000000 0.000000 0.000000
1141984456240392886338684407722227249636499563143144415915632181949408263312248934102622712441660768256.000000 -347115132432005822887781431685851831363251907214325646082872256452339300231848439581412709217182154752.000000 0.000000
-347115132432005822887781431685851831363251907214325646082872256452339300231848439581412709217182154752.000000 82295114509628893942605914021818035077159483773999914487101881555528172407675604294849631380331036672.000000 0.000000
0.000000 0.000000 0.000000
19135943142227883351529917726678591846786996555784578623270813092710237419015368268057743532269510852608.000000 -23608070531924717318513752597489643203255780941188666776438667246805148244751339268078428505417409626112.000000 0.000000
-23608070531924717318513752597489643203255780941188666776438667246805148244751339268078428505417409626112.000000 11030723304497335663611938364144482532738251437456405917037549833776777244920086985554541705796782129152.000000 0.000000
0.000000 0.000000 0.000000
3831591357614800979771027033701926449873063910484057054012343073505719504237748663271595753148543664128.000000 7334591833875341014470490253561624485855791992047837932234298603697153169017709626852131166668980224.000000 0.000000
7334591833875341014470490253561624485855791992047837932234298603697153169017709626852131166668980224.000000 560043754344385383921096761620513360123168057053756041286435793180621062197880529540199561035776000.000000 0.000000
0.000000 0.000000 0.000000
2596301932007199668378610338759952543143089330070591422714186109483626258810106298804832062149863931904.000000 6559646275194558117734636502679599031934448866498544371399323005348881905579082240375130167541837594624.000000 0.000000
6559646275194558117734636502679599031934448866498544371399323005348881905579082240375130167541837594624.000000 4102591463672328565315510791518261031617703583746673572383242898118191000021855894367919215883600265216.000000 0.000000
0.000000 0.000000 0.000000
1608751197100184950969463787068595071166539482394778756155181077565682708869746739196934028249364692992.000000 6769865842633372145790763097952891451170639250362455968933264334008609701419670653180058526587763556352.000000 0.000000
6769865842633372145790763097952891451170639250362455968933264334008609701419670653180058526587763556352.000000 3743168817604635390876642352285469851214298811283676303759691682458383089021116782040412227583340445696.000000 0.000000
0.000000 0.000000 0.000000
-1987531325289064258792827935903785926968953319018890575025400313842925388083654840835647797784003739648.000000 1433816651706403921048436662579364157310671034275003382575612178561458940624238523488760542994414698496.000000 0.000000
1433816651706403921048436662579364157310671034275003382575612178561458940624238523488760542994414698496.000000 809560259489899466490971775538309024031529359430860822225504436753732022216185559440222024660353548288.000000 0.000000
0.000000 0.000000 0.000000
-4367522468820632593017953286211444297870392667382972801048290742497613962221441654662103314206818304.000000 220026049623070304135363214855735675948939193881391960402226846773538860496077897430594723837378560.000000 0.000000
220026049623070304135363214855735675948939193881391960402226846773538860496077897430594723837378560.000000 22030828320593534355387591472232872799835424615714481365785433429517945969252370006415516582805504.000000 0.000000
0.000000 0.000000 0.000000
9347613662590740738639799858698628965960671751772050322064155757022029042167397518053704604156837232640.000000 2005541996386661711061221580507763213520491188926066215012431741264850152029021329779167779255455055872.000000 0.000000
2005541996386661711061221580507763213520491188926066215012431741264850152029021329779167779255455055872.000000 292556435141409183011702237908414201296722979661177297354609093035271731421757657051088444045079347200.000000 0.000000
0.000000 0.000000 0.000000
-651409662965576725707412316884649382491361083405682080160887501386270422493511098329535746309177212928.000000 -482627069171266329459844918870602387359349100132027188188570128213979755899572572670600884699199963136.000000 0.000000
-482627069171266329459844918870602387359349100132027188188570128213979755899572572670600884699199963136.000000 247965671595737738328671307246577369282849390938541483125891465000591940858807081736283836668511780864.000000 0.000000
0.000000 0.000000 0.000000
2023871350701666013217026563707975642998722477768740476576289873663498262621763683240613708405112045568.000000 826026062058381465894122851166230525217096513754744628883744234661419102431571107854933886038081273856.000000 0.000000
826026062058381465894122851166230525217096513754744628883744234661419102431571107854933886038081273856.000000 212855594432950027636441237983628038061148685575428772545947707240814442556024338648781955845811339264.000000 0.000000
0.000000 0.000000 0.000000
-2910257484769665922798763888887116085359046516080735741107021334058017036955836227866767381450761175040.000000 -9989331467122805809664370770945991882325892977429804060971494164033251611004791136040308518198500655104.000000 0.000000
-9989331467122805809664370770945991882325892977429804060971494164033251611004791136040308518198500655104.000000 5717861187841468746351086891638950257468667434902354181811692633894858223103893898876564608887015079936.000000 0.000000
0.000000 0.000000 0.000000
3561972754301541461659561017086116884390114565212033756495704112838826722537372936477972719717937315840.000000 2016538388510390371008982988752810480840250718108514472568738543857519410026988753022733917149739352064.000000 0.000000
2016538388510390371008982988752810480840250718108514472568738543857519410026988753022733917149739352064.000000 779351966911410984134011184452756823376616138088616713123094173978323416549865991926956678191855435776.000000 0.000000
0.000000 0.000000 0.000000
257855822385113962522637705617924646647013785269311787690892327842096989280346336135099565089744748544.000000 364557412613822253747459176584716654130775960860805759286319190702474929182285507214642786191695413248.000000 0.000000
364557412613822253747459176584716654130775960860805759286319190702474929182285507214642786191695413248.000000 166010693855724133512983731857115247365593491193311505570758642830082914022949632438634483714908749824.000000 0.000000
0.000000 0.000000 0.000000
-395736986528540886680204932873267912750624090324455270993940330310804049508822243011217953956168728576.000000 -7632706842899712886309948613188123264119854052848503624801047000513592740336654623988697402403073294336.000000 0.000000
-7632706842899712886309948613188123264119854052848503624801047000513592740336654623988697402403073294336.000000 4289235767979629180185476206872075470770504030130216770002775593173231266068051769425653049554712395776.000000 0.000000
0.000000 0.000000 0.000000
-431034502052176989043872869505037247022850366055632088086303071308583268429065865175560531040912602562560.000000 -46225416678221653489027074046841979686058518399478218227836786971089609310716477394354244548327657963520.000000 0.000000
-46225416678221653489027074046841979686058518399478218227836786971089609310716477394354244548327657963520.000000 9479443055773083898187102083863153362694725258321406102263784786622553273067112681972292106514623102976.000000 0.000000
0.000000 0.000000 0.000000
1528616167184387000944144212588548847995176801444046582685624788516644973583002854178656850119453835264.000000 -2623024103813061652458955749671922488231637022781149062467801760487685478307325881679287373026660712448.000000 0.000000
-2623024103813061652458955749671922488231637022781149062467801760487685478307325881679287373026660712448.000000 1361342336895547644711551740985784906095690247020001996391682372589308450681408237559490119592266694656.000000 0.000000
0.000000 0.000000 0.000000
1072109359328957183314500852638617839044965871194204383985061372412206555589203674062726205801253306368.000000 1655931022419036049576965616815205533183451489774349415388298382038151095967558376482302619576724094976.000000 0.000000
1655931022419036049576965616815205533183451489774349415388298382038151095967558376482302619576724094976.000000 790343238844012697643158170700707001203409254948005644108845016273083847536453210686757154396269707264.000000 0.000000
0.000000 0.000000 0.000000
4548491323160132930152819294392198694532553284529114040520108374285970096111655688651312053956294737920.000000 4813119000853295032685567862768975366711339403596948867610392746830680160040588852181919320671539691520.000000 0.000000
4813119000853295032685567862768975366711339403596948867610392746830680160040588852181919320671539691520.000000 2080130177658818946991319728543984992547197631460667476756423659545397574092341290184730036143422177280.000000 0.000000
0.000000 0.000000 0.000000
-19520226132823467848574453357127701663149505655883542301945127126326652810175868018990448455565782810624.000000 -33543997930421700360032529764750890830920864633360139846762273528550701646634456309011863451382916841472.000000 0.000000
-33543997930421700360032529764750890830920864633360139846762273528550701646634456309011863451382916841472.000000 20239495810594731316582360829716976860448420878542693828575068196207087192730619790826463562284360794112.000000 0.000000
0.000000 0.000000 0.000000
3796922480716686796661829941659031926555397249707476493978978211572658229263662728965026924329623879680.000000 3364682664691167532378180468057888964473023897659587997620366631268748583339953744731491895933042425856.000000 0.000000
3364682664691167532378180468057888964473023897659587997620366631268748583339953744731491895933042425856.000000 1350730888661574199531089105501967916346605786198735991818553105818777441172339473306058082317022265344.000000 0.000000
0.000000 0.000000 0.000000
442674812572550478301080309835506819324135287636740250594362891025495628061633750298996398738042181910528.000000 -187602452088284896270036739370747598981030798103568411522368164397792407129859808481826135379824762421248.000000 0.000000
-187602452088284896270036739370747598981030798103568411522368164397792407129859808481826135379824762421248.000000 47849605413574958037231735224392472960861678104834478730231258367191694907315904605529013167292669755392.000000 0.000000
0.000000 0.000000 0.000000
-6671081987538169794831655173474232119245769150677956006399880469243584465629297525909161749125544280064.000000 -3162750832462661233092118065734430735192586029110202199062396559905115092446160003376221267312219521024.000000 0.000000
-3162750832462661233092118065734430735192586029110202199062396559905115092446160003376221267312219521024.000000 1739442682090929528663552934129084994281024365175044413265326667296977491427371902724860784916473839616.000000 0.000000
0.000000 0.000000 0.000000
49516279849859743832698779144218022901021612612492783451843562601207076483914034462565264613988875894784.000000 49936926525724975309835352706126960443169198451260015838144045037605850477097196246655687079534954283008.000000 0.000000
49936926525724975309835352706126960443169198451260015838144045037605850477097196246655687079534954283008.000000 21126844310824947919492722163354966750632730269793185428705151608493483989913847605636071013017934888960.000000 0.000000
0.000000 0.000000 0.000000
4117382537195558634390665907979388887854071828138351688424184767937676609533218862517684487799567286272.000000 -16573476702282662191937162779041531433517681453016810339089493032512741847136820430984798825545597976576.000000 0.000000
-16573476702282662191937162779041531433517681453016810339089493032512741847136820430984798825545597976576.000000 9215872683680023154793094819868665092956083595496087009562664756198770180237038832711639360672425312256.000000 0.000000
0.000000 0.000000 0.000000
1551261992085036437674784915681738514133929611267195674084519397945493567094589266646337632876334415872.000000 1114340098277206901077462663698294124789294121377011266852361744543590075606037153775193246573065666560.000000 0.000000
1114340098277206901077462663698294124789294121377011266852361744543590075606037153775193246573065666560.000000 1457489732137183450065370960962990791490989457263982876049912932320635927955501134948526945175150264320.000000 0.000000
0.000000 0.000000 0.000000
-3189070201356846784718853707150613739734798529600454014356774832593842057434843676894562400467507216384.000000 237689009626891638058914568937724767997999927598696439719574328647238889629516640129875696111524511744.000000 0.000000
237689009626891638058914568937724767997999927598696439719574328647238889629516640129875696111524511744.000000 99801459518452620243796594345842336733484440719201951833688190580179133917553833257106651934206459904.000000 0.000000
0.000000 0.000000 0.000000
1000230931510838096470272647303994183775812050085280398685594178260113526855637330376784910990849343488.000000 -624412963536130905092094086750807335978453091927455850607430875341965166483110023459284707195039514624.000000 0.000000
-624412963536130905092094086750807335978453091927455850607430875341965166483110023459284707195039514624.000000 212694050566106409347633940409618212421180820596172858738319100942223189584413528283914532495426584576.000000 0.000000
0.000000 0.000000 0.000000
14414342190504127719608053335432595720730454284229527068901414978330240924905050422451858187631078670336.000000 -12363374343139780795492409581880468164193550234542590219716916387471970457941333943634807012092484255744.000000 0.000000
-12363374343139780795492409581880468164193550234542590219716916387471970457941333943634807012092484255744.000000 4888568335039091660933201314187774759927119614420276055175658246766641078579409086170347886070070247424.000000 0.000000
0.000000 0.000000 0.000000
8777405340259312171151578103430647214578914817971972341029318361779787623931815575182925438960913088512.000000 8213331730149120838912479178047780000536052210118750217783718421437562857883618462666653617707846467584.000000 0.000000
8213331730149120838912479178047780000536052210118750217783718421437562857883618462666653617707846467584.000000 3373320553738158625328987755112275628812435040522439897123367619145386503592521109259035701833820536832.000000 0.000000
0.000000 0.000000 0.000000
-23704116704642901615002508453609303111490824168864231271198186817273367337056867191556654053082093584384.000000 -7370121103674989617157235934270081211294460120033317298423826391328049940642031457889304260516868259840.000000 0.000000
-7370121103674989617157235934270081211294460120033317298423826391328049940642031457889304260516868259840.000000 3156615868234808710210976383447806812643258388777922671424038042573114404167682103529732647939276275712.000000 0.000000
0.000000 0.000000 0.000000
42353671422882573016073470919164463914567141415424858520209606342446407797624453088571870347301748736.000000 -1056151497315127202809185815632364866230954679212454082356776670589674577523829482885149942954390978560.000000 0.000000
-1056151497315127202809185815632364866230954679212454082356776670589674577523829482885149942954390978560.000000 687341522947876251651727894638732111851408985529283511743008208441699015137448927626543929664445874176.000000 0.000000
0.000000 0.000000 0.000000
89428805907601010176985348590593413561860245476968513830040739988861705326614589668258758491675557888.000000 10212285492243073780080317916469310372886226790546828438437563465769002344893725338137089569254801408.000000 0.000000
10212285492243073780080317916469310372886226790546828438437563465769002344893725338137089569254801408.000000 776988228690930783468906015547956034131457113073907412468958377359194114832223667416375195970043904.000000 0.000000
0.000000 0.000000 0.000000
-2173770616371747113836376733884033581988983932036854740404630044791248375660407794191803529104149329215488.000000 -42240033361107895475717313816768323056944658041252769552616733740429944600704113812902281537966720417792.000000 0.000000
-42240033361107895475717313816768323056944658041252769552616733740429944600704113812902281537966720417792.000000 1638729449834594514620295670395256618107900077666092722206566286525806672206797863647704929776231776256.000000 0.000000
0.000000 0.000000 0.000000
-581922972745374715345565281176727180105022791743478921722881707972610531310753103912144117047131897856.000000 -572508240092434592432862309338329024170823312672220987799663424438464350625673822829586879415022780416.000000 0.000000
-572508240092434592432862309338329024170823312672220987799663424438464350625673822829586879415022780416.000000 95923825338280677913009102289733524574750515861428548787559258860607202153123077399413210328000888832.000000 0.000000
0.000000 0.000000 0.000000
185158191790306129164088581951601066980410038609054121319309963222114522651385209878941155090728222720.000000 500114769141898357041033871438742342519294720246696441486419322555172688242978294407852790885707153408.000000 0.000000
500114769141898357041033871438742342519294720246696441486419322555172688242978294407852790885707153408.000000 258804051833883686854311386859576526900742688163599799258420855055223097853526653738853110816400474112.000000 0.000000
0.000000 0.000000 0.000000
13095757621901152175339298891640044508316069647463252537367213232896214495685902231250099154469022334976.000000 -8895173745092104545161317043032389337642904766883099050298189016052413999672539149998258934722624225280.000000 0.000000
-8895173745092104545161317043032389337642904766883099050298189016052413999672539149998258934722624225280.000000 3504930673023955347719873495065056499008433542632689022311813666118950446015632977072979211327828393984.000000 0.000000
0.000000 0.000000 0.000000
-10175479931333801813284234319991355729646930487752438084886023220049667192493227156530883137279600099328.000000 -2024149809515247646606059665395318154151775528666394492000734675066282723758774939259299337039624798208.000000 0.000000
-2024149809515247646606059665395318154151775528666394492000734675066282723758774939259299337039624798208.000000 680394126090743039039684597685915372600538644366338606315115547079442087118175546851704416357828263936.000000 0.000000
0.000000 0.000000 0.000000
1514110305273448773042921493933900249010487279477505959249071591368765364318716024961642851808193806336.000000 -616624012204202292931271401668169044517854291265254315130006477482452817242391064450414304062917836800.000000 0.000000
-616624012204202292931271401668169044517854291265254315130006477482452817242391064450414304062917836800.000000 249326399631060763819109666377523989543745865522346226658596773907096748969573737409467428253529538560.000000 0.000000
0.000000 0.000000 0.000000
-5020819292182921654440658568946019949791894315404314257674073437750290121481715579014668831933213966336.000000 -13229175252315612576003008209763806417761115017047437246738431330411584106628700408601982070820953915392.000000 0.000000
-13229175252315612576003008209763806417761115017047437246738431330411584106628700408601982070820953915392.000000 7606204687461519562415517865393910577173617848728767098869348435625240858215789886530764463687484833792.000000 0.000000
0.000000 0.000000 0.000000
4865567087590605071298110883460774056332300628317844723650480192944099888666361274016912076805395972096.000000 7712416802001967536981807591475502293972336422120000390531104294604912221489822645798011779613246619648.000000 0.000000
7712416802001967536981807591475502293972336422120000390531104294604912221489822645798011779613246619648.000000 3712943237640326124261231603298872612127629803772488314745540886012240234419244399149053030124067225600.000000 0.000000
0.000000 0.000000 0.000000
-2269541009498595505009392711277509401682538466922714527917387838404567552945338044120797399592174878720.000000 601720037629982148367861584635089700433435819534462372451439071183440777376254794687889157283230253056.000000 0.000000
601720037629982148367861584635089700433435819534462372451439071183440777376254794687889157283230253056.000000 234183929921233320005395082517770374835281830207050718093831303086567860918473813218269408060097167360.000000 0.000000
0.000000 0.000000 0.000000
5057485822859204969998853952435630351183202195210416912737579571527204953541092348142477912427603165184.000000 -12602310101681807581047399766772241041661995640999945245666385210420308465326437846113464778768760438784.000000 0.000000
-12602310101681807581047399766772241041661995640999945245666385210420308465326437846113464778768760438784.000000 6471329942550406331756714184731339963048300544619534641627414673267670682184094190696730121089914503168.000000 0.000000
0.000000 0.000000 0.000000
70121709793985617520998528947329062191113467177658892715101899940728337195621090097319798981869436928.000000 358504338899473018040820480368412555213507105993396503104822483646914469499374678090015088799345803264.000000 0.000000
358504338899473018040820480368412555213507105993396503104822483646914469499374678090015088799345803264.000000 131655336198829261010845956169132802537865670493924711329987537210087918620683033853879841692737077248.000000 0.000000
0.000000 0.000000 0.000000
54006773895280478541843249634908667309981211939723987450646475109294600607927725472633452986360299257856.000000 -6031182088472196690956405276625213335543126754595328774933592213954791045364557095691323393656238374912.000000 0.000000
-6031182088472196690956405276625213335543126754595328774933592213954791045364557095691323393656238374912.000000 676076160798965663768453243601368024198062109775361229650265710278423023385672493644663786920287928320.000000 0.000000
0.000000 0.000000 0.000000
-34233602490073306271187411333971970801427047607511985520034514851461822597127992510834018219787896750080.000000 -5437025287100494909486719203246834309271451412585863332529428769535702295232667747901430344121365561344.000000 0.000000
-5437025287100494909486719203246834309271451412585863332529428769535702295232667747901430344121365561344.000000 1518866696553321265467995697661494379104477279090146875856774888153877873243246811875720494900425261056.000000 0.000000
0.000000 0.000000 0.000000
-12036079674419084443068171412491063017386174178053572152353202913318648463106672423777964321646537867264.000000 7999274706534099971038626306037999387259206090146280065744871193193749172824198080920283943924041515008.000000 0.000000
7999274706534099971038626306037999387259206090146280065744871193193749172824198080920283943924041515008.000000 1141248872903473594278167622821007207095874803793607894123843389088852422467119760123871494095077638144.000000 0.000000
0.000000 0.000000 0.000000
48473675635539237948500411722290103236408728295717867459131529128846633615474104748512876676775936.000000 74504859799349864995170620009461945873565538706858832125131820995476226312444796380906731096506368.000000 0.000000
74504859799349864995170620009461945873565538706858832125131820995476226312444796380906731096506368.000000 36482041517184026389765179713158453956066865274817749350454753888846158388692422491516184402329600.000000 0.000000
0.000000 0.000000 0.000000
1037531178362634311667436507664195126006733209898780253460933072188369018002230550018906391923595935744.000000 1314309174618327258679899950843103070805041289381927306413461514653522217532756281639627443225216679936.000000 0.000000
1314309174618327258679899950843103070805041289381927306413461514653522217532756281639627443225216679936.000000 598775071274489970778028041679215113444558182709957598742294872225258395675616563476819657143437230080.000000 0.000000
0.000000 0.000000 0.000000
-3844506859136148954299873342559007270719754241217617019570701307179241310794701455850394710872940347392.000000 -16227925014789746969392849910023737987417316266958278280053877716935623638360366264325298636063919570944.000000 0.000000
-16227925014789746969392849910023737987417316266958278280053877716935623638360366264325298636063919570944.000000 9254308698845691183496025380502770529933930620271709667777293148957422683896903956157485911860867760128.000000 0.000000
0.000000 0.000000 0.000000
67545127771867188511676834900943927027003717595748910829972895219969905030833729302931067645793927168.000000 -192586813605434505801392104250132278779768539011016180290455726181725374582781703127148555267267887104.000000 0.000000
-192586813605434505801392104250132278779768539011016180290455726181725374582781703127148555267267887104.000000 100159483241800977822335418671936863709614477553077432089816021944863643306468402373406593597988405248.000000 0.000000
0.000000 0.000000 0.000000
-605959995174631267058357265648708574735215809850469129582896326317708178143662678156384157946542555136.000000 -8144743882924239675166093525749727214543546487817140828147381943463688964591614003890110099758788902912.000000 0.000000
-8144743882924239675166093525749727214543546487817140828147381943463688964591614003890110099758788902912.000000 4901848770761309103430767255731024160124134053725239540178048390350541610202888866737438144302516535296.000000 0.000000
0.000000 0.000000 0.000000
-675719668142216449276559351296916725384109416231331571526068634704795922436674916815876537232408969216.000000 589013946972197878140115370912319656936996597164768430861337125788434345429263796970396004995911647232.000000 0.000000
589013946972197878140115370912319656936996597164768430861337125788434345429263796970396004995911647232.000000 453121443601206603414994264083445136227258448837167407218556719466371495646990770799931712319885672448.000000 0.000000
0.000000 0.000000 0.000000
6154722866841755703801409744901434113301724664436217385550146115789600491696139098611087804053724332032.000000 1224555983410292268589110143909038213707268019580916917407323596344552790001564596411796142294426451968.000000 0.000000
1224555983410292268589110143909038213707268019580916917407323596344552790001564596411796142294426451968.000000 234595302406011624013796741179467440534468440904463079849736967466977666783373067262123826586109083648.000000 0.000000
0.000000 0.000000 0.000000
3601883977366839506535333685497236646943170541611959799763712954950632404698196217655158994742259220480.000000 -6684485224927248722007739232187306394655061289683789947324452634930765395478277661885840835829355773952.000000 0.000000
-6684485224927248722007739232187306394655061289683789947324452634930765395478277661885840835829355773952.000000 3303891354681915362174996355194013422501264959371826748674235647764050005951000329261137001906784174080.000000 0.000000
0.000000 0.000000 0.000000
7092931196539484729203697192841442092568632162811455919454656844268914785393960888274791803387904.000000 -9200835776437415890599535013208890470217592661820993067070629749903606633849328294139152415326208.000000 0.000000
-9200835776437415890599535013208890470217592661820993067070629749903606633849328294139152415326208.000000 4219090572545396061854059224233749156954680844004015739100857274864626193160465849273845639282688.000000 0.000000
0.000000 0.000000 0.000000
1133531407570386205083466523760795362522239887915658801778723769636788948303899173942744335453052207104.000000 2578659881791971362299718672850506637248192665987058652374932179625896587009968164649344330123706368.000000 0.000000
2578659881791971362299718672850506637248192665987058652374932179625896587009968164649344330123706368.000000 17954196925291458704893012331872190086397513075206361821876307024457545195120860195584158549934080.000000 0.000000
0.000000 0.000000 0.000000
-14646571995246334436807518723502675000225052597638615214285389890285807465834875360098579545447202816000.000000 -7597076074170286009011323964211828928493036100522471685307432405333134877072288729034115180634142932992.000000 0.000000
-7597076074170286009011323964211828928493036100522471685307432405333134877072288729034115180634142932992.000000 4188161387661706386931955678995463964545464658635429015233286138402839880047903627734772425345237778432.000000 0.000000
0.000000 0.000000 0.000000
2049785239225352882607286711415280851256454812290485237456766722943923140891105645405832970985797582848.000000 5114787378815372782531151227824240470531374735272020620917573852793546654071298572220130203795288227840.000000 0.000000
5114787378815372782531151227824240470531374735272020620917573852793546654071298572220130203795288227840.000000 3713403520663875406641965450688789473138600534750972644338478943609153497159661405847561127903405015040.000000 0.000000
0.000000 0.000000 0.000000
2151955042195689908136254185325447225172281530346885769492680504513421305793062108979372895713728921600.000000 8507458336055373565022934859634026038919093875500642674116881089300628723877672754162703813603076603904.000000 0.000000
8507458336055373565022934859634026038919093875500642674116881089300628723877672754162703813603076603904.000000 4524642144056900471978603031723722588435613776189218253171460457268367408246962762844939820008644542464.000000 0.000000
0.000000 0.000000 0.000000
10446438194067820592890701240329116708028763841584665076146457771987135354091357668390563462959736029184.000000 -3514637540775105145528946919013471131250215545433865166353866998356015474893323975204028857111327801344.000000 0.000000
-3514637540775105145528946919013471131250215545433865166353866998356015474893323975204028857111327801344.000000 733145314622276936231610173813213045562878411127990784569218453051992422693188895209740047841442660352.000000 0.000000
0.000000 0.000000 0.000000
-31536473580391099392953660102637387218327412762975792982120031705471218052347430406491440685235293913088.000000 -2889095296851803791216237599315641932455687670113258127395308870539962291217217641646211060724301561856.000000 0.000000
-2889095296851803791216237599315641932455687670113258127395308870539962291217217641646211060724301561856.000000 504218877630465974413283304640135131397776346350306508653272881856141677391438679426138020203932418048.000000 0.000000
0.000000 0.000000 0.000000
-1417725748259570189691439099869819283017503123219334626808157139203393630636567123185274669509138972672.000000 731566821405648000421265909104894070332812654451040772624175595326821501389421339636116835131136671744.000000 0.000000
731566821405648000421265909104894070332812654451040772624175595326821501389421339636116835131136671744.000000 374855628179435838825519030095195313647660162882184538870746370293199735691314397584119952107737448448.000000 0.000000
0.000000 0.000000 0.000000
2236814875249170810949428567215681769590396762523225664671312004444511353472746827104263048616321482752.000000 -415109459987754197912808770677544079922641713347979835649774041520254824547779784069101596469803089920.000000 0.000000
-415109459987754197912808770677544079922641713347979835649774041520254824547779784069101596469803089920.000000 53151879737078745915824146567823272555463257887046747979238674126983572518026639445378394463733284864.000000 0.000000
0.000000 0.000000 0.000000
-18056056056323347957808094405724731344221199786103177855711667699461174997990650575853292786378615029760.000000 -12227216300884501156932285502990779247613310804585591726372448541053930911979997118779457913607753302016.000000 0.000000
-12227216300884501156932285502990779247613310804585591726372448541053930911979997118779457913607753302016.000000 7153206126165525410219130646977582324443931255534437428772956150358315657329463261334272850369039040512.000000 0.000000
0.000000 0.000000 0.000000
-24825936034926336466827743685337238433083883708356960567133440868128631038149465323922966959794193170432.000000 -8276102395598413364226061544482486630524192498865212430870393174292740055071859044962812087362824175616.000000 0.000000
-8276102395598413364226061544482486630524192498865212430870393174292740055071859044962812087362824175616.000000 3687692746167901748477587625130679263154115988745036522338111342701463212328858260300936290397444898816.000000 0.000000
0.000000 0.000000 0.000000
3887268692241235434472555475661562393850018581724523799188498666042695303339460936039589366266859618304.000000 -6293303440477683739660845217366466417854265953527999491891484065517554945353722003685350694324348649472.000000 0.000000
-6293303440477683739660845217366466417854265953527999491891484065517554945353722003685350694324348649472.000000 3236723746316171680366408015927455906926201609202051724896012930550186745613893600651281762263461003264.000000 0.000000
0.000000 0.000000 0.000000
2820624407914471713137635627437285258067652996694306772635022310316165384295697320895104767888071852032.000000 -14317292295870785529561258784791940988886399533960770044763250138786602952448470188313093728329399271424.000000 0.000000
-14317292295870785529561258784791940988886399533960770044763250138786602952448470188313093728329399271424.000000 7693709225286366433852741508182407609793814225340855759248927172442938166811755286850367437549720305664.000000 0.000000
0.000000 0.000000 0.000000
9493765527925183189417309959962339435091413640646518285455719220061241923363347292716430857448032567296.000000 4833478727547308281371885033734433670316733951318881560972717007597496757526935163137524762762272571392.000000 0.000000
4833478727547308281371885033734433670316733951318881560972717007597496757526935163137524762762272571392.000000 1530157137573497303580896421809815303973528983969962637389859543744197688818553419551216041163896127488.000000 0.000000
0.000000 0.000000 0.000000
-10081482071204810459280666390372269738858176951657631585266161389001676808953871316101652395583927746560.000000 -3996164943958167754764764090521882759019697670486256912730631520959093165759767423484687654699126489088.000000 0.000000
-3996164943958167754764764090521882759019697670486256912730631520959093165759767423484687654699126489088.000000 1898038757196187151561300813857363691484306278642209719711462434568059634163729307521618108803926982656.000000 0.000000
0.000000 0.000000 0.000000
-43354084944622922396694705416096205796650756465012480997040227465001456275900629329400750750939155005440.000000 26499355567195430804243131154308939426363519426185430106669184686389588541433326305972927748333004390400.000000 0.000000
26499355567195430804243131154308939426363519426185430106669184686389588541433326305972927748333004390400.000000 12876033634542775744379182385952958225408269762847286211275015505437313207601580931935387399100135636992.000000 0.000000
0.000000 0.000000 0.000000
631934957023040405217372530167674002962022640504579779203075553052622466124537747253715306699955372032.000000 797896585668323339708612020670251636462991428935239418313218177500191163643892251210707892296180826112.000000 0.000000
797896585668323339708612020670251636462991428935239418313218177500191163643892251210707892296180826112.000000 1260942394662582106216535625315245356939818047190597003445847853740468056084395433305572847063360602112.000000 0.000000
0.000000 0.000000 0.000000
4226636044440953067451578258797990927099404540222909308713167383314835959225486183371590586482988941312.000000 -3797014846637670774618434588176986412390129983464705931593738221250082589589467569493294865186195243008.000000 0.000000
-3797014846637670774618434588176986412390129983464705931593738221250082589589467569493294865186195243008.000000 3945511935866187290780444245859136416766278520987633311136211170848756684341423052071050895063081025536.000000 0.000000
0.000000 0.000000 0.000000
118278809631270280179766531627626610474276909877990284030520302342416565146546147877344009398310326501376.000000 -100522373803251378691880995297075700969013903307797765702435349074622037865545576666019989957100921946112.000000 0.000000
-100522373803251378691880995297075700969013903307797765702435349074622037865545576666019989957100921946112.000000 40602650538194518261471144350039217998806597406824040202316431168156468969030604776875465903383819321344.000000 0.000000
0.000000 0.000000 0.000000
10999294030212878823753016044654786742145177650421792649840372589511678895081843067715621813175541825536.000000 13679810623577387328866915703461463208995645332441699617884194612378905837423177081037531814672302342144.000000 0.000000
13679810623577387328866915703461463208995645332441699617884194612378905837423177081037531814672302342144.000000 6199861521147417581547343772170334919553217024830329842173601308339443003900401464254659355712090537984.000000 0.000000
0.000000 0.000000 0.000000
-5878993563078353267341478719617408987933706300977030944711048261781340176970991384204755899655657619456.000000 -3241608895500524836500141133392524932714929067538340251999966900763140435789023123760075015631853846528.000000 0.000000
-3241608895500524836500141133392524932714929067538340251999966900763140435789023123760075015631853846528.000000 1868131555964826628561405067350759243988211263522784079791463309152455053213651951311953365053013491712.000000 0.000000
0.000000 0.000000 0.000000
-5273647535313830694746000294305278304425640642190344582110143749144903586248092028538508278295768858624.000000 -187361990156973152116486374622195384173103589428478480591908442377569338853753261569331452156238102528.000000 0.000000
-187361990156973152116486374622195384173103589428478480591908442377569338853753261569331452156238102528.000000 48159144863294561488224113702108849528597903978506952251989647592004086727894904504095518336290390016.000000 0.000000
0.000000 0.000000 0.000000
131125311129492261937165134992641579348844980433911143398745195831593073561283207987050735214623788630016.000000 -33639367971697393507553889165310327976934747780851381325617365091986119909171814303391016273427893846016.000000 0.000000
-33639367971697393507553889165310327976934747780851381325617365091986119909171814303391016273427893846016.000000 5552333371156531109408595981512304219287193237339012110805186152803594991626363442441301957563698380800.000000 0.000000
0.000000 0.000000 0.000000
-11112102163265176836912798099929307568890578090681166170345470308824356612492799415219603287098859192320.000000 -8568153065101640060639549330811659755526507599518688145146083629085812217443681934689485901612739198976.000000 0.000000
-8568153065101640060639549330811659755526507599518688145146083629085812217443681934689485901612739198976.000000 5068398575408879742803082529692098427978275116729047299209982648004152507035350277294616021461085716480.000000 0.000000
0.000000 0.000000 0.000000
-46906444943977191408771246680165728411314506912159392648580851369954258164073480801855022026161406345216.000000 -1118105822001124436912822249315087150042870676222098389495991117846675871842697104482271622597613453312.000000 0.000000
-1118105822001124436912822249315087150042870676222098389495991117846675871842697104482271622597613453312.000000 240568603099794118098015975905200675164770147071558225448666240441318280581033631567141581166970142720.000000 0.000000
0.000000 0.000000 0.000000
2145296484282053557686612771831530386117179507511937952506083662391649123087189165802638622929169940480.000000 326852979429030848992671173019872675863849613611436564952405428093535345907884109121071123103301500928.000000 0.000000
326852979429030848992671173019872675863849613611436564952405428093535345907884109121071123103301500928.000000 42644936937169022180548729727040462443098997819303628126913652236939549045683213586555614724922277888.000000 0.000000
0.000000 0.000000 0.000000
-43052619139973898910928662276949315716407899331882673955565897661129911926059408888674042496577527873536.000000 32204631769548423652193339715781115595602271173545366510695896112934101176719583035551739184822641229824.000000 0.000000
32204631769548423652193339715781115595602271173545366510695896112934101176719583035551739184822641229824.000000 20217076028442508628041909373617968973759180298362673778237130020723079605376588702470866594865858215936.000000 0.000000
0.000000 0.000000 0.000000
1262296655413644752910861341705522132441489956833025255938172306905450940146147794399358232789077983232.000000 968046664783066167027890758587470843747464520380829316041592068050188016190703757662646300032328794112.000000 0.000000
968046664783066167027890758587470843747464520380829316041592068050188016190703757662646300032328794112.000000 354335862524202378497171403620840364877721577306596235840726842438702904507985885191854686661622366208.000000 0.000000
0.000000 0.000000 0.000000
1836809039032717217577819503989048449695715669823945450596764952621384978045669238019102423127003496448.000000 2576594941049743553875991667528466913767732916290838035375667868472066827139813754132670054519118233600.000000 0.000000
2576594941049743553875991667528466913767732916290838035375667868472066827139813754132670054519118233600.000000 1196746360951638856040212920468246704777661614402189279678547072398389091277165010567733879992458674176.000000 0.000000
0.000000 0.000000 0.000000
331116187413247515787371841369625247097766057946524052495117318453532593624168557698366172035912040448.000000 -96075964981925067696479880383968911137352327145983037311041952072728672050768805416156254048245252096.000000 0.000000
-96075964981925067696479880383968911137352327145983037311041952072728672050768805416156254048245252096.000000 17642340213307798040552668902710456871164292177334300490639024713168819260284451624175238495921504256.000000 0.000000
0.000000 0.000000 0.000000
31644932328831628113244325815647364474688415068151882937001585821722764260322640361784004736391655194624.000000 -38767448878477691949606073861852134495608781292640412819323889901982717496098485134474810436314319552512.000000 0.000000
-38767448878477691949606073861852134495608781292640412819323889901982717496098485134474810436314319552512.000000 17489159507350575414148152508702204779395083307601735994060779342807558498197650336229230232723695599616.000000 0.000000
0.000000 0.000000 0.000000
-79659186884623889487593816798688357921820667634342162643413332014455729761876804646384425107734166241280.000000 671475144120612385195411709487494877224190927051498898115417353180127938170116295230556844848767303680.000000 0.000000
671475144120612385195411709487494877224190927051498898115417353180127938170116295230556844848767303680.000000 47636865732441842384546602685892223626333549596070841179807691459450797146218235449766564248523112448.000000 0.000000
0.000000 0.000000 0.000000
-1516604623572912520315785232541918265846609790085935050689285513934155300638588866265965937060999069696.000000 -5988248817874914196365126797379750245984533199717000114544672013665564425161037541153363856809110011904.000000 0.000000
-5988248817874914196365126797379750245984533199717000114544672013665564425161037541153363856809110011904.000000 4062318856334404759300370997735311704438375660544854587242445471920353332765637032845034805473327448064.000000 0.000000
0.000000 0.000000 0.000000
13711747483413823001630012139605473190829357077111439933903464725022234770978318997276315732729822969856.000000 -18298401531365079161546230594914537232262948923314684826540143045894989824577611963582277470344167030784.000000 0.000000
-18298401531365079161546230594914537232262948923314684826540143045894989824577611963582277470344167030784.000000 8455451438816759194243595598740509732710116956462996979218800923881579657292969554202398937723149746176.000000 0.000000
0.000000 0.000000 0.000000
16782960214872936829510416395082396165025020099131477989474115981303016373838654970021586740867063873536.000000 37910981922188581709012270862860740636440307873837175322303954504019034286779076847010655227800885133312.000000 0.000000
37910981922188581709012270862860740636440307873837175322303954504019034286779076847010655227800885133312.000000 19244847126017779982890517876157584246660965902662825776543199926968510240767197975963246465660819079168.000000 0.000000
0.000000 0.000000 0.000000
146241098875665489267782283375323954243689472823251541337052310466010229874135858014716385364365279232.000000 -825986162791541398300795279791020665768915216464796239063592640534700710958426024964287209141149106176.000000 0.000000
-825986162791541398300795279791020665768915216464796239063592640534700710958426024964287209141149106176.000000 446116464938746769512002940073286178673208482668594011822215824504573579425677487632357154188402098176.000000 0.000000
0.000000 0.000000 0.000000
6932958028335672332483989690202520818687608466715558819098062197289223715051051023078713526404199219200.000000 4968052924990926924093017574989932918155980498541744297176649928205496663558282059400120391366510379008.000000 0.000000
4968052924990926924093017574989932918155980498541744297176649928205496663558282059400120391366510379008.000000 1738927212176643414753757977253387455389847363864618475025855566592057057030186799996994018205105127424.000000 0.000000
0.000000 0.000000 0.000000
-71355652147926275744694085493211766280456180470870429046276699981578990769173627145033584358149062656.000000 -48389987952076268901366304658239470698903118323335129678529487611210384710110974785588356351753453568.000000 0.000000
-48389987952076268901366304658239470698903118323335129678529487611210384710110974785588356351753453568.000000 26399041913124384663099985765951315482343361096139385910533201827990719552078312798120544217860145152.000000 0.000000
0.000000 0.000000 0.000000
1002838722019392361938549338249719364417688935954230031041560775574316181311403676945894199725662404608.000000 -747295100467649851599860608673247142976884412644888146859317424192592588934411626076239873773158793216.000000 0.000000
-747295100467649851599860608673247142976884412644888146859317424192592588934411626076239873773158793216.000000 275642696513716211472536063278081326284615222401915799059282725482984843701613667323209979843888283648.000000 0.000000
0.000000 0.000000 0.000000
7237981354880796764790742281948823004577985898229417075476129576470420392693709090921144170857696854016.000000 311110478212365444885278106108106319476664387391662583671741577408260481995508969952435290478959656960.000000 0.000000
311110478212365444885278106108106319476664387391662583671741577408260481995508969952435290478959656960.000000 37941709698945594964427760658518448009074104681252487441203038572334571687462238515930225377502298112.000000 0.000000
0.000000 0.000000 0.000000
4047974780642420904591489263898863060957049635490974645885268637074449938483687260318745129455324233728.000000 -3214958931324285384213723436474895716806739282706072355219291889336709218585701537785844457362297978880.000000 0.000000
-3214958931324285384213723436474895716806739282706072355219291889336709218585701537785844457362297978880.000000 1225418874900556208175185644185110854376736314890973635978746988673389920865770516126266874685156229120.000000 0.000000
0.000000 0.000000 0.000000
-1910220606114650540981723559368258579654724075742706422114151107990867133142186821718955696798111367168.000000 -127378475194956384209248175243582395039729741135149060301425391184312730947432866538833598720801505280.000000 0.000000
-127378475194956384209248175243582395039729741135149060301425391184312730947432866538833598720801505280.000000 27219014531798088850070002131273492731435615000369446241747893284173732591986582919469724077372997632.000000 0.000000
0.000000 0.000000 0.000000
-54764942539655703887108675341378645922746101742388520659239670190937403651735290425775440583742854266880.000000 -18065969855253900281039593952355022273964380569819400444110763545541791513118361316996105816993561575424.000000 0.000000
-18065969855253900281039593952355022273964380569819400444110763545541791513118361316996105816993561575424.000000 7954259304775650466839130385978301416924790547048259494489329563763182978557731738823380530808475353088.000000 0.000000
0.000000 0.000000 0.000000
-40551359211192847338404275338985629812794788900591553653195141309207676568988155852412552782562495299584.000000 14689491682438313627938560528555586432160719553677156303157256421057398351808708008999048291132924493824.000000 0.000000
14689491682438313627938560528555586432160719553677156303157256421057398351808708008999048291132924493824.000000 7058188115119846072004625109056779700617966870001556467738373634955810112949072679204426516605639327744.000000 0.000000
0.000000 0.000000 0.000000
-25885809823735434516388165138399223310130493899386633280593068746323553717128373532881559704175623798784.000000 -8432727696875083267586377838450238336760366896452776585463568360988440948855397430963239668808142553088.000000 0.000000
-8432727696875083267586377838450238336760366896452776585463568360988440948855397430963239668808142553088.000000 4427161082666984811862878779623019009315873750315378549363052948209581105867026323748645768659724140544.000000 0.000000
0.000000 0.000000 0.000000
13357587708668656333465965175290406959886069423390013557384108254607402051376276716013142959054894661632.000000 -10131508114870941683384231950780649686326740704765410691336916437265552984148304204439636926002983075840.000000 0.000000
-10131508114870941683384231950780649686326740704765410691336916437265552984148304204439636926002983075840.000000 3738521818036653871822362679708321327768309822392929333212853775708178485994391393124509976905650274304.000000 0.000000
0.000000 0.000000 0.000000
689986583813779246996442966856950249573600536221838328674567136406067447056207897608976364700707061760.000000 -658354248290912005456773016228709594681056964116751975045104262990097876768728385878368327106371256320.000000 0.000000
-658354248290912005456773016228709594681056964116751975045104262990097876768728385878368327106371256320.000000 287254457046663457394076761125410567117101365630178060640259481202029537986922923545020955666457559040.000000 0.000000
0.000000 0.000000 0.000000
329178208354378179501506067089236600740289442382731340280066921704358944113324918735965547938134884352.000000 381835173698108611242323944933815564441068220282264002341969297001573223363375874833219571848061124608.000000 0.000000
381835173698108611242323944933815564441068220282264002341969297001573223363375874833219571848061124608.000000 169500810128758390314681191209300530300338915122724787229831848130615135720676739036198202447453224960.000000 0.000000
0.000000 0.000000 0.000000
6399408547015853856241530640265750486148048453650236243216883816468146274767540374617816506711207313408.000000 1678939477543736941512909650335329047299699468457865340079877166026002562193560379028364815456314327040.000000 0.000000
1678939477543736941512909650335329047299699468457865340079877166026002562193560379028364815456314327040.000000 281682978205478578950257144363558460887650457839334864459311155887290609203613305702635317369256280064.000000 0.000000
0.000000 0.000000 0.000000
990446424603696351461671570318569429048400942885393766582365540591012207705099653146432907825909858304.000000 1601835852172440847086081233100131950792697454145010340448247720611836440282949849696256120127752241152.000000 0.000000
1601835852172440847086081233100131950792697454145010340448247720611836440282949849696256120127752241152.000000 772748189790823109669996034527902070589525634274053891935822195343057996937642618580785847243041144832.000000 0.000000
0.000000 0.000000 0.000000
-21889422133536629198487635830385736518682802173961427644334124823595922090109479775697463015593958440960.000000 4548002122095398895614382174965152457931103314370385118148649770655951125384451123941186201305709805568.000000 0.000000
4548002122095398895614382174965152457931103314370385118148649770655951125384451123941186201305709805568.000000 1534021212511383839421498772730435153987953897076996629927689738649226824047539591341672349172123041792.000000 0.000000
0.000000 0.000000 0.000000
664779816983310214590527953733380723036032586349232805826840567291079020938186539378545819815956709376.000000 86196694024313085649802229507282019030669201476430066803471117858488313670520727605230646563000287232.000000 0.000000
86196694024313085649802229507282019030669201476430066803471117858488313670520727605230646563000287232.000000 7367856413863583709314045918951573616219768764174597383330021698120197130246415880716463023541190656.000000 0.000000
0.000000 0.000000 0.000000
25861192110772110690535049405266977667574515695663219208502937904304070301242775421619892165811665633280.000000 9114454054127579597171065721582211911596294328523614402901315107041409147884426339383207263331910942720.000000 0.000000
9114454054127579597171065721582211911596294328523614402901315107041409147884426339383207263331910942720.000000 1985712524778440044625400585290699652672390330434605009400253168226680799372928660469822799760691560448.000000 0.000000
0.000000 0.000000 0.000000
-11549417624256124937970938475145251181012058199922875187937205417670426953170325182706267319539265961984.000000 1002151152210238003889836212917440407330158995725648639457992590107398358717848449513058237168849256448.000000 0.000000
1002151152210238003889836212917440407330158995725648639457992590107398358717848449513058237168849256448.000000 365062016672064693880464994216616117140541858086085345249885959892821568991896962082253007917177372672.000000 0.000000
0.000000 0.000000 0.000000
-531333217953386298449042670987889325412651157648773810173397774115547992049922631401222296077493862400.000000 1096798611730372054772077132463708646433408724276511640798941769180628906535493042509501518174020960256.000000 0.000000
1096798611730372054772077132463708646433408724276511640798941769180628906535493042509501518174020960256.000000 646043044740447614387813238893214788073086187443679721316158262808589400639648294135406246424213454848.000000 0.000000
0.000000 0.000000 0.000000
2146076385997373270148390963297239282768105953438330384823780034412374997073298480631900330192265019392.000000 -732178984758561950666381150357859053699788903051711387761718681559625544455156605471483299301513232384.000000 0.000000
-732178984758561950666381150357859053699788903051711387761718681559625544455156605471483299301513232384.000000 163076696466748613228383905343439834817594017361819494625471076728505812616903731167403589817379848192.000000 0.000000
0.000000 0.000000 0.000000
63441913099215028342543322621419276754129004927297259852842729246630405972780204426810022879461432623104.000000 44764500607832779844104344817034455544823188004621267560563755458713165103145537722449607843707514519552.000000 0.000000
44764500607832779844104344817034455544823188004621267560563755458713165103145537722449607843707514519552.000000 16033503274415068246553262290724049199406135271196719180994200241582946413020990231841744729802306224128.000000 0.000000
0.000000 0.000000 0.000000
88486136837992873187730918892393317106888213742489148932133312029449215868705899442829155826267985018880.000000 39860741171180366773636432556707009716559195082932071580862969090745681621767570130900777311778231025664.000000 0.000000
39860741171180366773636432556707009716559195082932071580862969090745681621767570130900777311778231025664.000000 10570060122902099937247433545641200823350846283646576722843961664060577017543013608721969658184863842304.000000 0.000000
0.000000 0.000000 0.000000
41282016914450383386460810030461936689049977058638123227902438880351908023119326107824244367191753883648.000000 51008896175342022320712794656477508149291752973381944511778262474781777333195515050581918639013354274816.000000 0.000000
51008896175342022320712794656477508149291752973381944511778262474781777333195515050581918639013354274816.000000 23076961272246062508659031926842492411202276112369513912937612983091790042846837142705281281247712116736.000000 0.000000
0.000000 0.000000 0.000000
-21794510222185343115612933398309054564729990170635650810656877020330717196746662800339771631540493090816.000000 -61159885120161263527285682763264059833977397747836899499068989721565355030000117356394263001646795587584.000000 0.000000
-61159885120161263527285682763264059833977397747836899499068989721565355030000117356394263001646795587584.000000 35388262907981332658454437985931962224990303684987571041362990961019909223806483354101949200864169164800.000000 0.000000
0.000000 0.000000 0.000000
-3133702882809158700990671680293894887565664399385670604498568085487847606638991130689359529073084203008.000000 982686247423318169456702647345405121816512726754840037039035814345143169431623134405006339328780009472.000000 0.000000
982686247423318169456702647345405121816512726754840037039035814345143169431623134405006339328780009472.000000 422475050158042293897264431310474948086903891050105756738110954454678322580165613718589362059010375680.000000 0.000000
0.000000 0.000000 0.000000
-3133702882811401131463643408263373506122558414553683561282513326345786658710802386861389042063362752512.000000 982686247423535872703441031448008640395638997577594011719047353308452732537508114974823575813919604736.000000 0.000000
982686247423535872703441031448008640395638997577594011719047353308452732537508114974823575813919604736.000000 422475050158035207041145591850824233889867798853134325237962092249704795968494886195756933458409029632.000000 0.000000
0.000000 0.000000 0.000000
-14484453429630816047096749390135596201298107985760248885646459680453395436656047255386363875259127431168.000000 -6603261995934397949647643217908039117347108806966596826898160551814808880693847721608135284764220325888.000000 0.000000
-6603261995934397949647643217908039117347108806966596826898160551814808880693847721608135284764220325888.000000 3360380841995547949174379311804313383470712027407907358398816612186942220587795459941932837233928175616.000000 0.000000
0.000000 0.000000 0.000000
-45819366169521515704186197480713515019681258540623359437504076783614056048176658724386609926453176827904.000000 -8254027006684941966128929665526271920242949807712461728272370712754100863409420596247550528902196625408.000000 0.000000
-8254027006684941966128929665526271920242949807712461728272370712754100863409420596247550528902196625408.000000 2529993082643386180605075955826011992087553968013705984961750054803767714196969961586632894722410020864.000000 0.000000
0.000000 0.000000 0.000000
-45819366169450840104413529881423529337632617537395003413001964104793156831492418041947164783389423173632.000000 -8254027006678117696678914573222615765033879132144603268971129507375382816718492661629544545923132030976.000000 0.000000
-8254027006678117696678914573222615765033879132144603268971129507375382816718492661629544545923132030976.000000 2529993082642611351002749508237533906544941221144829474278807787059995471320970419090287367723329519616.000000 0.000000
0.000000 0.000000 0.000000
1136278938756917937919843834561169085825073398200414040325943270109686323660162276315071345163140857856.000000 -7153676776258063539984650280758759129345266355257460244103016062572474754520501263875141918034503925760.000000 0.000000
-7153676776258063539984650280758759129345266355257460244103016062572474754520501263875141918034503925760.000000 3885813334030189459854906664415821582774437910367909364769799227802476990677904890964685817389118390272.000000 0.000000
0.000000 0.000000 0.000000
-174172222217379024113671344049276586386501969674802385353864091579399184761819427201080322603660345344.000000 150926334034682845616837890833853669348561196153478458687414129853312106764016552921388811938122694656.000000 0.000000
150926334034682845616837890833853669348561196153478458687414129853312106764016552921388811938122694656.000000 17723521005379524203364716808508886934152011997175657078852178926012048844255945638053016345237258240.000000 0.000000
0.000000 0.000000 0.000000
216800114394227393462128526462993790597902540532832953146484780113192570050594356595397181949616324608.000000 889927958419265898648972757912246404549790536724394342460782142370823738758203889528858817522527371264.000000 0.000000
889927958419265898648972757912246404549790536724394342460782142370823738758203889528858817522527371264.000000 599305738775394868816199359581036615597130466026265616776491178802591080266144313745019998892650921984.000000 0.000000
0.000000 0.000000 0.000000
-133140035502854399188076256474737448281517628023136848983373966519071612634080740848247303107110605160448.000000 14840170201040507421860549277489835117875549363635923007678376053267167766781082557420403801336733237248.000000 0.000000
14840170201040507421860549277489835117875549363635923007678376053267167766781082557420403801336733237248.000000 4003933337708212447480389225963317621542823109599316629364124463127931082588068759121070333098924703744.000000 0.000000
0.000000 0.000000 0.000000
6267738332294987864614240163069549879847339113327091119211094138553128501538270129669026852478109351936.000000 -12663775650938782195047865239911993167620167789892044425799256588310230283869408995079171370664798978048.000000 0.000000
-12663775650938782195047865239911993167620167789892044425799256588310230283869408995079171370664798978048.000000 6355170284441942170019658394644767046463670695965128659424519551696539897837397079514287749600747978752.000000 0.000000
0.000000 0.000000 0.000000
2399225743735524278908332512846515792610080768487320254225842373121514225002197278604311280419155738624.000000 -3803328406781859605620964260804962117392824154542844244119172539079783900626150471148433291539294191616.000000 0.000000
-3803328406781859605620964260804962117392824154542844244119172539079783900626150471148433291539294191616.000000 1802381457936707527754902295333415268593967479276101383710719565281534540596756671337578688670152523776.000000 0.000000
0.000000 0.000000 0.000000
9497908678211132863686020678336453058695384985456935215002778446186280907382043105405236153463429136384.000000 6789689252370661220146533539904022977072457389835638286435340180295312005525914932361348936365644972032.000000 0.000000
6789689252370661220146533539904022977072457389835638286435340180295312005525914932361348936365644972032.000000 3181739557582590805875238883615433570347403232629994171489362966213641419505483093019217177235519700992.000000 0.000000
0.000000 0.000000 0.000000
-203318561161756015427823696979092086220712235692845116132294730014980115708185399621456306393243975680.000000 1372942196964054004076067388171878031031429445771710132857282998277200352607818152472390047732659650560.000000 0.000000
1372942196964054004076067388171878031031429445771710132857282998277200352607818152472390047732659650560.000000 467379338170483351924199172351863834420710567721143473752235472345918441251228752008844744706333081600.000000 0.000000
0.000000 0.000000 0.000000
36123835477898813724616985503179809878299631033038271748299739540099081487683322009221465517376667648.000000 -3788067401696579622695022222929851571991788234816221625890819047478186272812515297134582165724463104.000000 0.000000
-3788067401696579622695022222929851571991788234816221625890819047478186272812515297134582165724463104.000000 262874700765979923735127664263295901000568797493553312995877320041595211708724811433310187537039360.000000 0.000000
0.000000 0.000000 0.000000
112658561520424877238319510488609993500304011619872006545232639464998168846597404921270575252994260992.000000 -86672742007369151616140277835334580559728768603554198520786297024187746679526476879969477342477156352.000000 0.000000
-86672742007369151616140277835334580559728768603554198520786297024187746679526476879969477342477156352.000000 34930609024467853282008923447519493767186390204651721698161523940821184572188431463431106044564078592.000000 0.000000
0.000000 0.000000 0.000000
55014052611331758020255730367295846973546867892833936164231836148448352552967595459456003323824221192192.000000 -325805987419995416429060660597817587297051605960506853282539412370900069273298590949675915982778925056.000000 0.000000
-325805987419995416429060660597817587297051605960506853282539412370900069273298590949675915982778925056.000000 229019922691792379935682531887398931522099211579644475587630679978944274406781149715360736898619277312.000000 0.000000
0.000000 0.000000 0.000000
2155272831262494650351727849408755417286043935132990171652602355800774259708090810126001382954715054080.000000 115399090005804950840029065436131509618514781049187415124229777871884554511696491185865294359763615744.000000 0.000000
115399090005804950840029065436131509618514781049187415124229777871884554511696491185865294359763615744.000000 1281267998818881760871299019138349293723906091192277383459333804432458892921466313648507298766684946432.000000 0.000000
0.000000 0.000000 0.000000
-652174983615681844654553036600679655638701219119502139400054018587930022600051810474064873759025542463488.000000 -91200159972434192614139640382266187027874140923218162450853963563519756833865544482209765436370840453120.000000 0.000000
-91200159972434192614139640382266187027874140923218162450853963563519756833865544482209765436370840453120.000000 23075285077451896693962811647193023053209630741283660781151791087774276460434748201534843144816434348032.000000 0.000000
0.000000 0.000000 0.000000
2525623788738215340543488103965232374409888578722857019979095252570683842737816572481424422240631390208.000000 -5610404324474469201260278583387236227851875335697216131042452651962399087320810544299892947337120579584.000000 0.000000
-5610404324474469201260278583387236227851875335697216131042452651962399087320810544299892947337120579584.000000 3175514617282460473923774350618376777511136108051500611248155425200416659677678686234005396273143742464.000000 0.000000
0.000000 0.000000 0.000000
1073601637747341512447313100579095345444180799660544766914111499427192131046187044861787529252310089728.000000 -1323581603863501054630968683483189551403640229228058090452645394701953547582131893849806878079979618304.000000 0.000000
-1323581603863501054630968683483189551403640229228058090452645394701953547582131893849806878079979618304.000000 598400577159195245141036395865548553641627469872156425406379508560727674997076111028887937743461548032.000000 0.000000
0.000000 0.000000 0.000000
-11152728603110637497636897446694826795742352155184135389066765906295156760484865592427716561328570105856.000000 3010614081251027283770362543468802366785376747471830908532506246366291243786298480725156633123861037056.000000 0.000000
3010614081251027283770362543468802366785376747471830908532506246366291243786298480725156633123861037056.000000 1199524774893502223492214729742531876546364705085410283353419068154691077496645844442545528928817119232.000000 0.000000
0.000000 0.000000 0.000000
-2830208217185271970349743389927940064246108623626630869935516168574335814835730707344913093889122893824.000000 -69927047910627946433206602098816008931691452151554652246770700422263239902040120022261794529960001536.000000 0.000000
-69927047910627946433206602098816008931691452151554652246770700422263239902040120022261794529960001536.000000 15764003802138332979211059262321745213056523689141720676148381505617781070496206329162181289866952704.000000 0.000000
0.000000 0.000000 0.000000
251918156455166236271267339395161073088862573474898544846288589643593961724556524111866536696037244928.000000 664384230653366914143080336356196899652614892062180097501444453281924391846659073657408715509026783232.000000 0.000000
664384230653366914143080336356196899652614892062180097501444453281924391846659073657408715509026783232.000000 333402367729945979731396120815926135901401267722189115378002121931649796823305199976024489345635319808.000000 0.000000
0.000000 0.000000 0.000000
2136447720807791845487189758232451040659568316820050585732348056534383681754592206333057327111386169344.000000 -11079802089410787469074271157486106325932546328593140198809077881367187407996037033126840334305655259136.000000 0.000000
-11079802089410787469074271157486106325932546328593140198809077881367187407996037033126840334305655259136.000000 5965917140448080697528929307242683017849129425786389036080005884256309956083244540767127394116792483840.000000 0.000000
0.000000 0.000000 0.000000
8592225885430881502749183541915640996519251734899601601192514653320627372710329272766961157340533882880.000000 2883069356362793175585384741042234673639110651686982131328764535979251099618468280511747392420108566528.000000 0.000000
2883069356362793175585384741042234673639110651686982131328764535979251099618468280511747392420108566528.000000 600024942950306107803038264296333923516373250775818684913457698935528420304543957387706418610284003328.000000 0.000000
0.000000 0.000000 0.000000
7379929607508561484081367512766167562686850705998108292140725708189134913978187166857973924899011428352.000000 -8943631589441179853298478040695972956744676141192817045252474750864513562197869060769046582087630454784.000000 0.000000
-8943631589441179853298478040695972956744676141192817045252474750864513562197869060769046582087630454784.000000 4023390010901017236962655749075105666742318005613155591501965751354954438839689715522666443889430233088.000000 0.000000
0.000000 0.000000 0.000000
1664820617475479843049800376752597976843741103229332260913975420249242429411399972616392638575618818048.000000 1274844272774862481333094585942450673499559125866894023417004661841335834743273525777166374211938156544.000000 0.000000
1274844272774862481333094585942450673499559125866894023417004661841335834743273525777166374211938156544.000000 489510810288031360389617745570280706860770788458420946065146223009259136602641333706992853846308421632.000000 0.000000
0.000000 0.000000 0.000000
4375199287437356538306497337223861210728524709706474724039027668182400294866825086484280430460330311680.000000 1440451172174864135600642584800091400313213857213176211380173718253804131879441123498777633862432325632.000000 0.000000
1440451172174864135600642584800091400313213857213176211380173718253804131879441123498777633862432325632.000000 294918536928444461201395123177031859042297883035805851582089225921443625964064680650711488732378169344.000000 0.000000
0.000000 0.000000 0.000000
1214983654847957920430562506994354213339992706572887751665902366792714227280345527983880644889612910592.000000 -1363488742597319708958293739378327339349022462763877241711173011681113552446783163690505590950623969280.000000 0.000000
-1363488742597319708958293739378327339349022462763877241711173011681113552446783163690505590950623969280.000000 676499863782997645766114244560730299137845497826309688828801395568999070934888536038987901828625072128.000000 0.000000
0.000000 0.000000 0.000000
35264152517059367303827107730322605065548771624553624024622638072172964007766513237482022031267387670528.000000 26610893271539910857597605766076748602068476817185013430569327338237905053398085354908592182583355244544.000000 0.000000
26610893271539910857597605766076748602068476817185013430569327338237905053398085354908592182583355244544.000000 9881112211281628441776383986180624348598973335799970251410868758654278486084302853504809843357139337216.000000 0.000000
0.000000 0.000000 0.000000
15661116367293920186536681365312326316769176096986064296541575352525967476769908853278772614350304706560.000000 12025196129481519260592006074369373030696606416737443160754546221217029494329611798903647534118825099264.000000 0.000000
12025196129481519260592006074369373030696606416737443160754546221217029494329611798903647534118825099264.000000 4506907683492064996252939976571204350273524958747959625689705070300433702891693473605938188598569336832.000000 0.000000
0.000000 0.000000 0.000000
8362556230140768535796377614949982779006054538766737525845243620501172037114949403221648815775574654976.000000 -4398491858615591848596442301098386399014444572838462796972350773727794505537741333234758850784027213824.000000 0.000000
-4398491858615591848596442301098386399014444572838462796972350773727794505537741333234758850784027213824.000000 1315291234381044891022974931923502228949553869579106243254056346838509786531204840517552208551365050368.000000 0.000000
0.000000 0.000000 0.000000
3853395691407873494970834674988296884647615376822327183081763213291824618493644603970010304356959649792.000000 3817470703337453026927141197164414855763746145636046571216172118860537679381832608556633657233075339264.000000 0.000000
3817470703337453026927141197164414855763746145636046571216172118860537679381832608556633657233075339264.000000 1580214643937080259787414843938269328145835721882990680343100228907692759306524048919043994250849026048.000000 0.000000
0.000000 0.000000 0.000000
704032916146427112060382640098396569643196151689775340248490234334198505210893799853457703859627491328.000000 -1415249186406097863743457335757234098598217171922459541985656801910965575814143406338518043010399207424.000000 0.000000
-1415249186406097863743457335757234098598217171922459541985656801910965575814143406338518043010399207424.000000 797243296958248375651363622397455215346032905804684163827712729151806746403024710720520459047242039296.000000 0.000000
0.000000 0.000000 0.000000
-130932866926524904373157690391379413893132354369449765494455303692618665928900761497875981271832824119296.000000 -23059784150570140119998354642792332236275849128924934511986058578195603274461733982660903040196519395328.000000 0.000000
-23059784150570140119998354642792332236275849128924934511986058578195603274461733982660903040196519395328.000000 6930512300457701604136066182440617642683949304975952108149630252258335529112738578119136914248747188224.000000 0.000000
0.000000 0.000000 0.000000
5262843102087264997200801658501916068467240116336671424925163342056453713300370538247777063774657183744.000000 -291712086410819060734375753494065353781156044592974125225216975897388015157359161788940859276485722112.000000 0.000000
-291712086410819060734375753494065353781156044592974125225216975897388015157359161788940859276485722112.000000 16775887526748107161397187685343053027607608373360140113417520721071445354775590284329210311633534976.000000 0.000000
0.000000 0.000000 0.000000
1213039481472689498418839664398258172299104663707808941569788093163794989700389601698828159118819196928.000000 -1942401709636532788919044465734791510044162142155588452556358579478159406192006096917719609395113885696.000000 0.000000
-1942401709636532788919044465734791510044162142155588452556358579478159406192006096917719609395113885696.000000 921027190457800160508991468473324511087740319194855006474898951464816942961449342952008248331438391296.000000 0.000000
0.000000 0.000000 0.000000
-656895694100175643311323180149783912809566591691627867962925870265976623178113033203838606355132841984.000000 -583933921529971941503167015872209831610147711588718404057372934247297447663060375266061199902246961152.000000 0.000000
-583933921529971941503167015872209831610147711588718404057372934247297447663060375266061199902246961152.000000 406347075232837220811488776174623421103254610035288383821078107972281609067158089745390478691754049536.000000 0.000000
0.000000 0.000000 0.000000
-199550495768287136952607489803140642350760588960747383270813744375628613726976797316699258215018266624.000000 87852577087685701924826306838357548479861016547981738502500684594054663269345634921420185497931612160.000000 0.000000
87852577087685701924826306838357548479861016547981738502500684594054663269345634921420185497931612160.000000 1881727870227263382767298521895579107007485548393099156144129624892162695202672442350434759960044765184.000000 0.000000
0.000000 0.000000 0.000000
5471753310795590195314492903379850253989523408765841235214212324504577461273080682481977327549595779072.000000 798760809932815607840177017929206941807060282435637462253468773631553732645698353282640676127424643072.000000 0.000000
798760809932815607840177017929206941807060282435637462253468773631553732645698353282640676127424643072.000000 134077499580129797538577093241754152487617653848978219520039012781576941681757866537466231117955727360.000000 0.000000
0.000000 0.000000 0.000000
-65690500087558535969594032527273273986417673263814665725206950861375613175008829431164943607860822016.000000 -152182309785276218342724071365278530159121661724040833325748804918864887195086351550280274024729673728.000000 0.000000
-152182309785276218342724071365278530159121661724040833325748804918864887195086351550280274024729673728.000000 87701269032810097996003343283260991676130807071598113429626689096519483648031885065432316604898607104.000000 0.000000
0.000000 0.000000 0.000000
-625541518807778365916092034183041202956476886336453942533585398605271452457234133136251482309948080128.000000 2241763330321209019073334754525269276760491057693049327853308068627877347259972654993703742212078043136.000000 0.000000
2241763330321209019073334754525269276760491057693049327853308068627877347259972654993703742212078043136.000000 1367611738385669864071378579247864321227521572536170410253245294889787562366216546280539330631471988736.000000 0.000000
0.000000 0.000000 0.000000
3317327711641295702657588756607633299951809709265994243537776978281134463477231511333887454290078859264.000000 -3516836231375387793326833931447491480868300524002392177215768147554927687173718644839795803255828643840.000000 0.000000
-3516836231375387793326833931447491480868300524002392177215768147554927687173718644839795803255828643840.000000 1515100023433637893227279321021293397199059983102854996061727159925854703134292719274963886987668357120.000000 0.000000
0.000000 0.000000 0.000000
11927382845693088468427267375600742529555684754148905172395390171138692280877541177188361763584066191360.000000 -11185332413754779688656300314213979598741784148083351522069498413979370203362648215424843204199259832320.000000 0.000000
-11185332413754779688656300314213979598741784148083351522069498413979370203362648215424843204199259832320.000000 4598109177931964552124550478520352993361645792741175493690181491973719051761990918510363714568901885952.000000 0.000000
0.000000 0.000000 0.000000
3529448728875326338733183055749916035022131783612376435781512450488112912743976493314098230883369615360.000000 3499701169503926256671832197997019781339398134668506511659913364400702120137929946964482972738578808832.000000 0.000000
3499701169503926256671832197997019781339398134668506511659913364400702120137929946964482972738578808832.000000 1532027002802796403900231479246403005747509980292644386515011127433038382806871044055287313985001488384.000000 0.000000
0.000000 0.000000 0.000000
-15340128044604987996215019634935573924381237291972246129710181923173055384812877762979602221106200576.000000 6455753770082840471397136298469555099719693405926168021987006578054338880069912200111029356670125867008.000000 0.000000
6455753770082840471397136298469555099719693405926168021987006578054338880069912200111029356670125867008.000000 4529410486365629824187105192456587945114521826018780767129668733116338498015320147826873054528108756992.000000 0.000000
0.000000 0.000000 0.000000
-660217728335444790857881385262399701058798872791463685936217532255194974285952949789702346631666466816.000000 -268518386470696588466997493474042536226729066441941056026632532503391990782197441654799093898728701952.000000 0.000000
-268518386470696588466997493474042536226729066441941056026632532503391990782197441654799093898728701952.000000 128736299928377082760853014670311496778889057203151419602421559173817407778669679433708317020721774592.000000 0.000000
0.000000 0.000000 0.000000
4217628573378439096796621946026012071284907755049066917430221648442041898777453651887749543748192698368.000000 651814483050355020063213509649532099636404620316346455451678331505431235404539644983728021856099237888.000000 0.000000
651814483050355020063213509649532099636404620316346455451678331505431235404539644983728021856099237888.000000 332916930147722555057522504846848409072918424274498075882460694852020307153440679214344600389406425088.000000 0.000000
0.000000 0.000000 0.000000
1780256832461298017873163585817039953576183537422741836519622137489229936000739466396665606363607465984.000000 -405455957014619067933550483873696173755865272630855716054232498936976748445305950407299248623533948928.000000 0.000000
-405455957014619067933550483873696173755865272630855716054232498936976748445305950407299248623533948928.000000 59499507700587030728427659778018500540080669646638813979758963345722498639431112410120741387050680320.000000 0.000000
0.000000 0.000000 0.000000
-14119043778257585425783101141240548639548605439281936660948355451146886898470881864785888104965927337984.000000 2053507569439497026263397283639314951052099522680814172804394350903013244161275556425117759029936914432.000000 0.000000
2053507569439497026263397283639314951052099522680814172804394350903013244161275556425117759029936914432.000000 534319490442023747691550776181595809800345628404159584685489322856045644280198498456700013009151459328.000000 0.000000
0.000000 0.000000 0.000000
-319667926514773359282482922108281118675297925736948899715953434338295016523739302895471084440205131776.000000 -53522030511587273465482314872879239025236321741201052679691548372564935305538332536179591413076328448.000000 0.000000
-53522030511587273465482314872879239025236321741201052679691548372564935305538332536179591413076328448.000000 379980134822521335483930639656197965761932828360618225525962462540286331305206803804161448474633568256.000000 0.000000
0.000000 0.000000 0.000000
-5071686453965902840880360635154062270415443317107162687643091007154856052399213892042173795719681409024.000000 5468003106622987561028880328213649561593537186468280072404462752232195307447204529313434440929153908736.000000 0.000000
5468003106622987561028880328213649561593537186468280072404462752232195307447204529313434440929153908736.000000 3122895003183400567526614888466034012162161856825100948972259902313084651349997214167460019587505979392.000000 0.000000
0.000000 0.000000 0.000000
183050801803131922429010518947301423240831149875475666722357582328996785256489384598296246925150650368.000000 -1245074981100474356168231430938674446485818289032083188585880954738351533132755286127758092421923078144.000000 0.000000
-1245074981100474356168231430938674446485818289032083188585880954738351533132755286127758092421923078144.000000 676096099158038586084305674214570220881083650913428559071571709451134875579682541405531762565218041856.000000 0.000000
0.000000 0.000000 0.000000
466130414884391908492351424902324366637554601508193191810726734777661926069700435571018299361370046464.000000 -9221693623967288691127204139834602955270800890022120073587080941172896626285100602914165192367169077248.000000 0.000000
-9221693623967288691127204139834602955270800890022120073587080941172896626285100602914165192367169077248.000000 5123301720401398092741396470380695522232953748253666226939742564286098556552398960255167107959906893824.000000 0.000000
0.000000 0.000000 0.000000
4019620529213090070857539473296492528305113103541007908326145145073401037932785903988559413602485796864.000000 6377686598968032270198210797587285759148488041462449669537041179845255911270335621054279653135466102784.000000 0.000000
6377686598968032270198210797587285759148488041462449669537041179845255911270335621054279653135466102784.000000 4038160316381626485549214615712366006034323532909673093467224110094940138565539814345533186298320257024.000000 0.000000
0.000000 0.000000 0.000000
-144608837447076108843182361188730692335521984693194578826304487429651913797501267391431397086588376711168.000000 1138765189440300581428222112724526317613389918205580047785444412105394343257339185081990259244579946496.000000 0.000000
1138765189440300581428222112724526317613389918205580047785444412105394343257339185081990259244579946496.000000 73163169961634199157522055412260640190943250085377702953668583423226220291534335014857137766891782144.000000 0.000000
0.000000 0.000000 0.000000
4076667007924611671725443775786131858320779277552416937430143867032027251757246636974161909918570905600.000000 -1809714954674336048039867326436488517096512187290832470952215533782241851467001179502134669101129269248.000000 0.000000
-1809714954674336048039867326436488517096512187290832470952215533782241851467001179502134669101129269248.000000 475683600614306063478611997632391955205609176623831351604424364652275035176381486666971112777388654592.000000 0.000000
0.000000 0.000000 0.000000
34938435102168569882834982167109365837174227744323039119879845680990507448632958650572260812900452532224.000000 13010397890820120693671010372925584744221387673546456885091576958853802220381583192424421166047209455616.000000 0.000000
13010397890820120693671010372925584744221387673546456885091576958853802220381583192424421166047209455616.000000 3581284576900867782389636084703957948578484911944849287408290531433046839154680553203076120501634990080.000000 0.000000
0.000000 0.000000 0.000000
-7735327908130922501410686075565127248062748708550036739562742514731577706952660939619243852378939588608.000000 -5931449493869864337789393493693048710873468374603382964901913550662762615033165624420519349972163887104.000000 0.000000
-5931449493869864337789393493693048710873468374603382964901913550662762615033165624420519349972163887104.000000 3347193364469367274295009853739018278487382755513550945560972057982565042934556407612653289394799640576.000000 0.000000
0.000000 0.000000 0.000000
-2497048148996287733670733372425981124063663398614304035722719060362020886914419358899141526806792765440.000000 1796394326667577676077325801139648710215161866716816820001980614438202467633517789431046159265488175104.000000 0.000000
1796394326667577676077325801139648710215161866716816820001980614438202467633517789431046159265488175104.000000 986574149158609622755876409401470013229054809025970472422981132020329245380251193452301447541571977216.000000 0.000000
0.000000 0.000000 0.000000
163601277249052560566306888285406938962429256397016647105728956751913697444357269736788651299483680768.000000 83705811136985568122337172045651569038584491698147805481833480235976913725627450970884359990492004352.000000 0.000000
83705811136985568122337172045651569038584491698147805481833480235976913725627450970884359990492004352.000000 24462778514533633561874079689033782114151304466717595131662421255447454761179418554685485686145941504.000000 0.000000
0.000000 0.000000 0.000000
-161238731152099397510360821611270835124361131391829366761331962005066561984040464502808756541846437494784.000000 2434678120708437423010296082160330801263564007909727330377611930837217875253173837422828943460047781888.000000 0.000000
2434678120708437423010296082160330801263564007909727330377611930837217875253173837422828943460047781888.000000 323545835291381967429643240466860995257296277595898379030486000877435890976021004449736281281693483008.000000 0.000000
0.000000 0.000000 0.000000
2566371278791288624637946516825579192284661638685317205373086792624652491460563942157636468723047989248.000000 1515745947727388136251825385407338655699767547939873910764987284667423376562863497604098069774838267904.000000 0.000000
1515745947727388136251825385407338655699767547939873910764987284667423376562863497604098069774838267904.000000 557539926819643798885788734987038291648090425660287122772425337512438434873378013888503957270548185088.000000 0.000000
0.000000 0.000000 0.000000
773421845211022770846139412561890935307644467067161863735771351731316153634547214824001629713686593536.000000 -2116307876491200299637265565338347850088183124094295905375766225318601081739573745574015919478703915008.000000 0.000000
-2116307876491200299637265565338347850088183124094295905375766225318601081739573745574015919478703915008.000000 1249358574407391042410829294338987457202752733949510981771549578004228731753806695981059575955679346688.000000 0.000000
0.000000 0.000000 0.000000
-3347553981819016049764393290562674615161020837686769296124990318915648221558517542834023498119345340416.000000 4987748986264402319056797318391789310536271361473246425460052586459670892047344906128152693940649197568.000000 0.000000
4987748986264402319056797318391789310536271361473246425460052586459670892047344906128152693940649197568.000000 2876783603611716523970632956591044336422812669432396767595529882648993409084491367393801747659921293312.000000 0.000000
0.000000 0.000000 0.000000
7424365474387030042638431159200421378465080710449846995153102098873078032979785642285092470355694452736.000000 -4304670496720690913376617526172782951929277818514278235351896103670200673219667146953715528210044682240.000000 0.000000
-4304670496720690913376617526172782951929277818514278235351896103670200673219667146953715528210044682240.000000 1617602089074276038035648995280358208812271986460000074538033372247337675423795873608656746778634223616.000000 0.000000
0.000000 0.000000 0.000000
-36393677745999614461999978411800166298512176219605739846548046973787280719111420074752961591377920.000000 -112862630778169184149282466798121183600174673714309791600602572422803616105334801650232144632479744.000000 0.000000
-112862630778169184149282466798121183600174673714309791600602572422803616105334801650232144632479744.000000 64714154061081845173702317122874938031454240389521084655921538825947075987688432399747410022105088.000000 0.000000
0.000000 0.000000 0.000000
-357320591085237496505079969874663655902635415824733323231604757353238669669491548437667079660536854948610048.000000 1884650967850239965547964470702285106319840721676072173905805295282900001506480599124852772893709479968768.000000 0.000000
1884650967850239965547964470702285106319840721676072173905805295282900001506480599124852772893709479968768.000000 20193693029357407151922152678717919731996553786909020305281267809684727469172231175230278326177369161728.000000 0.000000
0.000000 0.000000 0.000000
2731078941123971576383595953286671721231809374863912493282973450345669330260190787533295610055412940800.000000 -2730184270473421015197182357572318904479340400259834155455163861258397344243225271236465875550539350016.000000 0.000000
-2730184270473421015197182357572318904479340400259834155455163861258397344243225271236465875550539350016.000000 1151127038061401740586845471795101974953662424859016854931487959231692499638918127334981209630768627712.000000 0.000000
0.000000 0.000000 0.000000
1608042133946519128438479065436389424552683974236378565436932372153267613874898512365910946161075683328.000000 3866695778566426820015728799594056980980289158329318394808391424719885548019514061382606223641711476736.000000 0.000000
3866695778566426820015728799594056980980289158329318394808391424719885548019514061382606223641711476736.000000 1978070343881298482147101002040572287161662168914078325609777845697105912159560383082847078163503120384.000000 0.000000
0.000000 0.000000 0.000000
-1265387008145956633327597037936517887234291465718622374563628011672950266003097861456643303074336604160.000000 -5811974676905545873965143367508284660421306321071622299577457408786870004904654367766786963204464443392.000000 0.000000
-5811974676905545873965143367508284660421306321071622299577457408786870004904654367766786963204464443392.000000 3309413796622110618817757003677997790657362109114265888398822337677181154388118845699171104564019462144.000000 0.000000
0.000000 0.000000 0.000000
20916360756868871137860839070873130488443791109407434966647014360676983434075276652808750366334459576320.000000 -25110313167440990339955244329986571938752195301520043072774474879245457568984809467390108258895579316224.000000 0.000000
-25110313167440990339955244329986571938752195301520043072774474879245457568984809467390108258895579316224.000000 11270770894970092102729685077883940363617565479321750934820184792521480931281242244346858027967603277824.000000 0.000000
0.000000 0.000000 0.000000
-53385758755792886917714319075732275551783607209942235479286969647485812040681399542848158945895218413568.000000 9146034469735342475615419976715011641691100707917720444441950690010569554513001008418400028403601244160.000000 0.000000
9146034469735342475615419976715011641691100707917720444441950690010569554513001008418400028403601244160.000000 2702948618166637669540076095018616410746882498770757666698187262293913287799845363997027192804382605312.000000 0.000000
0.000000 0.000000 0.000000
9983062684436428892197455411099497013414455992570361514484302624257408912889196251469495401354075570176.000000 5881745854512537839417697115401939769296530298497908492153280959790309628835083079217424569115732869120.000000 0.000000
5881745854512537839417697115401939769296530298497908492153280959790309628835083079217424569115732869120.000000 1887330335860009795557551821240828225717321551981144074463325902716856863944312900226623530510470610944.000000 0.000000
0.000000 0.000000 0.000000
707605264964309152747844622335341964591917691305153929863189629503250334230607653609936162035295322112.000000 15788395392737484143023360040945303112820436179822323184014813080124718221386381072390968221300959477760.000000 0.000000
15788395392737484143023360040945303112820436179822323184014813080124718221386381072390968221300959477760.000000 8982336083456380361536823105087563036901660313975166645656728703723263367568286000685333806115519987712.000000 0.000000
0.000000 0.000000 0.000000
2720418818964722005614281466933020968240510343321867643521531176227504333645306054499056407143520403456.000000 -2298600498323074488198056194232538470632241055265858715208707785247149569357670692204100299321912590336.000000 0.000000
-2298600498323074488198056194232538470632241055265858715208707785247149569357670692204100299321912590336.000000 901920303395970996713025444579228356361582746128272989025733824215873328448199486135953719289054232576.000000 0.000000
0.000000 0.000000 0.000000
1591453650396925327091554919742819655574972829894713035267881537338936986550164273419537809012493910016.000000 1321990871862761981127298731523990359091442981289813859648136632339411176491635506961092710774389866496.000000 0.000000
1321990871862761981127298731523990359091442981289813859648136632339411176491635506961092710774389866496.000000 514906929877131681890418331546954806653615007937908309528057952528712223022891121244926477175867047936.000000 0.000000
0.000000 0.000000 0.000000
-7535338091692539108984780418056335364061275712557085751016929195985098670695511205448315280020385824768.000000 226320840189361802206322884512481379452075062990979205611380373713927183464142814313324506842056884224.000000 0.000000
226320840189361802206322884512481379452075062990979205611380373713927183464142814313324506842056884224.000000 958090174462870502169447953226586250723301306676917588410845106163733465400952970711055716802935914496.000000 0.000000
0.000000 0.000000 0.000000
-589511312465119429710235799834733033164727733118374104596964906496502807882528496296409178751123849216.000000 -237976491540695744146575038378871641207167086205651676849087651962719101272863995840959452026876461056.000000 0.000000
-237976491540695744146575038378871641207167086205651676849087651962719101272863995840959452026876461056.000000 113787686289618265072767014446061887721424462930480294864526481021966531005221113342555558915308781568.000000 0.000000
0.000000 0.000000 0.000000
126757905750412249444398647276572065257567525136732276977262512504781835901226108758845718363969159168.000000 99396526134788502199380610332171045188137848655197410542222660181249662344311177017678839514591657984.000000 0.000000
99396526134788502199380610332171045188137848655197410542222660181249662344311177017678839514591657984.000000 37684858400881932608605853103680527553539778693549053507536224038961995166621655735773368574835425280.000000 0.000000
0.000000 0.000000 0.000000
4212624616879978093633358274690156679860950563743920867181998672325500623886237329198372970899898892288.000000 1407434765054763619383815824823801409085984694532262167908498190934615990498607216882170072320666763264.000000 0.000000
1407434765054763619383815824823801409085984694532262167908498190934615990498607216882170072320666763264.000000 291876831162331670706689456665733022339513989203024391508034416310628460756859030899899851172676108288.000000 0.000000
0.000000 0.000000 0.000000
-47715955071018937616424626619846009193427817418047420941445794139186685286544638034291725023771636006912.000000 -1230233938813741683533631778208251469705125326060227529839692471488974588735569524158280910906035535872.000000 0.000000
-1230233938813741683533631778208251469705125326060227529839692471488974588735569524158280910906035535872.000000 246640532424607381782532564976204018450567424356108512534199486181111263597306434005431576632303288320.000000 0.000000
0.000000 0.000000 0.000000
-38328129039868516896194394832561887702726074203190983000494183194708718106208567707957790376077398376448.000000 9372587389867702972823881781657206363983046227477858677256133520694030542719950989162290950020119134208.000000 0.000000
9372587389867702972823881781657206363983046227477858677256133520694030542719950989162290950020119134208.000000 3522358460096404026966874305675896001855811076556104645731351474173739554209635098702635756140923715584.000000 0.000000
0.000000 0.000000 0.000000
1754209067410363464316433383989642145187743936952398931981269108909525208275622809520307109364718632960.000000 2045812074037404551370948755808365217363517273736521630077304802955247696086546141728393971118257471488.000000 0.000000
2045812074037404551370948755808365217363517273736521630077304802955247696086546141728393971118257471488.000000 822532623705000827333794908181391188986068341276461088069861263716002340776277988103846391823294529536.000000 0.000000
0.000000 0.000000 0.000000
2147059040675162707735244550393872233142299083666034113107396518380314641102513711252029750137239633920.000000 -2079371845943346240537716057457419357694642492084847180573494203260310201371219640497223333034900586496.000000 0.000000
-2079371845943346240537716057457419357694642492084847180573494203260310201371219640497223333034900586496.000000 896948746509405427565992350686602944633512399832962440452115279962058373823231586817428903310353498112.000000 0.000000
0.000000 0.000000 0.000000
-1473053645422342400912251635113020494699597870193938241014489307844903082953162285130964883928455839744.000000 -2924065025260874657823902001911631506763675992760746263003426616484416510484185719545917717004737839104.000000 0.000000
-2924065025260874657823902001911631506763675992760746263003426616484416510484185719545917717004737839104.000000 1792455026146308459163120208936501715399975016120826240972887970509093067174241332365904723670867116032.000000 0.000000
0.000000 0.000000 0.000000
60976749941412449090191483455589689917731500020619021981231147168230355095479359683003718720641040384.000000 -183991996421069033904658098979880066477561498778021347170670366292289611285198964524154171259126546432.000000 0.000000
-183991996421069033904658098979880066477561498778021347170670366292289611285198964524154171259126546432.000000 96134134389711082275637049684235173197370020249973575373689435950346715594735990948774885547963318272.000000 0.000000
0.000000 0.000000 0.000000
-933018945358977995962444276913556611948034772146376274507754828604725262719732791042682344599124443136.000000 255211053607332828361885450463712804571967498027306663452958684246938208902934756467398137581517406208.000000 0.000000
255211053607332828361885450463712804571967498027306663452958684246938208902934756467398137581517406208.000000 56316163616946267226817113856971749370315912633482023949893360165557578717058951914029188888032968704.000000 0.000000
0.000000 0.000000 0.000000
3663015809418132424043513360257112364288128468882199853630598759828920471549673255736115608049005101056.000000 -2061343498181740224263324311909290546749465375798113869136522413213324665248501578901645507806778884096.000000 0.000000
-2061343498181740224263324311909290546749465375798113869136522413213324665248501578901645507806778884096.000000 595119355927354628704430838091590295376841857251365282088885728621626038518309581722571825371836055552.000000 0.000000
0.000000 0.000000 0.000000
-5883260200452525457554866339112807165137898099754541568357610613472713327504837632940714211889177952256.000000 2192821043414799402524614117616317778803102917358024588534541299619320444243635780406743119212870369280.000000 0.000000
2192821043414799402524614117616317778803102917358024588534541299619320444243635780406743119212870369280.000000 1008876383414478900691436776917593515780673537680050193191560497435470804827009388427392581284912955392.000000 0.000000
0.000000 0.000000 0.000000
-163559616234937626968303150436982421049012699015476852817104238639014112703638167873130549328296477196288.000000 -14068839152948928368322210288532393388424572316061678279010519913918645388458483424098155612885852618752.000000 0.000000
-14068839152948928368322210288532393388424572316061678279010519913918645388458483424098155612885852618752.000000 2311496169963825566107619744080138570250907857081657951926257512635181779012226503697554415402740613120.000000 0.000000
0.000000 0.000000 0.000000
1014356215169912395905106543999340931894452804880393078512747410101479397938868998577423668796668772352.000000 269392865411366312476463655879132950059477234576507478842140370329190486219500672578500117318852411392.000000 0.000000
269392865411366312476463655879132950059477234576507478842140370329190486219500672578500117318852411392.000000 53621814269995952497650816830877795564212042630838918166283028216073026561118407916924343426714959872.000000 0.000000
0.000000 0.000000 0.000000
-4466954010373792942357754736154491943530791374190086461491694835385120792679421051002556691405365837824.000000 -5564218497078481146939842823752411788938541167923927620547730090960344286944735130659093207871874138112.000000 0.000000
-5564218497078481146939842823752411788938541167923927620547730090960344286944735130659093207871874138112.000000 3187234131497812279760691005530335320456547042600587496615081948982441912158843760384252398261321596928.000000 0.000000
0.000000 0.000000 0.000000
18112208963765782808337235421437896880028575460632256423191814646458917589220122430105550177987920396288.000000 7482961072902400972939090016259231441318101539559347116505963617013250401758988881782313521140681670656.000000 0.000000
7482961072902400972939090016259231441318101539559347116505963617013250401758988881782313521140681670656.000000 1851982647458468926533441513340148258852248331916928829263331360926625289691728621073859185753112707072.000000 0.000000
0.000000 0.000000 0.000000
39781401659214433258744985717852504243998933129732819209782745285085060422677001761693204075046458359808.000000 -15329641257194433930389786339641228990887825440471625875217339905177552217858649555936814490637423345664.000000 0.000000
-15329641257194433930389786339641228990887825440471625875217339905177552217858649555936814490637423345664.000000 4453736522651919757595019523216693898865945964648257029862396125332579440347558811111182112397610450944.000000 0.000000
0.000000 0.000000 0.000000
578396595602110930964290955964139550760491585682983830351486012775794955034699486040061999309073154048.000000 -1906178581346494223902262721900457827623016776012915982121979108513067105313573715698661701944069849088.000000 0.000000
-1906178581346494223902262721900457827623016776012915982121979108513067105313573715698661701944069849088.000000 1002494175285933162524609419532343604473189820407289733532197459808163791039217791441324236372050968576.000000 0.000000
0.000000 0.000000 0.000000
31243837740219445875914051576147623179015513496611586094486494114882810479393938117781817681756890857472.000000 -9470862275651699471503226042613652319145258367222052742384225930709680346218189056054833845472482820096.000000 0.000000
-9470862275651699471503226042613652319145258367222052742384225930709680346218189056054833845472482820096.000000 1834336287137878191114266820769160736996367176837236314579274883647773146289507656666366740427482071040.000000 0.000000
0.000000 0.000000 0.000000
12515604351092678030008326606600452415605934331429532608423215485950193377252082623070989177711493120.000000 -27777045115172833790640820439512349862885833018703905610489957988536739234999128789277164872637874176.000000 0.000000
-27777045115172833790640820439512349862885833018703905610489957988536739234999128789277164872637874176.000000 14078265657885451692975145511154096529668530305675848406409476535952511291737657535735986896620224512.000000 0.000000
0.000000 0.000000 0.000000
2781467461604809269304593228293502980278966096706220253766538120970903462786278158660269037311469027328.000000 -37785155619696495734261031521366698229234379483212717310544433497236675227271929355941474234871578624.000000 0.000000
-37785155619696495734261031521366698229234379483212717310544433497236675227271929355941474234871578624.000000 357676360097095650995324501242256762547945636528182474098718556457355086823138963870917319366541312.000000 0.000000
0.000000 0.000000 0.000000
64218064618774318938755584141942322387954094808740778360149821358381080975237376969472440250274167128064.000000 -21166086519565944847365570926040262726199823622821044450501838031055518279236307036215728606452956266496.000000 0.000000
-21166086519565944847365570926040262726199823622821044450501838031055518279236307036215728606452956266496.000000 4349712424286151899882278987473234170876112600984758715529528866142416049099014259028913164913980997632.000000 0.000000
0.000000 0.000000 0.000000
376761988073810531646668607210026961416663407296014478358444835981013060289900827990658546594889072640.000000 -338593681084206113143783153130236743195898350718803512687094438821237996652077785913788461974663725056.000000 0.000000
-338593681084206113143783153130236743195898350718803512687094438821237996652077785913788461974663725056.000000 136827588681316492153949538751526984166341348656680884833360606700763715544995755327001224998130024448.000000 0.000000
0.000000 0.000000 0.000000
-13647821606901606636569952755897509366066264298116349678624162591868712780654430216707008610124190187520.000000 -2024107156347145908039210550648245521009087171521055206083764440329236852295460678747190420198194675712.000000 0.000000
-2024107156347145908039210550648245521009087171521055206083764440329236852295460678747190420198194675712.000000 534837726141286816335644564989980102552405785168611804257935830850871651241396031541953477375705481216.000000 0.000000
0.000000 0.000000 0.000000
-2366843893231986633583022099465995311454861060625254129182437810347159554116515781134112928458543726592.000000 -1277698725824410511057399162888057779972429845461659345367592953109559361958199206223276739558172000256.000000 0.000000
-1277698725824410511057399162888057779972429845461659345367592953109559361958199206223276739558172000256.000000 663518281570221620013287534062514300844035582080804561197393287038912945295512279956840600612569612288.000000 0.000000
0.000000 0.000000 0.000000
-61629000089984229948534393115409209369122699230429080235453220100133370869886475939146906537574793216.000000 -145677390306487127407550981625306461181785838881538502141316959834297595106255622263823168157471735808.000000 0.000000
-145677390306487127407550981625306461181785838881538502141316959834297595106255622263823168157471735808.000000 296595957780951037895303312117311748138005972296750437789754993263204195218017527064744338331648655360.000000 0.000000
0.000000 0.000000 0.000000
1749294840581658585938846020210304199743093534261374735904722612214277738726895774016614434070583050240.000000 -4496498727458871789452504379876443712054869951303151588873451480222533035300561865400932107541240872960.000000 0.000000
-4496498727458871789452504379876443712054869951303151588873451480222533035300561865400932107541240872960.000000 2418668329329081850605627665229447851492175854581541352720854032185157498630324037636015771453885513728.000000 0.000000
0.000000 0.000000 0.000000
577497367169772439434759312320286348057208100471638362021470362088631567244091598736361043101067771904.000000 -44437168838687857940402143622399751178110881973675566256219988428579843237841941698359159934983077888.000000 0.000000
-44437168838687857940402143622399751178110881973675566256219988428579843237841941698359159934983077888.000000 36854459916381879063760467888856645217514034071167163225085001239627105103882170608519694840947015680.000000 0.000000
0.000000 0.000000 0.000000
7741949356959891445359312044672629958822981405363521796622590692773868474244676091816759693847702798336.000000 7965941413368863362578049104442377222146299279834188418236066187313784670673238229859894932508990504960.000000 0.000000
7965941413368863362578049104442377222146299279834188418236066187313784670673238229859894932508990504960.000000 3398922794396393244839291859503179167853158768801539215591290377638619557657369917054452969398115237888.000000 0.000000
0.000000 0.000000 0.000000
1908692917498135591769455636990731084213306906585617175662220073660297454745532172177679166126816231424.000000 1309375553773009589564016225930031719037762237455952620429418080158784376170650679782371732831151849472.000000 0.000000
1309375553773009589564016225930031719037762237455952620429418080158784376170650679782371732831151849472.000000 460511938451853441839425976311067908610962714746589495373171169052096538387770267370590952716710707200.000000 0.000000
0.000000 0.000000 0.000000
22771053915134308709375750169256429172796284130801966753009464737907669004479701547430461797972572110848.000000 33171807770627813799170645342566345685058429444280918296524276177616924698172853859754263083905871511552.000000 0.000000
33171807770627813799170645342566345685058429444280918296524276177616924698172853859754263083905871511552.000000 15670074839774989960891080985183033748346827097108753637456361517302522033574981423679900242100805959680.000000 0.000000
0.000000 0.000000 0.000000
1928224600308060034098028465283416365357581069013612444905054365556352027334408957830503653231300706304.000000 1420786308410490535100257713584043264700800488001012256067167155769325124992099137035755266540323209216.000000 0.000000
1420786308410490535100257713584043264700800488001012256067167155769325124992099137035755266540323209216.000000 637398070125633508636642040232962991225555089822096574888643417104175706330908228348474049325451706368.000000 0.000000
0.000000 0.000000 0.000000
-437101661844519844203373179036148793345604777545447194986624521586607865299952721038295748713023275008.000000 -100079107516913517639238419432698327345694889395194475662896854875587115463796832190642299187656392704.000000 0.000000
-100079107516913517639238419432698327345694889395194475662896854875587115463796832190642299187656392704.000000 70379067074404354250642222440745373963451609988600370796966069766844317352360609669726430265564200960.000000 0.000000
0.000000 0.000000 0.000000
-268653412108839879445661816657858821970905506607527571987367144278477012690112151914592784932143104.000000 -102778486481506868050524965084369850523674757904131272510558687751847248530062538160610329868894208.000000 0.000000
-102778486481506868050524965084369850523674757904131272510558687751847248530062538160610329868894208.000000 48167842902571964498369837970925575996678842924163946119326462592151150522876564060390364538732544.000000 0.000000
0.000000 0.000000 0.000000
21171387009876986520930442852219958142976677425946592886492074219886547399818724967735262187094989078528.000000 17282570005130662478507336797892692518739364142316305736227114338480251268839381526667319325722423590912.000000 0.000000
17282570005130662478507336797892692518739364142316305736227114338480251268839381526667319325722423590912.000000 7662610237335884620541974546820492785878670531338459114909293840755419628559186048529987783451444510720.000000 0.000000
0.000000 0.000000 0.000000
2031745498798666870488036844334106660898143950289704536934451505183666308624901927598109576502882336768.000000 -341147684763374589644554920297999888282179236236526412350861159288795127746198946526038920113424433152.000000 0.000000
-341147684763374589644554920297999888282179236236526412350861159288795127746198946526038920113424433152.000000 43597768405961645982409849519573770779208946106473909472194710352943137743604553405000513174825336832.000000 0.000000
0.000000 0.000000 0.000000
-32535374958350008205609662297079410612228552063963636800248106619949505936343113302215388607193022464.000000 -142811684986559291037421711970451902205467024271162970225939154768114295732482858044195856001232011264.000000 0.000000
-142811684986559291037421711970451902205467024271162970225939154768114295732482858044195856001232011264.000000 63121182864899103331253727705992540137423854428194950708660892782304984245555866574528978581054291968.000000 0.000000
0.000000 0.000000 0.000000
-5940357878649264115828347263184867521837319964991276608996455957564148909851363442667744255644411101184.000000 16706306263460960742136218972299469899010482843905339616142055051978425099790055606694890252303945695232.000000 0.000000
16706306263460960742136218972299469899010482843905339616142055051978425099790055606694890252303945695232.000000 9557252050275694083648684042246339521477568796198511532481890419201254749578237725291199220022767517696.000000 0.000000
0.000000 0.000000 0.000000
930433491162544982987454198954502705668954075640535275767273818790427681887115002177953758459895742464.000000 903575119171235971288715123674797993936118267878568158771721144801814888330591827483575170274626109440.000000 0.000000
903575119171235971288715123674797993936118267878568158771721144801814888330591827483575170274626109440.000000 414304700866522330630220629185341274087818416407535684385053870582360702826139584587887989044698677248.000000 0.000000
0.000000 0.000000 0.000000
2489942474590974651335554144629133886321986545522380983508174635820202116037754240524599778412941279232.000000 -1247400716280154695375404215285130019806244847886298831963339963741235196339342335964293214582788325376.000000 0.000000
-1247400716280154695375404215285130019806244847886298831963339963741235196339342335964293214582788325376.000000 373805700547138446473580515459025201465010639860153309975005689620166498616247389767293449556442742784.000000 0.000000
0.000000 0.000000 0.000000
-1488669080133946713375565465753250877817042806382993147595203957232761024432701028418130606429172662272.000000 1588476645884518129271127916379912823308722429920764499151566430659329432402590152819532535399912046592.000000 0.000000
1588476645884518129271127916379912823308722429920764499151566430659329432402590152819532535399912046592.000000 907052541422915554358190538469103971753838529286085809866101174109380943787111858710168758275186622464.000000 0.000000
0.000000 0.000000 0.000000
4817350609990318460079730430582684671583057083860725065825866628880898035679648801064383367625299722240.000000 -4384750959733040350839562579930028835210208695813122877304814959815195994924584999809967890830723121152.000000 0.000000
-4384750959733040350839562579930028835210208695813122877304814959815195994924584999809967890830723121152.000000 1873840323154488974632986858404700685410301629269346986178588229216996540567791668877725042231067279360.000000 0.000000
0.000000 0.000000 0.000000
442281066620380998495385895727210698575111681350324210651348838991944928949945215503632013460412301312.000000 132512882730481331358287982778075061527464893531334372743601099581051398130032157207709274896500523008.000000 0.000000
132512882730481331358287982778075061527464893531334372743601099581051398130032157207709274896500523008.000000 36269154369193095572140068216091813795796665592484723127587025061582826008242097686550763190504914944.000000 0.000000
0.000000 0.000000 0.000000
-20992113211636903997366269204593465160617481458149848240207476569180137524718838007553020823915338924032.000000 2699524688746986360415511686494332801296355300475918519414801350870017365909329718488328878099441647616.000000 0.000000
2699524688746986360415511686494332801296355300475918519414801350870017365909329718488328878099441647616.000000 635951172029989802017075638750173643699543824885657602904418410071451384712198462114667851376763076608.000000 0.000000
0.000000 0.000000 0.000000
485044792342311430639750588591531981648840857505432607431638034208393644514219997454102697218909667328.000000 99798664993988437103651774971405599417650286705643376673916430364739204144633912175943475710182555648.000000 0.000000
99798664993988437103651774971405599417650286705643376673916430364739204144633912175943475710182555648.000000 13338072064384392565102158453656449905526431467675624807023041549258047561127769442311484146070847488.000000 0.000000
0.000000 0.000000 0.000000
14645945526691478574931696834926424097184790976930617601499241809598793825029184872299560901258000728064.000000 -19169571619083042603320625380423918166146840530495268169750974997255750099845936207299322369092463099904.000000 0.000000
-19169571619083042603320625380423918166146840530495268169750974997255750099845936207299322369092463099904.000000 8638563233486156728757006930359165280768418233266813767185067924328516467825503486240751562122319626240.000000 0.000000
0.000000 0.000000 0.000000
35908370638000862272269362385887345226305471839397193475036773165252664592994355792648769336190722637824.000000 -29395656629709188955246303560935832203322432612326701325367421610991979203720117271783478762781261430784.000000 0.000000
-29395656629709188955246303560935832203322432612326701325367421610991979203720117271783478762781261430784.000000 12345195327581045805103705825063465469728009363374999334943911979537651770920720321130715737401092734976.000000 0.000000
0.000000 0.000000 0.000000
20756141879748923374557415612871373217963292190075141713995043795194980458564438392124001627547533049856.000000 -6774827351905972151700635520691527293772977243574273859986985795399034258680929007571010843291542355968.000000 0.000000
-6774827351905972151700635520691527293772977243574273859986985795399034258680929007571010843291542355968.000000 1376673071597371090950072353080721842340582842443633428464531560674390950727732447299858651060394524672.000000 0.000000
0.000000 0.000000 0.000000
3267617453116805601711119234149514446321675802455144190188978563327989349172197073302431518662888259584.000000 -6845998094578822119169679463886378528585031010742485123072244516263842053336370947593437891141266571264.000000 0.000000
-6845998094578822119169679463886378528585031010742485123072244516263842053336370947593437891141266571264.000000 3442761719528786978860693060379802337128275140994452090525567364107102988737037921859481015327125405696.000000 0.000000
0.000000 0.000000 0.000000
64647149879516777637574686726818168159831523324150412432351018861848247065366849733766525886635442176.000000 111301643064599523105867223330767232273300506255398960977547860700162099843151231384626295654462783488.000000 0.000000
111301643064599523105867223330767232273300506255398960977547860700162099843151231384626295654462783488.000000 54338260629139634995969222937979943153927384439388140022359147104477834799760831560540754522828439552.000000 0.000000
0.000000 0.000000 0.000000
6667706111826293128240601946363185793160402028847560022918141108495438515777916234929098490700011405312.000000 14220627281550431935956080259344059592746333481420810205837441512771616908923146966314473748522116055040.000000 0.000000
14220627281550431935956080259344059592746333481420810205837441512771616908923146966314473748522116055040.000000 7163653387337842256669084072677107091026115706406549622093509126215561172591366013278885737735846363136.000000 0.000000
0.000000 0.000000 0.000000
-294799853468346699348347604601526560232571539388450639535714154649830835681087771407960296558310719488.000000 -150425158194483126539209530743658981526509024456068028943663819029681675655870351557667820105732456448.000000 0.000000
-150425158194483126539209530743658981526509024456068028943663819029681675655870351557667820105732456448.000000 15250973535566460149336473837920915260452722510940319609997367216991681645856666024467349075283410944.000000 0.000000
0.000000 0.000000 0.000000
8653068921673021281473532314079017672920375470587309400566726175937954409082461925030324978234400178176.000000 -562579641061106733589410296099024493262322483671174645522763321907190227178893205234384631978159767552.000000 0.000000
-562579641061106733589410296099024493262322483671174645522763321907190227178893205234384631978159767552.000000 40405467915374798260400577330721051935076448205977493523132611619209059522455717562697733075367886848.000000 0.000000
0.000000 0.000000 0.000000
18811720220723375032213202150336196336040738912444562826967442532234798448888314845601343115402284105728.000000 10455921879198069015471004569315761039637723699701517019829596913583520554320507860530262158108807659520.000000 0.000000
10455921879198069015471004569315761039637723699701517019829596913583520554320507860530262158108807659520.000000 3227965729436427302078748113258865942753705828818881268515017386527440908351614026188648977440635355136.000000 0.000000
0.000000 0.000000 0.000000
24294812226178108197439512275488880238866947053373422815235378627300337433870043557194527815948566528.000000 -38901757721084699926821372045398079588910182522186960845982400299196222523304482684310931266605154304.000000 0.000000
-38901757721084699926821372045398079588910182522186960845982400299196222523304482684310931266605154304.000000 18730362038216153489818255342090295012144691830583816486539600011599815424469895431246921397480456192.000000 0.000000
0.000000 0.000000 0.000000
3252017089258650918600706760486917992970660199269842115805294724772204876747585651473829255353515114496.000000 7228957101936599265952907523597357495637648646413131871349399254366223094421179245655907664501263040512.000000 0.000000
7228957101936599265952907523597357495637648646413131871349399254366223094421179245655907664501263040512.000000 3663727526458671032740076630159529462748579113336876451428583653552461347381115856524774417622976430080.000000 0.000000
0.000000 0.000000 0.000000
52131707400936485558647198347471167653721022758965853332016288298834933577761544086786333145835195334656.000000 23666256756376127725904809401283895901615079191915347712250955835532014193563612835489357318750885380096.000000 0.000000
23666256756376127725904809401283895901615079191915347712250955835532014193563612835489357318750885380096.000000 6311544866502963567785576578308239137013046484937094025244126067542330340066476046070348820502231908352.000000 0.000000
0.000000 0.000000 0.000000
-1499756759355149360464479614722803410510509119345083077125390604053685458204092020801840288517426956468224.000000 92490926970556762101783158010036379531542905142883424803541507165732259859123818802909878702482265210880.000000 0.000000
92490926970556762101783158010036379531542905142883424803541507165732259859123818802909878702482265210880.000000 11137720912231881497637874995958714179643979265683608091003690564219314586071370700893982476048793600000.000000 0.000000
0.000000 0.000000 0.000000
-357153348482876415784350960771416222936265513558735582541931679318108985760401188346503515106910710792192.000000 22420222038884532315371397748043693090780414865341290017040198956606603323903634830097982345546844602368.000000 0.000000
22420222038884532315371397748043693090780414865341290017040198956606603323903634830097982345546844602368.000000 2791783637490901995320465466674755222413151503556101123985250872778597957854919392894555745688638980096.000000 0.000000
0.000000 0.000000 0.000000
1321588578722410592010135302795330739138795504528774067732921192568856118902288909593035674108741812224.000000 923225793233262500328495149505435446252336139643843345840092463922273453987428659163084153147264860160.000000 0.000000
923225793233262500328495149505435446252336139643843345840092463922273453987428659163084153147264860160.000000 787051727234381126917606772720511601770858373098703320430425619422297543192508752480844497871335063552.000000 0.000000
0.000000 0.000000 0.000000
-48664574455523522875518204925779439894756878169396318913788609180783726406399827978098951832833284374528.000000 -8806600191533943536007728850891225028196846278281910762865804319922493372963578686091707606649710575616.000000 0.000000
-8806600191533943536007728850891225028196846278281910762865804319922493372963578686091707606649710575616.000000 2708777363382834806617381294846388141025674087862789731628172894397918187698964019864431633424099311616.000000 0.000000
0.000000 0.000000 0.000000
-800372559428944960347944673690380757088717679724885259162805665816505923358655213642922471400212004864.000000 -909496496441235447190145308371984540124566089826667077918364867958293362505044754768696969641766944768.000000 0.000000
-909496496441235447190145308371984540124566089826667077918364867958293362505044754768696969641766944768.000000 730028607371439041647108321364362542672952336017415321556427535463873865230005817019779698631626457088.000000 0.000000
0.000000 0.000000 0.000000
3581606917285480850072309668909443527870536647628991190574072524604249978975596956469990558125978025984.000000 -14252527491104623788909810413570391119793898431660677810834584368892805791434067087250495998352550789120.000000 0.000000
-14252527491104623788909810413570391119793898431660677810834584368892805791434067087250495998352550789120.000000 7563993678625486255202542927583855850588948334772898597659944126127832349077633326829520574308484644864.000000 0.000000
0.000000 0.000000 0.000000
1450989091717509048187169954271664439321945993302716637628909400233875679344893784023194226607584706560.000000 -3929752735641320025372562231786907002371482097436741074218563683502240740640135654602296768172979650560.000000 0.000000
-3929752735641320025372562231786907002371482097436741074218563683502240740640135654602296768172979650560.000000 2034334667260201717104022581591258038410283042080482887364523696746047150172719952123492911956638040064.000000 0.000000
0.000000 0.000000 0.000000
-609279730273672566579229472706705264066530635633746883372817523609280057509863587900590711379779911680.000000 -129424371321639306386304739552550266953966522800196464970297900439224846528827768043299477975960911872.000000 0.000000
-129424371321639306386304739552550266953966522800196464970297900439224846528827768043299477975960911872.000000 12700054640638991239896967358795594102008377129827638809130578625305219129523175653056818308175626240.000000 0.000000
0.000000 0.000000 0.000000
-430908544279127451775306249996069728655154357726257760679409015812670844633412575489064439845666577973248.000000 -53869325927996613071995130884411272019535111165318575480938189594280754911957313993077734371148695601152.000000 0.000000
-53869325927996613071995130884411272019535111165318575480938189594280754911957313993077734371148695601152.000000 12368430076280839124832761761014778071168807614043885606707630268155366007354683601509409324726042492928.000000 0.000000
0.000000 0.000000 0.000000
-1513327945197933388097849551493729104788749663925070217527932161132139280421648225479432991957095284736.000000 -722207725541541922814066225816760026931547511620496842020245568806649380127287470200986144621289537536.000000 0.000000
-722207725541541922814066225816760026931547511620496842020245568806649380127287470200986144621289537536.000000 364591639337246379173725362539190635560430974946603172561968310440325616635442331310500805990045188096.000000 0.000000
0.000000 0.000000 0.000000
850977485762923315587557465375323554270554010036427019144236684989974299287281987401606879990926802944.000000 954393809839011061465666062796356685793889654646040180982414556925092952475857925218321449945049071616.000000 0.000000
954393809839011061465666062796356685793889654646040180982414556925092952475857925218321449945049071616.000000 606618140325941714891183594834527113022512072355992467977342927780451916165833411263800819661357973504.000000 0.000000
0.000000 0.000000 0.000000
4367758129670426486194623340959273654258223422497155280441428326045004305455446151876851622590130683904.000000 3915785106825502391244415633788451851736053346756237391954403167000908621355243929591235207496854405120.000000 0.000000
3915785106825502391244415633788451851736053346756237391954403167000908621355243929591235207496854405120.000000 1860880766634870972787148241158073892823156623240232953497732202280575639119929428387390932771886071808.000000 0.000000
0.000000 0.000000 0.000000
-17913307994325392845862543523754779735137471900079501687402285521200878905366548783000603987728142434304.000000 -5995627326319889840264624106542143454900728871499052682275559792321800266472354862197396869691354382336.000000 0.000000
-5995627326319889840264624106542143454900728871499052682275559792321800266472354862197396869691354382336.000000 4312816299822954340737114168048383584640599760312994213003942831621241510799562663795264107617475100672.000000 0.000000
0.000000 0.000000 0.000000
2337342557538244495680035383971223806255607273876519564596777340647647848945745712462349771608741117952.000000 2445261058278579999452739861620264540879999602155039704487026726365435447182217853873244409878034776064.000000 0.000000
2445261058278579999452739861620264540879999602155039704487026726365435447182217853873244409878034776064.000000 1311562644829836598117334594179896296269220543357847781398571997752591092961295301269257287189422669824.000000 0.000000
0.000000 0.000000 0.000000
8055353206809268455449992832757392033337697512828605358904275923868420584703007807165139181859038560256.000000 3787345924918477096447776327808500612833003736145055571745636491904959568730169180696782095469342883840.000000 0.000000
3787345924918477096447776327808500612833003736145055571745636491904959568730169180696782095469342883840.000000 1036607975477408536614450496035762209284208106852294049749535229149582630750844723723114809795251535872.000000 0.000000
0.000000 0.000000 0.000000
1255126845515594976739594923984691238648978925299829530692684646837941041018757611787854226966414622720.000000 -2427588033196516173864211977497181612449710901986804193245560192562110226391509368721745409362169430016.000000 0.000000
-2427588033196516173864211977497181612449710901986804193245560192562110226391509368721745409362169430016.000000 1717922368234940512978939724300037490114318525815730778561449041041909837259189061993762487647854395392.000000 0.000000
0.000000 0.000000 0.000000
1850600895153368283207057983580894205556761944735484589601245591389356968463923332100384787085651869696.000000 -3146133038969493747115005609844785209596341852640766236015649719523410549755572496073585133986619850752.000000 0.000000
-3146133038969493747115005609844785209596341852640766236015649719523410549755572496073585133986619850752.000000 1532062779001388356302860127955812773678492998121643408556872981416139532491816644828044709636306108416.000000 0.000000
0.000000 0.000000 0.000000
1231720825724068244996791911926541801540983464567103214886174330463153054062047644650694619085183909888.000000 100432212089938924319870118583343672620272679478176259268932714680575834346794430271947697678381481984.000000 0.000000
100432212089938924319870118583343672620272679478176259268932714680575834346794430271947697678381481984.000000 81297775340459758800048858449848066833888620694498519388037798257379305228720612879650677324817367040.000000 0.000000
0.000000 0.000000 0.000000
205791690089214249668020281110717274333616483921668081054904341860920927703881516634323904893378625536.000000 122580239267114845916218915178658346150560409147671018372096771955001594840551749098205335154948308992.000000 0.000000
122580239267114845916218915178658346150560409147671018372096771955001594840551749098205335154948308992.000000 39616552497433910261830584665785780918916923892156786056935587646405406660472855383255306615287447552.000000 0.000000
0.000000 0.000000 0.000000
-143641947984172058933636596417561678392564057746949036765217883685146783404359116318790843162508694388736.000000 5970028836312037293553536889362283173912456565063147378012445491691050620310576642714644636334343323648.000000 0.000000
5970028836312037293553536889362283173912456565063147378012445491691050620310576642714644636334343323648.000000 519489966281410450306138522254770411019942459987973387536716428147968225789140145694752098216291860480.000000 0.000000
0.000000 0.000000 0.000000
2204660472477820739967731989109180830129326003292809124540353959003393851128678555335403041814808100864.000000 -910420664029775974899306269936129671360489590280536180015259630328758676142975745414931312894000758784.000000 0.000000
-910420664029775974899306269936129671360489590280536180015259630328758676142975745414931312894000758784.000000 225316462711862804516954243175679077077427146266606761861155081239716818417150773707955290906979991552.000000 0.000000
0.000000 0.000000 0.000000
2917803419086756599358307758764880432112889758527426258474981999421745087850295170302990300531262488576.000000 -4215567738576199523500408608400260976249337717468730731219178329106600301390508066485343823119884746752.000000 0.000000
-4215567738576199523500408608400260976249337717468730731219178329106600301390508066485343823119884746752.000000 2096842643464268367619383201329734936373659465864919253339012343091200354542266629106039921788518924288.000000 0.000000
0.000000 0.000000 0.000000
1013320782731614678848502373167141069563533341019078813636799171546784655535195396319469151895548854272.000000 2051284131110900041126390772142095847243257030863227067369255739939235278134864153063811667074723348480.000000 0.000000
2051284131110900041126390772142095847243257030863227067369255739939235278134864153063811667074723348480.000000 1026541442601231432127751642089584751786193633308435272382775775383673693318011536269676070147649961984.000000 0.000000
0.000000 0.000000 0.000000
5789861318296267288448053650958763239473186646891157446664336609499327814399582705325927989511586840576.000000 1359531275131007481016909208750488092732698340351898485422684483988316337356921055791273020633642958848.000000 0.000000
1359531275131007481016909208750488092732698340351898485422684483988316337356921055791273020633642958848.000000 205302320048688507689893356691364829564423788204024618168522928677832810799683062502045287469631406080.000000 0.000000
0.000000 0.000000 0.000000
-182140349947735770535060073761993153498584661593065634175726865232627677004718785623378258870571045486592.000000 2796218502605484559901916279877216984077633106647737750898538594348615581567324170741276233088467206144.000000 0.000000
2796218502605484559901916279877216984077633106647737750898538594348615581567324170741276233088467206144.000000 90500607197723832735216640707211380724241134606568228707472719943397963805995241839639685629187457024.000000 0.000000
0.000000 0.000000 0.000000
-1616340131797080838209237348923164616345348178807418370407866451397467857315931223856987248239847669760.000000 4336610432724667277303146794802514275762463629573261167938498375447584480254148251004402243035419639808.000000 0.000000
4336610432724667277303146794802514275762463629573261167938498375447584480254148251004402243035419639808.000000 2611411288172465359081734707771994403541668632934094707544597046271571403061515336150533912370190745600.000000 0.000000
0.000000 0.000000 0.000000
-6452601479599374994058235964675420774752383132072348843372498414943782051116327422060812202020702257152.000000 -13597745268972808283162191798136678238148133377721038868276631165393826081884684906545113503226189053952.000000 0.000000
-13597745268972808283162191798136678238148133377721038868276631165393826081884684906545113503226189053952.000000 7840855328675110475434478870257755264890623939612078887644889337665705904265969757317927545946954006528.000000 0.000000
0.000000 0.000000 0.000000
268532444822184614973263403620389877192452231025246401492967357130160224707328965849307120873569779712.000000 -462089355142915134276691114859407998377914151037923294242070512662363627275322177033434898003254050816.000000 0.000000
-462089355142915134276691114859407998377914151037923294242070512662363627275322177033434898003254050816.000000 225602052260690695412150265968066124924780406526506072917003228319843606630598552151395255762999574528.000000 0.000000
0.000000 0.000000 0.000000
6353560434470311909224258118805065386360683005621345163266920369018154275613589298625859420299385110528.000000 -130966163344722554449688587793421328400903726176251285157793972860870171680103997165695219004568764416.000000 0.000000
-130966163344722554449688587793421328400903726176251285157793972860870171680103997165695219004568764416.000000 781961545705802951384338605015901770955150833290254045750467276919818393820056787344709771284757610496.000000 0.000000
0.000000 0.000000 0.000000
9116109605478132655372602079568141105041645284381919115231130515195297659579704183706494814944455819264.000000 11772948858429549292505060701196822605257210481345521511176218644535227022400171517488681220681613967360.000000 0.000000
11772948858429549292505060701196822605257210481345521511176218644535227022400171517488681220681613967360.000000 5392126906132952560864425696773092698711043298713584120811985392561290292159484740794018090427237793792.000000 0.000000
0.000000 0.000000 0.000000
1019721665701874623941910282025863572308940687363715253256825078100266365657714173342779617048627511296.000000 618484090262874290758733831336352196234963887876631839590550016545039776927526608106218856926465228800.000000 0.000000
618484090262874290758733831336352196234963887876631839590550016545039776927526608106218856926465228800.000000 400789023961251901345838190816722852387061227315625445117704752937311271729271115904714325251369992192.000000 0.000000
0.000000 0.000000 0.000000
11780524790855038425686083285206602343629540801766768037226733208281004666922172447808491188478973837312.000000 336571225658741523479872245134144019948437544047207891231115491576515541315053790174809755662787018752.000000 0.000000
336571225658741523479872245134144019948437544047207891231115491576515541315053790174809755662787018752.000000 9026714195311833493470543927256778491500110943874250912131259830966473481289650272032469780866793472.000000 0.000000
0.000000 0.000000 0.000000
-1848247353126356685207954334264729492709441819355040294194175804871740150164328572649600473376745324544.000000 -1409188681246238013882794561329792401261598312394452003161490901777179163893044483753223996614379569152.000000 0.000000
-1409188681246238013882794561329792401261598312394452003161490901777179163893044483753223996614379569152.000000 855339257320499742106821464377039264028521861542241252251891360876666629354937111743239036556464357376.000000 0.000000
0.000000 0.000000 0.000000
-318948206856386854259367963069907000475322466200886993398402488785023089477090403021668607130094530461696.000000 -60742738492756372528742183750938691915920200986900512332351862498757727864422182467487645179827676250112.000000 0.000000
-60742738492756372528742183750938691915920200986900512332351862498757727864422182467487645179827676250112.000000 19705359313755377060793432116348864941525259325575335063371283032866530902526339565341658562364889366528.000000 0.000000
0.000000 0.000000 0.000000
-3632451452208507749563437935781478459658398591059844902996247632997567754649054737861539035788051742720.000000 -367043924147793958613958183818399366684443836236427247203814306200018635616141906416912999380556972032.000000 0.000000
-367043924147793958613958183818399366684443836236427247203814306200018635616141906416912999380556972032.000000 93596149636519863584502022079361344770549716854946259584503901732169544524184120661658401065414950912.000000 0.000000
0.000000 0.000000 0.000000
-37209710977899404871864688410840963932911389461936988969098245950771108846389363445633845716632060559360.000000 3556646832581115329168341556479045544399576936057749753310405585308914001453163062463497540788576845824.000000 0.000000
3556646832581115329168341556479045544399576936057749753310405585308914001453163062463497540788576845824.000000 645517070647517541310719817917664707281678270336541463200747716775982665194063367211668130696865513472.000000 0.000000
0.000000 0.000000 0.000000
-13188528076529358590240877140510104749070957090499313692568776248771347635866567122977826894243390554112.000000 8146000167529799926329936311732308049693664920207342126732738096772696176968855576356339358252467748864.000000 0.000000
8146000167529799926329936311732308049693664920207342126732738096772696176968855576356339358252467748864.000000 4371973442843292724046457219842419052758370372363598110000453837352424338030384156285949810361415761920.000000 0.000000
0.000000 0.000000 0.000000
-47396094969986897369937515727640135093755407656144198613225909357301110864642229097938302551792061251584.000000 -8530234486653700724967234239689451496124370305842617124424081429762598336031700373490780739841850081280.000000 0.000000
-8530234486653700724967234239689451496124370305842617124424081429762598336031700373490780739841850081280.000000 2652060114549323716900336449262246859255662155378049028528995999451211015807674660917444965820838969344.000000 0.000000
0.000000 0.000000 0.000000
-1328451113278927573092097158900643816674530341138102832013191644666966452755504609762364196866997878784.000000 -23023842445363625737358365507376980206430432251116211013423653150091066188568722778660892840687944335360.000000 0.000000
-23023842445363625737358365507376980206430432251116211013423653150091066188568722778660892840687944335360.000000 12900931589568206566624923622441083200757594597254746741171319926026959215200330400038859942822045286400.000000 0.000000
0.000000 0.000000 0.000000
-4256031304143256549228733246561413035815015401326146778287533732060916805778078594593360807039873318912.000000 7931480503331031823214010345513282024833153960364726844497317061889176930878347788785865100288629669888.000000 0.000000
7931480503331031823214010345513282024833153960364726844497317061889176930878347788785865100288629669888.000000 4577468908737735864275492903825996909787093275804677130156984566149551904811719622561425537564827189248.000000 0.000000
0.000000 0.000000 0.000000
-341958506830342464770777978542916731120925038235822949223405905576056554091721075120488687056470409216.000000 120265566059281431621086002754995499204259261894945831583723258972702451405448895541913575975521615872.000000 0.000000
120265566059281431621086002754995499204259261894945831583723258972702451405448895541913575975521615872.000000 24969524467698438113955601704661993924644864132839325484461833797198282203947327252981554898559565824.000000 0.000000
0.000000 0.000000 0.000000
-20398067894965269912785916226980622448701005637237801284589671370151052787935484995493722677810946899968.000000 -18470015289158798018491697901185121806835141699031747770903095288426290541952168030838108172480721977344.000000 0.000000
-18470015289158798018491697901185121806835141699031747770903095288426290541952168030838108172480721977344.000000 10420457146760511860897680043324120367206935722252815274064442385109446222650636346625774610429549477888.000000 0.000000
0.000000 0.000000 0.000000
1463795454698260386370756077603609026445991692437284134475153337713567721493328454931714423108199776256.000000 2024256203015290504458830338822642819888818424080543061457988946721467430991202669941774984716197298176.000000 0.000000
2024256203015290504458830338822642819888818424080543061457988946721467430991202669941774984716197298176.000000 943586098721349275427114094953500994287703303211401058964886331958289107749115599028220189130279092224.000000 0.000000
0.000000 0.000000 0.000000
-1076243439542701148658617717406725139113612755039076329197125116721116154813521692226676006122007035904.000000 2886672602520310520186210501858235100609293403908073658148231341710000901555374467550076031821015941120.000000 0.000000
2886672602520310520186210501858235100609293403908073658148231341710000901555374467550076031821015941120.000000 2497126481724191910600205726729586806346902587761617594622895033427943308774592656234644064472848662528.000000 0.000000
0.000000 0.000000 0.000000
-3068136068390264530017326303500341944941743418247065158070785320908937145677972489585897675545966018560.000000 -653784191612791285685432646297061088677011866177087227030819876330446905331450849040115190444362563584.000000 0.000000
-653784191612791285685432646297061088677011866177087227030819876330446905331450849040115190444362563584.000000 200254025359698013697721108831701824416259870781620292827113582943205669627925344342666571455464996864.000000 0.000000
0.000000 0.000000 0.000000
148844616300932868545682421931880948002378791914184531384032611309683219544264605193601620403990560768.000000 -100191523717374063077794203473935496502392483097505470297804357006816083970942155566074169884187557888.000000 0.000000
-100191523717374063077794203473935496502392483097505470297804357006816083970942155566074169884187557888.000000 34946725689120491699509611529676532892918089500958298676820769320087290588986490221234720198520471552.000000 0.000000
0.000000 0.000000 0.000000
10310326191570571770615216003955775054396378865331029148164199081801543328329651475515511824842894606336.000000 -33898543630996515714338059282933554360477875754217961345000905278627100778798802822072017386388460666880.000000 0.000000
-33898543630996515714338059282933554360477875754217961345000905278627100778798802822072017386388460666880.000000 18123751449337513526659700877405953680287256253479668229940268017423866713661770164382660395236858003456.000000 0.000000
0.000000 0.000000 0.000000
4382279081657585321757696899116561712654642248004286990628820264613250596254224072884967989349539905536.000000 -4474650208334332545520365500177858472256143952076085331928754417006490525253328815169035336542505140224.000000 0.000000
-4474650208334332545520365500177858472256143952076085331928754417006490525253328815169035336542505140224.000000 1941604333507250656683172891809856464166291944592869500639398867297301607002193265876688753375846596608.000000 0.000000
0.000000 0.000000 0.000000
3425420348521733082471827934598491476052891259223438474080968207540324682191192173435271936038072745984.000000 2159727475129950241405635035110095232927779987294850419957486471039504994664612748157777244154289455104.000000 0.000000
2159727475129950241405635035110095232927779987294850419957486471039504994664612748157777244154289455104.000000 715855288897818538537404778622757713289303214966832222138212172158182988418547054218887271840296730624.000000 0.000000
0.000000 0.000000 0.000000
4958073766690364830986408412771152094660293331692874470090707437381420336838302031462937810793115156480.000000 -4345480261036030004992943730366556807319777074132478481915015271346044712158813409439521285273622151168.000000 0.000000
-4345480261036030004992943730366556807319777074132478481915015271346044712158813409439521285273622151168.000000 2350434686486041968306315251052263963659715696900461539048841284969747525046483233682400204506055835648.000000 0.000000
0.000000 0.000000 0.000000
-3903764321180220798514427312708394529925166460972824146133457595812304671208398881900414459163558543360.000000 -279431802390107491390659314996061616125357906098263311352673363258576905484937447342430579033408274432.000000 0.000000
-279431802390107491390659314996061616125357906098263311352673363258576905484937447342430579033408274432.000000 137261230235697727307226200211568290320964142078295635049599790717527818470092865665287101859110060032.000000 0.000000
0.000000 0.000000 0.000000
15666840375517417926335107909401073189519672880777722462410731928015355623394616190679058983557141626880.000000 -35271961868186110755951851517220334667331436423733536599371457884372448563564539039477880689779984564224.000000 0.000000
-35271961868186110755951851517220334667331436423733536599371457884372448563564539039477880689779984564224.000000 19387717939642836665605647933738237407350989477766777136827786376622908140137083298789984632323281256448.000000 0.000000
0.000000 0.000000 0.000000
3819902988181081475812481255204249554243905031605552728422962562013263227660075756531888959090885394432.000000 3521862978080134811782778147229284485578081664143859646515766632890661208083296713011124028104436088832.000000 0.000000
3521862978080134811782778147229284485578081664143859646515766632890661208083296713011124028104436088832.000000 1525673549581500497352892327920072896118912856025904631011766850795366341483076349218954312090124288000.000000 0.000000
0.000000 0.000000 0.000000
2987962199744768734866770262947376259134753389778224996448264528757912036581198889576886719565673791488.000000 -5086831299212739148681742155700400769136606409469981191947804007302059234830866470142354438512944611328.000000 0.000000
-5086831299212739148681742155700400769136606409469981191947804007302059234830866470142354438512944611328.000000 2470954137962619181886803786827280212146467013530511811183997160529007642288203997528328883841779367936.000000 0.000000
0.000000 0.000000 0.000000
13952809435871197944183940171488807542529567580787609005804082848147929285476587500063181175259136.000000 -6218100555931470372555782756153146326016233823238487715668813622683021749320635292037665714601984.000000 0.000000
-6218100555931470372555782756153146326016233823238487715668813622683021749320635292037665714601984.000000 1760562414129352539290296659762065783607057081368290572589245123542230489758267141827708961423360.000000 0.000000
0.000000 0.000000 0.000000
-2057963020081835030858384835544211230475027042356542054856357150798774315029310854425144071939688497152.000000 -1903260542279443290257553000867604962133413296388782667803522965251914542947474989189848481915589361664.000000 0.000000
-1903260542279443290257553000867604962133413296388782667803522965251914542947474989189848481915589361664.000000 1333778827180380294814439647218533087665617856815808074123207283251786386702241429642598690742350118912.000000 0.000000
0.000000 0.000000 0.000000
511272671209174655592174237522450962025269398963089211629034207437244196178942363699409179346122833920.000000 -4650752696989849406169708561937837098097024467727104484448176609985277688712680640879377118679061757952.000000 0.000000
-4650752696989849406169708561937837098097024467727104484448176609985277688712680640879377118679061757952.000000 2521243244233955547891207831113253883761938190437493035414089598376298507165600455021787946664079654912.000000 0.000000
0.000000 0.000000 0.000000
-1525893711972717996466960731816894303891494956333676098295649555861997601028018283716734967573089079001088.000000 65405690060351592449356864629931397053253175822074275990074277870310883457775082028296373692219269316608.000000 0.000000
65405690060351592449356864629931397053253175822074275990074277870310883457775082028296373692219269316608.000000 5704551712265106027867861360903920846275936427384537905406815405367156222882417101799063698701453099008.000000 0.000000
0.000000 0.000000 0.000000
8103274993238058961623084091973260370585541644405456686248501038618364032724697843283790371247947251712.000000 -882980587005885961954205979821124093328803997687346800664390390740979238392609245790792849479488765952.000000 0.000000
-882980587005885961954205979821124093328803997687346800664390390740979238392609245790792849479488765952.000000 71841448485260873608442516244556874224753126693277933701601179820329439703306119389102777325588578304.000000 0.000000
0.000000 0.000000 0.000000
600754323011931024776618055720434476494120163756018878332039743631879926496506014885842412621663305728.000000 576582636177573855710797185597776806574766274076423423638198809146294526782610063926260865476969103360.000000 0.000000
576582636177573855710797185597776806574766274076423423638198809146294526782610063926260865476969103360.000000 242097349246162141295086084851883130739246367663101970883140062974984911189731602856300993021835476992.000000 0.000000
0.000000 0.000000 0.000000
19679755057321295824220907263836483054240099964141373923228721298125901017035139724818971861004142510080.000000 456517163661660614746270498165604822905290539171729736073927217022087360897401866387782190084166516736.000000 0.000000
456517163661660614746270498165604822905290539171729736073927217022087360897401866387782190084166516736.000000 58353374799100446377350907661879942949674425730498781605960547607695560527646599547886703478195617792.000000 0.000000
0.000000 0.000000 0.000000
1749876573255904327589707750093434159412921291382968587471817070525861508450134826028715641531017461760.000000 -4713191774871902953784573080340503204985123739091174222602021921495815166872149218511421488938467983360.000000 0.000000
-4713191774871902953784573080340503204985123739091174222602021921495815166872149218511421488938467983360.000000 2438793924840056692329947476907009507472992622352430316792703918941093519491705123023969513305278513152.000000 0.000000
0.000000 0.000000 0.000000
-104452988199792587291143434317725653914593012937203224692172109295144484715999344235300075784036679680.000000 43530914554120224560665122782456255435829178794634550440631516005189431202378355957704264689630838784.000000 0.000000
43530914554120224560665122782456255435829178794634550440631516005189431202378355957704264689630838784.000000 21044046064668254435547810421642251332481945058803542336678986435251498147583228187169470721124466688.000000 0.000000
0.000000 0.000000 0.000000
9845940735112765567873461795720605450192736141852719091427403515381420037042409667486888521039993634816.000000 -1909350803454501670289414313722082779205029815996589798134913706256398736915766302623196413055140364288.000000 0.000000
-1909350803454501670289414313722082779205029815996589798134913706256398736915766302623196413055140364288.000000 244408648774793082655909350893545492352383764553862809856480788029327476980431199185679909389546291200.000000 0.000000
0.000000 0.000000 0.000000
-90827004113596634795592028158788147313906716143953343713256587309007291846532832936466879688709505024.000000 153714131692069231018270481739626513471391371859437396455753631890243093360703753808861612535504175104.000000 0.000000
153714131692069231018270481739626513471391371859437396455753631890243093360703753808861612535504175104.000000 88742418557409212085561320690777774706656163385533466930629109932373811590993932763213259792107700224.000000 0.000000
0.000000 0.000000 0.000000
-696577734575594871792876245320461481759628615920564558501787181282237715101980621968231188105485352960.000000 155457247849241473046152366956822402953376596404986689930421121710125637358244818975751977129094414336.000000 0.000000
155457247849241473046152366956822402953376596404986689930421121710125637358244818975751977129094414336.000000 105775860530609698134771475089972000934583194183628778734518361252368790497550297397702595138518253568.000000 0.000000
0.000000 0.000000 0.000000
1008775202491707815127933594524563027276252289605068347991181449591155466046207055667950876805535105024.000000 455510059617200774088503726440303939400320896739592417596396184080073326734507205767905482888148156416.000000 0.000000
455510059617200774088503726440303939400320896739592417596396184080073326734507205767905482888148156416.000000 355394770821399027945915374169525446017723425523891577430501650519902007285149339208611101765728731136.000000 0.000000
0.000000 0.000000 0.000000
2370460391353833851696113188201910573519858303621791218032128277550946020776433149068478691557291065344.000000 -2719679920760373633772723811050238853642150861640599573756155042323161032143026210873433341857502330880.000000 0.000000
-2719679920760373633772723811050238853642150861640599573756155042323161032143026210873433341857502330880.000000 1202426537848898764083164506599262971658748212469950331095245338362445716539322911206424591800043831296.000000 0.000000
0.000000 0.000000 0.000000
551346159668949058428897508496652388879175520043173109448806620312787226240308100937317369752101847040.000000 484996829451762945319982799308550829010546457745135185421959472458589693831087125702500303651586703360.000000 0.000000
484996829451762945319982799308550829010546457745135185421959472458589693831087125702500303651586703360.000000 196351245802470896620761258696423702173707467893025435806598204291152337206321084785639865975153098752.000000 0.000000
0.000000 0.000000 0.000000
-3634824362818684891811681435955068137126810131818744077492286884330781252101506270885703568474480050176.000000 -7798138766988097000849141643494626744601936048253038910386465735134619055525763027704137142690102902784.000000 0.000000
-7798138766988097000849141643494626744601936048253038910386465735134619055525763027704137142690102902784.000000 4500716041335702165822437341640273648021666832852471229937338866897191651401967147639990137403803172864.000000 0.000000
0.000000 0.000000 0.000000
-783781802485877014425284768907224154762680434267335225196191272042638283901677611105792502443209129984.000000 -9868291822897283625562545624265063763371415070081073885506357749634802253887860645039360298766171111424.000000 0.000000
-9868291822897283625562545624265063763371415070081073885506357749634802253887860645039360298766171111424.000000 5543834763348379163392191075371890095604735888263623416249460534126622165943963471147073335655210680320.000000 0.000000
0.000000 0.000000 0.000000
386287883944605282897248082919628434549206044802300545729402781630447713870745800782351026331695710208.000000 230939587306045743939649845073076791527379017917982432471553090425861865967975020588293702754420916224.000000 0.000000
230939587306045743939649845073076791527379017917982432471553090425861865967975020588293702754420916224.000000 119720107418546797659813107148676833842028458450052230291367169119526448100134428319172900098905473024.000000 0.000000
0.000000 0.000000 0.000000
5133876063212215625447240407575286551968752215400991653550246301074082871756929354395342914212197302272.000000 441760959963081810959503158368517906052933721723447677995395507859425108014631524082705499192855363584.000000 0.000000
441760959963081810959503158368517906052933721723447677995395507859425108014631524082705499192855363584.000000 25214498352702661839917529372246359439645619046220757866847612247444044668449170239340115372665733120.000000 0.000000
0.000000 0.000000 0.000000
2774706145827458569578107715908169123313719269922725921366371165969752129174175884592269055954912280576.000000 -13202988359798033381800509625900696270273785041956962626035176366213008919577311100599530319571278888960.000000 0.000000
-13202988359798033381800509625900696270273785041956962626035176366213008919577311100599530319571278888960.000000 7084573112063878205770265449366145581824823541654764568989289388650168180142917018889036483267531898880.000000 0.000000
0.000000 0.000000 0.000000
856731347342330742473533516442108154044217463337063261472537687388967603886290923813177755595297521664.000000 1054061731305690479812779961295167676426824783085112004941513977925421102598878649246954232469811888128.000000 0.000000
1054061731305690479812779961295167676426824783085112004941513977925421102598878649246954232469811888128.000000 603180671683917971372005056072314270893134564126718559748002246828399532527791771288164307947367694336.000000 0.000000
0.000000 0.000000 0.000000
1952998273284242215600306993383957759094686154129835956688430308733349650246155768109146623474468388864.000000 -898290692833850881052995437248087663221334493003118090438696200793150535900099132798526167959946133504.000000 0.000000
-898290692833850881052995437248087663221334493003118090438696200793150535900099132798526167959946133504.000000 261752075985695525757388494897980879151673336022679142988845492818171692673869944143166040807749713920.000000 0.000000
0.000000 0.000000 0.000000
8289508544566537006640747594459853782286507401377052959010829057054984892539812679217194192889656115200.000000 -2377603257470432150544020865214565848005493070980631648409662020352258973874433025334012534442168418304.000000 0.000000
-2377603257470432150544020865214565848005493070980631648409662020352258973874433025334012534442168418304.000000 435493872320191663247040892154917131843736295059277211652204256768605635198622603239077082413595099136.000000 0.000000
0.000000 0.000000 0.000000
-2081540985090605334981159587966097875569472973607321163889884282548634255358971771782553594695748943872.000000 3029219335239077025452285600044595001587984097377543997133974778658267473135484542303905766334038802432.000000 0.000000
3029219335239077025452285600044595001587984097377543997133974778658267473135484542303905766334038802432.000000 1721176215387257531075638390626168919504847553449605433860272580405165531025813069447754151426346975232.000000 0.000000
0.000000 0.000000 0.000000
3090809356667443442297190331051170798789613774932791590128193971092050856254814267127664231478397501440.000000 9168373129002274916236750717766642366191427678352548040542049772618650468555926576858170876011479040.000000 0.000000
9168373129002274916236750717766642366191427678352548040542049772618650468555926576858170876011479040.000000 1417033360962131877783269636166125362417283934953205187528970087633506299145360131861606115055646015488.000000 0.000000
0.000000 0.000000 0.000000
-3351520695888563416824547065853168611922697246894425350062826453030968834192131914660159615844097196032.000000 5445142742335673753098921843188917013842435576648859594906505477429243771173928781710868048179760201728.000000 0.000000
5445142742335673753098921843188917013842435576648859594906505477429243771173928781710868048179760201728.000000 3121332599847058503718225869885508019671915482071514899626562522293146686197447999946174953678297890816.000000 0.000000
0.000000 0.000000 0.000000
-220768568421396993867152697239210527079545596681827604864801053906775096586421483521669544970647764992.000000 -398713468532230912876034812376236595030560357206735061757907389490720597759254893116982297631219777536.000000 0.000000
-398713468532230912876034812376236595030560357206735061757907389490720597759254893116982297631219777536.000000 349499233995540188918646953745526976258299687686243976923904021990191914756331589707863388536642207744.000000 0.000000
0.000000 0.000000 0.000000
-239230317994603901280015001226956112377767534667116650935663584939803084126707997677968766644915273728.000000 568756588577843959146721178891212843303655049146155085536295812126211756237431486125198197187718152192.000000 0.000000
568756588577843959146721178891212843303655049146155085536295812126211756237431486125198197187718152192.000000 384479520133738701168948261652801650366559392258758711524513616493608550504698006705051327357043867648.000000 0.000000
0.000000 0.000000 0.000000
1970676744062968597023036834813285900058630600405801874705809689886903310629718128774963264499839139840.000000 -2274474760333763135017280971228916314126577810055397402933304911096480490432591369037265767174196166656.000000 0.000000
-2274474760333763135017280971228916314126577810055397402933304911096480490432591369037265767174196166656.000000 1015790477925419126682589681026812877431975750961576544409640344205901578583057670721701479232519012352.000000 0.000000
0.000000 0.000000 0.000000
-1934822348663478412492601970937627423074457745417421303302873639234424285474953352359617644210119770112.000000 -6480739972563964218701434568066536195657395621219016858775128963756319767405748150902742259780972183552.000000 0.000000
-6480739972563964218701434568066536195657395621219016858775128963756319767405748150902742259780972183552.000000 3648319724261167757171263256747786657930741576984164830104296545133673862397095979625547929739553931264.000000 0.000000
0.000000 0.000000 0.000000
651181064890186830445361151381323141688127136344575505345016838113504060639560094988583911592636186624.000000 855125864772257615754088526852883628747145315385563430015913840496520381114145348865504609127794475008.000000 0.000000
855125864772257615754088526852883628747145315385563430015913840496520381114145348865504609127794475008.000000 393404185134802956128719111203038265347002009709966684909645985494538595775307580601437628436156776448.000000 0.000000
0.000000 0.000000 0.000000
3421044268173226654553008703735215683131685219322524330690985627367537293864649622814620609981414637568.000000 511450928530430631620999627298186243661548928700101604947428282598988617195582868774736385543518552064.000000 0.000000
511450928530430631620999627298186243661548928700101604947428282598988617195582868774736385543518552064.000000 50230276801661227201998067649869529603952803890840507745998242564396050533374188401335757687815667712.000000 0.000000
0.000000 0.000000 0.000000
84818971981947088869301663669978818911070692153101731692992604113048433507051252159141551707189673984.000000 -76114241234870663244924846698942239853755838009392782051751939585411362514026798590962890021995020288.000000 0.000000
-76114241234870663244924846698942239853755838009392782051751939585411362514026798590962890021995020288.000000 102888874700524833950600636042398732599453163210661484448229238732477698660567701955102903919148269568.000000 0.000000
0.000000 0.000000 0.000000
5809888108989262906494389610972551785262047346718796138605769325089616823072142660093697728595261128704.000000 3338245631790921562134816961817860640447565038914438821203679996446744750793834184993506288696289132544.000000 0.000000
3338245631790921562134816961817860640447565038914438821203679996446744750793834184993506288696289132544.000000 1046836343115160792592207822641232080672743438405616129291142612756319541158437355873520427424339197952.000000 0.000000
0.000000 0.000000 0.000000
6511010336102863310074225866147164849074578202501291095400571851491281312792411361593876778313563766784.000000 -6004859289772550568551029462138809767624969602065609429855761866592841692809681157616733701576228601856.000000 0.000000
-6004859289772550568551029462138809767624969602065609429855761866592841692809681157616733701576228601856.000000 2450625168452077973176666196563780057650142414045502827315571301291762476365408919947219154138908590080.000000 0.000000
0.000000 0.000000 0.000000
155423623134583186459438523557429543355103307745872932526877334888554015084671439732404477659174666240.000000 34247216514333472239959829291834350934416840152025389178542601027516332930997074611321693099008196608.000000 0.000000
34247216514333472239959829291834350934416840152025389178542601027516332930997074611321693099008196608.000000 4873120584582182251878317560238424332311991849968913569382496249640154198415868140270391949696958464.000000 0.000000
0.000000 0.000000 0.000000
29897398056829159475051506323011150570160055087689520165475716533936995562247935316696568356839358464.000000 53664444439292400916264925291843674461529923241047382122444586751509420561556603820200047084144951296.000000 0.000000
53664444439292400916264925291843674461529923241047382122444586751509420561556603820200047084144951296.000000 26416833451010911656508031849617714699320556568855994446397551920658359210324568065317988051569344512.000000 0.000000
0.000000 0.000000 0.000000
465428465447595873190237565480099685977854440458618801575125802610389851892224066435896689722172375040.000000 1591241465735876599299916475643700543182342626528014737108129377561997503188695801796846480629178564608.000000 0.000000
1591241465735876599299916475643700543182342626528014737108129377561997503188695801796846480629178564608.000000 839049796195077811226039577631966676828462831100322132609375292424576407195353831128168463199494995968.000000 0.000000
0.000000 0.000000 0.000000
21330567036151389044086645933868788539271631306129841346285793378612519109423148848703564091170094055424.000000 -60429881946189606818104561988420810927615232797451537536350049401853444023685203847032045999461811355648.000000 0.000000
-60429881946189606818104561988420810927615232797451537536350049401853444023685203847032045999461811355648.000000 31410142390773222744853096547085613000873113443095839556802442828673051190777654098442061847781628182528.000000 0.000000
0.000000 0.000000 0.000000
1515636432226118148696486320179510879008146672281647721494530824995203813683032319535908235905316421632.000000 -1649070069365922860683383469980910090239935661439153514473289463270172794264817714040426220452799578112.000000 0.000000
-1649070069365922860683383469980910090239935661439153514473289463270172794264817714040426220452799578112.000000 716801112722359005878381287501024334690387366218461362224067534559167159969209989142964341438121246720.000000 0.000000
0.000000 0.000000 0.000000
-8485208294151109313971930085472171742514616544450954669546848726121568872047021515524800434430743150592.000000 8416447007506892048197486971823162861047311030272012776081585670703231247585502951636763117679512911872.000000 0.000000
8416447007506892048197486971823162861047311030272012776081585670703231247585502951636763117679512911872.000000 4754228119729030162490414680709592962852357033097683788331401488548494761460451944265907283370084139008.000000 0.000000
0.000000 0.000000 0.000000
3882728017813077829831181119395879444845748989655833190867336815267982694030287004369313160514079031296.000000 1867341914893037056564554068361101694277362200553995012471387940653705584062960823650990246707754696704.000000 0.000000
1867341914893037056564554068361101694277362200553995012471387940653705584062960823650990246707754696704.000000 519805251815396249343427110156958302737510119459558459167064342288354068660669959910058115877398642688.000000 0.000000
0.000000 0.000000 0.000000
-120733467589715445349789020971880851860699652026602254784967318854122093561175214102362483023425965129728.000000 -18549304208598856901301423122801065474717176099832025470394915830167394489961491966638412236526576467968.000000 0.000000
-18549304208598856901301423122801065474717176099832025470394915830167394489961491966638412236526576467968.000000 5143822926539632153417626796660934323928612299409702161966068458313294387317238908625661614702343487488.000000 0.000000
0.000000 0.000000 0.000000
602066285722998120622896429515515383928182322672100974758797741005634880040136813293177825577324773376.000000 426573517507356286926293708452239423371427868262627169175159395668803989147295185484131734638397751296.000000 0.000000
426573517507356286926293708452239423371427868262627169175159395668803989147295185484131734638397751296.000000 395029856049684732111984933735570048378134584060622615827676379315100250579508822328195238432876789760.000000 0.000000
0.000000 0.000000 0.000000
243952151166970161042651491268469525502136491309212332429859770913300052757097772237952041252670144512.000000 165600563360963425539437376520832460385178646978213634532582618233184526625672587633757747718807093248.000000 0.000000
165600563360963425539437376520832460385178646978213634532582618233184526625672587633757747718807093248.000000 55573177616257593617126820537565280713961840573653930155780575392181518646175934942509705904527507456.000000 0.000000
0.000000 0.000000 0.000000
181193706468640471501074708978672748507293194687753548157532460924437566322828750850528793926822159974400.000000 290600501208103248946271122972484332479640082633557070607858254895068844159632078685592608395099698626560.000000 0.000000
290600501208103248946271122972484332479640082633557070607858254895068844159632078685592608395099698626560.000000 139959188215293558444925281512727845459640145048978606925262092396685175362612891134141254967863602577408.000000 0.000000
0.000000 0.000000 0.000000
-22895000718967194362497350164854715562595685309081573816363746575786965472337352514921561665994489856.000000 -2544480256111129891140764064475527932496051463659907563654240156667536348504204475709878519657360523264.000000 0.000000
-2544480256111129891140764064475527932496051463659907563654240156667536348504204475709878519657360523264.000000 1416790760100530774910944829202600286486597870062478026127823027270398836729113748842270211284259569664.000000 0.000000
0.000000 0.000000 0.000000
-333175013902376744935983709323985987174985256812896741549132103766416047242080795014126750397442172125184.000000 2045264013312859054356594416593272767680357422609488997887315643663782183125577654044785837846388801536.000000 0.000000
2045264013312859054356594416593272767680357422609488997887315643663782183125577654044785837846388801536.000000 101219574293935599551526266088015286030210934457930531163064376699509574714332856757798703148952453120.000000 0.000000
0.000000 0.000000 0.000000
439549039967545559470374019012163295789097699293545880737013393146492173493351463165625316553745498112.000000 217113757745735472304821042625460163922152916321340704398277357087248458830196073662491271565062176768.000000 0.000000
217113757745735472304821042625460163922152916321340704398277357087248458830196073662491271565062176768.000000 133776429619889550763122393232901365561310635074915908542542920209909618582981325021605391023848030208.000000 0.000000
0.000000 0.000000 0.000000
7626746762434097450533294710607648265275965299166334717106123479908411350506893955464466129555499778048.000000 23712325812790568821216791695080788401057127350663869390759948448014218533324284296655730241462861824.000000 0.000000
23712325812790568821216791695080788401057127350663869390759948448014218533324284296655730241462861824.000000 61637585818704415971143970724432595800804086211504818988507855460663838085260502257249325387087872.000000 0.000000
0.000000 0.000000 0.000000
2631491712889499234026871520826387183869230566121395621959243797962222838141776675939126459615634522112.000000 4798904050986743314852507140321601339053132862157043566705590835188043111863894858867450749988148084736.000000 0.000000
4798904050986743314852507140321601339053132862157043566705590835188043111863894858867450749988148084736.000000 2365061405363483499070288691538525207107642508518690281491049296207690540818807299703708522911253921792.000000 0.000000
0.000000 0.000000 0.000000
-31097967597612996688509510444818226399634155507910796179853878752050064666400587573648131829553642340352.000000 -8968789398240091592480012960852642628665187507690710407094883895143675354779101737569597035063176855552.000000 0.000000
-8968789398240091592480012960852642628665187507690710407094883895143675354779101737569597035063176855552.000000 3848614435683654730129338849380131140713908802565725336901252603908452326332256797691879724998790742016.000000 0.000000
0.000000 0.000000 0.000000
3163169592288764852870703638949888640022194293034618640515445483103380183617376753840251272988064743424.000000 -263043305624251285330299568860847407422033037275186738878917975165784562398114555229362169366599172096.000000 0.000000
-263043305624251285330299568860847407422033037275186738878917975165784562398114555229362169366599172096.000000 131867970086949439396165121156029668782008014507306190713167706694860767369308874496755922918923304960.000000 0.000000
0.000000 0.000000 0.000000
-16267575417449432520885455763701753332665463844782509784220341620085220802677656282009920087776781402112.000000 -24410823558326115694305791513270609361885703551785876713411674842802579388293549413779255574892308856832.000000 0.000000
-24410823558326115694305791513270609361885703551785876713411674842802579388293549413779255574892308856832.000000 14182809704560038599269789195934247704964054030276219737788583042785088020544420778767646612140083642368.000000 0.000000
0.000000 0.000000 0.000000
-6230737551176468690249583375136858744296281669654675317634180084449649114063513159513209717760106430464.000000 2878761436757237141650242684323298008805733656948505262217100665790198347457334203532416890681237176320.000000 0.000000
2878761436757237141650242684323298008805733656948505262217100665790198347457334203532416890681237176320.000000 1732256688950109293460440187696844542725301878677663068190706193978623221071578625280457484606086578176.000000 0.000000
0.000000 0.000000 0.000000
157449290146859988645154551050800347190137032965493202221306393920856649916123809967899247333435506688.000000 29381894790519345769736218059330063800775574782910570945711480425848565662756735178204768702457446400.000000 0.000000
29381894790519345769736218059330063800775574782910570945711480425848565662756735178204768702457446400.000000 3664000431108291840067790994025368678704926264520797232960852061825127089402189614174492993276346368.000000 0.000000
0.000000 0.000000 0.000000
146525626530028281203852834595866163764736799816060447612787003808378482525516240963619361469816295653376.000000 -23325230004779573483178915434232960303437190440261346895019045702598568112432405795467081252844488097792.000000 0.000000
-23325230004779573483178915434232960303437190440261346895019045702598568112432405795467081252844488097792.000000 2437737544774231609711207233902312579068804417156229247054266625912574064935661742926115365317811109888.000000 0.000000
0.000000 0.000000 0.000000
19814378311251654574813727246928226597992270834288053537071737322866597637025335577199818998871977099264.000000 -33331453965422744332227597266446016790719797136409805932286819893856713729708057950002512170159179825152.000000 0.000000
-33331453965422744332227597266446016790719797136409805932286819893856713729708057950002512170159179825152.000000 16200225829683706625807780917266976625977027495270082266042716612076121752608598417681246517606500794368.000000 0.000000
0.000000 0.000000 0.000000
-8308972654248306947457451162558518703335301469677521771941067266012954928621774682428451514593837056.000000 -88858467689289182909206874794054729396222496250495725147899402522918825956456370910071940263303970816.000000 0.000000
-88858467689289182909206874794054729396222496250495725147899402522918825956456370910071940263303970816.000000 50025014262082297744067447537636804756817230533131171919638799855381920573247384220836899376869670912.000000 0.000000
0.000000 0.000000 0.000000
1543298926415763806834920231370625024827742858821109347210373917567627764359514611848046770577114923008.000000 2475001060237426260950631549567257360536346654790094698215425585703598822351596292668733855647951486976.000000 0.000000
2475001060237426260950631549567257360536346654790094698215425585703598822351596292668733855647951486976.000000 1313775387886572986241507592178762851969549930921450467048412973846290256652373505244922808159889784832.000000 0.000000
0.000000 0.000000 0.000000
5543222516869115878953261795319511517105199231398855573168092919951635932369486616523116639905529200640.000000 -6791763130450684962662035565210150037197021120107816648747527938077188659013561988267150554997081505792.000000 0.000000
-6791763130450684962662035565210150037197021120107816648747527938077188659013561988267150554997081505792.000000 3065177836944228497697240466435380806933482045714602552487314083607114419569974699292921053233685725184.000000 0.000000
0.000000 0.000000 0.000000
153604939741016326535791028376606862535592971041402802193418024985806151868174559002221529919582633984.000000 -37922575617904908875126206920525181692298278366428585412855753439262453150164239974950503767410212864.000000 0.000000
-37922575617904908875126206920525181692298278366428585412855753439262453150164239974950503767410212864.000000 6028170465610083123758390495481824530336922485580026916599090200226897734664425837357552411405713408.000000 0.000000
0.000000 0.000000 0.000000
3514168745226357649986067747692082710894488240849687810095936136160845468423950585948284334637206994944.000000 604089676240124248636244789419847169611533301903852683490567792118720358736739807155785713554397593600.000000 0.000000
604089676240124248636244789419847169611533301903852683490567792118720358736739807155785713554397593600.000000 117501078241797523184607761877700746453020976137536134720524472043115126258898269228363302461350346752.000000 0.000000
0.000000 0.000000 0.000000
1300472765492539537375024298333152728126241448910214319157790921484522367379209265909814272067222110208.000000 -4112112931080387870839078526034573886482570721944068847347011911186197168555079510734433040218909048832.000000 0.000000
-4112112931080387870839078526034573886482570721944068847347011911186197168555079510734433040218909048832.000000 2156210588875077044001390521624823433149378329708220206129095386492502328801105503157477525059557916672.000000 0.000000
0.000000 0.000000 0.000000
343355335718761438743820406698393736593745973271722287418742280917479895928894256368863423682570092544.000000 504168968119834422563784555835318401205176209356454455191963227785424130825904317258705847363399843840.000000 0.000000
504168968119834422563784555835318401205176209356454455191963227785424130825904317258705847363399843840.000000 518011670811176301757134965321599748857764421569190635276128380900677464578752328479390098486963732480.000000 0.000000
0.000000 0.000000 0.000000
-281620956561711591810841084977182263731577058812165399805282083176904947930990509754162974407036856434688.000000 -12599696462232627306678604381680320195186225087635312989166001239908936060655737458934028502510640037888.000000 0.000000
-12599696462232627306678604381680320195186225087635312989166001239908936060655737458934028502510640037888.000000 1213107130473801326156993882548370376278234734752188904824952641999165881605433371068648613042024611840.000000 0.000000
0.000000 0.000000 0.000000
4134395629108445000546056430545249506300365342456344546909329875848541212300765724850398330847502532608.000000 -6391401616813873709901500420878419073147833807509695782287581784695204069546818529790511033187188080640.000000 0.000000
-6391401616813873709901500420878419073147833807509695782287581784695204069546818529790511033187188080640.000000 3055330913475845404089058280817655498782417809431702093554876175940811635669638519713317175157965455360.000000 0.000000
0.000000 0.000000 0.000000
7151058232198218733135890680526104162858061169948069654498662196586003519684684852500061662022314491904.000000 11881943052293059586758251242270279303466755139939253710096095810559522756041254971374265500610978643968.000000 0.000000
11881943052293059586758251242270279303466755139939253710096095810559522756041254971374265500610978643968.000000 4901809800195550982167275556772875471618668217810120546897045703009590641399108340305097628206380351488.000000 0.000000
0.000000 0.000000 0.000000
3314178998941303568309950610683150187673408659310345990973006567323153145041432234361325738782386814976.000000 293752062758930812199962748109246032631600973947786661011952147864689476420097048417347937512407957504.000000 0.000000
293752062758930812199962748109246032631600973947786661011952147864689476420097048417347937512407957504.000000 17397929913212109511935374348520463539481486708574552732294414980684802677467084127995478655824297984.000000 0.000000
0.000000 0.000000 0.000000
11761143391113105633791141625999916760600087435866695993055627091086101551109504906128649821409014448128.000000 -5733034999018262568049286535982675187841280703743166731799922194998789185086116818269581001024990085120.000000 0.000000
-5733034999018262568049286535982675187841280703743166731799922194998789185086116818269581001024990085120.000000 1758380160673588274783445765828521833174492928494572869880694117018193794004858862296462867925873721344.000000 0.000000
0.000000 0.000000 0.000000
12399391238140805300125289419363932460067812786870304224484899677084761199438221656237066023168768999424.000000 -11928566724814255170994820341489992437494604401091163374867579349854391368668122861219253842892082380800.000000 0.000000
-11928566724814255170994820341489992437494604401091163374867579349854391368668122861219253842892082380800.000000 4955284841451663680762567705447340782142248768889400979361535450388673782382924104868277699035608907776.000000 0.000000
0.000000 0.000000 0.000000
-87031895009838185473278162818603766085980289076069736146723450101799604191986424905056774578717690167296.000000 12751883609472025858286123050673883444898985431154882543764074051798092172734330537504662003790882275328.000000 0.000000
12751883609472025858286123050673883444898985431154882543764074051798092172734330537504662003790882275328.000000 3442875697825859053611002383583469527934736611307146557457366075855839254561168509487008956919626858496.000000 0.000000
0.000000 0.000000 0.000000
116948085711849459789669124741625459015796688457527450464501187549677157137122207247321093577610625024.000000 13496260543516921562486738514108265929819678565571380183051720384102602546040666293994688144464733536256.000000 0.000000
13496260543516921562486738514108265929819678565571380183051720384102602546040666293994688144464733536256.000000 7493895565257324557917893537726966367150703278540367676644255686803771326068536494486971145614063042560.000000 0.000000
0.000000 0.000000 0.000000
26570585712398097868994626693036657197285618769099655416280103195073894954708961184581062206672450093056.000000 23735909382918252870559301328577751869190679885629663638404042627426488099554393819424548129681547722752.000000 0.000000
23735909382918252870559301328577751869190679885629663638404042627426488099554393819424548129681547722752.000000 9558376734876963226454736573870746620947580626971444864776278759028477730104624531701581005921531723776.000000 0.000000
0.000000 0.000000 0.000000
-554910335886283702892443748867966671023433157548604899355873132459293293863569340571341774134737633280.000000 104834588951370844148422436465657019071735853900535272316415422271791674942575829108009646044076834816.000000 0.000000
104834588951370844148422436465657019071735853900535272316415422271791674942575829108009646044076834816.000000 33268895477422808264190150138405626537208486681247280754792126442942364159471952570953409223181991936.000000 0.000000
0.000000 0.000000 0.000000
2409796741353369915296660108537137974756808258041726133704889009534436994395648532651202450897135206400.000000 2769659196165135434447925658400804129723850927212545673193115819167623298925064457210475490362859192320.000000 0.000000
2769659196165135434447925658400804129723850927212545673193115819167623298925064457210475490362859192320.000000 1408844252244512023233183879469504798962805782235027778960587084027837599939760901667631440902016204800.000000 0.000000
0.000000 0.000000 0.000000
389244428865531977454181861644657934581261644810249478434081234409656020854737646851212776061423058944.000000 -2991433954973942948609801073121667851938338512788460715949500026607995992430871314538071810670740897792.000000 0.000000
-2991433954973942948609801073121667851938338512788460715949500026607995992430871314538071810670740897792.000000 1629717765385062161641606974060112671266314560890940161034151499450383982215098035035921363379555401728.000000 0.000000
0.000000 0.000000 0.000000
1665958730683629792726151618243738797180906869664910107404264589031756771212613640993189627881697837056.000000 5891721294314199599068516245458082239647467931691740427125798607814374379512382003413021112454415908864.000000 0.000000
5891721294314199599068516245458082239647467931691740427125798607814374379512382003413021112454415908864.000000 3111262128163073136258435926268504760211947795669551125120089009816500380430685477912862526634029219840.000000 0.000000
0.000000 0.000000 0.000000
-1845092189215019095693125187364726432634744366657130288393338691801814407148010032008812019439579955200.000000 -530524907875622386032756861898670290424775194541076335522920308446866230447914474562376066309541593088.000000 0.000000
-530524907875622386032756861898670290424775194541076335522920308446866230447914474562376066309541593088.000000 194618560631252120920758289521801437774371971314442541999024825947355534380620673163436774759396802560.000000 0.000000
0.000000 0.000000 0.000000
-3766398040909388804048698099578639397216454201162963617546416823204601616161614571301553557695627264000.000000 -6950929511453514584602794270633688625954274656006282057498825425790792200204828342889358426328157650944.000000 0.000000
-6950929511453514584602794270633688625954274656006282057498825425790792200204828342889358426328157650944.000000 4099821314022773643190590818660498031207763151708150631529676128197492972439822730692244897226557489152.000000 0.000000
0.000000 0.000000 0.000000
3252429603690328844859420653133332106232275689186253884849171217203914739170355275671631885462851813376.000000 2063449459628482625952351595406184465377909755354090614365268147003317062922252718218665901597327884288.000000 0.000000
2063449459628482625952351595406184465377909755354090614365268147003317062922252718218665901597327884288.000000 764493650501779698269161770499269239517319920973863634689649853280590164581682620580036918693370789888.000000 0.000000
0.000000 0.000000 0.000000
-765081866885858182004242551716994471697721696333028289206516207893662888999113333813699480467225444352.000000 -5263192689670329323924491197409690995613090190390985059949016165617946188662953842612963927062164275200.000000 0.000000
-5263192689670329323924491197409690995613090190390985059949016165617946188662953842612963927062164275200.000000 3010369304397916258312682522641080797078660853075790460326745943374967611110952378307591698662272532480.000000 0.000000
0.000000 0.000000 0.000000
9595214074358473641054461680756440352431500756972814822793425130690130959084022851895856144646139805696.000000 -8907364033389953653995474809423694546164722373910436918716277404410139217255328648514735900584551907328.000000 0.000000
-8907364033389953653995474809423694546164722373910436918716277404410139217255328648514735900584551907328.000000 3642616716285525919753245292903658147230066588183897286329414802754520956645015073390861538049266810880.000000 0.000000
0.000000 0.000000 0.000000
-2763280535891620393928189407457817496162972948875979865433532993044892184450895420232732382785609662464.000000 2645554202088306988908687046281416371726141689273729611907693635659672172197993203921743487375629090816.000000 0.000000
2645554202088306988908687046281416371726141689273729611907693635659672172197993203921743487375629090816.000000 1634132212679738338018910498573140125136383703331211169964174712639709719939548897982793706569648308224.000000 0.000000
0.000000 0.000000 0.000000
1714684440309052118203015916120293654456998225518169208973599318520589064054819966951225691057122443264.000000 415539126636575976365609593522535049054309213225041976277058564930167341699782273141664962839266197504.000000 0.000000
415539126636575976365609593522535049054309213225041976277058564930167341699782273141664962839266197504.000000 69624774674211993946389677623515428221139943941120500679775067047308123275405018568032977760798375936.000000 0.000000
0.000000 0.000000 0.000000
-1117712864568473756847177267941851396708088282719774822606283824489906075988104012226111870851061121024.000000 2817052180937929325109808924856284692286856933825818786319351604868902592148629955885068158202346995712.000000 0.000000
2817052180937929325109808924856284692286856933825818786319351604868902592148629955885068158202346995712.000000 1632776165260057436884416822838478496724235002889873325144459634773843055279444788791702895512915017728.000000 0.000000
0.000000 0.000000 0.000000
6445527349297414768150406966046136295800803235262392290389431305292885516722126932407845441754303037440.000000 -13026428067438324790421681151989768562413094007948820696301010530170369718795143238268756950039406837760.000000 0.000000
-13026428067438324790421681151989768562413094007948820696301010530170369718795143238268756950039406837760.000000 6518561073633088671576748230714085391531202290650599723486209611369293855618486233096072704124673589248.000000 0.000000
0.000000 0.000000 0.000000
4528194577884119697332875482702072436739376283595750672516988909066622104739808832827476986435723067392.000000 -2480920614624771423562318098627099808418253736189287604721776042949573850715408291839985333922024128512.000000 0.000000
-2480920614624771423562318098627099808418253736189287604721776042949573850715408291839985333922024128512.000000 760022625875964289799448581843811614360261478128856964873384294611634255072795423955503780275140165632.000000 0.000000
0.000000 0.000000 0.000000
1964370264241773119170555688350079264656840442822642363856228415390257338468680256774514518901458468864.000000 2381564455392768635320330298347818013126274679801411763326551660726739144050076530166033119933544529920.000000 0.000000
2381564455392768635320330298347818013126274679801411763326551660726739144050076530166033119933544529920.000000 1079683825359584519508875043342185247905037592412956072746029984141913532363440700651938411218017976320.000000 0.000000
0.000000 0.000000 0.000000
-3109022590089874019414428214893660755468067463455000714609846559685107441601002781433446330920618426368.000000 1798877105630605034186200016601435676387807978384371456888274681638118067771895797523361216454467780608.000000 0.000000
1798877105630605034186200016601435676387807978384371456888274681638118067771895797523361216454467780608.000000 1542656957166338098306589124535563226997115912355209105806512425183761730341053852317783082115287482368.000000 0.000000
0.000000 0.000000 0.000000
2296904191165108399983005867947487078100518673933262995051443903856881591360091953635516164032019038208.000000 256584349352837141140919575553719221138109188393585768248867696679394082372549029535220429176591876096.000000 0.000000
256584349352837141140919575553719221138109188393585768248867696679394082372549029535220429176591876096.000000 18958921351085907501630436107502016902192650959257229621246692942932175544741531846445206784884867072.000000 0.000000
0.000000 0.000000 0.000000
4076133826278552683735164204357686913049725901800486556532035262172825952307862699240537114753892352000.000000 -1603404200823861933203319173621264788445643689522369460409438526730789502636232872364375727423679889408.000000 0.000000
-1603404200823861933203319173621264788445643689522369460409438526730789502636232872364375727423679889408.000000 447531560325623758259571965274861398165308908182082205558460963136145970224972654002762226880332431360.000000 0.000000
0.000000 0.000000 0.000000
-49078385802195130399927712730317125668882919641784955895245385484672234266220669382079881315115195170816.000000 -5926896707238259839153779946154780068049942115785782155080445722020888016937471701699789401996574851072.000000 0.000000
-5926896707238259839153779946154780068049942115785782155080445722020888016937471701699789401996574851072.000000 1382058880438429223639341496551779542594045167759273596828062998631753451946733019809999002608915709952.000000 0.000000
0.000000 0.000000 0.000000
1678652323777717084802657661223007397445953994544108710087019010997910004642423735695476363698536185856.000000 -1255886545839897069414853205674760198128464951967564100253828919049243043831236566385938982014367563776.000000 0.000000
-1255886545839897069414853205674760198128464951967564100253828919049243043831236566385938982014367563776.000000 485158358945015952134672612008790405609584854600481633179461156277501569148484989150041880716120162304.000000 0.000000
0.000000 0.000000 0.000000
903846041804351433529952346275873748752503500891034767545718130952806453184786015159023029222381715456.000000 518176461044797910182667863896044337557436828743879483788214253503395008753454728925868641575598292992.000000 0.000000
518176461044797910182667863896044337557436828743879483788214253503395008753454728925868641575598292992.000000 166027744499289877563125402244236914409345367140796018705875708660680546584310420452074911979892899840.000000 0.000000
0.000000 0.000000 0.000000
238267753617745077945720164595877116225150376776230271623692882460381477823273221724244084742168772608.000000 1182876124854334525637888826708059374855730384541947866207580725080550996465906839476549648602674233344.000000 0.000000
1182876124854334525637888826708059374855730384541947866207580725080550996465906839476549648602674233344.000000 685442085316708067695270182670507757423820063967064329375696680238764771970523756663061353772382945280.000000 0.000000
0.000000 0.000000 0.000000
-8597297462026199410030363165722335936504722423800450787726077925595290162548187538484187722145377288192.000000 2178455831870658081489622127959830027919116276305522094152535715708961679600913724492670258216634941440.000000 0.000000
2178455831870658081489622127959830027919116276305522094152535715708961679600913724492670258216634941440.000000 831148804754729407282433184882578177296497089047355027888362974404160818569574160397608520909882130432.000000 0.000000
0.000000 0.000000 0.000000
45967670037752976133408373173972438778450975416292029458541634998896680264204205449788183426029393543168.000000 55047019829579211365747499218650645887162107288118456748912957784147235406743041294121983081200094281728.000000 0.000000
55047019829579211365747499218650645887162107288118456748912957784147235406743041294121983081200094281728.000000 24989481731009342384373776383504038707372910073921374744193182984784742423937632514052856634571397005312.000000 0.000000
0.000000 0.000000 0.000000
-102698803459587690320960932646947033900908595019044488188779132018702556124154421410310403250358059008.000000 600593229273962992211086740423333819319179254146591131869318383388045905592551146292235867577244450816.000000 0.000000
600593229273962992211086740423333819319179254146591131869318383388045905592551146292235867577244450816.000000 1339504576652478593988813227308629522248655697549119300973685711122740583329185840166182738556436348928.000000 0.000000
0.000000 0.000000 0.000000
373413853289054472048379919093544888456270871819921194349126189561000753727963783089389658009495404544.000000 -269586843723118498400499211925014901902730323237952411457292755298629341609314649517778985815960977408.000000 0.000000
-269586843723118498400499211925014901902730323237952411457292755298629341609314649517778985815960977408.000000 183572724977876372065350995050070496717508584731723710194266153249629300716452868515773128890826883072.000000 0.000000
0.000000 0.000000 0.000000
-129502027750297199889224559218918091538244719845036425292144323704531589767990973184155450055689108455424.000000 -16588498159471913255922266305227170163103046738914818029612607420957852852762376827777639782171243708416.000000 0.000000
-16588498159471913255922266305227170163103046738914818029612607420957852852762376827777639782171243708416.000000 6186217093025515885409276213367386870389834722103930305053193789966616889617274523851553422698113662976.000000 0.000000
0.000000 0.000000 0.000000
-13180879832467297863559812115303350888705112699051031010768202180112668877465096527287143481796422795264.000000 10345433313338235345904671198547345975719588695448261635226635936127938439985494142622578798935591092224.000000 0.000000
10345433313338235345904671198547345975719588695448261635226635936127938439985494142622578798935591092224.000000 5291908962175988301224413366672606695453823220084968181833946163304800838148919440952678830792241053696.000000 0.000000
0.000000 0.000000 0.000000
24785932447131962686567172296969934583570428724164043018690683031299936664491897231254109820784471965696.000000 16109789945383124656950111247073057575578735111607425557017284649103375218034333794370901441625341296640.000000 0.000000
16109789945383124656950111247073057575578735111607425557017284649103375218034333794370901441625341296640.000000 5241346046986677059600148933901296231097664068408559339717794795334517149257323888454311072904679260160.000000 0.000000
0.000000 0.000000 0.000000
1154280426594142074922627055132613019782671473271950160170308854828094188527200674850515109170441617408.000000 -32253429013960182138784950851590550764580960553693216208239755571044601217575264347233123098171539456.000000 0.000000
-32253429013960182138784950851590550764580960553693216208239755571044601217575264347233123098171539456.000000 627880194203660134512384521462419227605939952950063762402278161272955906254726242082415160466604032.000000 0.000000
0.000000 0.000000 0.000000
347253959945099156190795986069790117391565947496830628960511456123183108587650890215011257395716292608.000000 889264751415740545774355728959581430604819490252063222646910589482968925493687712418442438524415246336.000000 0.000000
889264751415740545774355728959581430604819490252063222646910589482968925493687712418442438524415246336.000000 416483509287156137093897809139851595122807781898958990392200379493127763950593037861859078410273292288.000000 0.000000
0.000000 0.000000 0.000000
723846676707480616979285236577554157958897235874808433010767124651591274996740668956923357149639213056.000000 4537867906770032196901945208618374140981397001736506052112112450141152527061172346490370127008012173312.000000 0.000000
4537867906770032196901945208618374140981397001736506052112112450141152527061172346490370127008012173312.000000 2414490416339313301188954019025082723401469608368724531374919859422824601884055880209473268047425830912.000000 0.000000
0.000000 0.000000 0.000000
2643775719563653159582085755114505239800522108285190560884056948446892176984807994162317544521736388608.000000 -897162385429819093054991781953857491764865606212921903604555605449895693153001724824018720465642061824.000000 0.000000
-897162385429819093054991781953857491764865606212921903604555605449895693153001724824018720465642061824.000000 196156921426109995149287933774609436655906074236781583700447606075001115889298811120122940644741087232.000000 0.000000
0.000000 0.000000 0.000000
-43865290561331429509283195888090286561497762110737027898055599082091858869143892111007437450498214461440.000000 -8174682864506907091699523620206813801992909759584826655306529616248774121092768249436815044153003999232.000000 0.000000
-8174682864506907091699523620206813801992909759584826655306529616248774121092768249436815044153003999232.000000 2595318090240474502828976367406515151043952412031704780072046342055094430092208992111604346368900988928.000000 0.000000
0.000000 0.000000 0.000000
-13456830514278632007903687090312902166528215117821566225217534584860201405119907490359363875580556607488.000000 -11740424679286532520007843596758912339894253479390601708667763732067672336037194223313834794539164893184.000000 0.000000
-11740424679286532520007843596758912339894253479390601708667763732067672336037194223313834794539164893184.000000 6820829299114225164295699884777921005583040208195236303953320634942459510345728408702620683866638123008.000000 0.000000
0.000000 0.000000 0.000000
190535496308185477552665343296304675850621682953797352953621074703824980639767460356056659782927384576.000000 -1035816833007617028188497905559535438928053803865077047990427318900626051990947147657650381323025514496.000000 0.000000
-1035816833007617028188497905559535438928053803865077047990427318900626051990947147657650381323025514496.000000 577561149711876289984963031985849776658654056708413759694081300515646784714945449214130818691868131328.000000 0.000000
0.000000 0.000000 0.000000
-3071497411020385557390902738389462770500642325457391913882858990903558041420746425298151642704591716352.000000 -1872103441637957906402740309615476690252932684009800853335261501533296619787538071796101611472117825536.000000 0.000000
-1872103441637957906402740309615476690252932684009800853335261501533296619787538071796101611472117825536.000000 997692129117889760470090443735563357772512750359045672256206960103739142938431100757145906281508241408.000000 0.000000
0.000000 0.000000 0.000000
60506389508504472989557184996343715591101721168866546881068753799979297112637582628344380304174088192.000000 27551631324925130390422141178510823107915807786902174528804032476783228859103704770432870637102956544.000000 0.000000
27551631324925130390422141178510823107915807786902174528804032476783228859103704770432870637102956544.000000 7348482091226613157349125753096573050003888815387449693109371232802025076489902752781477770147397632.000000 0.000000
0.000000 0.000000 0.000000
-16672445394865934081560431006970765250704687331293614039850033991265786159805383951961339555851502878720.000000 -320804387708765736644279708364719265734599645537527229436571306074440194730651946516177780479426035712.000000 0.000000
-320804387708765736644279708364719265734599645537527229436571306074440194730651946516177780479426035712.000000 39808383101422581388856851042307021483903517118037085096584532871515011353165488212657271857232216064.000000 0.000000
0.000000 0.000000 0.000000
24266996048830076895091893278927144033602353059427983591492352160347193281204290952566288808601221857280.000000 16301970704719616378737163884810298754883619162393545867764239884498182419019648402997524314171388198912.000000 0.000000
16301970704719616378737163884810298754883619162393545867764239884498182419019648402997524314171388198912.000000 5674250683440990086100405049371533790362053300591646733786882851690318611540980473369124866222410694656.000000 0.000000
0.000000 0.000000 0.000000
56422999511516560632007778625826022231509420875279938547248360776499415666915739476389249369921028096.000000 16347563267263988185332444144181831419061543818115175887031202039793412982198972453774372819777355776.000000 0.000000
16347563267263988185332444144181831419061543818115175887031202039793412982198972453774372819777355776.000000 2991829806476627382209724985700961334446704820684808495824302997188602890505813472507809839158657024.000000 0.000000
0.000000 0.000000 0.000000
-9133495664957959848694160274792036101114627039039893060162211592016967014034771583062876724764677767168.000000 -262175602700647115830759554160163085038045059146922339131687598868695352396925589437952531930307100672.000000 0.000000
-262175602700647115830759554160163085038045059146922339131687598868695352396925589437952531930307100672.000000 179126008733082552390674550248561331249190873813600563832112177266742012811509053626554138701334577152.000000 0.000000
0.000000 0.000000 0.000000
-4412902645092822896277204850604176613191938509789207333008345491377236408239188646583241417093143330816.000000 -8675368188653697420966790247188226643916368191267582538243759750201711951100021769253746952396450299904.000000 0.000000
-8675368188653697420966790247188226643916368191267582538243759750201711951100021769253746952396450299904.000000 5210704514187788161816509818215202421910391776342823276441571783523924436140400440210023821686553444352.000000 0.000000
0.000000 0.000000 0.000000
-9159401456441488551074731306528916127853953794603097123032731679872990031415209753691340968765169860608.000000 -532966272865375084569310083633746829663399533328380357666948306245248769207912938272715048304710254592.000000 0.000000
-532966272865375084569310083633746829663399533328380357666948306245248769207912938272715048304710254592.000000 39174562498183247017075485375195547588822018992977852463117349467958187124211908156235356096985825280.000000 0.000000
0.000000 0.000000 0.000000
-231198145985245170971275980372196285953751288432040072693240429140024337069386611722800479417567019008.000000 3255085113649564143964817779749487221556179461240266192541679053018181801482335476422116634721922318336.000000 0.000000
3255085113649564143964817779749487221556179461240266192541679053018181801482335476422116634721922318336.000000 1825698818541400022617698467145413580424804657468430884611971495588265038609112332232500043980099026944.000000 0.000000
0.000000 0.000000 0.000000
-75496691079195939391195656783815764476626825755324945541643781552431015907818634071064835931892663451648.000000 -10138242745069137171375356715776351135705658903108921801124128451451827018171784718947370020378368802816.000000 0.000000
-10138242745069137171375356715776351135705658903108921801124128451451827018171784718947370020378368802816.000000 2629412585764781098429312726674857829148489910613241630903916415113152674415167608496217487790827372544.000000 0.000000
0.000000 0.000000 0.000000
-1964054186859225660575314293522679081457430970562357120200646665049955966014670649372857867850563452928.000000 1314554958822694866364907277421948199145135090184175378341540011727506463584112109019883697446867435520.000000 0.000000
1314554958822694866364907277421948199145135090184175378341540011727506463584112109019883697446867435520.000000 930052149086268784792093010703183315504192412363303231321641124954155618075813798201636093284434575360.000000 0.000000
0.000000 0.000000 0.000000
-62495889120543887546350660772339845267182435516317367356016030237024939850078781668962401987613113188352.000000 -21623003215234177623546129390664265566651868123141665243625789953070831292407146223326944205585644519424.000000 0.000000
-21623003215234177623546129390664265566651868123141665243625789953070831292407146223326944205585644519424.000000 10346267273578583437421853636464091113805867625803993555494762478906050798972508869496499708978542936064.000000 0.000000
0.000000 0.000000 0.000000
2550368832927827596620888778049416112693958620856200117768293406071727533489713801927256664073662627840.000000 -4811022632882616432247152807666396688078901054264908660985813351899583833303944610137926147602527551488.000000 0.000000
-4811022632882616432247152807666396688078901054264908660985813351899583833303944610137926147602527551488.000000 2778912687859252098033910222738425552440556551844423463125048756948507684451233930087080181447817953280.000000 0.000000
0.000000 0.000000 0.000000
251826894392787594912918508124452015041994206961593777231801103534783566622903599315949226422970613760.000000 9992831983058897188731310820367667234096085011326206633602268623634709729391887741278966498111520768.000000 0.000000
9992831983058897188731310820367667234096085011326206633602268623634709729391887741278966498111520768.000000 7705598684312027418906552916596634540251213336750618632746643360865345557550433600320033454488027136.000000 0.000000
0.000000 0.000000 0.000000
-2398845988358809999373949829999489305465369139589862176284047998047348740495295943466018845457997889536.000000 -3802902895779638678637960803965230746836435600096797837025523268289120665715277903597022189909618720768.000000 0.000000
-3802902895779638678637960803965230746836435600096797837025523268289120665715277903597022189909618720768.000000 2241766371576282537903019509001687329873543152475154213596827668566976052072983923946022101327498182656.000000 0.000000
0.000000 0.000000 0.000000
-85389424341116382374701275156807153409148809554700967122272271435232858874652483058510842604739962601472.000000 1547572682115425431104996404263617345957113651734542814684929188861913499809116468235690086618210762752.000000 0.000000
1547572682115425431104996404263617345957113651734542814684929188861913499809116468235690086618210762752.000000 251393461797168837861420391277357958345047635591723480912661728885238516510266442648135767255305682944.000000 0.000000
0.000000 0.000000 0.000000
615620298678063581665220548735742356451655132445130644088821395133721098701215949684512176132006608896.000000 -2621817389708834335400901661717213707195661309350063949828641210122005646487637648803165194509462011904.000000 0.000000
-2621817389708834335400901661717213707195661309350063949828641210122005646487637648803165194509462011904.000000 1497070883406278373947888652779846819626219776845966396770453016216478458986837026371457872669481893888.000000 0.000000
0.000000 0.000000 0.000000
3791920736004020892608099936321686010377092075490843125338255999482923023950476603732051605182830608384.000000 -2020544126135683141473777050381083082139171470166732067424541610943616712701400855967961664701079748608.000000 0.000000
-2020544126135683141473777050381083082139171470166732067424541610943616712701400855967961664701079748608.000000 1111726234330050568236549980849044876593012147144736617130907644808523134442326442446713562228343177216.000000 0.000000
0.000000 0.000000 0.000000
5716905195159779580351658135376419547497010512892845617190723060755647546453076301629291734013459824640.000000 -1916642344639104492586815273858255479841175805326118208314408245635019810918852798458685132540093661184.000000 0.000000
-1916642344639104492586815273858255479841175805326118208314408245635019810918852798458685132540093661184.000000 404510331057601420334314869162595637187573613757290712714179414706098955960925298036295847319502323712.000000 0.000000
0.000000 0.000000 0.000000
1867473145884142718209480352006650254201711104320891588793251114950522933174990883783632605297445437440.000000 -2026917317186491832540447728972418735381160235999535300760708312666476083827616123343505565896679620608.000000 0.000000
-2026917317186491832540447728972418735381160235999535300760708312666476083827616123343505565896679620608.000000 1056134526472688276740286345799653791470563837615792863458225930442131274609091528355218589444571398144.000000 0.000000
0.000000 0.000000 0.000000
1689913104706377554595132535688881077555396924161462624922369887639221639980204650963492921499042447360.000000 2440533962900940236506036552736244799753767627764607085549962536676308207738204700879312037502919901184.000000 0.000000
2440533962900940236506036552736244799753767627764607085549962536676308207738204700879312037502919901184.000000 1035825203529193878167056179081848596106740542423865986366036023001909631379634404747133809883420295168.000000 0.000000
0.000000 0.000000 0.000000
-6378285089020698971767022226994783167987090161329182149598112969519937840418920086988638214358086713344.000000 9918398497886433208268319259014559987334928722234533073759265757668786251581555637221149336245742075904.000000 0.000000
9918398497886433208268319259014559987334928722234533073759265757668786251581555637221149336245742075904.000000 6242747594359264505393664121975774693399797150838196090043732103738508645945616904618084884808938291200.000000 0.000000
0.000000 0.000000 0.000000
-3792957555319169387701046332211921999625245161940586535450984874944353356873046444826767050332807626752.000000 618547819313630601386445878399207145258478678907993086024751521805442329935773534667704903577867649024.000000 0.000000
618547819313630601386445878399207145258478678907993086024751521805442329935773534667704903577867649024.000000 222846822979598646026950910761625130751872460746449666588591275073050007907974727629876837820909223936.000000 0.000000
0.000000 0.000000 0.000000
-128229907862830040281828528257264869979644329908632439194584375598893672230360252248640481382784766574592.000000 21582372186400788021320110255508376099543885191609735625089211767079184024854231342423256626695900233728.000000 0.000000
21582372186400788021320110255508376099543885191609735625089211767079184024854231342423256626695900233728.000000 6176391522837971551553155214073962354370744052056211925987368030323180645679255144248807861764659085312.000000 0.000000
0.000000 0.000000 0.000000
5736908206982088308293367847024833618100079264132962023040723501992391646942748328883999951385830359040.000000 -2306797899770622800234814115197053785102673473557033710468124485525306337888106115008801787192476172288.000000 0.000000
-2306797899770622800234814115197053785102673473557033710468124485525306337888106115008801787192476172288.000000 558620308665804313993211757594089845215709520130905751402902219168027866568857934231130655913769172992.000000 0.000000
0.000000 0.000000 0.000000
925653697946493035568986317067183439445275613228980443936504156998606211802741096952656741548492324864.000000 -2532567506974173178035524939511574976521605486671452457712817334083367292442849925965000118618858455040.000000 0.000000
-2532567506974173178035524939511574976521605486671452457712817334083367292442849925965000118618858455040.000000 1576757612654815709023786814578127511876269864391619081674203195752749028212733048985555607896163614720.000000 0.000000
0.000000 0.000000 0.000000
3548084048611165721775559277633939791540825382130535088489175354967861354166982043850862953063824490496.000000 -958622506947190497021141003821438116107549857372933180726796153664534961002706753765318285641983721472.000000 0.000000
-958622506947190497021141003821438116107549857372933180726796153664534961002706753765318285641983721472.000000 429835040734444960651968198231101647096934758871209842260312527255787820766923183653907008888086986752.000000 0.000000
0.000000 0.000000 0.000000
-1213470038587452005414733843830399007545713644481778589192892920614949877584901857262535692528750952448.000000 -66284419811621852008793232090449885104205071980816336045770639957444479764845561348984938208484655104.000000 0.000000
-66284419811621852008793232090449885104205071980816336045770639957444479764845561348984938208484655104.000000 31896108489004760671371762940813389236397123873068760049845349463351850213783893545947108201210052608.000000 0.000000
0.000000 0.000000 0.000000
-178566240316444303451687799630677434378059594171892357099467599265179171739063728760449908213263892480.000000 -953611900577236334411878312011876992415786340417871023009586907799780644385958243742074711179926700032.000000 0.000000
-953611900577236334411878312011876992415786340417871023009586907799780644385958243742074711179926700032.000000 533785702677147465917932887189479408197771758743188628505270841671174873925163220260679729146253803520.000000 0.000000
0.000000 0.000000 0.000000
249776763275702862992840550657523909551777673668571778269650919071720800560290308159779570061989117952.000000 -627707004822070836597858245195888553192757978256635546879005321564578810446916055025293324478197006336.000000 0.000000
-627707004822070836597858245195888553192757978256635546879005321564578810446916055025293324478197006336.000000 220618904384873743053085561156804652867318545616831373755682213011187247267859720304687583737386369024.000000 0.000000
0.000000 0.000000 0.000000
-52539671361778208180270026919790549192541394913725097297213491962771567542163639485828324206232270274560.000000 -14452995737755344141520682530782323262479231056295842583472874632414456419233629244841924697887868977152.000000 0.000000
-14452995737755344141520682530782323262479231056295842583472874632414456419233629244841924697887868977152.000000 5809991859290984292803396429875848370557044312841348117588238323320494175788028171870672479882739449856.000000 0.000000
0.000000 0.000000 0.000000
43908296047162223805423041038401571773734286188560463879245413097663389607594221689072356439570813812736.000000 -45485146829915499534550862255291418024925964334709200360213138857490908966054055632863790464700820488192.000000 0.000000
-45485146829915499534550862255291418024925964334709200360213138857490908966054055632863790464700820488192.000000 19502059490571891856331430486474746932067327338289481354100880685186257509503745048681191220316385312768.000000 0.000000
0.000000 0.000000 0.000000
3962012425927324721114479759973346345583168444157687309446187282138714746396957434549531876218804109312.000000 -18805144426416481449229211892834753896794377767401851927377128387176936192534240310319097742133932589056.000000 0.000000
-18805144426416481449229211892834753896794377767401851927377128387176936192534240310319097742133932589056.000000 10084132707473753218567718798266427234493841101269885293419470995615536631153461650838962141863935475712.000000 0.000000
0.000000 0.000000 0.000000
32978545792408717153058946550679370447365830132385862445713030949432333375227913804595824070633893920768.000000 -70178607932985086526368010943572526590834446646529176688810644239291189550779769258489012760849470717952.000000 0.000000
-70178607932985086526368010943572526590834446646529176688810644239291189550779769258489012760849470717952.000000 35376875070984648706839399672693613971171918253128578689566163999756710723059853291427900923928087887872.000000 0.000000
0.000000 0.000000 0.000000
-824944756753479623474352910662556444884784079220951278485057385057457841100901151021089134059458658304.000000 930599956952664493818699261392524378630123094545087606073937154168105537238041818446259360603687616512.000000 0.000000
930599956952664493818699261392524378630123094545087606073937154168105537238041818446259360603687616512.000000 733374042488466523944494536892017651052282599186268652139342212713480897052644561757242890789119328256.000000 0.000000
0.000000 0.000000 0.000000
-3109782255583597935201555682178410589349862964636118612909394149181341353950393013370281887664722411520.000000 1750313262593841620312554137194328162030745896581285437893871149138780213205153178846059657773394690048.000000 0.000000
1750313262593841620312554137194328162030745896581285437893871149138780213205153178846059657773394690048.000000 1136088664061368909465818903842864440642352835394721225167824129876940056529138884645052832548644716544.000000 0.000000
0.000000 0.000000 0.000000
-5239132124106523937709634643767501187029085104450522660289431879449606714839977096976403460071146651648.000000 -5057577292712782409880777694512659780376619612283893149682365094661823904846037915577936774638539374592.000000 0.000000
-5057577292712782409880777694512659780376619612283893149682365094661823904846037915577936774638539374592.000000 2912808574402583157613410709530375910584436598042821927335542336301386164171366857277927348814869430272.000000 0.000000
0.000000 0.000000 0.000000
2370450694615163184704204670558996085365298421164940686180781010006766951077815723024970444353585545216.000000 -2663094723994153619837717728721770760435380863931595906218143497031463122322150471640591187406089093120.000000 0.000000
-2663094723994153619837717728721770760435380863931595906218143497031463122322150471640591187406089093120.000000 1170120202593643831400283405073883690193635922706159989805297482337379141616026650151597265767825932288.000000 0.000000
0.000000 0.000000 0.000000
2761919809907822701851524890356187952554259714638457774127697536350994043516299487156002840863465013248.000000 -1875898302936363940645948393604343989449956614903232530386566023938057517658680219090961372716973686784.000000 0.000000
-1875898302936363940645948393604343989449956614903232530386566023938057517658680219090961372716973686784.000000 657158439825247314268115864082993463516386532397795627517929301774244514978556214328173688636131246080.000000 0.000000
0.000000 0.000000 0.000000
-53097849525777057273626878733055194287598739323148280880315077725502565774327154789790241774719714983936.000000 8903825825599647823881185951143208757449586518865856039723230435288960595717149262709240578196436418560.000000 0.000000
8903825825599647823881185951143208757449586518865856039723230435288960595717149262709240578196436418560.000000 2580635338949941611658598712968630512280487447850182302189957570466388676548881420616581444921322373120.000000 0.000000
0.000000 0.000000 0.000000
2692845965405047021824904077031136623283815153524013919977379276498408027331117006310818579469570146304.000000 -1861001307571163356121569178215658232481296401310735697988853222651869901587988721887857519462660964352.000000 0.000000
-1861001307571163356121569178215658232481296401310735697988853222651869901587988721887857519462660964352.000000 701132101910153953766771754781027700049343538558012550137923431818055967578955974582285603794319310848.000000 0.000000
0.000000 0.000000 0.000000
1780847808209689414113613498579029048632710160675619212816675446175416005053764494159486916575470026752.000000 392223750349993324271925918328067621247817667111665273606009723365211911474319034391606450253369180160.000000 0.000000
392223750349993324271925918328067621247817667111665273606009723365211911474319034391606450253369180160.000000 57791122777813717690932760769198425806341839193411086977607746619494128934082205805422573308260384768.000000 0.000000
0.000000 0.000000 0.000000
-26695282476761476756931062353537606323969914693240928200403602163340066995517337003866087433533652992.000000 -7490092222210374839669986662802017336098153203530332687123010887994065113550625105051668016521136832512.000000 0.000000
-7490092222210374839669986662802017336098153203530332687123010887994065113550625105051668016521136832512.000000 4167120065383000874678252085278191428484622547850060681471658221933757278424871538288580761952876232704.000000 0.000000
0.000000 0.000000 0.000000
4095310532320709568678296524070570832260572945213176426329320642976757229186979345735296785044218052608.000000 181894472304215537531502962824100926315743552656767863812538026895583237543359172873196102745575129088.000000 0.000000
181894472304215537531502962824100926315743552656767863812538026895583237543359172873196102745575129088.000000 5407052646218447775712688851012635639531377186360811085691826869642077537640752285215713264765239296.000000 0.000000
0.000000 0.000000 0.000000
-280349406663789849345238532239397739517549830001899557794697572162388687250709013898720325523654836224.000000 -3353808244224663332039514969057101898890184155806708968499777610045610001662873444474581542444770263040.000000 0.000000
-3353808244224663332039514969057101898890184155806708968499777610045610001662873444474581542444770263040.000000 1749352791725317664133362617124937844769714459802617257053695488243520995034643814167303965190603669504.000000 0.000000
0.000000 0.000000 0.000000
-4346658502193348590761918484298459507252015145184389874419446625735170246699043639816091276021078163456.000000 1496997819530213766797141836058267163064649696602266616143989263359568110789750753115711802506588717056.000000 0.000000
1496997819530213766797141836058267163064649696602266616143989263359568110789750753115711802506588717056.000000 723143233432286710604721920392901057677953476172593354747016554575402531354567592668622950943940411392.000000 0.000000
0.000000 0.000000 0.000000
-6403118436845358173473693303628301555485255829023028027085436870658188686583227806677641293806780284928.000000 -3627104234978701128801631895794791350119686096338568289737281463154537800312837547707718702105773473792.000000 0.000000
-3627104234978701128801631895794791350119686096338568289737281463154537800312837547707718702105773473792.000000 1917418404242798049566906392670672870903468789631543333721512993235014780184520628091174316369841750016.000000 0.000000
0.000000 0.000000 0.000000
-3565402578259260130011823306348120429638681119612115316359938724826615569145485116741795480882341289656320.000000 19331263738730212237379466637022585424930916748299539020034542846580810987221712950123030164971001479168.000000 0.000000
19331263738730212237379466637022585424930916748299539020034542846580810987221712950123030164971001479168.000000 835170941889612465607388658723853351499894995038429096237794595783578505336827863059219847191388487680.000000 0.000000
0.000000 0.000000 0.000000
9113184346072814663891797448622812917564186246905906572108200039192047539666249617211425847345548361728.000000 10242189200031251696858852422968178579131079393085808871768510676534372870464104902870180954717389062144.000000 0.000000
10242189200031251696858852422968178579131079393085808871768510676534372870464104902870180954717389062144.000000 4495731183465637765001608114573997093853327051653602778570048080402452879223146803944979582602151198720.000000 0.000000
0.000000 0.000000 0.000000
16845286563365924171695016055723898809721505107967617662676329986201020090391146568424836201880863375360.000000 13251239765198696781145267012949909042187269933200463505471648165675651566698175097855521022798213414912.000000 0.000000
13251239765198696781145267012949909042187269933200463505471648165675651566698175097855521022798213414912.000000 5026690372487012147373066948117215670156572070863913701910403385350639207052011282936128598707969982464.000000 0.000000
0.000000 0.000000 0.000000
1831537026978072793880115195319784505694814178340933860865647441060005713299029996158533001851189592064.000000 1531022139369848803155166722883064132896214834508192440824737162309164283485463766306066039259583741952.000000 0.000000
1531022139369848803155166722883064132896214834508192440824737162309164283485463766306066039259583741952.000000 598041521591062077896757340767607071153459965860324162406503400375282225470218896594299106844494266368.000000 0.000000
0.000000 0.000000 0.000000
1770565323401716741278006231214385036776574074214959476511904709718763034458741161132008384704291012608.000000 2355356885850689991160421400249689604707100383141021833822622176877837813427098293910419396535582195712.000000 0.000000
2355356885850689991160421400249689604707100383141021833822622176877837813427098293910419396535582195712.000000 1088455200269188224943100352079921903921288576680568733394958506739418575115678763524799423192571576320.000000 0.000000
0.000000 0.000000 0.000000
-2795801368990761126954310338836448859589589214092982861393094375723709555385858256029753968684706037760.000000 5217969509207949893947920622228883850601030184217399650732268325479085178154026868776428617246334517248.000000 0.000000
5217969509207949893947920622228883850601030184217399650732268325479085178154026868776428617246334517248.000000 2927986820387416766427354069453355931033890820089391645968332935237460932421023232117355530343636008960.000000 0.000000
0.000000 0.000000 0.000000
7078286394979377050788763549968674980586864960372801799613932448344115291720399258527558178970015891456.000000 -5485032921259847961636125158404345447541220386543512287804150980378228540537524110629869740914150211584.000000 0.000000
-5485032921259847961636125158404345447541220386543512287804150980378228540537524110629869740914150211584.000000 1776104278596293205256379849023925801238239248603124017071987578059090822074586068866709124292754276352.000000 0.000000
0.000000 0.000000 0.000000
-42008058180841450812664743255783556678494022105384542871649777813948549482769562396893124475015036665856.000000 8342901992258056294748945094453808005946853767968096272889411081697441080631440152738604194355564511232.000000 0.000000
8342901992258056294748945094453808005946853767968096272889411081697441080631440152738604194355564511232.000000 2792472242873398776313313407445772438340272493459313122651029391925113982262111813030656190620924641280.000000 0.000000
0.000000 0.000000 0.000000
-6453541469638378087080064028174018234270307618415807487161316156937283867397980800398044809794078900224.000000 538869339324298758437415615878683977462026123773146672815178851513613810741650878874232715682580004864.000000 0.000000
538869339324298758437415615878683977462026123773146672815178851513613810741650878874232715682580004864.000000 160048706296050621444095615415003005857818476443600219942703999617038748134059769539527350757399461888.000000 0.000000
0.000000 0.000000 0.000000
-89303222873898129152529959437849108249102028122138412822856951334010964285901611792562655589154162737152.000000 -27892133462437941908178990523421991412327002610514418017168649569027232453024854334489080808043221876736.000000 0.000000
-27892133462437941908178990523421991412327002610514418017168649569027232453024854334489080808043221876736.000000 12889244841119296439479400099903753265266808565510809694515294828048180122995530338510154583075870212096.000000 0.000000
0.000000 0.000000 0.000000
2201249158292846113875681042193143170740033707228469565635220274514917434193000858946340461533101817856.000000 -1563027811113277494318783472156962436915490840705791448728720544774520672789539981353611373987686776832.000000 0.000000
-1563027811113277494318783472156962436915490840705791448728720544774520672789539981353611373987686776832.000000 684799067094649993139712932186473913120722747572001592519979623113736330685847138289805714488926666752.000000 0.000000
0.000000 0.000000 0.000000
3617927406845063069360260140522663992169326783048332810168560171152578439962862454864541774968216616960.000000 1015139194100878287662906252680065248529665283372278812238206073001874613690801335635771680296592736256.000000 0.000000
1015139194100878287662906252680065248529665283372278812238206073001874613690801335635771680296592736256.000000 250230374180211948413993782792461386649418186567001097702304708235619809260023480983428477273948291072.000000 0.000000
0.000000 0.000000 0.000000
3588259106141302123575026371640689244839424962456871201132227348993793937769214001065901662846402428928.000000 -688473430624702546693024967231038113538355068530861372927447095135264903490072754206901991736195678208.000000 0.000000
-688473430624702546693024967231038113538355068530861372927447095135264903490072754206901991736195678208.000000 86660006819335843036535676843376500523824567045158396743657285186527985503283893081556561290000859136.000000 0.000000
0.000000 0.000000 0.000000
2507817875944515835630831498188837680297901488789767924769342878090204506830224719716556829848378540032.000000 3315060413403063248594516454712835666819452639452184340806054435954263582406063217817345882061556154368.000000 0.000000
3315060413403063248594516454712835666819452639452184340806054435954263582406063217817345882061556154368.000000 1572964173504150843916575213144533852787994004553143505729856656810680119877605351391584825832806285312.000000 0.000000
0.000000 0.000000 0.000000
338328695362830689981032716753638160391823091992398606899109561203523007754072799523433727825788534784.000000 457303779061807195067565074953930238025875528715038400784826641327380581043205794809445155559264223232.000000 0.000000
457303779061807195067565074953930238025875528715038400784826641327380581043205794809445155559264223232.000000 211975088270834770210900560806591874365953212819555871450850555336980000371892821226919137613067583488.000000 0.000000
0.000000 0.000000 0.000000
52323101746158374251861366932995226864448612776216362701634492236694879214471826236129312922931684179968.000000 -24983994893200292621213132210145434764838836722560017864674723218035732304807223643964876615937255538688.000000 0.000000
-24983994893200292621213132210145434764838836722560017864674723218035732304807223643964876615937255538688.000000 6935045324967398786164587451652496543444758735457819266463348616227779087993421014131814079490431123456.000000 0.000000
0.000000 0.000000 0.000000
12817544387700414058840474499186430197068168617032658205838719085374527404031959489020496944412657451008.000000 15385565710425668658914291785806127855291800027946135016682797362054584385803930805246641722674045255680.000000 0.000000
15385565710425668658914291785806127855291800027946135016682797362054584385803930805246641722674045255680.000000 6908481064982236934265200602317910405884960993605600171948331839197340862336933657765818157033303572480.000000 0.000000
0.000000 0.000000 0.000000
1589122288189470685039515321959034466686444029070808379112888152669732802120783891659174909457526161408.000000 -6055810118091098069689784905672203030794577148754210851316049886076385106781806318266870803074574712832.000000 0.000000
-6055810118091098069689784905672203030794577148754210851316049886076385106781806318266870803074574712832.000000 3207837497290161018648823515668988518890227033697646303301098025223225461015440694555966648897608089600.000000 0.000000
0.000000 0.000000 0.000000
-1867375228440916862187885860946934531162566507446333512284063358911904333568721357113828314238140022784.000000 3520985728189029365874860903226837044386645945617094415796804354095562013844689730677955563037443227648.000000 0.000000
3520985728189029365874860903226837044386645945617094415796804354095562013844689730677955563037443227648.000000 1633425033326720993930197849048124765495220759622816826887425037610398212937982533899997313692359196672.000000 0.000000
0.000000 0.000000 0.000000
14158833072362440842044980660755670474700665788068813572748634417242172436499057981862405753764665360384.000000 -7994834529675044644629472707571396087012183556573708826388229044108762384056194285429817049688574001152.000000 0.000000
-7994834529675044644629472707571396087012183556573708826388229044108762384056194285429817049688574001152.000000 2367179589247434523030047063546635734539232803680300447758785558309650533471872020609292422001813618688.000000 0.000000
0.000000 0.000000 0.000000
640154592924716992113628858068530885425674542021992543422984343202940861726852438060671084803970301952.000000 -2020777223407601476827053060198577463430707073502823599776511226489424575113857815758225659877350440960.000000 0.000000
-2020777223407601476827053060198577463430707073502823599776511226489424575113857815758225659877350440960.000000 1094040703941204569772598683191448635154383012778261491993433059900327776572904392744561226012476571648.000000 0.000000
0.000000 0.000000 0.000000
146356077845244533741734100356473596021439162445254418278595183390902436638737914355726560413566264934400.000000 8302865098045152611639535783853834991833296554996723849301062175853860072701270372257745503433927950336.000000 0.000000
8302865098045152611639535783853834991833296554996723849301062175853860072701270372257745503433927950336.000000 314620749815791038222350499682870085274987645565553310412255300175045789544976290986925684178196365312.000000 0.000000
0.000000 0.000000 0.000000
34997615293035194267732842333754788890651283618778536213336788563732870054936555669251117138955061952512.000000 -35119962042710839142409637471124964791265035707244734379531257525238139178729472993657113760055164928000.000000 0.000000
-35119962042710839142409637471124964791265035707244734379531257525238139178729472993657113760055164928000.000000 14828720564509640907449733169614631008422759912323023248387412679996922818099020453209309778392872124416.000000 0.000000
0.000000 0.000000 0.000000
634791278365710469517673635651011232353768470618268610790302113669587300113933912256446314586006618112.000000 1644029939160662403652146457560788645626443792520262678507040054906266143121480306779317027239582760960.000000 0.000000
1644029939160662403652146457560788645626443792520262678507040054906266143121480306779317027239582760960.000000 847546168553931219293618584623360059474501563308239998285860758272273056795331319063347053070376763392.000000 0.000000
0.000000 0.000000 0.000000
1618307902824960007072029170075763249954376289502813338196219039065448097828928057002575804695505272832.000000 -2380652095970152460407541173532159992748131702481084749872187583019011154001377279118112797058414936064.000000 0.000000
-2380652095970152460407541173532159992748131702481084749872187583019011154001377279118112797058414936064.000000 1198357025072764095696838067136548665045393823392285542086358674722502302042148446999183705033916022784.000000 0.000000
0.000000 0.000000 0.000000
-180639757463615859653750278406773008621749065725825582374888862448996676076057863929363046152414429184.000000 -8792844404459406495047320346201340413700701055314919382017609700013949344946046917693563923541660794880.000000 0.000000
-8792844404459406495047320346201340413700701055314919382017609700013949344946046917693563923541660794880.000000 4898203530505097022391623294659684707213056908366163789436632683673395653043843538852437055879153451008.000000 0.000000
0.000000 0.000000 0.000000
4671785641456245905139720529273587493251500142290732058435108243441828514400076807775561985598674698240.000000 -5130196239308858468465354741930362116911766180630072525429094417716073470368139667504623623221198979072.000000 0.000000
-5130196239308858468465354741930362116911766180630072525429094417716073470368139667504623623221198979072.000000 2244918097771631471763877892619786079585728764708900009011857071661138173393379230475084986835603030016.000000 0.000000
0.000000 0.000000 0.000000
-363874598800952675497098718431327990283452446153967196164524142221034796277402242340884163240507998208.000000 -4240363442675904525059298693315790705460837737329274708239356687948203878373885344612221990639870410752.000000 0.000000
-4240363442675904525059298693315790705460837737329274708239356687948203878373885344612221990639870410752.000000 2383948664131041376063359365404449324405291227019704928542382453409857333974977528889491943660720226304.000000 0.000000
0.000000 0.000000 0.000000
2800985722493643942907745584334048951085899995456158546005532484077709771822304671308263912989492510720.000000 1242065015128814803573637016266852507893348710432573786399687901736839333750147421247253258639276769280.000000 0.000000
1242065015128814803573637016266852507893348710432573786399687901736839333750147421247253258639276769280.000000 335196112030855844849842927714548968985764493559736308713581477067798258434022650579890616133031559168.000000 0.000000
0.000000 0.000000 0.000000
1946680231798426016045276347144237085790968788757069864605953378242873019157075190966405841449606184960.000000 -5355228234403228828658586151275641502240644355111279413352911482504386849544238842810711477443899686912.000000 0.000000
-5355228234403228828658586151275641502240644355111279413352911482504386849544238842810711477443899686912.000000 2774920728824256799075712178825451371744561988030248741794179524294105554391560748618551819495830192128.000000 0.000000
0.000000 0.000000 0.000000
-95746042184299471447913477851027638435436824909393201329486755222199720635503678904240287204772040146944.000000 -63801477360554732112443923334935064222654486018063310458015712744393365616068340554242463206332480618496.000000 0.000000
-63801477360554732112443923334935064222654486018063310458015712744393365616068340554242463206332480618496.000000 34694970210433518945434692114478150535954110593161112747730225290751810074414117451593186203246715207680.000000 0.000000
0.000000 0.000000 0.000000
3122077469489561827145748308715873032376993727604392286469776485448458805503166749275652170190996635648.000000 507084450203402663353129915816286581074008693076363756292992752780015650317512297565016990918551535616.000000 0.000000
507084450203402663353129915816286581074008693076363756292992752780015650317512297565016990918551535616.000000 53975212294210546574541755391063820674231401514682005119091982335998633399308395021694086494296211456.000000 0.000000
0.000000 0.000000 0.000000
237683005694989200825929758447458685115747842620960482830224277296256563702182705103902004903086653440.000000 49906546093608895265874116087206271848175897882594116697583006536083301149899320814588953750455451648.000000 0.000000
49906546093608895265874116087206271848175897882594116697583006536083301149899320814588953750455451648.000000 95488142597772636191650478476750677430702284033275965178821873007940428808755636982758432047305326592.000000 0.000000
0.000000 0.000000 0.000000
3776056026032059427495633638625329023190771217941432852156271560619480148869120406066217019267663003648.000000 -479376400832096649271155752535193266175917853711188997752698910472360465037120873816495358949304827904.000000 0.000000
-479376400832096649271155752535193266175917853711188997752698910472360465037120873816495358949304827904.000000 117443368027494389926192430439755541812385934296705901681458218602176795208506345717712749658174914560.000000 0.000000
0.000000 0.000000 0.000000
-13678872935136505706183730842579549343346553854429635991439161270566758112477630119558758971643034337280.000000 3814249619182988182246808802493457855274957046743204171350129614568379114878938770726356559704822382592.000000 0.000000
3814249619182988182246808802493457855274957046743204171350129614568379114878938770726356559704822382592.000000 1536095234388807341867818457736796102968480595351060980445125668478622544472172618356709423146703257600.000000 0.000000
0.000000 0.000000 0.000000
-1258519693273487219552240322067208275976977262181603485102931752471822423635544446255016775992213504.000000 -192215279300064798076300675728729329174424234652801463779475957585712685346814618623541099957846016.000000 0.000000
-192215279300064798076300675728729329174424234652801463779475957585712685346814618623541099957846016.000000 52123676543467842758783765292375469215643796475602963376238819243590273572585553254964982722854912.000000 0.000000
0.000000 0.000000 0.000000
-1598631245364412786121617896848942995383883463876455496999286431309006097432735467338235033808353099776.000000 680845558699003903410704463558967770418468508915857068018062180543432843764525112570087666413985595392.000000 0.000000
680845558699003903410704463558967770418468508915857068018062180543432843764525112570087666413985595392.000000 332090712728909357520447742533490175444734977069668524837460406576509688695360946815109377128275116032.000000 0.000000
0.000000 0.000000 0.000000
7017727186153503095324042020938806147368047200944822007015600511799289896114843696992347711376598237184.000000 -4664396332491131111992864710177567911320835229567147945944381918872917702867025311402770634891235164160.000000 0.000000
-4664396332491131111992864710177567911320835229567147945944381918872917702867025311402770634891235164160.000000 1615093223295874952863451789196031460662878181383982038851785000455772778075201704573974864204612501504.000000 0.000000
0.000000 0.000000 0.000000
2595037296497662565847588757727019829166892405886122407188287613656281914607029932825758884588637126656.000000 -1470924125581874020067312213942875542085098185436051954917286269550985954139623440572160834181810618368.000000 0.000000
-1470924125581874020067312213942875542085098185436051954917286269550985954139623440572160834181810618368.000000 460287332085920622020021457408751417250418013646271652737166379434843210875184779805858767264775405568.000000 0.000000
0.000000 0.000000 0.000000
-443404813169884208748479313239675443466897926306044075154067705356396101604363161993692671884801343488.000000 447218232285745062806967680539405021794967850697475899775359508641173666026385174390269041727072370688.000000 0.000000
447218232285745062806967680539405021794967850697475899775359508641173666026385174390269041727072370688.000000 258826550006692878946775028966582608758250299699441977946429176573290693328600367231159713942181249024.000000 0.000000
0.000000 0.000000 0.000000
1587285756198185112669595200211979609123555148997167705031007618052223455418987013804739434547741982720.000000 1359784915798115621034840601167288810262812824574569281761837042029368139305919385166556872881913987072.000000 0.000000
1359784915798115621034840601167288810262812824574569281761837042029368139305919385166556872881913987072.000000 537426598469440146469287199312845339299467320071913576644916877444745862924415038395479260912796303360.000000 0.000000
0.000000 0.000000 0.000000
-4867893238507203512894113491954107066242378165652790471236930950203616623930137172427123852453638832128.000000 -10755396224754735149165568822697944881178305854771387093879420801701168458109742414458285838880686997504.000000 0.000000
-10755396224754735149165568822697944881178305854771387093879420801701168458109742414458285838880686997504.000000 6384355757533673362811468372813989279789628938606588997255267733578048577850913940319119719658774593536.000000 0.000000
0.000000 0.000000 0.000000
1826337078181520061696515825308162531012071409036655176035355304737472549264821497459061316455652917248.000000 -1180702701296213393770852058600896395708346631863136147451235797746882175138058091488316972509838704640.000000 0.000000
-1180702701296213393770852058600896395708346631863136147451235797746882175138058091488316972509838704640.000000 411488884216165629515622199576665696725730864682919712024721414458120037075979078793993095887653437440.000000 0.000000
0.000000 0.000000 0.000000
-12182528091959104669071238434420206868127105013994471677558228800065577066306688820027914805578884448256.000000 4875149666340064644568153442802596163369796059775274587330304025920843703948302358109091018369677656064.000000 0.000000
4875149666340064644568153442802596163369796059775274587330304025920843703948302358109091018369677656064.000000 2269615140390276970488761367227191522403875772824785644329038624895291721031937787095660741457573052416.000000 0.000000
0.000000 0.000000 0.000000
-343699789044065123050558281656492315065165650516795486861768434833017141573923639404977730540789563392.000000 -995888065094207222147983979469945559982332365341571444222588632546817021167366846623136847610175815680.000000 0.000000
-995888065094207222147983979469945559982332365341571444222588632546817021167366846623136847610175815680.000000 549591136508687233836225845361505955079238359118348976875906023101707388367301977786720223081055387648.000000 0.000000
0.000000 0.000000 0.000000
769591577231153709915231270065333201723984498613765952574433925446523062054851185626479553517558169600.000000 -40644325920645462080496858545177829131565475180085439295697488109283046652390137753522601814516563968.000000 0.000000
-40644325920645462080496858545177829131565475180085439295697488109283046652390137753522601814516563968.000000 1434686386303822133450548039315880129567868429563176052872568600052821584540757468088661862745374720.000000 0.000000
0.000000 0.000000 0.000000
530289307188910742510921645520096667638762786980447505053371534763510545570084508113169117162082664448.000000 191861275251470336665580647906000685979860547418009834397889950325888094250471092817130107244604555264.000000 0.000000
191861275251470336665580647906000685979860547418009834397889950325888094250471092817130107244604555264.000000 265461256476173173188300926148640544303914043750735383310788981262172669490505582184741175220519305216.000000 0.000000
0.000000 0.000000 0.000000
5332637661888600474340268112346480612246673105847485435600414561200641625108092400353916330870369681408.000000 -11974978091504780831524440318894706921456306155881077021351396387133478699687211518916159184431065595904.000000 0.000000
-11974978091504780831524440318894706921456306155881077021351396387133478699687211518916159184431065595904.000000 6079184064517136851233095822361344498574408893355384182162986701918456941247042205793744840571576385536.000000 0.000000
0.000000 0.000000 0.000000
-2759771142945644549962518243498509232671749957690091094581044577689774895450991467087394851432549056512.000000 -751455771059712709207661966899871111090547387266996023426944622327609544520481258700425106530737586176.000000 0.000000
-751455771059712709207661966899871111090547387266996023426944622327609544520481258700425106530737586176.000000 287134379858139935194515378248172669984964633310218857156370017879565791605796235276052711195296137216.000000 0.000000
0.000000 0.000000 0.000000
50134526065004051381461301180910966368772126923518765566785223791293510568033178523729045006982316032.000000 -30974243217693590034092980826303220568453402887482111336364123300093195928842503812241428234975051776.000000 0.000000
-30974243217693590034092980826303220568453402887482111336364123300093195928842503812241428234975051776.000000 10259478899976247976227296083223677474165762079798494930336717052251149612872561258846858596721885184.000000 0.000000
0.000000 0.000000 0.000000
2395983708297795865053085049734563472968606589622945439698359579964302975285280280017104648468435042304.000000 -64593859863932476278210434739330390852449145294021842308039958065099940392797396197380868119138926592.000000 0.000000
-64593859863932476278210434739330390852449145294021842308039958065099940392797396197380868119138926592.000000 1793343354732976490033911862958437559710297826372696020695954070255850767876488652659218264287608832.000000 0.000000
0.000000 0.000000 0.000000
1031503779099115676199965712177913554728180894774402724375130654186776635143648473378550843920779051008.000000 -279666494830251503376601568294353959182600751256345369499608930524257773087191839253674264354871050240.000000 0.000000
-279666494830251503376601568294353959182600751256345369499608930524257773087191839253674264354871050240.000000 78782825472317504445555675474399656885357684529468930283656647983606328514368023071396824493863206912.000000 0.000000
0.000000 0.000000 0.000000
55948014664247628967064665644376170594542134617890792906983134565254818565503079149571578630961862017024.000000 -193600012277296737923327573148738089536257670544737273725731279373716831768705606872627162921555722240.000000 0.000000
-193600012277296737923327573148738089536257670544737273725731279373716831768705606872627162921555722240.000000 63785671913178353172127859738479738403640688739560408196788288862839626146260192383093647910467796992.000000 0.000000
0.000000 0.000000 0.000000
7835899522530466093601295708090565814946984098909585702304046749642573486877007298051483578420145684480.000000 5868063648311184257662979922920550462094865327585087608642182833979124678349968590331573160228530683904.000000 0.000000
5868063648311184257662979922920550462094865327585087608642182833979124678349968590331573160228530683904.000000 2170411896527795809406375214435168168555681119443206601501209744968991442006647802339975712726172303360.000000 0.000000
0.000000 0.000000 0.000000
-433380220583739998775052406002376096285415251039930606812693679783382020596364191240254978348561148674048.000000 -75659718432009873705478747956932153452104944731396005989198901838977888531191101115557249445539094724608.000000 0.000000
-75659718432009873705478747956932153452104944731396005989198901838977888531191101115557249445539094724608.000000 22692454458485236146403745098345576430771437054532397333614631694554621317045222361479253031818696327168.000000 0.000000
0.000000 0.000000 0.000000
2760376397538726838905046296598461199890401374023517333882260560619308128377607714039060128752650420224.000000 694590120423309761904302188711717346130203062808103132435585058583061847881989507525832199686567493632.000000 0.000000
694590120423309761904302188711717346130203062808103132435585058583061847881989507525832199686567493632.000000 130804785708210321036116697723142135503005609972008027323901872266480562205714458976292472189846814720.000000 0.000000
0.000000 0.000000 0.000000
-6296531876466019620442207039815001775220018855005862105117567779754675434256145597377392710779802746880.000000 -5688232503701692234757759350051958534119135216645530735398364157061315029489872849769741413008776626176.000000 0.000000
-5688232503701692234757759350051958534119135216645530735398364157061315029489872849769741413008776626176.000000 3211695957332487528911923662558809047581192210069141894534913737158141124321612472509263226575148548096.000000 0.000000
0.000000 0.000000 0.000000
-17673460599845198871398785790565276741588317315083466103916459256779800291351261268586604425317797855232.000000 -10780422307416136863035103185845215018570333275787419398338867633185038560286565773487887200656155475968.000000 0.000000
-10780422307416136863035103185845215018570333275787419398338867633185038560286565773487887200656155475968.000000 5771954089838199762933303436214290275835237011914755458287207167273416109083698874409089081581963837440.000000 0.000000
0.000000 0.000000 0.000000
3517127361775642410576096428501304330476738548700652903381016637093438915271513924804469518122973396992.000000 -46130916503617280279844513675843599614806322702233230394167994252319094120877700100813770473244459008.000000 0.000000
-46130916503617280279844513675843599614806322702233230394167994252319094120877700100813770473244459008.000000 604931339436633137132470328706231027967699644181624125747850815684050019489960059833320684421906432.000000 0.000000
0.000000 0.000000 0.000000
-13783159268519803355427366552638538893571713486706056148547231075803058836654327293027121883643660730368.000000 -6645124786074352435083613559984501542785988984363711744567863614801554409852972194070610861197723959296.000000 0.000000
-6645124786074352435083613559984501542785988984363711744567863614801554409852972194070610861197723959296.000000 3364430254773580183000525151690405885340725432893762374414195387508146036903248032074888447616803143680.000000 0.000000
0.000000 0.000000 0.000000
630953349562272879004447270407776194923368769561036329546656908208773255483446618462442024206545715200.000000 388768265341856380223062301480690499643232805101960388977372293594386117418388210328274259031493705728.000000 0.000000
388768265341856380223062301480690499643232805101960388977372293594386117418388210328274259031493705728.000000 478307439495824917240174413940105679781402101552418161059271108455488297917958550665613005796262543360.000000 0.000000
0.000000 0.000000 0.000000
3543022720016551358180234983308624627808978680088663237879646526791055518388285690901686857159120257024.000000 134985806720879924266605979647230882862787968295242690648975806407254488341726716633598360201400942592.000000 0.000000
134985806720879924266605979647230882862787968295242690648975806407254488341726716633598360201400942592.000000 4549907490505367849627462978393505622770671131707043529789009809554700808931758460412238409743990784.000000 0.000000
0.000000 0.000000 0.000000
-1774870360479543205232485906686895555289428315186751820764832626274157495550529955500451992598736797696.000000 -1547086247561996504996441262971139752078775003475553870482202400150661728298961450282330613254451101696.000000 0.000000
-1547086247561996504996441262971139752078775003475553870482202400150661728298961450282330613254451101696.000000 1065532460744307681635906443820030389169202318671075545736981407503883548166727120425100220266247618560.000000 0.000000
0.000000 0.000000 0.000000
-65260675922198378430053680357262429990875593088085362319284195716651526338634852399335136146250268672.000000 -30042641548030889835322785984642030136024335444577223213359384039342195596361511114398160550147129344.000000 0.000000
-30042641548030889835322785984642030136024335444577223213359384039342195596361511114398160550147129344.000000 15022817569599409671704315039368660121618007648201576888201506908497824151608625622983135982291779584.000000 0.000000
0.000000 0.000000 0.000000
-1695281056220866971890712629522518071853154253406327213072704546376414671500389950423545345852047360.000000 119334835677997778314187806286408148396345196104280205694363882537758229530290779020238182644973568.000000 0.000000
119334835677997778314187806286408148396345196104280205694363882537758229530290779020238182644973568.000000 16534380952226789467169183692788056295043540500882555078216991737962594811066366359732740151050240.000000 0.000000
0.000000 0.000000 0.000000
284968246424406427349254223915083974773318694174106690892088990064871813907341197114090110984262778880.000000 111223228601777648348246317213223559153060112106362321182389030728609891324456885855028269535574622208.000000 0.000000
111223228601777648348246317213223559153060112106362321182389030728609891324456885855028269535574622208.000000 26352024374329102924255103835470328009490307709520476361676771388192957825348275110594483947596414976.000000 0.000000
0.000000 0.000000 0.000000
26734753485600023318053458381934526864179002870973555834990080241302154787420549146371389001432039424.000000 -43268829595631734562264419151983771976865094610742590278858999431891888359949848734625619201805516800.000000 0.000000
-43268829595631734562264419151983771976865094610742590278858999431891888359949848734625619201805516800.000000 20876291994627996699621069697465330995858837547795700350180507835192790531651907765712295973145804800.000000 0.000000
0.000000 0.000000 0.000000
897589044942621631806697496066218793858996914764287499054077401191219020908203011468265211348090093568.000000 -956820096131086630870553492317730063268429873950281989513585669870971563072712544613908723637053030400.000000 0.000000
-956820096131086630870553492317730063268429873950281989513585669870971563072712544613908723637053030400.000000 418551113071735593430226574771488358241577601331409571726705194102443631061023376586271920449826848768.000000 0.000000
0.000000 0.000000 0.000000
6127415761596646892824564699490673063703039752801603702583708169520702513823731015787583548124953575424.000000 -7580600995482077587154015102743588146348568345372435878546947775913335757452731257189914681864794144768.000000 0.000000
-7580600995482077587154015102743588146348568345372435878546947775913335757452731257189914681864794144768.000000 3430747596143963154827548665099008380478231473699147508110445276033461544414462540734622352523894194176.000000 0.000000
0.000000 0.000000 0.000000
6015721283572224752787359816509642025779473452383362196083872641676014591069654168366283254789683806208.000000 6154624213038572745925962460204889592844994950960961583685374703158161844610604635261571693585367040000.000000 0.000000
6154624213038572745925962460204889592844994950960961583685374703158161844610604635261571693585367040000.000000 2617674483369228086067510652473261204589672408956546712751341412078944481219762058080138871313497325568.000000 0.000000
0.000000 0.000000 0.000000
1828502594463093185784496387034950393335916474568996190788509505908327476819432914980252143715017031680.000000 2073346156695252662156154555644050914933975696612568646798593288799264528943756154033861066388454506496.000000 0.000000
2073346156695252662156154555644050914933975696612568646798593288799264528943756154033861066388454506496.000000 1206224454983759093462607206627084187206494967570253660054910664112271714369255607579151342377937928192.000000 0.000000
0.000000 0.000000 0.000000
451252684744962928893910690954180324237012706452710855421657380090081478946391895417458346159375384576.000000 1432356743065951611086251332891518515947855828365026434647010474055810938471607057015925308890411958272.000000 0.000000
1432356743065951611086251332891518515947855828365026434647010474055810938471607057015925308890411958272.000000 870898384677365335875311117249876109489845621859747218889482376296478996629445181413815316462109196288.000000 0.000000
0.000000 0.000000 0.000000
1097666462954829980993116131672145631036169087065781275409649374504499873452302207714357417421578436608.000000 796161804180214861142756561087568111198639586001612998578522556587314496083517506621221667744165920768.000000 0.000000
796161804180214861142756561087568111198639586001612998578522556587314496083517506621221667744165920768.000000 403294137399643689771852853252358550038886211800245445379788945019239866242962438907852997780299579392.000000 0.000000
0.000000 0.000000 0.000000
994876736514274913404492371935593008932901294790296685949847847389052865608947906713986218297898565632.000000 -144461300249554094679066805760930170760009732550310491421479247243496950508092238338641664249780240384.000000 0.000000
-144461300249554094679066805760930170760009732550310491421479247243496950508092238338641664249780240384.000000 13789479297132861066251089670623733006858276403222511882893144369703994270287248167378637064557821952.000000 0.000000
0.000000 0.000000 0.000000
62803285811699861311834020766459633095377966601057906399708394122778798443498511723581080654095319040.000000 -8516953985555084042460708275634370152592411316019195405295149626095931330564363551324369646287585280.000000 0.000000
-8516953985555084042460708275634370152592411316019195405295149626095931330564363551324369646287585280.000000 760450831109136940481953994518279458763727626527877588149514210029849128349425788288213855217123328.000000 0.000000
0.000000 0.000000 0.000000
-526658188411286069022907504992718753341943443739232227401920102589887625586439863061358312015603433472.000000 -2802533475846734164483236004349480658510565932400311922645893424984243624792524739199826888105903783936.000000 0.000000
-2802533475846734164483236004349480658510565932400311922645893424984243624792524739199826888105903783936.000000 1591618107026244904295356219380693727177072586419491168527006384492425747367670484182252443537766350848.000000 0.000000
0.000000 0.000000 0.000000
12111229952822586639709835406310639420168727276962832986963356087424834531055403452177789213826265120768.000000 23044952176850806788342397709287775189691976440503002461246516683832249248239869737821542222553535217664.000000 0.000000
23044952176850806788342397709287775189691976440503002461246516683832249248239869737821542222553535217664.000000 11434663964458950669047447436371046740541942733845075029519771870973282214700961219878993623543573381120.000000 0.000000
0.000000 0.000000 0.000000
-337738885613065772493111102834399666818961603685434962055587403811554394160511397509646723058887557120.000000 -1111375728628629203682727944112864050561337518513617136932387613858490452159381540987064367190198190080.000000 0.000000
-1111375728628629203682727944112864050561337518513617136932387613858490452159381540987064367190198190080.000000 722055450871035399016008166585512042293968295136242038140727133119146281905263248678421643253908504576.000000 0.000000
0.000000 0.000000 0.000000
-4429224477263016532268663930643881829939888411319243498103881979212095859698687755396265054093216579584.000000 6056315488787235839873715044172931375464497488443095335797502901987383826602435501822383292971225186304.000000 0.000000
6056315488787235839873715044172931375464497488443095335797502901987383826602435501822383292971225186304.000000 3485749354858437322582823674691214140153605364593427658660201642758357486263808210214323734583502176256.000000 0.000000
0.000000 0.000000 0.000000
484453676720131371374588274491878065550177209510958888271772129959419955025746895788239104363536056320.000000 -924633217560102070284969672989290079176643375703988145775599250429022914969037411548483787153479827456.000000 0.000000
-924633217560102070284969672989290079176643375703988145775599250429022914969037411548483787153479827456.000000 499821652726127418680962236226495788470319056435217535646802210094600399783901310437293757263272476672.000000 0.000000
0.000000 0.000000 0.000000
17337282959078078622530160766603655420577724776733731797068014321866446268090241084050619838234624.000000 -5986418437416461202136906698915005560985785958404883053521542630889427068641100702017516386385920.000000 0.000000
-5986418437416461202136906698915005560985785958404883053521542630889427068641100702017516386385920.000000 1276913298553541429098156353176469127019267080329824948319114288894204148622328679998709292859392.000000 0.000000
0.000000 0.000000 0.000000
500056534128557092151358427275924664339660044272507103424507369202985640133296594869380897669432475648.000000 -411218259151974974252224511510412618394585379636290353702353954239302629831770300007086625534406295552.000000 0.000000
-411218259151974974252224511510412618394585379636290353702353954239302629831770300007086625534406295552.000000 159429450823434641249939905646533692902676897195982702639618812035113426289298807848483772321117503488.000000 0.000000
0.000000 0.000000 0.000000
2890004280192542215640774496844407795144062161711661821270543169028112741684118688953857770253465944064.000000 1517420636799825289141968236031271993805391735636453634448087974850488355648548002821560766794886545408.000000 0.000000
1517420636799825289141968236031271993805391735636453634448087974850488355648548002821560766794886545408.000000 450040495531965444079552632624197135299617305832945475500692867045880990247512267511891079872829718528.000000 0.000000
0.000000 0.000000 0.000000
1635116196706763459858759704531632344160689665114859354559263383827516340867807033031757397398464233472.000000 904512324784569436934128378893811049279482042953638405830364257733079368563902976523034015860850163712.000000 0.000000
904512324784569436934128378893811049279482042953638405830364257733079368563902976523034015860850163712.000000 316843998179081836069852699190915294838232108492199098840765444211999536479006564901750279872031227904.000000 0.000000
0.000000 0.000000 0.000000
5341646651322118882408321127746412996386353592067955001425945044902049889854580410166864672754398920704.000000 -732977807479332651278782375639810194625495078811028937113374234377662647001354495905554362778314080256.000000 0.000000
-732977807479332651278782375639810194625495078811028937113374234377662647001354495905554362778314080256.000000 77223758448758049995388599883959595159745624339420312660348648805610911223971871913013804308608581632.000000 0.000000
0.000000 0.000000 0.000000
1279529637093550730982289038069207678206505882833548204668019260777962853566429484467388809996543197184.000000 2347114187501264216759634501538032783084075717449852587152092608132409867755306123140881254665880076288.000000 0.000000
2347114187501264216759634501538032783084075717449852587152092608132409867755306123140881254665880076288.000000 1149759839717065775618582720086059229744542400725229718774036901166806829566457502660179974691634544640.000000 0.000000
0.000000 0.000000 0.000000
2699564971412947851720243603390812486200877389216986451070521317393730055363916910638534264101665767424.000000 -827270437349810699164735519707164646509788365242035323633548932868231818637922719520345761420526223360.000000 0.000000
-827270437349810699164735519707164646509788365242035323633548932868231818637922719520345761420526223360.000000 163525763303638146808337120374878305462199931767874525927867527100264010312559452776686143340967624704.000000 0.000000
0.000000 0.000000 0.000000
3205876982311867389247387785305643312118211061556311211079113562712351113727563506626444663850310565888.000000 565605981401706393698325859129953240125180164672828067341392735470332522533760958279231203080149139456.000000 0.000000
565605981401706393698325859129953240125180164672828067341392735470332522533760958279231203080149139456.000000 181112957065654613824198087490691564697286530862507766777121532038119596897871790271728681446086279168.000000 0.000000
0.000000 0.000000 0.000000
-27710243962741034327989503288142154578210733138455368236644524918738524981981085479032316265469313024.000000 58992389463266544094039398980652803051908826255510690320176278772392364671652547573667282175863554048.000000 0.000000
58992389463266544094039398980652803051908826255510690320176278772392364671652547573667282175863554048.000000 62997494987039079549723137001878473324010272923312794896014109688133771585389649814597986629359501312.000000 0.000000
0.000000 0.000000 0.000000
-17384827388627379625663533777619972940402947908729448213919055741553299471083484642329343398544800743424.000000 -8222880565528317042191320795265796331863338817080476470711474310545898479831405847073260101583669035008.000000 0.000000
-8222880565528317042191320795265796331863338817080476470711474310545898479831405847073260101583669035008.000000 4141139623471294153240484016674895731468799744324936537997874602453265215384132949168483416020074102784.000000 0.000000
0.000000 0.000000 0.000000
1610168367292117372566748630482972390608453074236790902642590518475426294101569851391510484885230845952.000000 1268925880860173026960281045974519614420792472237491035966446767377726313224055867384531353524452196352.000000 0.000000
1268925880860173026960281045974519614420792472237491035966446767377726313224055867384531353524452196352.000000 521449534029567461867609387265252153989505426778977138527002083679414499412351412506086071870391582720.000000 0.000000
0.000000 0.000000 0.000000
1573621859694863925386810635877436854697909330567916691344547709847213565563276487507834231237279481856.000000 -1335047675586610627180547282394338105826880661952604677467171992247258872406677689599292879826214453248.000000 0.000000
-1335047675586610627180547282394338105826880661952604677467171992247258872406677689599292879826214453248.000000 791934140960424841352657261266535046184222966572040746944302143539611355241298195881157686648186601472.000000 0.000000
0.000000 0.000000 0.000000
1593224385925121187469413100403377120309324119459726640385645769520982213637438972742364161126845906944.000000 1786850812231291601675304855321013353293462738904171395857187218417891597711679911345823055013526634496.000000 0.000000
1786850812231291601675304855321013353293462738904171395857187218417891597711679911345823055013526634496.000000 784705313524926615649183623188647542947891037732786387343929795626081712845037364040096718434034778112.000000 0.000000
0.000000 0.000000 0.000000
1436791617315326601537277586699384670228794583112953402001615687059440771711460236910103810344619081728.000000 650509877733672004127938166980886824731438935815403066194500782432454757733552662164016986391144562688.000000 0.000000
650509877733672004127938166980886824731438935815403066194500782432454757733552662164016986391144562688.000000 174625320223195097953137229488873723550347940229114606833794333663957543754443658041091634240977633280.000000 0.000000
0.000000 0.000000 0.000000
3606296644257292812018333997249559006565951229847689494443666795555582719165333317761424130825204531200.000000 -4120203032468947834475743309634621085553342136244677507959939648578856716870504890235493510987907072000.000000 0.000000
-4120203032468947834475743309634621085553342136244677507959939648578856716870504890235493510987907072000.000000 1783107669293205276389853445029041613158035104890017306165818353747731099586264002535964871153003003904.000000 0.000000
0.000000 0.000000 0.000000
-1005876308865875079386101061473945901191918241987637709630577098563745942450396812945402722270177409368064.000000 35525940081050495650510477004483867420970830025368450353178455646158136037638591724819063521233787158528.000000 0.000000
35525940081050495650510477004483867420970830025368450353178455646158136037638591724819063521233787158528.000000 2515950621279627322034700881099867764396815286434321005579401448152667496544492730008180262309373935616.000000 0.000000
0.000000 0.000000 0.000000
3046198424775317871012132874998625340787917179617940905458754249629432465527884321509312069507227844608.000000 3703371632770064012827917884949108730087495274102504189441229213794010116885862536385754012277918400512.000000 0.000000
3703371632770064012827917884949108730087495274102504189441229213794010116885862536385754012277918400512.000000 1666488463645313977131114165262821266533149753998591593468661360683540871199825417464947718709036711936.000000 0.000000
0.000000 0.000000 0.000000
55507612100154994955664564345112933809138519792700606370721796237732104751761423070177879314057396224.000000 727250268363044515650542950867281341112811777426391463230697350519764695176311433616323269878251257856.000000 0.000000
727250268363044515650542950867281341112811777426391463230697350519764695176311433616323269878251257856.000000 489873956713854249220477620403961135237759946263143343940824618931885360590152798907895888738791718912.000000 0.000000
0.000000 0.000000 0.000000
-272496032254017791198915528264586144887791434715606250697855052026597038736943615386253903198901239808.000000 -182870110515289222928512740766657985129753376075469810244378650302038251564814678486670918794686234624.000000 0.000000
-182870110515289222928512740766657985129753376075469810244378650302038251564814678486670918794686234624.000000 99591100111761917222219151162936765071588970624701327463940550463066833432635110934711098775156293632.000000 0.000000
0.000000 0.000000 0.000000
547833810141739345680863175046740861226005276056014944850512537441016631473991280107896924406556917760.000000 -122340128198760385379761015272718032446863968449166063329898872074545925394184646337435957824285835264.000000 0.000000
-122340128198760385379761015272718032446863968449166063329898872074545925394184646337435957824285835264.000000 17645473798499956517541126705364358384538887764723085878768316695951003475528042733492136662553067520.000000 0.000000
0.000000 0.000000 0.000000
1467829211088279335483817345004121916262865093349044890681222911369331603329988554137072880051841662976.000000 1066737193546128920320083717040617386364799979446185962066546020825818008052631568530435948786388828160.000000 0.000000
1066737193546128920320083717040617386364799979446185962066546020825818008052631568530435948786388828160.000000 389442489795603056598192821085411650027544533786648709340647478343769583280304181654405078110848417792.000000 0.000000
0.000000 0.000000 0.000000
2302204668431717665956443577627289379675934964945358522231220365190227970242391780716160278338874638336.000000 -2795374592052308560173088186881253652522003857928378060775037204826130161110389726447235127133303996416.000000 0.000000
-2795374592052308560173088186881253652522003857928378060775037204826130161110389726447235127133303996416.000000 1310481821822831676665967846297072310437279029770701607962496868564549179095738719918390437577637232640.000000 0.000000
0.000000 0.000000 0.000000
-1306135602449904147549810507192245377924948862996760567410374034743499626567235522486091748409062981632.000000 -64188644726200213872340798779755460535160950226091150507854135030395315649075367180481698187641356288.000000 0.000000
-64188644726200213872340798779755460535160950226091150507854135030395315649075367180481698187641356288.000000 12344194392334985890967666145198158381668480316078813551507257075658566589598902536328219226447806464.000000 0.000000
0.000000 0.000000 0.000000
27081501371707776383154333298850054353282769131751256573750496330940263105594887112534645732089528320.000000 -20512889811752871362290992973946781482816205645651008268398524533693433987294679831068738926663434240.000000 0.000000
-20512889811752871362290992973946781482816205645651008268398524533693433987294679831068738926663434240.000000 7577148130530292656409039965058932391891300576172125380239211923245154450675970126464852119762501632.000000 0.000000
0.000000 0.000000 0.000000
1006917603648140742211227050766920262326905219956894004157561316423878869462501689630227994146454372352.000000 12642813310293375673421853334944551552470903199126408484863569935751365401940316594778453893036638208.000000 0.000000
12642813310293375673421853334944551552470903199126408484863569935751365401940316594778453893036638208.000000 28053446179404431318657370110973649795218406217681170718827825045268838159154876446062212086461628416.000000 0.000000
0.000000 0.000000 0.000000
-147463685211170218378655035113231699741486052698315552514537098470917099203933468268321229019765616410624.000000 34165018794171568471900958558383607684832695372402855774716762876843485823545410520252847997550543765504.000000 0.000000
34165018794171568471900958558383607684832695372402855774716762876843485823545410520252847997550543765504.000000 12401911276489875206796675692701338890894480853844729533209475324580237315033015174605854001036475236352.000000 0.000000
0.000000 0.000000 0.000000
113800716879517653045812706016920207187968403922424929385862632083857045925739332013559960804316413952.000000 -46667957283295451916301891823146411956704585359987810189104177191351913611483760489190518013063856128.000000 0.000000
-46667957283295451916301891823146411956704585359987810189104177191351913611483760489190518013063856128.000000 11482224699773113465197763478789217029985895494220352296791527605528695272422314313601590449731010560.000000 0.000000
0.000000 0.000000 0.000000
-2769535525186067283918592833775234245776913809917543304674649523295486551271402537541620271390549606400.000000 -1830182958533425559684642523487110588164485619989926193652364347518506622320061420648094721905325506560.000000 0.000000
-1830182958533425559684642523487110588164485619989926193652364347518506622320061420648094721905325506560.000000 1017279620473688917049801172101333797431097800664451698765447469949129982758693072941236508197381996544.000000 0.000000
0.000000 0.000000 0.000000
323137952920020425921107102086821538720816914604617066712255453981222580938794772169947502284348850176.000000 -2229301438779571400226327351693149215591619161244410182814999833114081479953138948025217595327035473920.000000 0.000000
-2229301438779571400226327351693149215591619161244410182814999833114081479953138948025217595327035473920.000000 1209803134778890701531172872648305341139753409188416482735857654070678566516409273948052915673735626752.000000 0.000000
0.000000 0.000000 0.000000
590222768630849894924162692203829960180106012463148120406294639895039521724568743949640452929260355584.000000 -1393786561122723008681063521950946706644509208576136737864606719011270994663569681898632743933978869760.000000 0.000000
-1393786561122723008681063521950946706644509208576136737864606719011270994663569681898632743933978869760.000000 711588648233258589544150621338809205116232034610464065638916440401940556052074960566342196805161189376.000000 0.000000
0.000000 0.000000 0.000000
-429499019228608646983064044760762494141136866757289079157306800543841352371518411541472495870476602572800.000000 -9827956422457280671344141832481595557553646532151831481147697258221297328295954987132071997357315588096.000000 0.000000
-9827956422457280671344141832481595557553646532151831481147697258221297328295954987132071997357315588096.000000 448251941193671531143202272455407660801718187130497449681706820795096791240030580605010578345136488448.000000 0.000000
0.000000 0.000000 0.000000
56755810490257467893312655959817485781504803993092276103919504189597702614336052302051884210218598400.000000 184763818941346163482360705148211979125871434994901152841830578641359535534170183402809241616326328320.000000 0.000000
184763818941346163482360705148211979125871434994901152841830578641359535534170183402809241616326328320.000000 96968370696215167369418145747073212164029842228794337862297017237088059492386697459418399429005148160.000000 0.000000
0.000000 0.000000 0.000000
57515352771679315812680409723065485054871768849801157369104647794558416246977728392516846871863017603072.000000 23002715204875948061666937560706918348243620973156371714778450078638480393651910343203730427137035862016.000000 0.000000
23002715204875948061666937560706918348243620973156371714778450078638480393651910343203730427137035862016.000000 5546823855082721288618166428883466544949531030669094613470457322371616768491529532114782558649912918016.000000 0.000000
0.000000 0.000000 0.000000
-116521690761426404924327318949542497941081271501909293244321693543986214971339197626561058753447198720.000000 62678021956209911028689529554021772987373773447951786593295859124479115247037560664395125867159748608.000000 0.000000
62678021956209911028689529554021772987373773447951786593295859124479115247037560664395125867159748608.000000 85783665290506744817321585445008039061742188041232367760271524791954278796145653339778412800651558912.000000 0.000000
0.000000 0.000000 0.000000
-10872357302749508649348305788101798142481478226779415999077279724822418130697615475010479219383252025344.000000 2107286641452465652636788109415469887430595469412741795910748687755484107519445450710616115603218366464.000000 0.000000
2107286641452465652636788109415469887430595469412741795910748687755484107519445450710616115603218366464.000000 761195935933532280412387580020668483145349711822632043956647624909294010294920646168191865237914255360.000000 0.000000
0.000000 0.000000 0.000000
449172552908348584189991148923556859368732815065388355922535637855918568750706008935663965767364247552.000000 263382548664774413792720699332621950921648276016376951820627333452455655490831482276048512587346739200.000000 0.000000
263382548664774413792720699332621950921648276016376951820627333452455655490831482276048512587346739200.000000 120665252177351850616949002568584810929726628578105590859119851247653691797907956804339935556730355712.000000 0.000000
0.000000 0.000000 0.000000
4001579413421744111018457275822551654636796462889857856148311340130593614595453960865906262322838503424.000000 -624468071941425454905568670676790131279653558661214126548606494382623554211369316455695747412622573568.000000 0.000000
-624468071941425454905568670676790131279653558661214126548606494382623554211369316455695747412622573568.000000 104372896946394230220850233123259668195255663015562029026620250893126193445356429232911525860509483008.000000 0.000000
0.000000 0.000000 0.000000
-5550044801604768831248175199817577125369988599501698520488786287407285636273440373277705047423334744064.000000 -3411791357188983029788307032097292419565594680829730954658382715629790986609141442748161857751437279232.000000 0.000000
-3411791357188983029788307032097292419565594680829730954658382715629790986609141442748161857751437279232.000000 2712696067257570894249911587058570549922021455232546230157266792320199375695915811410541989772570656768.000000 0.000000
0.000000 0.000000 0.000000
117204549735631252444501693159178444359247207553663932509406608954813505289844348187239657587037159030784.000000 -323901091413672693642521367456732927707107484779130888445964072149609678408972166363827296658503438958592.000000 0.000000
-323901091413672693642521367456732927707107484779130888445964072149609678408972166363827296658503438958592.000000 167990910872988050280351757170223063308689419205760578402885691883941225920862978384988774317877373173760.000000 0.000000
0.000000 0.000000 0.000000
6336565517535106899823254088057202547000823606518102663629553551975263044172820973781686103839657164800.000000 6255157550823113135781871601820306556207565347181858453012592306316551667980549390000178051827927875584.000000 0.000000
6255157550823113135781871601820306556207565347181858453012592306316551667980549390000178051827927875584.000000 2624451930296819788013739250637886856809273621524324926353026887922815906621188861354924968379953446912.000000 0.000000
0.000000 0.000000 0.000000
-448780957366892393230923042080193322003426888040593386952159631656314654509788345202919176589586473156608.000000 -41437102621887866193052723007943799881583525031659376367028030152436561702140244232184306626563349151744.000000 0.000000
-41437102621887866193052723007943799881583525031659376367028030152436561702140244232184306626563349151744.000000 7329118716490614558175262006941245275181527294106099739270515514732029132839892856707543287335372193792.000000 0.000000
0.000000 0.000000 0.000000
4023972018820453812199214563853433023129257546492098511264142850688336715381591853896978813059346726912.000000 -4639297543159359686369198211103674750130082560721348779824128691689625956396511688411814849715361546240.000000 0.000000
-4639297543159359686369198211103674750130082560721348779824128691689625956396511688411814849715361546240.000000 2058675616519478686380432841253785114745082588412736304193153384357885029600142604413403041755666841600.000000 0.000000
0.000000 0.000000 0.000000
2664405099843688700426941746795485791589505826685837100238817480973160786826903866874745703403683315712.000000 -3339669409087227146226134506304398162628087411401499113188291123357074983687030851915240449597035773952.000000 0.000000
-3339669409087227146226134506304398162628087411401499113188291123357074983687030851915240449597035773952.000000 1476457726215666489306251910737856069506326541402397602274562869201247009753254505887902168345026232320.000000 0.000000
0.000000 0.000000 0.000000
-114589304629806782729675782165406218486409425669111613593816106800537050191152589109773666542747157266432.000000 -29742755398935740786360073956330922117342373902016981596780579989334700683939138332673644840375669489664.000000 0.000000
-29742755398935740786360073956330922117342373902016981596780579989334700683939138332673644840375669489664.000000 11712571403542849656766532865892383639470499006269335873926293663524186927661052749551190456428696436736.000000 0.000000
0.000000 0.000000 0.000000
-3445127226743559874958042570859455842306335668940827199117561048454011914423511120211773941898863968256.000000 -2543414045292625328606552217912651284703670216082633116591259064264717835760549960161047448346748256256.000000 0.000000
-2543414045292625328606552217912651284703670216082633116591259064264717835760549960161047448346748256256.000000 1396930996134385887132705295227337253291009636205816392146240434106734681630138661609666590241544208384.000000 0.000000
0.000000 0.000000 0.000000
24446735503595579264576742337968003848214258567331828744580224098588647786521111544108672104523628544.000000 -24509689833625641129907700094584363874478678920994287534097427103190272009375770814356043989050720256.000000 0.000000
-24509689833625641129907700094584363874478678920994287534097427103190272009375770814356043989050720256.000000 10345308131436278842849440062308640691543882046057605721097557436112195965650387728739954267456012288.000000 0.000000
0.000000 0.000000 0.000000
7021944343576859527514416266001720610708551555950728657852976439434852701743082475421877094914476474368.000000 -4791535695927639567785477678427396789029990204826290284108499782686048193477674771112502547186368643072.000000 0.000000
-4791535695927639567785477678427396789029990204826290284108499782686048193477674771112502547186368643072.000000 1749890094351554723767573744199357255299381566405020053009710753215752274769012139570797691753749020672.000000 0.000000
0.000000 0.000000 0.000000
25046116386227629766139096230314775118355308577083211076389297075324958896811967707359095379336515026944.000000 15593014745506378446101522778691223820028925376825415332489483047184664444187393573159006623488576323584.000000 0.000000
15593014745506378446101522778691223820028925376825415332489483047184664444187393573159006623488576323584.000000 5679601790910769903450608508430676363494517830481132597244665983431002652590221423598040889473600847872.000000 0.000000
0.000000 0.000000 0.000000
23461589794028382416778244697206361616109509008433168187450228414353398444635086797590655918212359651328.000000 16155963944347471496279579436670796847983138049044915246925723246340300467699402170155295524625515020288.000000 0.000000
16155963944347471496279579436670796847983138049044915246925723246340300467699402170155295524625515020288.000000 5681005973350338868904671119115191196091412370733286645016901470670412731395990291265389715644395552768.000000 0.000000
0.000000 0.000000 0.000000
2272503200153191732609287177079831868004159104597765093359387755812895055254984483228696204513984380928.000000 4175477304403420616982303520646695519963360666031542556135227884754557552812097330003045214796543688704.000000 0.000000
4175477304403420616982303520646695519963360666031542556135227884754557552812097330003045214796543688704.000000 1943989598024729209408969172977121142143770177055909981562543978283803585663443893646674038154340597760.000000 0.000000
0.000000 0.000000 0.000000
9600895084241517932157486790636024252604905919091920059509981097993863978019788944033487780789562114048.000000 2124693573070051565695895517559353261178227403427116355547073419682491638976130681991286752856034508800.000000 0.000000
2124693573070051565695895517559353261178227403427116355547073419682491638976130681991286752856034508800.000000 314410765528391416226369722689471976965390068231981325095135353969679152979444884899513359900098953216.000000 0.000000
0.000000 0.000000 0.000000
9835720207111331896620817528933942068750888860281988841623177454554028499928723444396881586986497867776.000000 4703683189180663133655210073760277058640537318402447282157855128934845938904834474580943625825388855296.000000 0.000000
4703683189180663133655210073760277058640537318402447282157855128934845938904834474580943625825388855296.000000 1303895990459998004739037341094309053613426618124142472601454764990772457830553055943163177122016526336.000000 0.000000
0.000000 0.000000 0.000000
2954148023617481711380225279126873589029670460463138206574630766837169703108293507080614443522763784192.000000 2071477323720507339277815885190762649294661797259623172271259123951421458376023771340824263397952454656.000000 0.000000
2071477323720507339277815885190762649294661797259623172271259123951421458376023771340824263397952454656.000000 705864393273626656974800995505381471039682749808676102971276014893150499980974498975182721588123402240.000000 0.000000
0.000000 0.000000 0.000000
2472118724872927238597364608741125068786992656330538474323929494833013468683818931341587834646007119872.000000 3841167274850744488865758059977065519415381866900415758116499096536552231726701765188864786696870297600.000000 0.000000
3841167274850744488865758059977065519415381866900415758116499096536552231726701765188864786696870297600.000000 1838121225098343507159736393076387367235949252952216959674039754110401879204223625005216980946101731328.000000 0.000000
0.000000 0.000000 0.000000
610202656951642048083050364970041306155582911714262875987586232421087740558474668647012226630483443712.000000 1095463278610346353689147633731561722694610342485504996715374377664163300525079520302893562134238593024.000000 0.000000
1095463278610346353689147633731561722694610342485504996715374377664163300525079520302893562134238593024.000000 547988054000340250284308387926559516205328278211425041525491090940015194512023192243099878593346404352.000000 0.000000
0.000000 0.000000 0.000000
-5969975974144825856654531552018032083946099001830006232695987784751883867439712265534558004689451876352.000000 3401183383979422303924792597643199940564747600946355041500085201755348991492371252600555438796856885248.000000 0.000000
3401183383979422303924792597643199940564747600946355041500085201755348991492371252600555438796856885248.000000 1795568680112858302827739891832581316426960298471881504362014185862494843966816903914024682175091179520.000000 0.000000
0.000000 0.000000 0.000000
-9929967299182477771363978052501835453363448966869067536314360479003492891370370300857226192652997754880.000000 -4479829635423915561809118841828673501834087022936548146622173415074691818911830545166845506258689064960.000000 0.000000
-4479829635423915561809118841828673501834087022936548146622173415074691818911830545166845506258689064960.000000 2248962823164189971909363432818725158626013585111392424859072388898963523023920883869607949561518620672.000000 0.000000
0.000000 0.000000 0.000000
1596880525938233511047751313489821467250837472986112525429253453705583193606261421364482081716281802752.000000 1471866930135232403136559930903973210277522157719483346390800386638934056132503803968402797412340465664.000000 0.000000
1471866930135232403136559930903973210277522157719483346390800386638934056132503803968402797412340465664.000000 1971666624036369471110268299519278657207341204111257067117854813472509778468078403055622783597646184448.000000 0.000000
0.000000 0.000000 0.000000
-3664101709430151830591655911206128604085820989401893561785396101025311760033854775238590262648711938048.000000 -3649077276468840793786572314507099095752328314950975885681928398751930959080085612625419171917750861824.000000 0.000000
-3649077276468840793786572314507099095752328314950975885681928398751930959080085612625419171917750861824.000000 2209203294851322564185833517627637556869379804650484792352385910290470126661649620179566596703190515712.000000 0.000000
0.000000 0.000000 0.000000
5073744918881280279874298407977695149284006819828289810008271308666098970478123029016893520784081813504.000000 -14764759372209563964616541000651585169913482746285332029034710608258304550557952019978198563562197090304.000000 0.000000
-14764759372209563964616541000651585169913482746285332029034710608258304550557952019978198563562197090304.000000 8454681037250085833070983506777214964503074768449992566354166843393936194061524836010082778670457421824.000000 0.000000
0.000000 0.000000 0.000000
5209555982245135812436950037274596521826937129686999719661446942320369404233295409545378697150407376896.000000 4436029473873260665818768094692552631719479216158250456556444121851893317230137715284283257863456948224.000000 0.000000
4436029473873260665818768094692552631719479216158250456556444121851893317230137715284283257863456948224.000000 1748333028342985857209422727280219944413689338117513624056076689239979052618042108833509899251520372736.000000 0.000000
0.000000 0.000000 0.000000
-13809934783641656140710485429218173023647704696356087626266810531505680889158305828969997048358629277696.000000 2806050500339275745805151656340936793541322651814137522825009174497835855375585719022932053313267433472.000000 0.000000
2806050500339275745805151656340936793541322651814137522825009174497835855375585719022932053313267433472.000000 936633739066209064691320842899376945494499399300492371702513528103253884381402323351103307924260257792.000000 0.000000
0.000000 0.000000 0.000000
-14993431636864353614482318276653857616740993121812798067644799545807774565314887968054114005819085291520.000000 4512923551835900525442464559726241669418254959789203671606525810484811905662064515308946187863652827136.000000 0.000000
4512923551835900525442464559726241669418254959789203671606525810484811905662064515308946187863652827136.000000 1906552243484205832768721068101587271291636280407643254370789316431547952027036479343544351491161587712.000000 0.000000
0.000000 0.000000 0.000000
2579896462654781999695501173020258607783509997001751901372565589225234636564697232948937500311297196032.000000 1563424033458303174513172678097789187044260985278101342845369482417370203989928969410517740601902891008.000000 0.000000
1563424033458303174513172678097789187044260985278101342845369482417370203989928969410517740601902891008.000000 515626767530405480972902492881746313498401338350652191316214867609444196598290997250004961250693349376.000000 0.000000
0.000000 0.000000 0.000000
-295795979529834816476649576317318469527787386101468393594162348223544028906445733194245181912250293682176.000000 -302512971091109418987255539060914869191596471274702661389884459009402334523124144829793756884377872105472.000000 0.000000
-302512971091109418987255539060914869191596471274702661389884459009402334523124144829793756884377872105472.000000 172666958125119210370111839506654960254191282231180058439414559627208452323715149491298110328551818395648.000000 0.000000
0.000000 0.000000 0.000000
-30967537804955873130634615028463063546836457116868812419071721600029924439146175620197672859059435339776.000000 -23385623303042174447729544730871782275216102133170858460692189968840955943396746960897901510619702493184.000000 0.000000
-23385623303042174447729544730871782275216102133170858460692189968840955943396746960897901510619702493184.000000 15680185657568674942797268174141472592403458283186539496068744575005935079638798444017022136183980818432.000000 0.000000
0.000000 0.000000 0.000000
-46683263103814915573997562228849652736126629593490276293048174867557102290617643340508175660610972811264.000000 8800655854579015135612530966791199395740125463966285619289436066834312392394453268323373763523636101120.000000 0.000000
8800655854579015135612530966791199395740125463966285619289436066834312392394453268323373763523636101120.000000 2787764335860168233634308728997404402496957409325465542447478818118815510498292426776072113392887791616.000000 0.000000
0.000000 0.000000 0.000000
10055196992376644416009449212347147367257587297948131141371324320730188301308148129997472147414668279808.000000 -25897808277024923295119258187459324287928464423322311234376450571115775163743481092259219329222489145344.000000 0.000000
-25897808277024923295119258187459324287928464423322311234376450571115775163743481092259219329222489145344.000000 13717883711336435530537442616175017969970293421729034750579727570921324761357586698634639266093971013632.000000 0.000000
0.000000 0.000000 0.000000
5249833073593983172852603508455891075415295633006887444621887514711696867015954583597906681865466544128.000000 288925173527023264860269691827697545544806445931238940588780692081043890619538002190397877335866998784.000000 0.000000
288925173527023264860269691827697545544806445931238940588780692081043890619538002190397877335866998784.000000 13783798088167522955506500682172036198534282430157821444497375989008840233684398770189485878609444864.000000 0.000000
0.000000 0.000000 0.000000
-17974364235039300101910735846766050770661445079745908025795531839382611033155410042420960196797000581120.000000 -5352388124501496551713428400530186499284825848335987796610186834938763580484185180952383640231408041984.000000 0.000000
-5352388124501496551713428400530186499284825848335987796610186834938763580484185180952383640231408041984.000000 2255874240095823312594788139619777289964071090291730411179380249126063658627170962173796490765796376576.000000 0.000000
0.000000 0.000000 0.000000
335938107064623492294628271072922115521528468206445891241400672749052978962785117681728050823998472192.000000 2762696838147626487427698503504221417034209471828715629784603648407695834221321913001144045196063801344.000000 0.000000
2762696838147626487427698503504221417034209471828715629784603648407695834221321913001144045196063801344.000000 1507362711594565626305885330864206209086954586704801870951219758516973083772414708870233363709524180992.000000 0.000000
0.000000 0.000000 0.000000
-6549441906495431907656317945544180490780957840850677513545372026453411524225617855749345406538913677312.000000 360165239509445203139647238234224224204996492727987908622291654825234773587101214766675553796650696704.000000 0.000000
360165239509445203139647238234224224204996492727987908622291654825234773587101214766675553796650696704.000000 173229862153042565023579316001646230491916672324141864005715989917365642664837966382002450633244803072.000000 0.000000
0.000000 0.000000 0.000000
2819077452844953538915145381225075314244659539226149998711753598099809033235809245673378052229300224.000000 509780542391072179660158094548893962044539824641795326994425358545516716937006736770946999334295568384.000000 0.000000
509780542391072179660158094548893962044539824641795326994425358545516716937006736770946999334295568384.000000 129671642872645946277924186493575956713802605262664715754266876509980516343198404586782715772611330048.000000 0.000000
0.000000 0.000000 0.000000
4271008110133139115590707809751595512094125891944826351266719604974033165025868407886242939121105371136.000000 12795795274401036522525938896029495478422253309662774868960961711556997045814116340814617186938671595520.000000 0.000000
12795795274401036522525938896029495478422253309662774868960961711556997045814116340814617186938671595520.000000 6681655780828922085814038643081667241497146961372101082405606513836277342305253592437134825227154358272.000000 0.000000
0.000000 0.000000 0.000000
-4504028712680656098695138866098024817375993860291224480017629921561888365405073560473058092548832100352.000000 6920306242357950811883373553715800713194180685065755670576959345489108341430661881514972997598461296640.000000 0.000000
6920306242357950811883373553715800713194180685065755670576959345489108341430661881514972997598461296640.000000 4018229041371627442113560842293829389165308597572724682115077700246807804880946786646642697603194552320.000000 0.000000
0.000000 0.000000 0.000000
-9539290592339382133349516710022047222349781638730738556128076286442076818469468399264370771620463518941184.000000 -624255753329608888656792171878977572656690396456510380090866405716389484843730492673162367008365984350208.000000 0.000000
-624255753329608888656792171878977572656690396456510380090866405716389484843730492673162367008365984350208.000000 79789634842789093529814490293237625568608692116149337232306008738227244551942557005537691859152462151680.000000 0.000000
0.000000 0.000000 0.000000
-3808160967006314548068876138143986227793685859333186775679048618871268309873609756850754142206531188293632.000000 -60999709141499722516987489657927140828898180873556336972385068715710169911451707317898850727494194036736.000000 0.000000
-60999709141499722516987489657927140828898180873556336972385068715710169911451707317898850727494194036736.000000 1950487668159178690215930296225217549813045571950344340322696827753657112926679048351049077013040070656.000000 0.000000
0.000000 0.000000 0.000000
14326037577802813413311571668195882895375012461725609677061995858501361091709806713525927044374855680.000000 36656288646192783154102802190559923009978413014412664649945129795300081561592466046094054997926871040.000000 0.000000
36656288646192783154102802190559923009978413014412664649945129795300081561592466046094054997926871040.000000 18863757559901979361265499831340923917238110555021423610157717214232464280368266568505581912440438784.000000 0.000000
0.000000 0.000000 0.000000
2984606746711592516632329356533174946264314406319500324747515363556448736622446891503696824436588019712.000000 1794009422245272607668043793568604082741818577133025672230357135822907487159498777907337703899132854272.000000 0.000000
1794009422245272607668043793568604082741818577133025672230357135822907487159498777907337703899132854272.000000 584624772863534659920722497157675928292625774470411877775100861415194774727159929664624741586084823040.000000 0.000000
0.000000 0.000000 0.000000
-28836844298600073760220887617529180803750333036897100189658511980945902678208752908502094204701119610880.000000 6479271975518943795340574542030903405421188385362013828914752493469069343861810994768614788258647244800.000000 0.000000
6479271975518943795340574542030903405421188385362013828914752493469069343861810994768614788258647244800.000000 2275552743662771084194545160435179927626979185323594236744054687807254460582580043650443495700424556544.000000 0.000000
0.000000 0.000000 0.000000
-123262183554560521712992553126224019800271619108685164583009520045138452128049998107827830157650692145152.000000 -21232262383905004111031922503696615361022735536239561352606644804415276515287431296160452190224689135616.000000 0.000000
-21232262383905004111031922503696615361022735536239561352606644804415276515287431296160452190224689135616.000000 6297417872024986801228236449727175078741523873940224991053273170472734395627629731681279809695334268928.000000 0.000000
0.000000 0.000000 0.000000
48784865260367688675242824821306465117984774760212091132481859426351303608648268577622442699075614670848.000000 -25312970843869265121700230209091182973563835156040029820167334293035150478905057014915458900857523798016.000000 0.000000
-25312970843869265121700230209091182973563835156040029820167334293035150478905057014915458900857523798016.000000 7502355163120290916964936588340432228293039153386161897896484076808284931042608059365717959535818178560.000000 0.000000
0.000000 0.000000 0.000000
-133805831825371833882270461080427265339087025571487050481120688413923601728228952111636191570639630519762944.000000 -838301764049840906896511033892040801420090977154610142116963940624935416358843536573305893547483462631424.000000 0.000000
-838301764049840906896511033892040801420090977154610142116963940624935416358843536573305893547483462631424.000000 10499842860995436673907079504444032326574288915873617199552225527055601274488525293945292723854113767424.000000 0.000000
0.000000 0.000000 0.000000
-7082563806387606532913780557441987944985303702668302818196064295555924946091408051855615363986369806336.000000 27412102428026695189382663507602878260939452884416019827004596128490008585257102348155172890711819288576.000000 0.000000
27412102428026695189382663507602878260939452884416019827004596128490008585257102348155172890711819288576.000000 15660845245264166811969873601658700885451544710984036965941584786525525947445818250956099209857664548864.000000 0.000000
0.000000 0.000000 0.000000
-3119233173412387665163947640152593992428642881369036981988871888926876782311781602108427950053233000448.000000 857652872313793968907495815014777969294013193967753422172331033692009993797669615179698775579162574848.000000 0.000000
857652872313793968907495815014777969294013193967753422172331033692009993797669615179698775579162574848.000000 352188902875752488993963746913051361938324576454342873117927649994069763305164477027832210538075521024.000000 0.000000
0.000000 0.000000 0.000000
646714006818622722754617261253706043123688753934189975782907036042788077733744822074602880759758848000.000000 -1810301798883683297741823618227931260501253829288613214433307841028518263545499740520671001288877539328.000000 0.000000
-1810301798883683297741823618227931260501253829288613214433307841028518263545499740520671001288877539328.000000 1146342930917632307469534744862915437992676867700486026191444866438841840606947929862509260739293741056.000000 0.000000
0.000000 0.000000 0.000000
765405034913192822478876679971512437037485451889969456807437476707041140857260043776826742648692801536.000000 -460324486698768554272022321940574921772675138038439152246898970899768867219650504764340829149022126080.000000 0.000000
-460324486698768554272022321940574921772675138038439152246898970899768867219650504764340829149022126080.000000 149686592557964869429106171871442815857903715397904897541326685640714062745778985087553716334587019264.000000 0.000000
0.000000 0.000000 0.000000
-28169406704430395744234828760946456260513887276675612614359263802983813741091194784129522904121315688448.000000 6024547833545184171263378425615825764822823705341450225510709304058087909771395493266798942965744009216.000000 0.000000
6024547833545184171263378425615825764822823705341450225510709304058087909771395493266798942965744009216.000000 2079823314570217511394903889655262769588102323162687315852771705627103101189806896083611426270518181888.000000 0.000000
0.000000 0.000000 0.000000
8661353860305654127406889629918163727891922034067498538818022459060061064720472146911927133729596637184.000000 1190126951779105290610244875333374124735579548382674054809250518176608591309583996142334663076748460032.000000 0.000000
1190126951779105290610244875333374124735579548382674054809250518176608591309583996142334663076748460032.000000 109411304757599288978470448328071223024449274384390020583916840998336321397182676054212825852955066368.000000 0.000000
0.000000 0.000000 0.000000
1317167472836608051531692083741479318859327086837656149876335125870536452035555840877188520478307778560.000000 -19354330786231251137308407081054304188931739226632431180882439632061604639960168330928529169910333440.000000 0.000000
-19354330786231251137308407081054304188931739226632431180882439632061604639960168330928529169910333440.000000 196939873512233268200090336134157544820569378388670011082173443876061089996052271339904898435121152.000000 0.000000
0.000000 0.000000 0.000000
1341469109651800867670262452059684319368330908751769299784147731310760382257170288621445762402855419904.000000 7959961888506018547992827030290319084971920922680020362634295381417063175878407724762899944562491392.000000 0.000000
7959961888506018547992827030290319084971920922680020362634295381417063175878407724762899944562491392.000000 4320139248694626872531688374303451066380630303060411418240319455740555989918346325409113301147713536.000000 0.000000
0.000000 0.000000 0.000000
1495333285823809855773275103894115425290014032903306255171210668978816882890077721133071786124379160576.000000 -3133645634214850709072382321886656096257208449620697068061481753380222448693045552808065619740023848960.000000 0.000000
-3133645634214850709072382321886656096257208449620697068061481753380222448693045552808065619740023848960.000000 1575641875308139134978233627854145313409989450047889055742105727875129582868105215496277498028336611328.000000 0.000000
0.000000 0.000000 0.000000
1829359296053698383942558437536640347361216967441340448341959432312974330234086815907553742142876680192.000000 -1228322428383638931002505567319897937243898982533030609126750026281154251565168983866923815010304000000.000000 0.000000
-1228322428383638931002505567319897937243898982533030609126750026281154251565168983866923815010304000000.000000 434844706803381618722160826536289444669218782411098929347331569431698893967371421001103937518423769088.000000 0.000000
0.000000 0.000000 0.000000
-605793418663131261766131812938428427536618364650878710595906592788349794116273614225396768037819421556736.000000 2696092986707584896187012368024165473530068143736570837366616176535933627709036868910014247223504666624.000000 0.000000
2696092986707584896187012368024165473530068143736570837366616176535933627709036868910014247223504666624.000000 96223925309586588937581451930500872181079606656458709377159380003358088793025289997130167210444062720.000000 0.000000
0.000000 0.000000 0.000000
-18638286553007567292052317864444198712396794154269409654494774289031534346623156679713094524894852415488.000000 -524729514939552365017215189549393856231685627270451949079444522838921666300659663372121965128501428224.000000 0.000000
-524729514939552365017215189549393856231685627270451949079444522838921666300659663372121965128501428224.000000 260360464160682572915789928596278616811712791584029796079454391493531150836673772301546129793988165632.000000 0.000000
0.000000 0.000000 0.000000
-14214372741491998819049188514109518823120746982787322490449475964284804380214815285207850130460502917120.000000 1803755654044307519188907642387805621183905891190403754221573888452052866237584631624990642597844221952.000000 0.000000
1803755654044307519188907642387805621183905891190403754221573888452052866237584631624990642597844221952.000000 432250965195324591519614053155794101313735145922874231111353227888146547168628941798727435273468116992.000000 0.000000
0.000000 0.000000 0.000000
-5943651029539262621127572905722783504550625715661973214966257235339165048816322804911053930126800584704.000000 1410980258203885694543788809933004753926435086702622298049676555026811543708153677417475493647496511488.000000 0.000000
1410980258203885694543788809933004753926435086702622298049676555026811543708153677417475493647496511488.000000 520795060030780786565704805025711878887384138642947844098265298181335613510039546890250867374488027136.000000 0.000000
0.000000 0.000000 0.000000
10686094989619052555854468843586123784642501319601267495297262531462020433100253854022609397146942701568.000000 7494897652014418871684724088356645265487491233129725149480019952560052347714388894976055963486345232384.000000 0.000000
7494897652014418871684724088356645265487491233129725149480019952560052347714388894976055963486345232384.000000 3164244178229157692389234105802174076549526155595665861401178784666156128708122265522195048212572667904.000000 0.000000
0.000000 0.000000 0.000000
2986885557954807243188192922397443492833735113254677358614800063163144547186159538306723836807312572416.000000 1173355431055307073906098410168177588755952671413488011732640928295638898265836078309114491865344770048.000000 0.000000
1173355431055307073906098410168177588755952671413488011732640928295638898265836078309114491865344770048.000000 300764261767269422568514420260059245749736645983791804271777331389405291529107312607766446226867748864.000000 0.000000
0.000000 0.000000 0.000000
21407997198312006185843239640936671864261579427856629041550798502442494182217561675359837184106136862720.000000 5363832903916181995123278870031356924664644666090914728858570718273230799012548652349083929504420724736.000000 0.000000
5363832903916181995123278870031356924664644666090914728858570718273230799012548652349083929504420724736.000000 3255303113870575019496065037341722951884311642805563972268343541894838199765123063905866512821974466560.000000 0.000000
0.000000 0.000000 0.000000
27192663919516438063580565150970356071619541951310899278208878579470298681892915698520909247032909103104.000000 17403966534077967027816570191147532911433098713587414514130274787487537192939531516875056191882701832192.000000 0.000000
17403966534077967027816570191147532911433098713587414514130274787487537192939531516875056191882701832192.000000 5753769516590115871733173190356851082413569621059279290586034110737968150457330013950343067519248498688.000000 0.000000
0.000000 0.000000 0.000000
26971296918767983167153366376261423080372917155129567359393565762158460987678496625974066320005157355520.000000 -49715917862285124167190679192113767442407089402649620459890166089545321029088717227152404899285595848704.000000 0.000000
-49715917862285124167190679192113767442407089402649620459890166089545321029088717227152404899285595848704.000000 24582896439795902618421473024170520979888991395104919565588873061740987807952761941166516030004271251456.000000 0.000000
0.000000 0.000000 0.000000
-83427574885913563614759484825258584587564741602598496160855466235628107668358398352239032845070363525120.000000 -145961870566820055776373256508122843297138951648772374292430404536910625444709474872288355492629481259008.000000 0.000000
-145961870566820055776373256508122843297138951648772374292430404536910625444709474872288355492629481259008.000000 84248877573893401788742890635785109989060839627943287986173390752292912665756751665932833511841745338368.000000 0.000000
0.000000 0.000000 0.000000
-731658024647309247670592121750149214552322275652384858727985721446967945212881595256611214531324018688.000000 5550622637373136056435224796793561247799525354172332374082710230810887893909740505320919626621380460544.000000 0.000000
5550622637373136056435224796793561247799525354172332374082710230810887893909740505320919626621380460544.000000 4316643758736166114528816414484881776812151414594367944990574176878481537534805448139576659613847650304.000000 0.000000
0.000000 0.000000 0.000000
-9126695943451663800589906206127980209897178324023346288399083648995605884494324233978121557145548750848.000000 8884453505410016128254165876889185359251959851748688336318504150560214344054697099045945931775736807424.000000 0.000000
8884453505410016128254165876889185359251959851748688336318504150560214344054697099045945931775736807424.000000 5426163300784102147650344808211813074087442068118806121174803185809848832033339081520117971492116889600.000000 0.000000
0.000000 0.000000 0.000000
5325262880555031710827996803080400644381381754028302653593799328008358943617569840293346893492654178304.000000 1410041334045507126408076486468891003391982937688173711555961892555203058090502931818613956601645629440.000000 0.000000
1410041334045507126408076486468891003391982937688173711555961892555203058090502931818613956601645629440.000000 238650400612668982650564962352065812078025917307242396031233125619366601773828167307944931908728651776.000000 0.000000
0.000000 0.000000 0.000000
10393704225344400663869057335066446330939413282909037075018264655979960357335614662939274441247625838592.000000 9625640580662114009160688066458383838022151850469503903361101710274302859250308869400522536633579339776.000000 0.000000
9625640580662114009160688066458383838022151850469503903361101710274302859250308869400522536633579339776.000000 3936569177842820141106551585586617081027390646342368490912701212534208002908915626907282003780507271168.000000 0.000000
0.000000 0.000000 0.000000
27633905517992745490478831156405625280595844658227182144065455582320894181057211802362318436276633600.000000 -117651328677648955569827560934400293199385100143319512642825501653694771639773579469424185945981190144.000000 0.000000
-117651328677648955569827560934400293199385100143319512642825501653694771639773579469424185945981190144.000000 62816316454309754273720539344822265580393091733611604811692452691817504542709170965612672111618293760.000000 0.000000
0.000000 0.000000 0.000000
-326936785144408425218501324106553626986205675836396849966061835789011644325827716238156904772132667392.000000 -186690287828941895216234507374093160346218507364870476521240245787955899380510502568218425639267467264.000000 0.000000
-186690287828941895216234507374093160346218507364870476521240245787955899380510502568218425639267467264.000000 117518337059467699302425153049092974528529130878861635294812744700074746202829782539633268655168421888.000000 0.000000
0.000000 0.000000 0.000000
387530623363638281308678066399482830955528498855870502014820945502389616099520504589808557902316699648.000000 100845076803865754245541704461616399823322821077901111381650430563194643154007464816765393620114079744.000000 0.000000
100845076803865754245541704461616399823322821077901111381650430563194643154007464816765393620114079744.000000 16741166541771832119869947536128265981661565788009832222302463207414364272927838357015698695266500608.000000 0.000000
0.000000 0.000000 0.000000
-57091162372191519277723994948787658773617609735381244168599960752757531323585096670026277867009064969437184.000000 864407006196613906101958185588775487910722852739641902701570538929076055832798982151147602200352983613440.000000 0.000000
864407006196613906101958185588775487910722852739641902701570538929076055832798982151147602200352983613440.000000 26138990325415163536260031843086054309758146127819260051969111004386126033695718794146544592251309260800.000000 0.000000
0.000000 0.000000 0.000000
-2738165545317094821945834881214028407916602759865652130001432755432735651658759680862192174289913905152.000000 118767631990055148791414382240866943283519732057995160973851674242329130969629530004717339206823706624.000000 0.000000
118767631990055148791414382240866943283519732057995160973851674242329130969629530004717339206823706624.000000 24477429099184948494975557989756362247734506165079473129445330282815784089659381325647729670337069056.000000 0.000000
0.000000 0.000000 0.000000
15578456045854309269891606630818138787033798535243647455763285019957750353557460378482183986176023592960.000000 -8070601811217234785086292635878447386939479325539760397339458467406370330524991304490008458893488816128.000000 0.000000
-8070601811217234785086292635878447386939479325539760397339458467406370330524991304490008458893488816128.000000 2272973802897643939320993537732230264736258003455213780194423307418399873776621348683391488385269891072.000000 0.000000
0.000000 0.000000 0.000000
12923735166782479225911670634005248233744217567971332886562975569531641258229262450267246576831031148544.000000 -875234067368841123290831920442050292106891751293294177041908612305033687196616833966611657030813876224.000000 0.000000
-875234067368841123290831920442050292106891751293294177041908612305033687196616833966611657030813876224.000000 401828982506586506892709263640333070004460779875677306479795077870761629164136269608070726068752875520.000000 0.000000
0.000000 0.000000 0.000000
-6404960247306513540538484863545723265809953476513283801348736953631578752383163097817687149278627102720.000000 -7556474400186412962836318372078627442979247655107589165441888817947309410222501556530543301157359452160.000000 0.000000
-7556474400186412962836318372078627442979247655107589165441888817947309410222501556530543301157359452160.000000 4927503700181413957577465982342198443606787949728456959128950872961223350066192010282846051558156664832.000000 0.000000
0.000000 0.000000 0.000000
8451925846015138052319299046782752578213010090574271235253185129314250877883761210234618800330768384.000000 282565350980726864574557185600643667159860557775981613009671728559406675189568148481749188971847483392.000000 0.000000
282565350980726864574557185600643667159860557775981613009671728559406675189568148481749188971847483392.000000 156394739638921090505583591311798851729649940225772797321493980232187807735302384504930903790572273664.000000 0.000000
0.000000 0.000000 0.000000
1023990156563012018948949582714864122580483995198709278101043352524342403371890765615935459931264647168.000000 125660249852474322499216631567812809154325731224302261872756895776561969042285532387544814706382340096.000000 0.000000
125660249852474322499216631567812809154325731224302261872756895776561969042285532387544814706382340096.000000 10190822006461562017770593076694956067883099622652467610260166926754840306158989345648412834767306752.000000 0.000000
0.000000 0.000000 0.000000
2598766179745404013273616400365122727100842651840084478237622452945766064381607703643597087324948660224.000000 -2838259054097455686670644469786824513977918654547593116787177868431153927921612940947367968621711065088.000000 0.000000
-2838259054097455686670644469786824513977918654547593116787177868431153927921612940947367968621711065088.000000 1453822941059770834499780051998919471842262443674100372204194361613956956125163229041369750643224346624.000000 0.000000
0.000000 0.000000 0.000000
-592653127796113788613685522127762520620624551463747719071414568149865196345801949010952255329478536855552.000000 -57889890088589964861227391029873325687648724638729483916966229185462169407641099204808694091446963142656.000000 0.000000
-57889890088589964861227391029873325687648724638729483916966229185462169407641099204808694091446963142656.000000 10713886156120535232206609325603462297405069822676603639040749803421694449308592538624881077908037173248.000000 0.000000
0.000000 0.000000 0.000000
248754246324071287706476302362127801945710962074238255587151404090092470263046471134962448130607541125120.000000 -41261007175641111035321560968578860337038123164742580831219683602064588737671447912501946613084884828160.000000 0.000000
-41261007175641111035321560968578860337038123164742580831219683602064588737671447912501946613084884828160.000000 4925823805240588777702385911240408358108805265566522629287159903044962604553915664188214978081269481472.000000 0.000000
0.000000 0.000000 0.000000
168939192894825186205054657478648145882257472280734698585093020601371554865470143814105361745653505458176.000000 127519072967711450152916377348131346670691701535830308569832086084297560018321512204297903961680847568896.000000 0.000000
127519072967711450152916377348131346670691701535830308569832086084297560018321512204297903961680847568896.000000 42704631352488288625647103629350225975583586866834435063245770817561663939738535989694678479677954195456.000000 0.000000
0.000000 0.000000 0.000000
-1450575419081167621285350510872594203331339954258142402829221047058206446368288314924551665333309538304.000000 -7147481765748139518630844534759841369094058051974959632792064870471630723636695907991208728470120038400.000000 0.000000
-7147481765748139518630844534759841369094058051974959632792064870471630723636695907991208728470120038400.000000 4107856963236270223615553029519123072691144440330680502295284634702376164855140733554772326282338238464.000000 0.000000
0.000000 0.000000 0.000000
3298489356422490440061929180531278527757010290780929529953719768779199381092739877490975021981600055296.000000 -28468265669610185378609869509846099603515693997673922418468346297084914321881421865647065919898045644800.000000 0.000000
-28468265669610185378609869509846099603515693997673922418468346297084914321881421865647065919898045644800.000000 15932756952652222226644682224846255823422839516446849602726303411300587549798743677748551200273460101120.000000 0.000000
0.000000 0.000000 0.000000
-934616367156881001492882428252881305467411113022419788672537123071989664232523939213695798359846027264.000000 -1177483644546839847645739866660854657207479900850769501027926757647903206706678241110112182629283397632.000000 0.000000
-1177483644546839847645739866660854657207479900850769501027926757647903206706678241110112182629283397632.000000 651335248229243289855984824163133347743458501600315092348909298522916334504013301806593720571431747584.000000 0.000000
0.000000 0.000000 0.000000
-44887343153683900382863579167858952882404292459781366941697472769687782789289796719395176627095193809584128.000000 -2399206830752157500451323963839008043574766835215762890000957778661302249714496278414852986229606366314496.000000 0.000000
-2399206830752157500451323963839008043574766835215762890000957778661302249714496278414852986229606366314496.000000 252117048565955025090111800224272402303141480135242780595032010656729577927943041774481024462425467912192.000000 0.000000
0.000000 0.000000 0.000000
-35855478831259097218669641082206385544027373992652796227935069847483529747777951701806956439929385648128.000000 2467905392422718359822726581492509924091483089917834763642263687798797852431192522685005211611282014208.000000 0.000000
2467905392422718359822726581492509924091483089917834763642263687798797852431192522685005211611282014208.000000 570853886204838609572306209117445301389063135296815940800180539464564129724953281673818024646019121152.000000 0.000000
0.000000 0.000000 0.000000
727183712588999317304909109476616924350909751733230039763602130511614351993423780682269865796360470528.000000 4028213375499441222828860285557348329989857100147789427210998538710212429427377325788874883664831315968.000000 0.000000
4028213375499441222828860285557348329989857100147789427210998538710212429427377325788874883664831315968.000000 2676760770726137426873624453359152756404465081852487866234669103624973936537162304347279174133528657920.000000 0.000000
0.000000 0.000000 0.000000
226393942081320875575825790393194263485243624128769417548615347696258317702818275575080561728043352064.000000 235225075106890275254882315933734679654687060016930926529302043711367569930683715580054861396957986816.000000 0.000000
235225075106890275254882315933734679654687060016930926529302043711367569930683715580054861396957986816.000000 100609486950043998947916555351127191636673816000693827201353459895772175030410393663435004758573711360.000000 0.000000
0.000000 0.000000 0.000000
207285776011279780265484575143144550000150491373819099267068783907091921371795682318167761274548518912.000000 -73190954261714482561242548874531800275515930263915400894608380649793084774860284031760257205326053376.000000 0.000000
-73190954261714482561242548874531800275515930263915400894608380649793084774860284031760257205326053376.000000 15921888109148733980981921400174925173072467164182726046699546247086844705616727606614331442707038208.000000 0.000000
0.000000 0.000000 0.000000
-2011095965167271357583086603147833269792947311889587381143145401156728026978481710372343010815733923840.000000 -353781248920551051810654575230679990914073497309776769369623350848853717608561962818648581673423208448.000000 0.000000
-353781248920551051810654575230679990914073497309776769369623350848853717608561962818648581673423208448.000000 106609034767680033582980236070024490289931151897088434762095465129510947879056338384393718769052024832.000000 0.000000
0.000000 0.000000 0.000000
-6593047236898969025691684710984081702205162754136221125831150604512263542793444209575393413957219778560.000000 -12899427191863443726647731261353731624612614630562438732479738417793452041586962350641544429801807282176.000000 0.000000
-12899427191863443726647731261353731624612614630562438732479738417793452041586962350641544429801807282176.000000 7442654676191343463922604813029497237858642043234055439883629295415670559165245024870848547127639932928.000000 0.000000
0.000000 0.000000 0.000000
-672229203528266091076316102206519166210411303897779664122667227728031017590486656265313516646763069440.000000 -1426091729081303748940179118223040075278755913504275912873616262903864462653838848576168295843735011328.000000 0.000000
-1426091729081303748940179118223040075278755913504275912873616262903864462653838848576168295843735011328.000000 811230123241646476906949929815461333242478425627165946944594292388492181968755067509714672441649790976.000000 0.000000
0.000000 0.000000 0.000000
-171256171741875208618483229471508612384791505444299191846634199919754106440380598757822446516245102592.000000 -2835990963175177620660375027708165125270833394826055563695464172823044813892570174259117548076152127488.000000 0.000000
-2835990963175177620660375027708165125270833394826055563695464172823044813892570174259117548076152127488.000000 1633241443175089290738008298243690791753702479182890679716748903543832408471797954000390755975520321536.000000 0.000000
0.000000 0.000000 0.000000
-26975114524628910554256180046580880839880954237988768450766473290017338056607711153172188689540799528960.000000 -30309279973588142577338134317122778992431200028812972459205283101875240181406479721187635507916691210240.000000 0.000000
-30309279973588142577338134317122778992431200028812972459205283101875240181406479721187635507916691210240.000000 18897308904382823983544192513193749333669468381410956254359278065312920020930441918031536858371771596800.000000 0.000000
0.000000 0.000000 0.000000
17040521545142735741951373772060550824886121215672767034924972485629023573960324383599502625721477496832.000000 -186013348510014372514765487939303968771545420116900888453965629259433488750488673672931650145107522355200.000000 0.000000
-186013348510014372514765487939303968771545420116900888453965629259433488750488673672931650145107522355200.000000 101979299438398674197188863263200199564343847236387101924469134546578691218360887689974271448896824672256.000000 0.000000
0.000000 0.000000 0.000000
-34573799808052675841541594030406206712372141506752806310887285165285082413698889339862855509496190468096.000000 -8796928287088470867974593786331276170144649082674322124905098534159295509613904123218500777802911973376.000000 0.000000
-8796928287088470867974593786331276170144649082674322124905098534159295509613904123218500777802911973376.000000 3310835197301502505729540759062599054511617587040689233064922593114361917467753512896260738831001583616.000000 0.000000
0.000000 0.000000 0.000000
-320834635139786833925214414825979814217744931075652355436414461289211517936077498908550385646297939968.000000 43725166232229363748626503666207500532228154672703481182150456214817038441022075079429233053525868544.000000 0.000000
43725166232229363748626503666207500532228154672703481182150456214817038441022075079429233053525868544.000000 49262495417243699644025943097501191122199120933717442222492950843188966892160974449970008261583175680.000000 0.000000
0.000000 0.000000 0.000000
230613529593308419659574328103252159610828290934399505708204644708399643714289076736739426423395057664.000000 -83031622269484138384817050351287812548717203117012378844248280484928026673180313048562716744475475968.000000 0.000000
-83031622269484138384817050351287812548717203117012378844248280484928026673180313048562716744475475968.000000 18345806226253697607644118979854066692555810196879084521144598532200371122501212117855129134279163904.000000 0.000000
0.000000 0.000000 0.000000
3275621342494634359075525858115149882729840115806343312286099237412798397670223169627329589903496314880.000000 -1393682055459942693096388373067202469150744800859404546558818546281572467857570533335570196523426775040.000000 0.000000
-1393682055459942693096388373067202469150744800859404546558818546281572467857570533335570196523426775040.000000 357860175341821522900450554497931249830966907456307127387742370928098475366738227759414186372650500096.000000 0.000000
0.000000 0.000000 0.000000
-1605642631586915875473966573308616241187626051996111986509734963376977116162645206773344706911885294829568.000000 -173349858387177471051214841213118051903977495117836798342232956021461107626826507080639031872963852894208.000000 0.000000
-173349858387177471051214841213118051903977495117836798342232956021461107626826507080639031872963852894208.000000 36557521297778391836299488251147927129278065353252760456368565021899721203528789938369243168470716121088.000000 0.000000
0.000000 0.000000 0.000000
-50240784017935941582650389369261515422361782703450793114752727902331806184801618941306664943040122060800.000000 10420073994788284724383179607407274300263311940831689226032495428493723116523042811141009722531007954944.000000 0.000000
10420073994788284724383179607407274300263311940831689226032495428493723116523042811141009722531007954944.000000 3526301826851362126829300507277087119081098864066242807706424561185469208160205993338364229957852332032.000000 0.000000
0.000000 0.000000 0.000000
-683881623976644466715280763209283070065845843651333602812933279319967111821522109044727474522733674496.000000 -9699118914062886756709988596774704102640603222610804141957027453568689336045302723594149904027240890368.000000 0.000000
-9699118914062886756709988596774704102640603222610804141957027453568689336045302723594149904027240890368.000000 5224993703904126095145453506536794871193814663925208265518575458872298896522596571863454812534982311936.000000 0.000000
0.000000 0.000000 0.000000
4403449832393996169212258170666723866043533239594516591261729655386525104123083719379458101281594277888.000000 4147557232271064450185559047011003877569601916191421044440896143505115820814695380458896786093164724224.000000 0.000000
4147557232271064450185559047011003877569601916191421044440896143505115820814695380458896786093164724224.000000 1709241722312773341537450720316191799351012525770465979031766686385910301584830849093335916308762460160.000000 0.000000
0.000000 0.000000 0.000000
20417282373610405433648005065407736002964407086555539514268484826058415074330783018478408558475414077440.000000 16666539117886305789814670496830584626921718409247030073050345858631365322099280058753349015707769110528.000000 0.000000
16666539117886305789814670496830584626921718409247030073050345858631365322099280058753349015707769110528.000000 7432595879804723309800927405610596374576461846880774503633427419675112073882358058042684457736692826112.000000 0.000000
0.000000 0.000000 0.000000
14737583874853439150726182998430672728263616502280724446611900092874276095762495376635463199673800458240.000000 7680428775128768143546301384294141146020963470870676570955499390883644410434986399434943490954958471168.000000 0.000000
7680428775128768143546301384294141146020963470870676570955499390883644410434986399434943490954958471168.000000 2357421439975869137158384336970797513572046598560006630754604842078550332905868718469831318454723936256.000000 0.000000
0.000000 0.000000 0.000000
19267310774352444005815443976036661168226444358070795766449252631855613507052252606564504589756826386432.000000 16698519328454500494988256840782752201156260196043420021954466433772812750678931830131660668272388341760.000000 0.000000
16698519328454500494988256840782752201156260196043420021954466433772812750678931830131660668272388341760.000000 6535540576842951235677175074587495752371387536090013905995416829763083931109815613611317648506883145728.000000 0.000000
0.000000 0.000000 0.000000
-11706094083084387991032774936120502516227053259599438334636444111337559310213525622672275143533420085248.000000 1836397824478317620418308955918577627291030099906689007460951217710524038516368835516404553229860339712.000000 0.000000
1836397824478317620418308955918577627291030099906689007460951217710524038516368835516404553229860339712.000000 507202927779141581243340854939146999854948896435874619082731163161977887587799957327944117807197716480.000000 0.000000
0.000000 0.000000 0.000000
1568807389097709091198319961388219188352844482947971379320590350992985629907564439691362843683981361152.000000 -1320118243822740471826540510017675478437092681075726450893468396554013175812245046130012918541304463360.000000 0.000000
-1320118243822740471826540510017675478437092681075726450893468396554013175812245046130012918541304463360.000000 517486675718061828761475707871677676449350763332398096446339055341306112405702417416193424461337198592.000000 0.000000
0.000000 0.000000 0.000000
7737295974235885230784449348343162063255538811905077773824652557004588665894614827980281864420459544576.000000 3174849321391474193928627044047665998931064726404543626091556023517760775001256744390540887953382572032.000000 0.000000
3174849321391474193928627044047665998931064726404543626091556023517760775001256744390540887953382572032.000000 782100122897240655932380462129359393550947989293381561352051478672258266419464789390931214441620963328.000000 0.000000
0.000000 0.000000 0.000000
-71575213147439694041864733782543962249663504445242835903942577534862596203942272775541484120264520237056.000000 -69181919152154494842008202033759468732341319585215447096653731603265689232410499130572100906694150717440.000000 0.000000
-69181919152154494842008202033759468732341319585215447096653731603265689232410499130572100906694150717440.000000 39265253409694030674439356876360670830415028953209102262611521291933474232997235533906281464276906409984.000000 0.000000
0.000000 0.000000 0.000000
21394829182584064429377576384624407374050716882924683233628283604379020132679399199763630769556185677824.000000 3900405167509331732732758152884143145404956294668708576272493801245402160612992043669335259721152593920.000000 0.000000
3900405167509331732732758152884143145404956294668708576272493801245402160612992043669335259721152593920.000000 636076058325664088178450953971585995687640561178963916372641245857186235604697436879022519207675822080.000000 0.000000
0.000000 0.000000 0.000000
3030168069939089079018210741797092125243820633228262398779670095316942354914830371892114637720758779904.000000 1626461955501795764479077099939150719063267042813977695763339188299876246411890832766062202061043269632.000000 0.000000
1626461955501795764479077099939150719063267042813977695763339188299876246411890832766062202061043269632.000000 613421923818378774942651631183076930569417466855538996175561079825357836416923372514180480482590851072.000000 0.000000
0.000000 0.000000 0.000000
46729749480245155789719246811699666656332659346577089642141963695657610892685932128485120474599900839936.000000 79458918363068622741743875209741444103921784823986227266745178598457648085377806901371748151391674171392.000000 0.000000
79458918363068622741743875209741444103921784823986227266745178598457648085377806901371748151391674171392.000000 39082083595859208198168625685137046857319978101591896129461762790207850491884728537392520788458386489344.000000 0.000000
0.000000 0.000000 0.000000
10158329231384238044264441059825245605962159585207844478075123353787462292295889967377395968987036123136.000000 -10282881954517554100447499655011255499779774297195776316981764263865670057182951028366526982248260960256.000000 0.000000
-10282881954517554100447499655011255499779774297195776316981764263865670057182951028366526982248260960256.000000 4649553165273358122351949758008273378142366567678631171430089980413333529113815459255606470822194053120.000000 0.000000
0.000000 0.000000 0.000000
9192767416275149727413322790526160152066890838697045427343754942194537442224110648180715207987621265408.000000 12097484808147019907588359936674851887295602278809816331021408964892629309583578101267872527641957367808.000000 0.000000
12097484808147019907588359936674851887295602278809816331021408964892629309583578101267872527641957367808.000000 5568387980004893174579375181855925087384085867109382298845830083475754039161420908932998316576915587072.000000 0.000000
0.000000 0.000000 0.000000
-298655335081477101396910670378697303416839857744891538269721968262899012884018789360338975062671491072.000000 -1462641017017670814285583079386563155660998476199980033044570778244984381551751305957187780252725673984.000000 0.000000
-1462641017017670814285583079386563155660998476199980033044570778244984381551751305957187780252725673984.000000 831520268273944889794439227802770838773501021233670797017483984136560245564447020429033575583001346048.000000 0.000000
0.000000 0.000000 0.000000
670488384642820890004594935295188331553702578973876054978199651880445742381802001221496431919987949568.000000 1153538654484411960895538048705371428387397388326157335697097785260604801140439492562515205011550502912.000000 0.000000
1153538654484411960895538048705371428387397388326157335697097785260604801140439492562515205011550502912.000000 563001643869387422157766746143130139402698094853116025392411181078932111705947119169636165662969692160.000000 0.000000
0.000000 0.000000 0.000000
-12573099162149716111021696887847207094178281222272553612274809751012919533698999467932499157115073462272.000000 14918449278406578449241422828160937151308526556014722385794883323142054668374205993415648594484254474240.000000 0.000000
14918449278406578449241422828160937151308526556014722385794883323142054668374205993415648594484254474240.000000 8559161742817514877410108779497254719566721067117784082228039056270318480186588373610018718134950690816.000000 0.000000
0.000000 0.000000 0.000000
9387166187717512497512346061800324225985091268709994563421682376268732106692783361560590234548518780928.000000 -54397663237859098284193621685950930601243255111396405838131062245418112292182994262788863314908567044096.000000 0.000000
-54397663237859098284193621685950930601243255111396405838131062245418112292182994262788863314908567044096.000000 29278706646450673918580601356444891292463583749410880694739118110672515024609416846605634939833741737984.000000 0.000000
0.000000 0.000000 0.000000
8956192294361477188288641396946528631932278692145669820557456254573427274439601404415918166945908654080.000000 9939541216455362834341836808153030438759024770513287696441582890589563542076585532520346444045312065536.000000 0.000000
9939541216455362834341836808153030438759024770513287696441582890589563542076585532520346444045312065536.000000 4349455323583093762724234472378964323527019076629832574350951543331263654333484769314973468971744886784.000000 0.000000
0.000000 0.000000 0.000000
338244525547655385471687955604349825224542267359400199667853047171097523565426448274718902537586475008.000000 213011416304166340289566611702944399023940608930494539892381373806842552479003232417925340660580220928.000000 0.000000
213011416304166340289566611702944399023940608930494539892381373806842552479003232417925340660580220928.000000 71254326620175973829059282515985075656798612849986649142037095091682915129480264443685824476179595264.000000 0.000000
0.000000 0.000000 0.000000
-4906516515636136154232332568083791661853469068351704200840687137443067458958240970663141443805688889344.000000 30573871476345608319061507531449891580149073870909933091693901892053555971740814586939857401323882283008.000000 0.000000
30573871476345608319061507531449891580149073870909933091693901892053555971740814586939857401323882283008.000000 17314472325302262258855896912612332278322071319120511172837644713173560540976308774497590634074504953856.000000 0.000000
0.000000 0.000000 0.000000
58312160520050389131733111267015098949784003266766979397087413887701651990782041330642185555404509937664.000000 -52927293301565666531495935624604632329607376441557102684811822140822446070485753165589068183927747772416.000000 0.000000
-52927293301565666531495935624604632329607376441557102684811822140822446070485753165589068183927747772416.000000 21461050000326685461434114363325227196711970307921825439686394044325905278786490707120306192486575898624.000000 0.000000
0.000000 0.000000 0.000000
61952895363479527861083045844561379843867442729080208314967762465971185166117636529894173846235426848768.000000 -48185150806796368948313059263789574715785439262652703126735598742207048654939601595345636204338139365376.000000 0.000000
-48185150806796368948313059263789574715785439262652703126735598742207048654939601595345636204338139365376.000000 18173798030139428567251338258317384077735743530957966148253759147041699925899887059702744805594080739328.000000 0.000000
0.000000 0.000000 0.000000
5880719324966133521475260450849012589868700376152862662441543518414029114591477612295780922905851854848.000000 -3870880179090190661980548193907049780266314951344602686554945590912698185604131793873112359722645716992.000000 0.000000
-3870880179090190661980548193907049780266314951344602686554945590912698185604131793873112359722645716992.000000 1377960970095729557058559149465263936825885039180508137008091414147681227528998624500017391308355141632.000000 0.000000
0.000000 0.000000 0.000000
12237942159439473781644460381696692327738733692787855190780356757880809397556551594025276853976047812608.000000 10583594810120485055344230832247254498007373590108240744767757473271500034751895239187503972712005500928.000000 0.000000
10583594810120485055344230832247254498007373590108240744767757473271500034751895239187503972712005500928.000000 4200889520846127148075919454654515031710856665059530318771296470341996462158281774081818519905897545728.000000 0.000000
0.000000 0.000000 0.000000
7300751923563015744555651184673314220248469712265781975862123167305322748218249510173052894000619454464.000000 1905623627517005606293798822932194917484858103090307524371361107781335664657498124462490699263996067840.000000 0.000000
1905623627517005606293798822932194917484858103090307524371361107781335664657498124462490699263996067840.000000 317439952432997194485336700956854079044402381784474416164881433762065042925239555285155974524415508480.000000 0.000000
0.000000 0.000000 0.000000
37798710282591046120181876706283212344122071940176520481069938269587158096430447032549967905104123133952.000000 -1452607800878332697459542979933820811889771727609669356844251853177878287833921510626964701530533396480.000000 0.000000
-1452607800878332697459542979933820811889771727609669356844251853177878287833921510626964701530533396480.000000 109785848058982989710459907385249852371308419306495323211431331600854522661056654436451698375158398976.000000 0.000000
0.000000 0.000000 0.000000
223602987556378947320865102451933856345158180719982366912862510087854931871681355085555598516989984768.000000 662207460252037521943826028639315947972197817798031515160303727696701159413704295687513693213199171584.000000 0.000000
662207460252037521943826028639315947972197817798031515160303727696701159413704295687513693213199171584.000000 345480191937927445599842568543667929148039073767918404435844976220928662532639366897412103717074763776.000000 0.000000
0.000000 0.000000 0.000000
5117173249982829116801348839609508366923293808178942738850239599556184448939199493192405858009607045120.000000 -3885728057085236728423947713345332552288481728060837698275573005745729926658674343180009553129650520064.000000 0.000000
-3885728057085236728423947713345332552288481728060837698275573005745729926658674343180009553129650520064.000000 1493821461112126766662375361706708216682820296728997166799369549925315212598877032601692558798006255616.000000 0.000000
0.000000 0.000000 0.000000
-2157653970537142551325672324418035880605701309464803730225306171532510938390256545622273386812014592.000000 262577995035993218017052269252436586262701337459045621049759292142004820761272808052889032209727488.000000 0.000000
262577995035993218017052269252436586262701337459045621049759292142004820761272808052889032209727488.000000 60033797410827926763295348403104197274335639507062675025451632542535698843611186822433514555703296.000000 0.000000
0.000000 0.000000 0.000000
86877906907953504630464450281639099257405832109448058726704877551659172688263240432311583401465348096.000000 -238240933310686912982526119492936186088346218257897098827001440149504363384906298456499072898323972096.000000 0.000000
-238240933310686912982526119492936186088346218257897098827001440149504363384906298456499072898323972096.000000 123477847688380695556368037085161981365513209437455374452743933069257824339122784921359585326646951936.000000 0.000000
0.000000 0.000000 0.000000
178899247219568860362671746036168057417177681577835274192839794393032346668902286125086778259282864373760.000000 250883964298893668208512644139510555307752440515905810467296399292240412572077560639684118215595076354048.000000 0.000000
250883964298893668208512644139510555307752440515905810467296399292240412572077560639684118215595076354048.000000 118007700597744798374352315049402501754171866996692614885697795313842401359968007429337045019315362856960.000000 0.000000
0.000000 0.000000 0.000000
5166459103785629463706825838588741727115423204695902268086623830613864605271980700752100333083357609984.000000 121394036215139731302519939842692699786588175020528673280375330367047832265517889304960821974771171328.000000 0.000000
121394036215139731302519939842692699786588175020528673280375330367047832265517889304960821974771171328.000000 6078064550240785081612437777629146655174923751637553384730249341206313499823617359215576012046729216.000000 0.000000
0.000000 0.000000 0.000000
16043711573734705799172276114586222932943088027807808799712222084219798237550002537693002132146029068288.000000 -20604735009220817575023071395879265067454011466682341265740547493670515055027996433857677179464011743232.000000 0.000000
-20604735009220817575023071395879265067454011466682341265740547493670515055027996433857677179464011743232.000000 9435684548875843224430065157853415906928906909426411180815339885290555932008351445186560742883111993344.000000 0.000000
0.000000 0.000000 0.000000
8074492496700122985695139657900551533202039978748512792929688655538180335546867742430823761089765834752.000000 10208918606486772153961302057479916658299487367088064361163812679818831341393171050655633508197073944576.000000 0.000000
10208918606486772153961302057479916658299487367088064361163812679818831341393171050655633508197073944576.000000 4649043048257576459673988130714952214826540627333734163792377878196448685760372558678665890885483364352.000000 0.000000
0.000000 0.000000 0.000000
13279281470693883926085884101871131124244034890904864697594675765074205418576261283721498945572573282304.000000 10450794882511681898435572749700656226365000889280032851535516045583327527357395293835866863791427813376.000000 0.000000
10450794882511681898435572749700656226365000889280032851535516045583327527357395293835866863791427813376.000000 3951598680983168653661105679259843129306946650512889484299923054710059654488712446533085387089902567424.000000 0.000000
0.000000 0.000000 0.000000
9915456011938119806798771987482833928276780229677222865015271496356357576315713034777263756795640283136.000000 3979958993231266941763704250038937233628731436787144401569760392299494627859599497600028855246172192768.000000 0.000000
3979958993231266941763704250038937233628731436787144401569760392299494627859599497600028855246172192768.000000 1062110795982599131872007265835113196907774776685278768792968258121465718810372743851302767860796882944.000000 0.000000
0.000000 0.000000 0.000000
10871520314780490812017925750507215820012361341342427271754477700353684102988152140122382899323783348224.000000 -9389851558259549009137356351680202865938606236923501363578792887437596323508204281890629467500361809920.000000 0.000000
-9389851558259549009137356351680202865938606236923501363578792887437596323508204281890629467500361809920.000000 3725339125902960196916590105501532276332719292993172820727872699118390296407164795835980373515690835968.000000 0.000000
0.000000 0.000000 0.000000
-232296594070533164008824269402391759324811964313224296885644544562413332315910142794517260708662611017728.000000 -159235505800546571581224002634345369482298298847722544282278151860758035372497951769165389855697026416640.000000 0.000000
-159235505800546571581224002634345369482298298847722544282278151860758035372497951769165389855697026416640.000000 86991790321027526845038452977898386535662422313590461984231750048792563424091423832032581043190560194560.000000 0.000000
0.000000 0.000000 0.000000
179759493662768482106205463588591687700109839118248870925660414337906330867294417009197681194092111855616.000000 -320981027481898735366342233434920926656747030447778877530561832150953323882616731894590865068936491171840.000000 0.000000
-320981027481898735366342233434920926656747030447778877530561832150953323882616731894590865068936491171840.000000 157906893411981459883324771686976837645360441087355771392108676070210307390067745851906949835078903005184.000000 0.000000
0.000000 0.000000 0.000000
-8489097438627493072583675075475863544484820291243091940319880714955106760374524070202048061304922439680.000000 772983750202723051391126355294630832101609135257465285294276015781072002664642094509007327456560939008.000000 0.000000
772983750202723051391126355294630832101609135257465285294276015781072002664642094509007327456560939008.000000 228300682704293723339930411926507342328059012099935075614208046424031800003817418785195347150007959552.000000 0.000000
0.000000 0.000000 0.000000
30138810385889831353394687889036787152918784466955195413442878271776324943096576625772801939919782019072.000000 -15810930093303383608567650591634732608463608977896930551295462565931418790361107878093299515762239602688.000000 0.000000
-15810930093303383608567650591634732608463608977896930551295462565931418790361107878093299515762239602688.000000 5101009469019849269101220165764228220654873502164799989914570725442760169341856140480677373692287647744.000000 0.000000
0.000000 0.000000 0.000000
775689729390243240490337306366763814240687685976358346344946276592189873066121813306273218343380975616.000000 215144742253751713983921564693017094683373732771211308826531822815843884469643136713369161377362477056.000000 0.000000
215144742253751713983921564693017094683373732771211308826531822815843884469643136713369161377362477056.000000 37850886923467666782544395561483876086437577358533606464015390528517071078092706838229385732755030016.000000 0.000000
0.000000 0.000000 0.000000
3624679370734424402282212020327824918475184758652274864020757937700656818223559598913633194181457346560.000000 2056049487748359600257983331311566650383159586125841772564694137239273761100241507641632659370839900160.000000 0.000000
2056049487748359600257983331311566650383159586125841772564694137239273761100241507641632659370839900160.000000 986169526123101824240125372462485217494394545957773435598174864714617384379487109487937641156695818240.000000 0.000000
0.000000 0.000000 0.000000
-1780891747706672557418620515118521242662440536472819588372433370614382817965712324547878536412256521945088.000000 -110787318237047691322487264134967764225651800680876618357836264367241482451151480853178001729778102566912.000000 0.000000
-110787318237047691322487264134967764225651800680876618357836264367241482451151480853178001729778102566912.000000 13330798384929617550699907319073465325170813135004817486255076247136169210131430055351361706447622635520.000000 0.000000
0.000000 0.000000 0.000000
-2114438198076902341795712532218420861686141048488307923338651450314369457507965678643502576291366981074944.000000 -591231157956412230431798368406133785758960776505606290423639626713667093410247524861838569968438576414720.000000 0.000000
-591231157956412230431798368406133785758960776505606290423639626713667093410247524861838569968438576414720.000000 239760198833383249697768767327670697464259376578754314183812614392112856149389189975636383042696642560000.000000 0.000000
0.000000 0.000000 0.000000
15548660329463449833293584917408944260051230089817946959807572992361411843055044397030267801638551945216.000000 41018843816878601208996723793068911239120651680152067623677169672136744561235898752675545522357827272704.000000 0.000000
41018843816878601208996723793068911239120651680152067623677169672136744561235898752675545522357827272704.000000 22971284500754027019560560110340906868763194470975786890896021236631388099856784211708548201632753516544.000000 0.000000
0.000000 0.000000 0.000000
22945956208595714541315678505606824102850442694478786415270410677879258617291239809211387646513405493248.000000 101452737609905207417816628781406415703646945516144098814931051223620738793194492552362220850928265723904.000000 0.000000
101452737609905207417816628781406415703646945516144098814931051223620738793194492552362220850928265723904.000000 54262773944499189177606988411904913566506687506970739151988549076628888339401339682022386166308530028544.000000 0.000000
0.000000 0.000000 0.000000
-10532089124335833026732569096245557161331409772187005459479630937810998120375783204212695467057758601216.000000 -17539669264343237802228773329135278259981010940837008164084101962917712538830088192512689496836410441728.000000 0.000000
-17539669264343237802228773329135278259981010940837008164084101962917712538830088192512689496836410441728.000000 10293861372649814237617139991228002900819019665151179278177123466755769330297712521275423465425875238912.000000 0.000000
0.000000 0.000000 0.000000
-5746434292871424280193868977483177836889381092069667547725129255955094785152546014805823664067872555008.000000 -3674213929403181464748516207810719450059955093904085620323858719168278353037688537161853718720818446336.000000 0.000000
-3674213929403181464748516207810719450059955093904085620323858719168278353037688537161853718720818446336.000000 1984528421576075416265488046149283809551103403219800962575617834117316567560816493354887566864578248704.000000 0.000000
0.000000 0.000000 0.000000
3412946540912799785442187355830735268884708923626792142126153928107337964881833366745352386344040529920.000000 -1899336395114119579364807220322345504041260821769727693091699743016100378997608073230656088822001958912.000000 0.000000
-1899336395114119579364807220322345504041260821769727693091699743016100378997608073230656088822001958912.000000 681291572133411390292114237604661520548607643822604959505749145982411891896152262365188330786115289088.000000 0.000000
0.000000 0.000000 0.000000
-202319760331857129630599421012912161695129224133759848582160226559849866825956580556818417498945606385664.000000 -151296892668638705354465119734323129925175808907614990644854334505836572206189325294885872244174098530304.000000 0.000000
-151296892668638705354465119734323129925175808907614990644854334505836572206189325294885872244174098530304.000000 83738786668876171073196977294683022644081223680075522158794331131919165363904892981890165136282588545024.000000 0.000000
0.000000 0.000000 0.000000
516696053018795750533359667017737767834541712876982412952607387056075628073957833493165674314241933312.000000 232949536096998890834468490630352019971495287359700518427135270912853361393798879822973954936872632320.000000 0.000000
232949536096998890834468490630352019971495287359700518427135270912853361393798879822973954936872632320.000000 61946014041914112534845231426968775297535045874369441243119704760686793946488381841892490468768350208.000000 0.000000
0.000000 0.000000 0.000000
-46858540385680674275545142481553095402289214308822623091539345436620156145658480452546247905613159858176.000000 3816152986548674800314680350649193814375176959045151146330531009558077735598785453029178027024563830784.000000 0.000000
3816152986548674800314680350649193814375176959045151146330531009558077735598785453029178027024563830784.000000 576489774803631989901470910984898640702461105020427630417798946506071746559644199684681531597806108672.000000 0.000000
0.000000 0.000000 0.000000
3311663273444363328499195482922489448875518327872274737196137385543472990512646733437868084827133050880.000000 4831452836789403961296426750366497838805925766499623548601823407226099048532539471550621898807642685440.000000 0.000000
4831452836789403961296426750366497838805925766499623548601823407226099048532539471550621898807642685440.000000 2278432124739684352389097944494993055429954681796448490766095869470885603709505191507037988034441117696.000000 0.000000
0.000000 0.000000 0.000000
48104646125936194264541902947915392545752825813615587595538189286490192518938669739485554637838431027200.000000 -28476863727145721271073596673971244872533294919346385474362206356865500525221774596803606823531137990656.000000 0.000000
-28476863727145721271073596673971244872533294919346385474362206356865500525221774596803606823531137990656.000000 9301808712426146250073106482317593139017122904129735266686211517925883559032250247622000464653262520320.000000 0.000000
0.000000 0.000000 0.000000
-3174777627520225048940187737566426559853427558204318483903386730768588719802638037579805548584521170944.000000 -9288711941601773601656689692898481532176649230191180595998328675879106708097096608204359576897959493632.000000 0.000000
-9288711941601773601656689692898481532176649230191180595998328675879106708097096608204359576897959493632.000000 5331475950686351534223976869996238590195732374674512964332511274829278089480207623594184697236215037952.000000 0.000000
0.000000 0.000000 0.000000
-26816274431037551282755401075932776776971379055884485902000122511522734811798392610997432195180885180416.000000 -14280498555132869704501773828230992693075019259472473129919030316156044051423803757108338483503420145664.000000 0.000000
-14280498555132869704501773828230992693075019259472473129919030316156044051423803757108338483503420145664.000000 7568891788808369142186049764699608150351698262457179888451622151416979440630644894770292199179847467008.000000 0.000000
0.000000 0.000000 0.000000
2494708069204966449049956481066084094972846991622211249231276757360535772253819481692157038701184024576.000000 -620945935944707913665464629332811502232744861492008399736675166395656493212173057788382832902092619776.000000 0.000000
-620945935944707913665464629332811502232744861492008399736675166395656493212173057788382832902092619776.000000 267056883235654192864175510387951369828336056969391846451190686071401415818271459719508431374643101696.000000 0.000000
0.000000 0.000000 0.000000
-4669209872256764751840438577144792067524855739139848597169702650797309346070733431544681237134725611520.000000 -6417383014179708840279316182723423183878552237261635635241252008118895405829672003580392958549418835968.000000 0.000000
-6417383014179708840279316182723423183878552237261635635241252008118895405829672003580392958549418835968.000000 3660229898377805692291476517337691501330958848385349021887268890389346919106992303153364883545566216192.000000 0.000000
0.000000 0.000000 0.000000
-6529541280045158523190411559010403693662211813443222517406042668918540357074575086454329940836893065216.000000 -2732305733990143833881007861112287058693697785118217772262839382486960202152844702529012955389072769024.000000 0.000000
-2732305733990143833881007861112287058693697785118217772262839382486960202152844702529012955389072769024.000000 1343313172519074624216718769825096017745752157411246350111369878140179741252662129592108309161416065024.000000 0.000000
0.000000 0.000000 0.000000
105256366767307985366700495772153786141313868285312860489495234134622353003244742108062572629834820747264.000000 -83618967382687797189399118170479462541012150119652500919523444924996222953921814327769838865721902235648.000000 0.000000
-83618967382687797189399118170479462541012150119652500919523444924996222953921814327769838865721902235648.000000 31878017740592960986192465877080967555722529492501053989068923638742103158601615695126770206315940675584.000000 0.000000
0.000000 0.000000 0.000000
10294084420777982457907813558962452707387582615588901341393012618062703665371950499716047087585992900608.000000 -3784046787883709163817887412572787210267092728937666466692046667331879060242652227304110041316110368768.000000 0.000000
-3784046787883709163817887412572787210267092728937666466692046667331879060242652227304110041316110368768.000000 2060433160868320165348455804626955459675627151117365250970246223566480914595416356678229095736315740160.000000 0.000000
0.000000 0.000000 0.000000
-168321781952085178377932464676515021372860935051931784074457821956373736494822922786049050445151714934784.000000 -29205709049612200569793177829660474467987505769143591102727078792757192412886916562169219787038964842496.000000 0.000000
-29205709049612200569793177829660474467987505769143591102727078792757192412886916562169219787038964842496.000000 9497487398185409730631952139950661367826281268820522657869034691738678137821078445808139811494920454144.000000 0.000000
0.000000 0.000000 0.000000
9848406388556315920911835456601259404756778118704408337327932044679587926703376028191279226864980197376.000000 15116324618081616023424357235739746907385681925100597392338707791535119366348085884470049278696383053824.000000 0.000000
15116324618081616023424357235739746907385681925100597392338707791535119366348085884470049278696383053824.000000 9721809957127204601229233847139874666512204123560926861366246941943616024425892747419363067553946533888.000000 0.000000
0.000000 0.000000 0.000000
3050778178643905908823698203699079887105676543244386253595254319839144729604214058278714232976231628800.000000 -911647168185033650169410338083931936463752164945031293552473289584766696455063206109159035301533843456.000000 0.000000
-911647168185033650169410338083931936463752164945031293552473289584766696455063206109159035301533843456.000000 191460592794871133959055936599971209535989563149108869038265058029244986718030892720476672407499702272.000000 0.000000
0.000000 0.000000 0.000000
-1204796743794490225353461781216875493081430117267650716098805605999647597179055718972541665863631160475648.000000 1155931473461209809496156579525498272611712309558463476723728718390223292999401611395380915532540145565696.000000 0.000000
1155931473461209809496156579525498272611712309558463476723728718390223292999401611395380915532540145565696.000000 655645044838858463401817472121651365168835395144609315388614251130393641444569704513195947453468786032640.000000 0.000000
0.000000 0.000000 0.000000
-138521675538376357133161304823468473604273785693327549664403496502750937245499712891345016013202846121984.000000 -142643561482770750040797979174698529784012578863570148138734797068195948093015486893147816020811645452288.000000 0.000000
-142643561482770750040797979174698529784012578863570148138734797068195948093015486893147816020811645452288.000000 81263960341872171392137649693928851616550907322876229662184315365934151194510653393232159387031674290176.000000 0.000000
0.000000 0.000000 0.000000
11114768430042584204748017903086147581378905983336708857943586754837079286917611895486599870175663620096.000000 1893844264514924636767462544775220866503124071267790586202828919137411703467693448592282851030608117760.000000 0.000000
1893844264514924636767462544775220866503124071267790586202828919137411703467693448592282851030608117760.000000 212297840561907557389849854000221564703886229170581993012266601041120212419359762395146347379509166080.000000 0.000000
0.000000 0.000000 0.000000
110059561158949050860231033439416825199011047310709246224936827105294394027096556103529381531896812404736.000000 6054024178363480166868217926206953785234854515217920699472706795552093825608023586673055947801474629632.000000 0.000000
6054024178363480166868217926206953785234854515217920699472706795552093825608023586673055947801474629632.000000 240114153501232841186765729676809088486867417521518198226214079896132139170621965133800061901461258240.000000 0.000000
0.000000 0.000000 0.000000
2950130817778633404811565665199833205899819824527098610813252863353266918639308119313162961348045307904.000000 -2292107189583883291995267263980562680776750706083535712730174420235013655209739278284044992658448318464.000000 0.000000
-2292107189583883291995267263980562680776750706083535712730174420235013655209739278284044992658448318464.000000 864316738838125517820642850765529357043261565882662588486576202909118168950027238939695780686702051328.000000 0.000000
0.000000 0.000000 0.000000
2753111392018942662416389261006967795117081748321283580797243724177362980921836831479857324927597150208.000000 400496750666233235815774607263375282684275240102510187870447781379599898520679420213657820887752114176.000000 0.000000
400496750666233235815774607263375282684275240102510187870447781379599898520679420213657820887752114176.000000 683354844929250739310718831274910450760744417337390795724145044034867997143364989150440247887830974464.000000 0.000000
0.000000 0.000000 0.000000
-150164700416325194950915090766439742649156090329449157266500500651931444414240692193493958445993614639104.000000 1904100470208550860935384438952898611445810360311089714953361698644286847415911413546588519968431669248.000000 0.000000
1904100470208550860935384438952898611445810360311089714953361698644286847415911413546588519968431669248.000000 194441156632249266870654107099458108882512234705737497888482953254741382006060328622441569356032770048.000000 0.000000
0.000000 0.000000 0.000000
1566431763224229330039200588569227042890895613956844855087671537516192512635907591482196621493970927616.000000 -534857719434621831914146406193124120792771842729817905836289082353301572650712692855571661763356131328.000000 0.000000
-534857719434621831914146406193124120792771842729817905836289082353301572650712692855571661763356131328.000000 466633697406120923620779728797881135843104408494288843396691961874112695326295189665049889674828447744.000000 0.000000
0.000000 0.000000 0.000000
-109023918426344144185474362271480709410432494808342176031333632988074840415104750221672408336068826365952.000000 9858589862899326201611454671986753652840043556601986838543222047043904831341840926224499578858559766528.000000 0.000000
9858589862899326201611454671986753652840043556601986838543222047043904831341840926224499578858559766528.000000 1701415985149450005923223367422275422159669806734099886444332991175598024529311164980725526167610720256.000000 0.000000
0.000000 0.000000 0.000000
1869709648281750635909346301699005687730174164182197281215338738148035976019417930441264707868555214848.000000 345843542689797544073586377873602811975062245131396049572052289900690495263767899958061150066452725760.000000 0.000000
345843542689797544073586377873602811975062245131396049572052289900690495263767899958061150066452725760.000000 41713390633505859920529536312359217217767157795191997513762521888267296665442856153022716159006343168.000000 0.000000
0.000000 0.000000 0.000000
10543070780850299291052037747832128553658909070747388047336548356843439100870986387088895148207741337600.000000 -79914416920991226199327384152853836673887479361410583835535104879139755567609926822394328395765767995392.000000 0.000000
-79914416920991226199327384152853836673887479361410583835535104879139755567609926822394328395765767995392.000000 43551583791082086886589648137568844718024498202918011813282673851843906905788319843069823371179932516352.000000 0.000000
0.000000 0.000000 0.000000
9027472540140086516962935683366279791701683912826092462891464132412895060780280831395012494193399431168.000000 361142422236384592845907110506322787802451934850661276580267521477434257104517815200316993200189341696.000000 0.000000
361142422236384592845907110506322787802451934850661276580267521477434257104517815200316993200189341696.000000 610035800517146424927142338750118676001055362008205344927855009082651898814163601283187155727978332160.000000 0.000000
0.000000 0.000000 0.000000
981454783391568155902557443025282223191080457864448639719119035724437516054458041079442794123209211904.000000 -569665611336041524804284744427666287843654972458826417539912524604765700197836776341151410301274423296.000000 0.000000
-569665611336041524804284744427666287843654972458826417539912524604765700197836776341151410301274423296.000000 181326291914548939253273078657761541363580485231949478552845848196928513772927184367681938187582701568.000000 0.000000
0.000000 0.000000 0.000000
5839735650454804141735687116469232639254340574464620956182848327744050241424898502032334009226810621952.000000 19640213240303530507062465874242780437277919476723216434761938924553045628888240287564055800610016985088.000000 0.000000
19640213240303530507062465874242780437277919476723216434761938924553045628888240287564055800610016985088.000000 10341813419577967374080023422343296250445010098030463132566328204076440549204070415268899901178944421888.000000 0.000000
0.000000 0.000000 0.000000
19330263894343527178786449993091789284971612666524673001283237646650447180486738134054743919751593984.000000 -2106237981776307380336151260750744971891753197549022506244684156083746419161187063516814017470297800704.000000 0.000000
-2106237981776307380336151260750744971891753197549022506244684156083746419161187063516814017470297800704.000000 2383273982786962583354889432344172885190716740853096952351001255295835426327030828577794257607381221376.000000 0.000000
0.000000 0.000000 0.000000
37868336524132138393233752068859669892519170549199054319389500496783543686317995544067843142489703710720.000000 -5299816777088879323169127066247254300061066097460936269801685099042400601267562368479939191322401832960.000000 0.000000
-5299816777088879323169127066247254300061066097460936269801685099042400601267562368479939191322401832960.000000 622043415510087732445057048572980393356924961973361054287902237914369950814281475310837618387579830272.000000 0.000000
0.000000 0.000000 0.000000
9463617080905573265640342100117686340752786488589378806124570724181707488507414055857123135062972301312.000000 -26719266216926354962053306459281201913088272598347231955335826714608286270488899631713637830100831436800.000000 0.000000
-26719266216926354962053306459281201913088272598347231955335826714608286270488899631713637830100831436800.000000 13882204029157944021371686801762540974231661215670972419718215036388593637994143461278802179568798007296.000000 0.000000
0.000000 0.000000 0.000000
-513485921962537013874735181706278549761596360129816828615832683107772929710747159806853337293200031744.000000 -48901012947443699170299662785840208291960533500367135380028010273069860049502632000003483455891439616.000000 0.000000
-48901012947443699170299662785840208291960533500367135380028010273069860049502632000003483455891439616.000000 102227187482080608936024470443735797139561342827860844039171687007258900210583556660320135351592026112.000000 0.000000
0.000000 0.000000 0.000000
-964704804381232183254356673587344877940709277760823773680795135594291148265553729278654024328299937792.000000 -9104834807510825953229919905266972595414451582829922810607928732173618217930233327642288039783754104832.000000 0.000000
-9104834807510825953229919905266972595414451582829922810607928732173618217930233327642288039783754104832.000000 5084677846784615873538758269431370949979335444198296535382463731726272486064588085207766237332998455296.000000 0.000000
0.000000 0.000000 0.000000
3970876693886483941364435264192869708645469680136979538525137642213478840882533366373009798999251615744.000000 -1914819918144084022462425994906692637231775013638039905896988665940037300157809397259351496147819560960.000000 0.000000
-1914819918144084022462425994906692637231775013638039905896988665940037300157809397259351496147819560960.000000 759950871596803541021596967139246721721748161601605441486213707868978578375866179578299004604079144960.000000 0.000000
0.000000 0.000000 0.000000
-1625444002643656360645184691869516960083020841541098871908143267404652343149963397613935842220327305216.000000 16571494726132837872245259179073720539023304792640935238995105608269934596797142566704272029497002295296.000000 0.000000
16571494726132837872245259179073720539023304792640935238995105608269934596797142566704272029497002295296.000000 9329493918675784228211815593439425628902765414172160849872422376863240499912921815051846132988943269888.000000 0.000000
0.000000 0.000000 0.000000
61273194347258141297646590026652468278619239751279130144708086939517801409783572873092748461840525164544.000000 -62311490544894291460960977565408280052653109118169441729450538491216494046884187638504566262663397507072.000000 0.000000
-62311490544894291460960977565408280052653109118169441729450538491216494046884187638504566262663397507072.000000 27711546848272056036757890029824570082821215053268046653503489968527573383425762571828745760670417420288.000000 0.000000
0.000000 0.000000 0.000000
3917613707261881874771948616281940902597774224304732462758370277845400020155045096453468692131029712896.000000 7686072221553340102594535054914460179735883142595681980637494949063316722062923641458778513811940835328.000000 0.000000
7686072221553340102594535054914460179735883142595681980637494949063316722062923641458778513811940835328.000000 3925058928849633685156790091906167285086260603946095578829251763577777662653361391699800259882804838400.000000 0.000000
0.000000 0.000000 0.000000
-23756264028878932969144191876485849709317309136747891988750386032487232033672818530070650414289347674112.000000 -7781573912970379595707361490489189057298802637840359730160223589434315299442277165005856273433744113664.000000 0.000000
-7781573912970379595707361490489189057298802637840359730160223589434315299442277165005856273433744113664.000000 3720828347938687551754462041969227930270119946121168862357088338243325079503490528556273843298828812288.000000 0.000000
0.000000 0.000000 0.000000
3244475462440141038193980705136517856298812430767442614580760022804539322329964573685699294183638958080.000000 -7611177628961264761200103227379497183106555931518859526533952037834857115095291010539131917167476342784.000000 0.000000
-7611177628961264761200103227379497183106555931518859526533952037834857115095291010539131917167476342784.000000 4160949529563800548526019110549220309160988471125372383734935062450230951425975129844467265546127147008.000000 0.000000
0.000000 0.000000 0.000000
18769645098443606426784427456035065570961164849752851030516484287751001445435887796101244197531449032704.000000 -19413964756625029540426000563553979635464971085917836217608007061270816793439545762999603717367582949376.000000 0.000000
-19413964756625029540426000563553979635464971085917836217608007061270816793439545762999603717367582949376.000000 8287131901649057071209076358263752020629695925837585861157448376409864172744458472443792836340976975872.000000 0.000000
0.000000 0.000000 0.000000
-114796315541054226987684237836830238056263881016206206404131357938989675414255780912666894647332549165056.000000 50836091726834937451085776910172764511383742028997166649116107485635995740232027450554800667619464577024.000000 0.000000
50836091726834937451085776910172764511383742028997166649116107485635995740232027450554800667619464577024.000000 24204029475042581082659648563987254987876714816817695603767478214392013474317556651175979034573860241408.000000 0.000000
0.000000 0.000000 0.000000
33035154369444445797712791217026978076071835230862989449865923530760382201398567108841828834940366618624.000000 22285421416000893841461492005827866367153097342072414951363056298870945321131812401557056087468676218880.000000 0.000000
22285421416000893841461492005827866367153097342072414951363056298870945321131812401557056087468676218880.000000 7710912161006392976445763490015842045756661496764005950858763331602051606348045770637077786731208507392.000000 0.000000
0.000000 0.000000 0.000000
20421811228380443233219589571994161696172659390249707180364812104773616655257923567765425489295647440896.000000 -30010994142659226792991741617442026592235948112847915251743495994585043907151457321390221943993389809664.000000 0.000000
-30010994142659226792991741617442026592235948112847915251743495994585043907151457321390221943993389809664.000000 14190103642775618902122422243289465306914018919877836967793795681385354871498287788819362834334556880896.000000 0.000000
0.000000 0.000000 0.000000
2085777026708929106205350616475731460315802562735447867612682574018990489539407693771118214007821959168.000000 3755640560482945406355588630084345446672582601626665309655319693297912856757461574586928271619734372352.000000 0.000000
3755640560482945406355588630084345446672582601626665309655319693297912856757461574586928271619734372352.000000 1853950089897876028433002919710515429069117948499729035798558419602732657139936694928254869590532685824.000000 0.000000
0.000000 0.000000 0.000000
-48990277893241124800552421999187194362856357899817750057900208130786928230055015741389343439269099070291968.000000 80538314390307933669466203670982275452026726311577259611390394872962508941919321626454826563268316758016.000000 0.000000
80538314390307933669466203670982275452026726311577259611390394872962508941919321626454826563268316758016.000000 1059298174919151464243292610388411258618252166257998117858745555044571189272843324996945425948292939776.000000 0.000000
0.000000 0.000000 0.000000
8365682763629372342830697237447628832468441120391252358669601395705205071599548760848463981534693556224.000000 86113101296261118100279870197786843601372972645686438559987861334364821953285626208022518438486494674944.000000 0.000000
86113101296261118100279870197786843601372972645686438559987861334364821953285626208022518438486494674944.000000 47181495162635978494315253722349781027190324803924933384433255448648067601813149774066524351211239374848.000000 0.000000
0.000000 0.000000 0.000000
23417768012968588939017570180627086169429609893114334349182293005450501429769847375140726892615386005504.000000 -27567329956973606836564158315702680240114349275069261419725215186790475335764112968994444615064691408896.000000 0.000000
-27567329956973606836564158315702680240114349275069261419725215186790475335764112968994444615064691408896.000000 12293903007116873523505494644784993643650679268407285943856623382398808888781099468224825607198808735744.000000 0.000000
0.000000 0.000000 0.000000
10505497684250677589520579910578909688528597303033639037869416665413174914596985794517293231957335867392.000000 18562636478195294022829747745400703624184133902026564317996783991657471443787497115932585630859886854144.000000 0.000000
18562636478195294022829747745400703624184133902026564317996783991657471443787497115932585630859886854144.000000 9101110389935384299463612067365753819586627797837863375185763448727596794890913770724400487518596759552.000000 0.000000
0.000000 0.000000 0.000000
-284041470509983239247372596350268875415095456783796653154462647362578464425650388692800872490813945282560.000000 139044509812296950327405018643656526284111001674100517121003267655528590547443333350416552484762988576768.000000 0.000000
139044509812296950327405018643656526284111001674100517121003267655528590547443333350416552484762988576768.000000 70855932812308471419051662244914245449037809554044164455197555258108256864973544429123284129526761652224.000000 0.000000
0.000000 0.000000 0.000000
11821629143207435409124223377870356645208539844480491878838099958280428166797805004449272502793822797824.000000 28760965440878396416532814140496813264599757919223125518500025877344605304842522803269631851830741827584.000000 0.000000
28760965440878396416532814140496813264599757919223125518500025877344605304842522803269631851830741827584.000000 14013498003237256637169504093007292074943949164590669728529936061597619818131396827363992144099124707328.000000 0.000000
0.000000 0.000000 0.000000
-89145318333320565739726681187489937106180883510194297936837820071089207668393475717378449593308612132864.000000 13388546948757151223028429021071816894416957703379380086471644839638325958954805425461563364588025544704.000000 0.000000
13388546948757151223028429021071816894416957703379380086471644839638325958954805425461563364588025544704.000000 4163511215705163078274425301386498965295842857052357258605355459908405715564005611415977413452584976384.000000 0.000000
0.000000 0.000000 0.000000
-2227153528265321437878648931245564475877217088607636597425712908199996669421705782958451349238217801990144.000000 376862894160310188661676687384777777377024045658792710913745686540483766056527410636803446811380928217088.000000 0.000000
376862894160310188661676687384777777377024045658792710913745686540483766056527410636803446811380928217088.000000 110516136562799432328529949984629289481659543267145779268888816775455192317954985626911402317947422638080.000000 0.000000
0.000000 0.000000 0.000000
-446361365507592715330854354579217362592503009546838941697345745235727417027180101552914905037063105544192.000000 85304419483302809727294618209472703871049125991780048603219525835200149132740616883981895423146921558016.000000 0.000000
85304419483302809727294618209472703871049125991780048603219525835200149132740616883981895423146921558016.000000 28263756453766335233593229199726933883535825508315011595870367064233501606260259794046643527767967137792.000000 0.000000
0.000000 0.000000 0.000000
-2932428238910894901271675910452776606740326323645129286624510558910133296536570626529928075081087451136.000000 1145381901820021788130254110509562525516588687953770226634628735182254916830060456483696466346368827392.000000 0.000000
1145381901820021788130254110509562525516588687953770226634628735182254916830060456483696466346368827392.000000 541052247698407226474851992120210499791679420473076188508674021046195743884589131458735094352786227200.000000 0.000000
0.000000 0.000000 0.000000
-1340748530258042491593567713945028165230051518270310146238728687347158646968826541680293562061248528384.000000 -629834081866821456566482586074097175819045282644504698142335133887370183346204846082642540340564721664.000000 0.000000
-629834081866821456566482586074097175819045282644504698142335133887370183346204846082642540340564721664.000000 214590442143586296363158161984658800902799227290992296218825748942062788195577045318363523525126389760.000000 0.000000
0.000000 0.000000 0.000000
-679012088416127259932502606389881523563345583795145772590771833468922187412303251000645237227720278016.000000 185070426506881706399588120740370682436111785544469344757808234468083805553412307825433964758591078400.000000 0.000000
185070426506881706399588120740370682436111785544469344757808234468083805553412307825433964758591078400.000000 73718235410451776887101410131998936849793572956921454640119906186490059804098476417329416369690640384.000000 0.000000
0.000000 0.000000 0.000000
59316271311023345885730736043535812954895339541384234464601733930721833301370790660979169987209960882176.000000 -28076173165716471242720824271160464582074925168580811037588894482075146607653763243785000760711747469312.000000 0.000000
-28076173165716471242720824271160464582074925168580811037588894482075146607653763243785000760711747469312.000000 7679965295283753817465770236352436250641606506545619407955870560775136394488396719028802345141085929472.000000 0.000000
0.000000 0.000000 0.000000
22288359817064820787132228808841089751110373673650494535150205252622813445366882631308817923982216921088.000000 -2922296725079227531354223027565921328211929312779224726141542093550853909353572325575392707485020192768.000000 0.000000
-2922296725079227531354223027565921328211929312779224726141542093550853909353572325575392707485020192768.000000 253300499282546599083174100654000160909000442439003835966348206165048849851874197823547210854276530176.000000 0.000000
0.000000 0.000000 0.000000
-49171141468399228466579811377343656774179137948880006274824595222312886725476063022497401338209534738432.000000 51854348765253739300438233899449982084133682550174726251909239493651727213562842021404255390688870400000.000000 0.000000
51854348765253739300438233899449982084133682550174726251909239493651727213562842021404255390688870400000.000000 29777276977407795359613975119530256155688853946109627019655271332855838149981516825512669762173615996928.000000 0.000000
0.000000 0.000000 0.000000
12727250158414249969739109006994329384134783876089129942799221732321559975072719403404273196093067493376.000000 -16255852670139075260255162467551137640501521723734464142033032126201017697290745490187548283009518010368.000000 0.000000
-16255852670139075260255162467551137640501521723734464142033032126201017697290745490187548283009518010368.000000 7273877511807125633203607015608506655959611433577156743660352638240200763553596536481036831851248877568.000000 0.000000
0.000000 0.000000 0.000000
-6747532527954772091979394648502309734470792393572135064613327962328040697099182277131435161005596868608.000000 114063522826614981222377483988028985501145510284708223685101916720222772277227754469506782811601865015296.000000 0.000000
114063522826614981222377483988028985501145510284708223685101916720222772277227754469506782811601865015296.000000 63920191234656237068707597466764311196485246748464949777996106555491096608513100183079986195913913663488.000000 0.000000
0.000000 0.000000 0.000000
-1135703335356871625011386304397911875910374390653273006227443890917875609111957471339124020036979654656.000000 509199603715426357002003388476610092072100819468835788158825132774528591444269371779217977569043283968.000000 0.000000
509199603715426357002003388476610092072100819468835788158825132774528591444269371779217977569043283968.000000 252263606573892591205236691343939684945127124198881140716049066668227487011096749749837066426254360576.000000 0.000000
0.000000 0.000000 0.000000
5567587858474969131220417053113968568294287937034983920548813738574189639166083320193497025122291154944.000000 5872554026656233469910099483743490774335341150416168882272043731154074626409934517712997631564500172800.000000 0.000000
5872554026656233469910099483743490774335341150416168882272043731154074626409934517712997631564500172800.000000 2705322618826333838126171974334948999656915617816610846464726672738132126179000592615030772772083073024.000000 0.000000
0.000000 0.000000 0.000000
3355825322360746007170547386809972323041446371061372555961374940121187837055319521338388244325497569280.000000 -489342047890670569188619937182933007688372191501024855684313793950565223357242393681736621953118109696.000000 0.000000
-489342047890670569188619937182933007688372191501024855684313793950565223357242393681736621953118109696.000000 470217316477531258578177658462307160991756984304354988513159802093744165226279248383673523364071211008.000000 0.000000
0.000000 0.000000 0.000000
211933752583351005338560354784155786253954145803955550983203407629490710969796442995914016985609878372352.000000 440800722941470260366393674200218724788151320461996509573398940427136734042712327264991910948085279227904.000000 0.000000
440800722941470260366393674200218724788151320461996509573398940427136734042712327264991910948085279227904.000000 221507436665088392882457212921160410486760074057009429915264304311698798500845961814072849635974796279808.000000 0.000000
0.000000 0.000000 0.000000
-20010888374569609308172977607277289323038978652515440063820776967496479822742018036959183303497790521344.000000 5291345393810707593005473160403695331359844100149591415400005098662908758454825098176082693706498441216.000000 0.000000
5291345393810707593005473160403695331359844100149591415400005098662908758454825098176082693706498441216.000000 3241357186283023201511197038342782528957351460937743695275169547854130718635462106200325115518876909568.000000 0.000000
0.000000 0.000000 0.000000
4043606599564727833844578914003336571052084006324683401299778495430567666992178402820573278382501920768.000000 6897461853763282404469759763592827866193442289909047215534229597666809069530627509408830870471590281216.000000 0.000000
6897461853763282404469759763592827866193442289909047215534229597666809069530627509408830870471590281216.000000 3368436733925407271359307591166719877519727387383933640800694955048749776749250552638221382847117131776.000000 0.000000
0.000000 0.000000 0.000000
52146074522191769226690123945585898214095741932543157687703434041091129722917329842808902383177348153344.000000 -12865318330927411598126525334673757612885317382508119103146228916754160221200232670292261577870750515200.000000 0.000000
-12865318330927411598126525334673757612885317382508119103146228916754160221200232670292261577870750515200.000000 2136935791049961067969798436514419673811166059645507929484678488023099445737423266297046833136415014912.000000 0.000000
0.000000 0.000000 0.000000
1790771220184382462317845505589745148990730912238726213100717205005941716210396443309081363269250187264.000000 -238300208786158442935591572771949874893555950727598792173003429025741139862316908727366498438533349376.000000 0.000000
-238300208786158442935591572771949874893555950727598792173003429025741139862316908727366498438533349376.000000 196165821052902874671805945600680836204685087549267848518970638406079633904834803372100516663414226944.000000 0.000000
0.000000 0.000000 0.000000
14669567392553479677776703621875779974879212140023787011251669325222490060137128141072496336770082799616.000000 -24391820270748162096422535857125597836012668726291274949974249395658794745986104318635908384750017970176.000000 0.000000
-24391820270748162096422535857125597836012668726291274949974249395658794745986104318635908384750017970176.000000 12370171330873290092844047606458757357941235734345830822382754396195879094969980002111241599876262264832.000000 0.000000
0.000000 0.000000 0.000000
77506324410014825887060920930582153363834070323280459386113843711003146092556049443487698913901859045376.000000 -66788927485615121996306164540835713620614765525783273786594487487169394240386385607257024572114132271104.000000 0.000000
-66788927485615121996306164540835713620614765525783273786594487487169394240386385607257024572114132271104.000000 26467365016050662520436166778809072286988985331466722130932615530204738053533359555683369203462033113088.000000 0.000000
0.000000 0.000000 0.000000
731807409687958529366474625706787616392213265991070231635953674940898034067591006485175852079050129408.000000 549227526959936874004890041631280739188145180452857049960140918451906553037215537836338891789069975552.000000 0.000000
549227526959936874004890041631280739188145180452857049960140918451906553037215537836338891789069975552.000000 200025799126980642631664180820697976032542408444631115987206850764695775814985384379085834686629412864.000000 0.000000
0.000000 0.000000 0.000000
-6151171228240401406314251003973865474406802711863114134723402209352826743579661860328980038710219528732672.000000 368529743289066043951818845673473916148990524089249439205907749431010730350248716059575309487621728632832.000000 0.000000
368529743289066043951818845673473916148990524089249439205907749431010730350248716059575309487621728632832.000000 43392822851879691711719001532408097482058883155865824236520268018130688453502873918476176382677003272192.000000 0.000000
0.000000 0.000000 0.000000
13628929462207604867344182214199077532648784924104311188236521221258896810163059100662241751579465089024.000000 11798411610802054872948068771728108101249798348372834350612911935990140367458168143247578141423122251776.000000 0.000000
11798411610802054872948068771728108101249798348372834350612911935990140367458168143247578141423122251776.000000 4685213212313781025867888785837311470902919647580052766715064790389768946590106398221267940626508283904.000000 0.000000
0.000000 0.000000 0.000000
2050415461433223621551216400440205009173435597182109715027980272139356210922283782766424007100155822080.000000 -305129318064984674302313859409770214898665514142165350806891185058289476500691068169311206319430041600.000000 0.000000
-305129318064984674302313859409770214898665514142165350806891185058289476500691068169311206319430041600.000000 61349114534003174664796902604989344377761768165240158728176012391383926358046881601507320918588784640.000000 0.000000
0.000000 0.000000 0.000000
-49165406318050840074069283304064932983505919298858015616372501901357855219132659512004656794079638585344.000000 548133940580789664438804653336306917393893183029214427341561815319430890007792074948339825040208953344.000000 0.000000
548133940580789664438804653336306917393893183029214427341561815319430890007792074948339825040208953344.000000 631340834817513310603083441596153241052333883157795807395596956103413201860776009942706850253854736384.000000 0.000000
0.000000 0.000000 0.000000
-59857619042190153680145685060362909485538815918374316568476629923057925860481790915283959096620607340544.000000 5321768708153486985483280696045386001694754992467558966519543539919101237963516473969518371966367563776.000000 0.000000
5321768708153486985483280696045386001694754992467558966519543539919101237963516473969518371966367563776.000000 668290825575901170923942000286880813939255183105307350236196605942255634776381037828160881181568532480.000000 0.000000
0.000000 0.000000 0.000000
1843519067614245060409362048947493719559744301168785708873270329514072038118608752265636711940596170752.000000 -31758218425415303379587374711119503242438126653920678186753222351089402837627218110712717628296658944.000000 0.000000
-31758218425415303379587374711119503242438126653920678186753222351089402837627218110712717628296658944.000000 1588184338235724700382814128796414588630247694636853690648424976862305990439157336403136008077443072.000000 0.000000
0.000000 0.000000 0.000000
-181120116521473579646289560511501828341938801306859582712154634772631936352894157769365265763997797318656.000000 3303952777970526650040800302456686180541502714388626535753837773895784688717747141473587441014556065792.000000 0.000000
3303952777970526650040800302456686180541502714388626535753837773895784688717747141473587441014556065792.000000 1065710115597748423275978650807254845087706068853566706358739188471941334627329459413125282766501445632.000000 0.000000
0.000000 0.000000 0.000000
-17747028611637653112755529544271096623675559519612181185725795204942103018336124609928797132330641653760.000000 -6191885931286749718059359077853107679514309578800511409321201210828361975479414633523830392350018895872.000000 0.000000
-6191885931286749718059359077853107679514309578800511409321201210828361975479414633523830392350018895872.000000 1685256078944613105247273835093517020810682167944234518558168477137896883648272852203627271728438181888.000000 0.000000
0.000000 0.000000 0.000000
6825682170005096605129438836175521399180138974498912198785152887732459414239659756108768422616507613184.000000 229624895746620274174059295322679062036699194253417017922431843289571512284713198462368525366635628855296.000000 0.000000
229624895746620274174059295322679062036699194253417017922431843289571512284713198462368525366635628855296.000000 127155914834052171258816745604011692132690659038656070474647995322275555300759972280295649001420519112704.000000 0.000000
0.000000 0.000000 0.000000
-5584896662302475283142427719358419720696436952680611503909820770334531310596624324656143764346109952.000000 -351752207785762583867042119316934009234852574248777746512093035782596770552423722645724618946015920128.000000 0.000000
-351752207785762583867042119316934009234852574248777746512093035782596770552423722645724618946015920128.000000 196063913418362126985951197964487736179583959485743666677425055187917528203641777700612480476169371648.000000 0.000000
0.000000 0.000000 0.000000
758331404210981786705435099469966240339634675952464895815697100556944728466266298756262936742186713088.000000 -4433624712444570959107038467925131822171130747253620884261416312310636340919432817250342839929752518656.000000 0.000000
-4433624712444570959107038467925131822171130747253620884261416312310636340919432817250342839929752518656.000000 2568567379878153803793922874211907168179506010261818959292412042476687551869921866983224693308503621632.000000 0.000000
0.000000 0.000000 0.000000
2225360988034463904334106550604335281191810222513993396003806860951480966667582603676931843236787388416.000000 -1007417498988834154417462507683396521331152185189121593851160411751946398125019018289965045009203855360.000000 0.000000
-1007417498988834154417462507683396521331152185189121593851160411751946398125019018289965045009203855360.000000 267899352205380678066890796703557115299027934629967678473987606243802834694212817445224834372976246784.000000 0.000000
0.000000 0.000000 0.000000
1594010650700641686332498743646057701285667627337266695851287332614885807175471322516172147000906612736.000000 5733716948963380438532417825389264262576170553925528876276073759312836923836291966009854334590779392000.000000 0.000000
5733716948963380438532417825389264262576170553925528876276073759312836923836291966009854334590779392000.000000 3011566386096058948319194334603028088004097696946080855463419675763035833272466306562418161901159579648.000000 0.000000
0.000000 0.000000 0.000000
22611141111785644639936787016892218186524065004035883763813582822450137652127202821702127481754203717632.000000 35140027444036350578455777641013006289654196973159571806810617098009233151446867503215461621829965185024.000000 0.000000
35140027444036350578455777641013006289654196973159571806810617098009233151446867503215461621829965185024.000000 16815194882180520065473988393459412326114781751431202002654712296292068412387219601673354142708861501440.000000 0.000000
0.000000 0.000000 0.000000
-397376858441485956747044716391552684024484896778836621048698504635335575123086541336091086469276813492224.000000 209218030499588014196399410540427987272189403836901291015828834414189495275267922328699789389752363384832.000000 0.000000
209218030499588014196399410540427987272189403836901291015828834414189495275267922328699789389752363384832.000000 108438756639630739137636582994667194307419620670098742431481419570980389875642726025858227742732909019136.000000 0.000000
0.000000 0.000000 0.000000
-34736858988018113649955426510925362264672243871088770893562684117177290578852097582167954782289659953152.000000 -5978130959670079680278568065597776547466706744320015672901142215734537169084771774904419354505983819776.000000 0.000000
-5978130959670079680278568065597776547466706744320015672901142215734537169084771774904419354505983819776.000000 1710120379386449616843399930800325905005018402003077478332949139537895914373464438982554092840333344768.000000 0.000000
0.000000 0.000000 0.000000
1829095227434994390604860293227960259987035364155589313788502231353482126043653543355353617359945334784.000000 1335033280329594645381604755230377671460841798572221843000816163300212541843291505886040041633404157952.000000 0.000000
1335033280329594645381604755230377671460841798572221843000816163300212541843291505886040041633404157952.000000 465054884457949275708804624120945847453927973337417826320761642608568038591377658865465955289617399808.000000 0.000000
0.000000 0.000000 0.000000
-153730604125199023304493925306491354953199481440619311465096191905091706479382475818575118813621636825088.000000 -66872524658441738511823206124298274477422125199985681266399419065240023375484150495458347420455834484736.000000 0.000000
-66872524658441738511823206124298274477422125199985681266399419065240023375484150495458347420455834484736.000000 32776523304456413256352810310145838348284559020255630843502503917691174928366363075987796721202660114432.000000 0.000000
0.000000 0.000000 0.000000
2766841846073080606407341904668123385100207929834972643991883723384686930055330704322835040818945851392.000000 -15068404261193151021501547423591765094931420580409857482525938149701711207225060698370600031110528237568.000000 0.000000
-15068404261193151021501547423591765094931420580409857482525938149701711207225060698370600031110528237568.000000 8121352978001759341148631708031133744803219914335339724278293150097119525098739340002007946622339645440.000000 0.000000
0.000000 0.000000 0.000000
8180013571658609447311357683613942389357645569478185736782281553962762258584749446621029720689609801728.000000 7576070456221828682222057156204371592979829320824051122473561564148242372351290817344211209930676371456.000000 0.000000
7576070456221828682222057156204371592979829320824051122473561564148242372351290817344211209930676371456.000000 3098345254187533578783950129945409659270702443717798024164553923262579779463204310122181472143611527168.000000 0.000000
0.000000 0.000000 0.000000
-177529118876890311280767605120643049176740410317645886623951230288086353010160265254730171002665304064.000000 258301878668113001110069598006388915620543673558789380331004229768263920228766618982439870957254344704.000000 0.000000
258301878668113001110069598006388915620543673558789380331004229768263920228766618982439870957254344704.000000 148931851990899085487874655546397852458143860312245147461813014045453213282301255842593020615355006976.000000 0.000000
0.000000 0.000000 0.000000
-293302582248564737435294618050538934144166295915304380433528334822612122268486434385695898991451837562880.000000 131008632718323795981135079775701230136513839612159005563779137487789203042078641197647791347055617638400.000000 0.000000
131008632718323795981135079775701230136513839612159005563779137487789203042078641197647791347055617638400.000000 64819085810905494138254311451151451889516551294674839032547289381060405545943290199374024114945017249792.000000 0.000000
0.000000 0.000000 0.000000
-40607696779083747371431461407051894713434253939685494724607030914713348470208064846915712638414554660864.000000 -386611386117379341772971125721296306959839055340954240941703134980594577998944773791126421329774517420032.000000 0.000000
-386611386117379341772971125721296306959839055340954240941703134980594577998944773791126421329774517420032.000000 217823363561847865944635027068463703944494204132780212677655033242246021925329465184183453724298591600640.000000 0.000000
0.000000 0.000000 0.000000
239327225607040551642469420319020421823525884109037563810148902852927308565499047060798519277678013448192.000000 -203115321005277305429375755766964894325618299047674788488403452532528711965239450515780168283777669267456.000000 0.000000
-203115321005277305429375755766964894325618299047674788488403452532528711965239450515780168283777669267456.000000 79931040231675168748587653668907176236110477609941769107102222364326107424239969145161293620275037863936.000000 0.000000
0.000000 0.000000 0.000000
-214065574340911521413661592874487230062577151577983232918119896916058207395165078365297580557142002237440.000000 262128449150210789043546435822854825450084041264608587752328154519949841924991275716500532721627279917056.000000 0.000000
262128449150210789043546435822854825450084041264608587752328154519949841924991275716500532721627279917056.000000 150222555345078565620642736191039207813086547017142699434137309873438617852067215661296530077049822380032.000000 0.000000
0.000000 0.000000 0.000000
-7864206169036190047505715885912449570374831961604874961370839619964816064510808316087579234996091617280.000000 -5337740879867987682010045219848664841959655991708751053451898993174774295387023983743967288565893693440.000000 0.000000
-5337740879867987682010045219848664841959655991708751053451898993174774295387023983743967288565893693440.000000 4647975952779678534119001500384297485650582354594253081654146040505663051071972634893036711608166907904.000000 0.000000
0.000000 0.000000 0.000000
14101122106475511882993137274995550490713488315114883622193192218462364203516234681641645991647632162816.000000 -41602403947884395122653963126249946629731469948785903908940579329684812820091270974912338356644737974272.000000 0.000000
-41602403947884395122653963126249946629731469948785903908940579329684812820091270974912338356644737974272.000000 22918285246973387088852856215941974127656396034001215106163367755357261791706417272067350855147558273024.000000 0.000000
0.000000 0.000000 0.000000
-1351334978506606231184066292029404736314185881005036993075435069271786821662695916509112162041529892864.000000 2198208870985374240612360403059681053339593739408969269966592848318708518526330661513433820121048023040.000000 0.000000
2198208870985374240612360403059681053339593739408969269966592848318708518526330661513433820121048023040.000000 1248559555467737913640344816437612465331132243376059235782502906398846986475506152411442208445009231872.000000 0.000000
0.000000 0.000000 0.000000
98856671804988428139039477498128097949433122552748228650714243693040879611124627826487512455834551451648.000000 -98430653953109793903583357680251216548172802580130766701290240045544462743475302950905674567816707047424.000000 0.000000
-98430653953109793903583357680251216548172802580130766701290240045544462743475302950905674567816707047424.000000 41433628312717886060395698360594962823221970522309398113695676687826441443693958431809478991567371894784.000000 0.000000
0.000000 0.000000 0.000000
4335596062979229737599800314383909631027909007657603752022953412272537262469158737424513274941257285632.000000 8825600432855145853810502764434634621041366896398620342129077095328097323440059498406776810865657118720.000000 0.000000
8825600432855145853810502764434634621041366896398620342129077095328097323440059498406776810865657118720.000000 4421538739636705886143387916754841846464713845775612202757760698508509053510752914753734078610693685248.000000 0.000000
0.000000 0.000000 0.000000
721395453776705204379313294430539029515855436694342523716649368542511918071321655263684453099479498752.000000 -47058754897331815330650334392978496612982824550413294051453022962884995488127828283887011549639868416.000000 0.000000
-47058754897331815330650334392978496612982824550413294051453022962884995488127828283887011549639868416.000000 89981395374884448887718799750313797079779293500167448287874223434607596269228389230822184653825245184.000000 0.000000
0.000000 0.000000 0.000000
21477102271425813695572613837211254425645180449699304379435947654219315914333565358806614423199608209408.000000 501317684968851931043467182681634687898811176042986412472831257869193362128184200076323031277073596416.000000 0.000000
501317684968851931043467182681634687898811176042986412472831257869193362128184200076323031277073596416.000000 8061908433783888399660375779677399851367677306964460461350297604889520023637605595119162065309138944.000000 0.000000
0.000000 0.000000 0.000000
-3564595429198247304478926233564080121814404717117684428201473804318080513772841591777916767504730947584.000000 -7692887304914688222503322629194147529884642844322266221236054371492133585699966000256088170521908215808.000000 0.000000
-7692887304914688222503322629194147529884642844322266221236054371492133585699966000256088170521908215808.000000 4929983262519925060171999492153796750952300273537507568111345338917695533032056821104286121150197530624.000000 0.000000
0.000000 0.000000 0.000000
7971569624671712169686920917454347246972091080046167878218768309080567778395572715741360858468525801472.000000 5196090557139013120808856372176828604958834189370853626291252231862260746331562249995961929415446757376.000000 0.000000
5196090557139013120808856372176828604958834189370853626291252231862260746331562249995961929415446757376.000000 1776501182524055206538204546588301315294097068846639217049922650412834642972414145545652929732173365248.000000 0.000000
0.000000 0.000000 0.000000
8594133075920530620047955471238730190154098029749387821766467287498014548659398802928954835719879131136.000000 -1252400907174823488572868708063403501553500576404996522079921554363802144003092770822020862238108155904.000000 0.000000
-1252400907174823488572868708063403501553500576404996522079921554363802144003092770822020862238108155904.000000 213597812153727130853638704387065990769595108845969439401699852293131541272685908124650230439475150848.000000 0.000000
0.000000 0.000000 0.000000
-5746733485209916594501709930315588333227263912366422872254875524154976715331375629698731420586961010688.000000 -726020412619566481499905884727777608381701159936787029481698893434768452547857409805534227502502772736.000000 0.000000
-726020412619566481499905884727777608381701159936787029481698893434768452547857409805534227502502772736.000000 539161982816862803335325906275122999455312106442431541571768183229981053334840046324372305915425062912.000000 0.000000
0.000000 0.000000 0.000000
44241149415619194880615839196939230241202428955434949011485460400815987562214775932149642544726465839104.000000 26067170544674810617457724905001853258441459586084450091925573894454792118655940164628570261553210720256.000000 0.000000
26067170544674810617457724905001853258441459586084450091925573894454792118655940164628570261553210720256.000000 7775489873760803985515809855679261181813867754411618866665231751933841300563791796064060255961259966464.000000 0.000000
0.000000 0.000000 0.000000
50753789717737812465094365130971678597501304982792768328195407827262964044779741837189548951489138917376.000000 18665121853911126551513411756454510444857553568225674777588177910550117395833527287570172315911648706560.000000 0.000000
18665121853911126551513411756454510444857553568225674777588177910550117395833527287570172315911648706560.000000 4222045595303204649139266353172766480589445236093804967462123877666887891976364656705577401991695433728.000000 0.000000
0.000000 0.000000 0.000000
44620438028720978713955979126250542040181131905376491134853975871981999397429574928970555597543679459328.000000 -185423386568362258815468824160134141179337994280725364320030178326649857331524411730286713202577000890368.000000 0.000000
-185423386568362258815468824160134141179337994280725364320030178326649857331524411730286713202577000890368.000000 100513296729154078806999537659247839178510538359639410182439505640228289539795469863858124815032326815744.000000 0.000000
0.000000 0.000000 0.000000
18455025447535967661334873390567908156365778624657714656826617777086875844094087060855091777489105584128.000000 -1592024925066300210492112885939223045424468704148894926743297757550926040683818815579522058339659808768.000000 0.000000
-1592024925066300210492112885939223045424468704148894926743297757550926040683818815579522058339659808768.000000 7011630274122259256264968487835919155122765368011217147706812379404094313364206236112520389335153901568.000000 0.000000
0.000000 0.000000 0.000000
43585658285467624584991997180450765727402572706806159499612567933153523564101796693634751926266687913984.000000 -31147736654330685066804140177467348821775732979662282533118850307120842347546911683136193812798491328512.000000 0.000000
-31147736654330685066804140177467348821775732979662282533118850307120842347546911683136193812798491328512.000000 11869487860898512433835394159300739657903244004218103599339889647307571986046094568311738811677419765760.000000 0.000000
0.000000 0.000000 0.000000
3712917507492799423604266981886554814585538333111495964438098943708120736830137202294729687596458311680.000000 -1123545790937225176323923816747620541944984483487479022924611048297386835314061673297862544185391841280.000000 0.000000
-1123545790937225176323923816747620541944984483487479022924611048297386835314061673297862544185391841280.000000 206845878804142565392054001703819607269662498252951788889457935543258017377089679510517215656323055616.000000 0.000000
0.000000 0.000000 0.000000
-40031842568602933112616395229743959787044847554328950044989682279802687922577504107178624185214219321344.000000 -23409190023396106809217237804798254814492657688519423687987156867859485698789065106348218076006086344704.000000 0.000000
-23409190023396106809217237804798254814492657688519423687987156867859485698789065106348218076006086344704.000000 12423403472505445027117223554471531234234577942608056150579470017918301405647294639965912278905806389248.000000 0.000000
0.000000 0.000000 0.000000
-167044476642907758310022166205313725930566708914921102809308949107385690349606330758290721695514755072.000000 -618368966149286346869551685699185761404405571338892438498054314456268282450256417046228728882669813760.000000 0.000000
-618368966149286346869551685699185761404405571338892438498054314456268282450256417046228728882669813760.000000 353429935584149115890664615082106095132447365148855263146797638575793072256344543484938025942579675136.000000 0.000000
0.000000 0.000000 0.000000
32021949247760592002357912183684463691374744551132649682563543078380493931404215696843045300812946341888.000000 8977948068727843153089124679071230571987770621422348556543673222060338853229186562490040590812988833792.000000 0.000000
8977948068727843153089124679071230571987770621422348556543673222060338853229186562490040590812988833792.000000 1595318377277104678895474510651818961402633661981890065759558193455057328595289917743413913010934120448.000000 0.000000
0.000000 0.000000 0.000000
1408062365377850638926218641328698966840817365196841528943792373681430412712735641985512892268544.000000 -34680126055104043356223521274903556851879023915765565886052795163580309172616468800413125050368.000000 0.000000
-34680126055104043356223521274903556851879023915765565886052795163580309172616468800413125050368.000000 2513785236878923155177027264871067954314758440279117867041198693614923682097433172428409798656.000000 0.000000
0.000000 0.000000 0.000000
218640953358683952236724757165523131104337779506952311166405902181857756295047548476484659250724864.000000 -908748586002659922341059706842719527889828781781861342550505984266348407283347034448990616279842816.000000 0.000000
-908748586002659922341059706842719527889828781781861342550505984266348407283347034448990616279842816.000000 482216749228458132370031526442589687175152418147524699167739760607983092246745996447971574529654784.000000 0.000000
0.000000 0.000000 0.000000
-2279631049450758202322580650831570009617274079466623603290968064199548420264306075036427094028443451392.000000 10906736722022799766983876958956608492057811059287041487550649309724633097485200116715323879073047904256.000000 0.000000
10906736722022799766983876958956608492057811059287041487550649309724633097485200116715323879073047904256.000000 4466724600126270975417009101578750008090426257161741931241600446508662179747230823574631706201979617280.000000 0.000000
0.000000 0.000000 0.000000
27590045058152726329804998261302425018101384867423812854086588864969185028626575740425525018669055213568.000000 49863665154961488082747588227208725362454842619241418125016319455093168533330606584402601102877418061824.000000 0.000000
49863665154961488082747588227208725362454842619241418125016319455093168533330606584402601102877418061824.000000 25774160833270412903245538528017612432912517636987760777077578580899510753201964092660741831638042804224.000000 0.000000
0.000000 0.000000 0.000000
-66637889357611560370032776484963735738894854361487511503088189187877401973058863742332859683205573246976.000000 -22307710894720522518429552827544925472678272408979975842830421666887483422969757631421842178813619863552.000000 0.000000
-22307710894720522518429552827544925472678272408979975842830421666887483422969757631421842178813619863552.000000 10265593167446425990006622913439603416409242832776822495916898163566089164454494635424940800046721400832.000000 0.000000
0.000000 0.000000 0.000000
-869847596314116218924216523968582464273488301017318344163256342959966277770355458722143744061205381120.000000 2749506447749493965271639607390737232958626600152313559906205000971322453372702036906774061092612079616.000000 0.000000
2749506447749493965271639607390737232958626600152313559906205000971322453372702036906774061092612079616.000000 1719623162358333011690128309566550522668186202343586143756747361873150409349858984539018599943068712960.000000 0.000000
0.000000 0.000000 0.000000
1252642542834428785613024102956089382440964546189200363892509519349224876366721943761662160104000061440.000000 162297514451779012412422942057031074039472526652014460155960229577668833245696842593339427833843286016.000000 0.000000
162297514451779012412422942057031074039472526652014460155960229577668833245696842593339427833843286016.000000 13864102907342325007897929151024173738338937878176645900591908081096924148712291623270468258313011200.000000 0.000000
0.000000 0.000000 0.000000
1750000367081223479528556237426460997268737984470657300950502447225615783361831263777292402063728181248.000000 -773853631436112766932087782326660546828207280059989996866973901652192934344237803849175160230680461312.000000 0.000000
-773853631436112766932087782326660546828207280059989996866973901652192934344237803849175160230680461312.000000 529284651191377363202404570340094726280638700392838292590614422122022173817581906177751466768225796096.000000 0.000000
0.000000 0.000000 0.000000
8543885256009720641694879350745620480852858429813993541735742371563736522135339896947727245576002076672.000000 -3939344965534543135269572200168283352028918440632778377730044517367156172214365681305303204577182482432.000000 0.000000
-3939344965534543135269572200168283352028918440632778377730044517367156172214365681305303204577182482432.000000 1062356369063672946099623277366354858676369745001035740414131392637436116128629158020188677887282380800.000000 0.000000
0.000000 0.000000 0.000000
-4864266661899593442231183366674485591973359792916663094399183217729212964663157889936454882894973855858688.000000 -146106174035242325778060191792146885296403387504056145740314400685121870286935235385737760227497877700608.000000 0.000000
-146106174035242325778060191792146885296403387504056145740314400685121870286935235385737760227497877700608.000000 8861035990601314846548392492960161154417928204466758370919174409917526963152386576203628157951226675200.000000 0.000000
0.000000 0.000000 0.000000
-103350653679115268025340427901016931876685382221362108103155274678191486363298802013100073371893168603136.000000 19404599944957418973878799727573555002179496874758946816860861535124524659897776232996157692246726017024.000000 0.000000
19404599944957418973878799727573555002179496874758946816860861535124524659897776232996157692246726017024.000000 5972101372691389499969535505178001710012401891766429299899717903665944405192766470343328187483424817152.000000 0.000000
0.000000 0.000000 0.000000
13348034842764167457527020223241819584907727740959890087930180499643774345286734494061314614680065409024.000000 -791420705304574111390972859898256474188365377659712755990722127339850972976683812415567185982867374080.000000 0.000000
-791420705304574111390972859898256474188365377659712755990722127339850972976683812415567185982867374080.000000 51319981524609449992134128948010289061868379826293273259696831852870014841361429586948851541202698240.000000 0.000000
0.000000 0.000000 0.000000
34232197277285831795828156970518946258667978790304866098170500368806731939258148037351722642106015023104.000000 -97415944712566886382180374653659873607269956501520549931753244743939749704277458236545640751895872012288.000000 0.000000
-97415944712566886382180374653659873607269956501520549931753244743939749704277458236545640751895872012288.000000 50799928958079909032410483689119907974246294518274469189653963198627573834413687954020846167567829565440.000000 0.000000
0.000000 0.000000 0.000000
1307218003694840499230584327542879162630137580547374824057773640492854095529011694288654868434395332608.000000 -110239402246990416687508438087128930720432801606209741624955008956078524682644343070615610448087613440.000000 0.000000
-110239402246990416687508438087128930720432801606209741624955008956078524682644343070615610448087613440.000000 189345150128193682697358168253818903647639463306691662621583492690375668278902781375399532561298358272.000000 0.000000
0.000000 0.000000 0.000000
-63907922654886755929274076442961901858320395731314004595001391704813502140123941640870268602467097772032.000000 1777497269441306906374941685994714336368954678584605956517455184687912419153935231317695168122483376128.000000 0.000000
1777497269441306906374941685994714336368954678584605956517455184687912419153935231317695168122483376128.000000 371331451377228149460718736044721671412144403809757178144195960978525998615547962936543565209258688512.000000 0.000000
0.000000 0.000000 0.000000
-12159613639923022138163626400478126313491035170408100849306292954667061204678171241562897182306787655680.000000 -4834641672609154269022641005796119652317266132457374954368645410488094449181446921657671412363307253760.000000 0.000000
-4834641672609154269022641005796119652317266132457374954368645410488094449181446921657671412363307253760.000000 1418241827798420096835578178023476177572024672626189777785114063131472216353941403950568837394330550272.000000 0.000000
0.000000 0.000000 0.000000
55332661709525906679922715090019456928061731295501606824459699781130967557607188944369874453035988549632.000000 166129072880181624075553680043908296435271782989551279284300046773751578868975008660371687332038098026496.000000 0.000000
166129072880181624075553680043908296435271782989551279284300046773751578868975008660371687332038098026496.000000 86766656795455897344306333607611154188872655869108095760209388004609136343033549555062903519092628520960.000000 0.000000
0.000000 0.000000 0.000000
-3444504843090075052050898184204598228905656434543170989750289294573585550387448188246851080487427899392.000000 22935886538295712746988307800744842307624561675265402777869552939464695457254190429804453023608203116544.000000 0.000000
22935886538295712746988307800744842307624561675265402777869552939464695457254190429804453023608203116544.000000 12906062862998643872150652492151086731314141924024141103738145039787959790034162784348654697947301150720.000000 0.000000
0.000000 0.000000 0.000000
-8064605953065295257628228266112281201947335546281435017560273345844162998404702794298546189630216219918336.000000 -569096268684608463559751396129185199105137987786809468002642978494238663316362006873806359587563927240704.000000 0.000000
-569096268684608463559751396129185199105137987786809468002642978494238663316362006873806359587563927240704.000000 78042912036385508791866200418675446667120055253562626075316059523819195919873962519439347886448401448960.000000 0.000000
0.000000 0.000000 0.000000
209759531235681581711475671952399572311724757895784126034000056960377813899589058977218493045150842880.000000 80450573470064419154018999839175332563403688889752067357251777443732923449427077216686593727933710336.000000 0.000000
80450573470064419154018999839175332563403688889752067357251777443732923449427077216686593727933710336.000000 18783933465380036555780264559685252620772209602151761904630422212052101127865763628167497073767219200.000000 0.000000
0.000000 0.000000 0.000000
59423286647124508927623281310097450146248778420519374508630427609163251758159168635718572124776905572352.000000 -104362903773247598324862054671188005344516324226380813391969055931262911432888354885719518897757474521088.000000 0.000000
-104362903773247598324862054671188005344516324226380813391969055931262911432888354885719518897757474521088.000000 52361502063510721266276359735230141168270501786327295692162863624943203657685457482787588222150026199040.000000 0.000000
0.000000 0.000000 0.000000
9947182905597589875970765206778230206315884847533829414059662265533298892852753024232022637079282319360.000000 57782111296099779223334861607837294880787711624332933143458814672407473122028431522983223300264734752768.000000 0.000000
57782111296099779223334861607837294880787711624332933143458814672407473122028431522983223300264734752768.000000 31235155096246976152557843525506933379467449270546227353473858799525252249393576562406140968966224347136.000000 0.000000
0.000000 0.000000 0.000000
283807867245243781367607579058830200686245747281554601070241685173944819694932404853937620953432326144.000000 139185830843082510712293633945878063945051992699945656919494694693435610918582403532189430512787390464.000000 0.000000
139185830843082510712293633945878063945051992699945656919494694693435610918582403532189430512787390464.000000 39431271404603552207808043306341991236163943720137332524279411098031779825473764328109118077657939968.000000 0.000000
0.000000 0.000000 0.000000
-7105476073717642038867090062786585108311901749473241438641540161460288524444298653675652140524109824.000000 1899173190826113266848417271569652534724186510936788170540091852173638743369114301903663383116251136.000000 0.000000
1899173190826113266848417271569652534724186510936788170540091852173638743369114301903663383116251136.000000 753386112925455560673395815684300807393912820081903726417523713018808964161850757618343190131113984.000000 0.000000
0.000000 0.000000 0.000000
49005168848997407061430170522239490310733153189984334674095672756184293442750235952725900419123476692992.000000 18315301712055780797272015595730269425014438153880686817474553579307769037712691563701037358664759902208.000000 0.000000
18315301712055780797272015595730269425014438153880686817474553579307769037712691563701037358664759902208.000000 4185795077271884543540380809049331657452627274933449883036449839578868997144946849460696858122554179584.000000 0.000000
0.000000 0.000000 0.000000
14201995922798069539545856604851427085242113917113361487814993451080342749394862719860542074226135269376.000000 -5680636054059086213610809910059243613745809247988890235715086548653118315382742583258559213846076063744.000000 0.000000
-5680636054059086213610809910059243613745809247988890235715086548653118315382742583258559213846076063744.000000 1785450435488107811490436902906835391308451559023716112131690663595328964614530675485213406707708854272.000000 0.000000
0.000000 0.000000 0.000000
271279849688517408972961688476007969933988275497377186194515609854830989527013605685731026878812890595328.000000 -25286687850281186416487803977250111444867080328000008827105968940372925831497038910859436880516725342208.000000 0.000000
-25286687850281186416487803977250111444867080328000008827105968940372925831497038910859436880516725342208.000000 2618103257948841843371193707810415564860852394661521485521333942060139582062931223019157809199310700544.000000 0.000000
0.000000 0.000000 0.000000
2035266709427553519277858242163662535174494762229516514784889111520493938027827105452219319584674545664.000000 -2108517490433360278443970983940147420082837664564407371195997286224857639783054113312737155593982181376.000000 0.000000
-2108517490433360278443970983940147420082837664564407371195997286224857639783054113312737155593982181376.000000 900908089238615350953195577036846567174373858492865342648546954205727736394928286465820844578488451072.000000 0.000000
0.000000 0.000000 0.000000
32573316912213735927837012685983277450250564683603440342551736408893336943808455286898627278362791378944.000000 28674727916629599606263101201757619847327123186543472710677418026666018531503307750024369902767375908864.000000 0.000000
28674727916629599606263101201757619847327123186543472710677418026666018531503307750024369902767375908864.000000 12654137903931314825906247633930453897076568601804506464527381004998436910753039450872359127758042824704.000000 0.000000
0.000000 0.000000 0.000000
33769173858248058359445383907968360841087255399405349671483131358271984101429881874208212640991172100096.000000 -90083084431487997250827995960846951958280598327656963303966810170352866606970138687725360121940317044736.000000 0.000000
-90083084431487997250827995960846951958280598327656963303966810170352866606970138687725360121940317044736.000000 46571488967466460071193294983405954596485983479762640565330066626730874583621944255710281105990823706624.000000 0.000000
0.000000 0.000000 0.000000
6834519478618305051549891308178730543916294843751698638812095212344402168748130544576411324820295254016.000000 15385891915299633068812173315653496330060081592086583292899824573147706572150048648935516204298116530176.000000 0.000000
15385891915299633068812173315653496330060081592086583292899824573147706572150048648935516204298116530176.000000 8157353668563658163208426891429094942062777237226038309681105249785849990721157981841081637288145846272.000000 0.000000
0.000000 0.000000 0.000000
141814121735094334974228519569460658069225287947827612896937371778486188652548246824203280818127408988160.000000 85390291002012491575596006647664538529573861627274022889330186622710410411867573588140678344408647598080.000000 0.000000
85390291002012491575596006647664538529573861627274022889330186622710410411867573588140678344408647598080.000000 28083874339122582703350145495391880875001586726476971862027517174398535680351655253270291265541113905152.000000 0.000000
0.000000 0.000000 0.000000
-779446669732776829438198889962516971105627049549372666894965790509452621824169106982519911227038315315200.000000 77187379646327790484511396765989980604736395609781026864027002368061234801641080022982803770699434426368.000000 0.000000
77187379646327790484511396765989980604736395609781026864027002368061234801641080022982803770699434426368.000000 14183930768591628876950533043214782035369952622175999026590374632033755130679623116056562174462089232384.000000 0.000000
0.000000 0.000000 0.000000
-67345157897846429095516045366493531661344389349750873834727044826423283985282490712950353433896759066624.000000 169410271304498063801987975633597538899206602562897476707078197125335546084162266904857517304575967625216.000000 0.000000
169410271304498063801987975633597538899206602562897476707078197125335546084162266904857517304575967625216.000000 97472783539207073160955100845093829227523526472849378047775870923321646772602787348922914083424113262592.000000 0.000000
0.000000 0.000000 0.000000
-52334030043309822797006940542748056924196070608588073427258340508659381514663956073530565891260361474048.000000 31220278407508872649726995354890410935720268171102691369656255468256128811261715645495362897332364378112.000000 0.000000
31220278407508872649726995354890410935720268171102691369656255468256128811261715645495362897332364378112.000000 20612460450561441307877282293761813247607407909218946343424382698748474245172487823750449797152330743808.000000 0.000000
0.000000 0.000000 0.000000
12384009922067523342855929266989139556898411460501859684179184228866888582433499414590820220708335910912.000000 -11923600668014014783862287591678248211551285486287661354607569967467056959676723984074943685720987926528.000000 0.000000
-11923600668014014783862287591678248211551285486287661354607569967467056959676723984074943685720987926528.000000 3595310868303582641848255670123210208043844113371133454703789535599822010373617149690821630897405558784.000000 0.000000
0.000000 0.000000 0.000000
98081615222697053248645085826438649120123699903705421725945856792393231920207126779761027471530499506176.000000 -80878624204067081455862001050891005709444907863261370645122117148535300480165776117718032837740310036480.000000 0.000000
-80878624204067081455862001050891005709444907863261370645122117148535300480165776117718032837740310036480.000000 29434428137681597571084920424707967340635721867561215654872419780505822978415406819123982251433184460800.000000 0.000000
0.000000 0.000000 0.000000
13420650535856197988615115791069488723016446227811933592156599032815074597628458264483365790300831219712.000000 4894001789138922279915305648476535899858077325670302246463004385267432688942152091154262284950675914752.000000 0.000000
4894001789138922279915305648476535899858077325670302246463004385267432688942152091154262284950675914752.000000 1101914941118886761856678325242588691199819648494880214543947475499026217304116971922174929203391102976.000000 0.000000
0.000000 0.000000 0.000000
-10842878153373582118920531580476801489801757720313788253996564889127900959088244663798997439555422912512.000000 -32762783442255592457112448172081056702822718973803528957848433674099476208580443651534079477942354706432.000000 0.000000
-32762783442255592457112448172081056702822718973803528957848433674099476208580443651534079477942354706432.000000 18795150759394153428639232070283907015625167167647356845400421152245651503929608293797897265062514524160.000000 0.000000
0.000000 0.000000 0.000000
-105845820190092052218689836538588403336940046546819390157866684748747867432182157076237487035329567260672.000000 83040778788963927409105313851045801515700571226549412389199256710388803400699255683299079108348486877184.000000 0.000000
83040778788963927409105313851045801515700571226549412389199256710388803400699255683299079108348486877184.000000 46744238858805027701786186762574603950484218059092965491417791464254896591079151730728742776453868814336.000000 0.000000
0.000000 0.000000 0.000000
815109197891152903417453078673508008617458025730602762887467435764938733534158072503652852659556188160.000000 -1099874194750805098868769450505611181338087913253660088640499403216556055127727068595362534048051232768.000000 0.000000
-1099874194750805098868769450505611181338087913253660088640499403216556055127727068595362534048051232768.000000 509572344623342005476377767787701567943198049676206216384739598319897459426348916266089341881688260608.000000 0.000000
0.000000 0.000000 0.000000
219877226338449619166256190173815456667816337375879402919712686747286926063379274110375158915836936192.000000 464336210655557972364461992970194461033523159951246964617541346838855626268821882824993293949036658688.000000 0.000000
464336210655557972364461992970194461033523159951246964617541346838855626268821882824993293949036658688.000000 414676597420529660971166979845386771345437978632187736102521709585214944659146498011251608760658952192.000000 0.000000
0.000000 0.000000 0.000000
38376642063759933859594287157500713449300054750927773218493452017260436527230880108387175370302494343168.000000 -30347138654560655206084611305905147479190683766039464223681106313144785874040479126240633889492318552064.000000 0.000000
-30347138654560655206084611305905147479190683766039464223681106313144785874040479126240633889492318552064.000000 11543173586685949392363999998263664969839789096325482424891631441373474962317833660104447242458072350720.000000 0.000000
0.000000 0.000000 0.000000
35431141903162432576067133287422671815162365715424597763215578297185547994424743937336949482645243297792.000000 207757917160740163040545389664712694783355705633362086000988839033607982617223518430286869467050207608832.000000 0.000000
207757917160740163040545389664712694783355705633362086000988839033607982617223518430286869467050207608832.000000 112332990258946019911695259196306234432349644694848800835982826028974498022097142722950701732416647593984.000000 0.000000
0.000000 0.000000 0.000000
11299051089499027586806279681903984372430152018030018745096055378708229312091418719097189295056991813632.000000 2566050272349721285875252859922811739914525258844680355820584464358820356043164131548614981651047383040.000000 0.000000
2566050272349721285875252859922811739914525258844680355820584464358820356043164131548614981651047383040.000000 376001197573740116981255982642924872013843212572919343668743856810098452478565829140938426319609266176.000000 0.000000
0.000000 0.000000 0.000000
40214661292547358654120860904724230940724688526791735559751144982262595720167923868610130037124848680960.000000 20389727616671545236484250036187014381730902607680044298041221483932272429912925141885647451185349656576.000000 0.000000
20389727616671545236484250036187014381730902607680044298041221483932272429912925141885647451185349656576.000000 7461982668480322007039432750396827400547431003572952359112198680348367327705611673369434544233336799232.000000 0.000000
0.000000 0.000000 0.000000
87481427326724190549123336898215719467957646077383438507650343562844314466650013658035139492528349249536.000000 56197575894821505195969364376075450687626573668904598023361587204259096920970777422666291022752647217152.000000 0.000000
56197575894821505195969364376075450687626573668904598023361587204259096920970777422666291022752647217152.000000 19044325776063920152548883449369246029397822170735866312591171456890041973743254562241527319602021793792.000000 0.000000
0.000000 0.000000 0.000000
57473112919627535181743624741313320397514803361650789757766797793908301978289971483667170125895553777664.000000 -189188322076808301913660779641235323130830415075248728422635392964489028024683598392846694252656524787712.000000 0.000000
-189188322076808301913660779641235323130830415075248728422635392964489028024683598392846694252656524787712.000000 99461190776047741612604704856716253491860169058113972568522585658797706684591490500462501879333863292928.000000 0.000000
0.000000 0.000000 0.000000
-387373793706634955185171023430427777482951296571630909957708980092970517551386775801260796278632171438080.000000 1659093433148318274286751768099039566165716112379286175735986033011073288053362726423227387583251087360.000000 0.000000
1659093433148318274286751768099039566165716112379286175735986033011073288053362726423227387583251087360.000000 51539560941059380356045470252178040398752859563445250160839654211164758379498322164925430790377963520.000000 0.000000
0.000000 0.000000 0.000000
14673975474540918635626962486146895114838637271289363238447896853514511149376403800363727833213161177088.000000 -20122288866137505577210975162594535013538173278499543606234776491603758569704971044111677415522989768704.000000 0.000000
-20122288866137505577210975162594535013538173278499543606234776491603758569704971044111677415522989768704.000000 7036275669799026341798646485493441366241138586634678990871644035715477658271507024611169976425973284864.000000 0.000000
0.000000 0.000000 0.000000
79671068811745271191576919890266270091398626183371498962633481167721666062838929617778739604206880030720.000000 78930227326190123751923249571732503070382622047344227657722462435797936126880951300603565778626347532288.000000 0.000000
78930227326190123751923249571732503070382622047344227657722462435797936126880951300603565778626347532288.000000 33177535862675528190904846861185574814658316769525979486975730469317729432158387025771211147689926328320.000000 0.000000
0.000000 0.000000 0.000000
-30186706351146035631908475657806778698868122434805567621444878654786963214373599055820571376300230443008.000000 60843529336269032282018517116424387268904310360743598054323032949362389705409626165112731717359032598528.000000 0.000000
60843529336269032282018517116424387268904310360743598054323032949362389705409626165112731717359032598528.000000 35029871527275182033236483773427555368283399583869028367868436821317935629350905038623549875334219300864.000000 0.000000
0.000000 0.000000 0.000000
192870727465551515966463767313580622943869486492278323482874042650364923739939839160070785866034839552.000000 1754259289223652153827209349432953948570077106308354053219780233790712043728300132140076939444972683264.000000 0.000000
1754259289223652153827209349432953948570077106308354053219780233790712043728300132140076939444972683264.000000 959096228471416670108355257188249520468788375067976307154509377021274865756253176019419509753959677952.000000 0.000000
0.000000 0.000000 0.000000
33536437808900965365006590407475589835227204317551012726083281847939157995121718375400563877277148905472.000000 21838798405240606688225739987467269186744943819881706623302222413916501515684137428860102022797828554752.000000 0.000000
21838798405240606688225739987467269186744943819881706623302222413916501515684137428860102022797828554752.000000 5665520800952574253722727389106645719226393480214202385977089519439738441413322044302690638004968488960.000000 0.000000
0.000000 0.000000 0.000000
67912878113240139124348841586298361932362239101598061016738171366123482682819301471156492544540451799040.000000 -24364148599820633600579088627485045588509704472666215660088135061397863682964609565597740777938263998464.000000 0.000000
-24364148599820633600579088627485045588509704472666215660088135061397863682964609565597740777938263998464.000000 5369857101691037665850730583335351005318536496196104940001351172142834254062262616006470502843634679808.000000 0.000000
0.000000 0.000000 0.000000
-201136576023137989748815148086359433328314910564899254335606905319897117855533303987558171177439754977280.000000 -279245201556820501720057134725896594051670837819800425080822545813043798400026682175461929190241066811392.000000 0.000000
-279245201556820501720057134725896594051670837819800425080822545813043798400026682175461929190241066811392.000000 160875882204818614736828587983559964922793681355219364947214989052152371294761313168675844342297265176576.000000 0.000000
0.000000 0.000000 0.000000
2821532026045654946116125188517808293418481671415448097921100468937972871924739714282169308185505038336.000000 -4447794164905906195757637105091489140949532197105404582489436541126667432512883975278554996228090757120.000000 0.000000
-4447794164905906195757637105091489140949532197105404582489436541126667432512883975278554996228090757120.000000 2134753863309179334926418092235263702112167707545343058950753034428864237386141518997183602910746902528.000000 0.000000
0.000000 0.000000 0.000000
16117137170072706270949459029501060904930608598840193975035164021768788661651282463478619519737514688512.000000 -52575504808429096132235938389034149681644830883554231025529881081373943390217884492657045487841611612160.000000 0.000000
-52575504808429096132235938389034149681644830883554231025529881081373943390217884492657045487841611612160.000000 27630549593456920014691202889558075646374813087387692100169297087574653902136028138796725645930880040960.000000 0.000000
0.000000 0.000000 0.000000
28089962477441086425719925553696838495825881684531250869552157987321513632938300919313075214821986664448.000000 505802520877565955328978454645967974228465806904057537970331794621088892728579373249425797338685121757184.000000 0.000000
505802520877565955328978454645967974228465806904057537970331794621088892728579373249425797338685121757184.000000 278993687285623399950681453936499751137535727046187452587188166952748115810383463689015310371908552228864.000000 0.000000
0.000000 0.000000 0.000000
1554204187461525931764636893246552819068584597589173794182692731857251178494213881022762818761912221696.000000 -3757847932831353649857387489043376301582310307191087232232616928400113903764285272259173826185893249024.000000 0.000000
-3757847932831353649857387489043376301582310307191087232232616928400113903764285272259173826185893249024.000000 1915487781547134571726325770279807985824887986535927844726264537962596850525355216809155907663471575040.000000 0.000000
0.000000 0.000000 0.000000
-9189326778355443391524336976477589806778782048599468671117831299055180831789139972406899933431279386624.000000 -1449805637942883920936321679718638213490143123873131750500340932106064705981150369634332849665835270144.000000 0.000000
-1449805637942883920936321679718638213490143123873131750500340932106064705981150369634332849665835270144.000000 402790780581932039600517868580181675832491927586910833387962419158964062525430114905652653576928886784.000000 0.000000
0.000000 0.000000 0.000000
452412070644030094083415875968723502471141977843670417821679942667456246004418471019776368342795007557632.000000 -75666627527238499940015631166734461081834649463100929117548591788318254395563861677831883551225088573440.000000 0.000000
-75666627527238499940015631166734461081834649463100929117548591788318254395563861677831883551225088573440.000000 8821412155349681262686673047516335043185692898796654045626310860975798922555010617124507577429442691072.000000 0.000000
0.000000 0.000000 0.000000
58203363475951514876835739197669321110978693593556886886790407017965649929756588862753486483755173412864.000000 169660707042652209922102103624183402212152356906634228984996400914385563502807170372849425502713260539904.000000 0.000000
169660707042652209922102103624183402212152356906634228984996400914385563502807170372849425502713260539904.000000 88376035896786173729161549582716101425188605161069016609285217848117348655836890591474836605504141131776.000000 0.000000
0.000000 0.000000 0.000000
-219174600009609595366095639894212581017194607254575634013332849464996579383664066112832436461025831682048.000000 3024213793994778615729971153725683300189361642315673984780315744127062903001101794890175331518885396480.000000 0.000000
3024213793994778615729971153725683300189361642315673984780315744127062903001101794890175331518885396480.000000 325103511254923752411890379045939742918877149621574575907593777850875519095573054052153336327519076352.000000 0.000000
0.000000 0.000000 0.000000
34056621739614510545253600907423040377073105746415097135813816684625142606213252305310915436880227991552.000000 -1073845413987415431058909273319610857874780496124405341576859401559118761091548001902679270050104344576.000000 0.000000
-1073845413987415431058909273319610857874780496124405341576859401559118761091548001902679270050104344576.000000 22894720574497504412169544633222487729461777344120701342399744131525557025145445923142810503265386496.000000 0.000000
0.000000 0.000000 0.000000
93598735328529006583400546936368757926742207482993505084050193749317508920567004453520961325378712895488.000000 37738209637346358455851324174205025748928128791318713255919154171789367258035744134901393242494936809472.000000 0.000000
37738209637346358455851324174205025748928128791318713255919154171789367258035744134901393242494936809472.000000 9181126470996377297738799454809973504918130410300011711866625702559686385544720948327637563915060117504.000000 0.000000
0.000000 0.000000 0.000000
-189843724914840873457324264557482940122585592321396104111411043662471867465552712722988948666946743697408.000000 115305489173739836002548097419318161359071337201863434447729880802144122132350819129560399678250804051968.000000 0.000000
115305489173739836002548097419318161359071337201863434447729880802144122132350819129560399678250804051968.000000 75138097391754532704212530179376310654101472864734648688730163362855695166332256143826473380116302921728.000000 0.000000
0.000000 0.000000 0.000000
22595649221416799861712637589955157983191096613535817194793497005396722843042535764988321659598271414272.000000 -13152589700476969158539750941122816146439532150212284019639037353928956999980259354071436620486760464384.000000 0.000000
-13152589700476969158539750941122816146439532150212284019639037353928956999980259354071436620486760464384.000000 4187544626275873969421951407187327109309314197498547278128997042923094689361411299430669325413891702784.000000 0.000000
0.000000 0.000000 0.000000
-8222744313375291031615837142660914971028089781641044460905153419769267438671522440613634605966549843968.000000 125071345499050088882045236226032435985081521171661318638971087228580494354433902293380655981941001027584.000000 0.000000
125071345499050088882045236226032435985081521171661318638971087228580494354433902293380655981941001027584.000000 70066223175029891608136097186238581218243568193150994154993463365048925591405847143924802838144795803648.000000 0.000000
0.000000 0.000000 0.000000
24121595924598778668588699465697248219758382583597216578647009278568237590951802005344175603431543668736.000000 571530143907726038470760144160776293638136135154371071389066294168688267957709858412151200662360686592.000000 0.000000
571530143907726038470760144160776293638136135154371071389066294168688267957709858412151200662360686592.000000 9287482879227236059932740287908486025622372448637845750103264323160719329975644267547333814338453504.000000 0.000000
0.000000 0.000000 0.000000
-21357748645662041708823147977523650556520031876980796279448945369253524210030990789777402042858415849472.000000 -25846178293065308728005019314595499487363644766719106634072983062672101366496039418276234347896150949888.000000 0.000000
-25846178293065308728005019314595499487363644766719106634072983062672101366496039418276234347896150949888.000000 15031723865934635708893114180221892444793301854072084627116717152073910369064222766900086304281940983808.000000 0.000000
0.000000 0.000000 0.000000
17973451547048772197274369706528149099794029475484419309274306182017433831774639032007339156114920964096.000000 11814555039146739730964677830862953732781946750137824926326291538157352896882980519938605402796127682560.000000 0.000000
11814555039146739730964677830862953732781946750137824926326291538157352896882980519938605402796127682560.000000 4062433751103113334485910607328353143989973291371027757653634542869582300300748518742777473086116593664.000000 0.000000
0.000000 0.000000 0.000000
-1308692800525251760207928560185468672023663837475593874352534959045877724380178970784516752187846557696.000000 615973272968384489394023860456805382620972982012286972741721818993734603300796027734090431834980614144.000000 0.000000
615973272968384489394023860456805382620972982012286972741721818993734603300796027734090431834980614144.000000 309710551277911934352363863532988493104171174089893138702338890726947801930740972379666449480256847872.000000 0.000000
0.000000 0.000000 0.000000
8023826751012884049618168595798536385213378665170665369584435067368629686206284547757119900147586695168.000000 4245106293241490325401258531549909183556183277229783612369875967154262606604835233305678207595256479744.000000 0.000000
4245106293241490325401258531549909183556183277229783612369875967154262606604835233305678207595256479744.000000 1712608550489361410604112646497155660964828537334711807049018169802513926290152422868700601780726136832.000000 0.000000
0.000000 0.000000 0.000000
18040903371745420228395742279116030656530978466161021479659937564636536803443499298389185693909417721856.000000 -8978287576158776565557334386348197204544150883106915766140821276291414503529926756934295135508129382400.000000 0.000000
-8978287576158776565557334386348197204544150883106915766140821276291414503529926756934295135508129382400.000000 2563193552958801163677074362028051875074967238912420577090579635130567623674275924680244275360095535104.000000 0.000000
0.000000 0.000000 0.000000
-115323744930292780299877204463088893246216105623883031883181592579879939355893199801200844958629080596480.000000 -135516061076724313726528481046459902544328142541039218537591358462708022302388552066977043340774797737984.000000 0.000000
-135516061076724313726528481046459902544328142541039218537591358462708022302388552066977043340774797737984.000000 77721326177706292908211988303193727331181355871460867362441250248539892345434319557372196704649675276288.000000 0.000000
0.000000 0.000000 0.000000
4171281481249698741559364724609039636675917107131954882177506664377633295540707456001434074963018514432.000000 -1854699008713348856033265508427458246340778703783316510518866023055543779931239166139636523593503866880.000000 0.000000
-1854699008713348856033265508427458246340778703783316510518866023055543779931239166139636523593503866880.000000 593600167488994523962580787087161978766870448051994332026384214679560750104111598857736870702862041088.000000 0.000000
0.000000 0.000000 0.000000
-232109862345836432245284213556389763702735314799546723409775357504909954474947807241492846591244933005312.000000 -131454282925485705756453498549811392217693342945640795062167714663346663493319549549093032499103347507200.000000 0.000000
-131454282925485705756453498549811392217693342945640795062167714663346663493319549549093032499103347507200.000000 69657294218304952769809613242447304035053272853511311123976474753114949014921077219652839108871496663040.000000 0.000000
0.000000 0.000000 0.000000
5511630812807092018626191828114945344613358197115608997268268112479575221318706851574511360653867876352.000000 2496698547553856256598604014143533203848573017382645824033539050900768897827557285591453481633870512128.000000 0.000000
2496698547553856256598604014143533203848573017382645824033539050900768897827557285591453481633870512128.000000 664460604922152757664336084295024720770930779472768720757617083629923849398645970212260027182450999296.000000 0.000000
0.000000 0.000000 0.000000
96716749237518721162275817602709447519530945661965805755402133664635752736667150418863585219274673750016.000000 17897501624924822092572473584845680932501784087848054640311859252586059726526570210612349180388241833984.000000 0.000000
17897501624924822092572473584845680932501784087848054640311859252586059726526570210612349180388241833984.000000 2334687477905337856245090358188722792537603779012266092288876432741773985207650593649854669936023044096.000000 0.000000
0.000000 0.000000 0.000000
16952475576485519792435385340533097553254518268946086132484304275065377643528304978580009895148614844416.000000 -9681631224884310385516523812054721869093486584852436928179506723442711834226887079260835186086716112896.000000 0.000000
-9681631224884310385516523812054721869093486584852436928179506723442711834226887079260835186086716112896.000000 3875096609024780215313528954557216721233454129677575973397127574541474746040149991554870722471558905856.000000 0.000000
0.000000 0.000000 0.000000
14030900681263679611381822854893234536940985967700590997913245911986359769690217769723730718752491175936.000000 5923080655728492398348889704916704612832475962566812265536237396326990219045657901041656297193251799040.000000 0.000000
5923080655728492398348889704916704612832475962566812265536237396326990219045657901041656297193251799040.000000 2339513769192685525802199070210007657438864744350246576216768998360140460076786628981827295197096050688.000000 0.000000
0.000000 0.000000 0.000000
-186178484156051789065218563596471056379791013381919210852393013604445686955099392187263795364723068764160.000000 -40807324556936096839745740387130943086482973275403259418081400621597344986401433870528532215532338806784.000000 0.000000
-40807324556936096839745740387130943086482973275403259418081400621597344986401433870528532215532338806784.000000 14758818180497694712429601023778584102878883764446687690492927154630773054484496474852246861451458772992.000000 0.000000
0.000000 0.000000 0.000000
216442449918676862407651896451269497142810404503258428368252359383947449526574120763511052698669715292160.000000 -44877298675375024279687683927662520799765240331596981743415278110297989977396321230710345783873078558720.000000 0.000000
-44877298675375024279687683927662520799765240331596981743415278110297989977396321230710345783873078558720.000000 6032213867278635866023099916290181167632458879119007646227570044702268531377885743197004332131927719936.000000 0.000000
0.000000 0.000000 0.000000
4425194099482856624542790310161767334727623593417462306034325567050198713419700332737613057937469603840.000000 -725487480166136864862278365605481345083982097990532947025582864605860445670158759939514066457426132992.000000 0.000000
-725487480166136864862278365605481345083982097990532947025582864605860445670158759939514066457426132992.000000 254308579821064103982945066553113092311422573337857106448137932573321304553878570958566015445820768256.000000 0.000000
0.000000 0.000000 0.000000
724626342369771886184076978759824667916674736301860915397737303370689945425523141445033802170378485760.000000 -24759845150862518690464297069180863613388910999658588537963951930563106028317949029894281809155695050752.000000 0.000000
-24759845150862518690464297069180863613388910999658588537963951930563106028317949029894281809155695050752.000000 13663801278734953962619581331415363797544755898936469925139491864184478465886825555205675301248195100672.000000 0.000000
0.000000 0.000000 0.000000
-3804732786663184874190676852029819213337929276453889283015746696754417804328743839805612084229345745305600.000000 -289690437099698093586307253116031379570352912745980156167790034971497554036206486799486643777351201062912.000000 0.000000
-289690437099698093586307253116031379570352912745980156167790034971497554036206486799486643777351201062912.000000 42648306173600524479943016238436087119980452582773952065761063511780134000618065507201169475663124496384.000000 0.000000
0.000000 0.000000 0.000000
32637369421348162082470895146260743144614912178651290739707765313603904726057939963995837432488215445504.000000 -5951924569490995917616819986327123742081455290289057432767550154870465559380375063816844323902583734272.000000 0.000000
-5951924569490995917616819986327123742081455290289057432767550154870465559380375063816844323902583734272.000000 707844990847928985593203684772337138100712003443688010491038352015148870801941195292724678786423980032.000000 0.000000
0.000000 0.000000 0.000000
4519019916445791137599159811723960327474670430626994743973756375846953079796891016521413825037921681408.000000 916371108311448134740469897300990339850613883680616798247023791744278869319012926894187777697932902400.000000 0.000000
916371108311448134740469897300990339850613883680616798247023791744278869319012926894187777697932902400.000000 120719972662606091301556993507394265111223615056036031177579770690794067727051882399535284610605776896.000000 0.000000
0.000000 0.000000 0.000000
56870886657015866117066552310531527697800408076274290842536377823881210267014070674171857185482397974528.000000 -46112214210203813510012717647972494431051075847933662761171734400697524038529072274725439517611912069120.000000 0.000000
-46112214210203813510012717647972494431051075847933662761171734400697524038529072274725439517611912069120.000000 17756360434270268146749079800225738901556880085967763870233888024707029842526589416087030348443931377664.000000 0.000000
0.000000 0.000000 0.000000
10151688813545645472003077493122224387241691619885094804933001820973918082753760940288070507305661104128.000000 -21083218453738997373693946831696092205469132418193757760034502311150061308965464079279561504935408304128.000000 0.000000
-21083218453738997373693946831696092205469132418193757760034502311150061308965464079279561504935408304128.000000 10594914369274080568226900364815107750879518280020827980586816756195579838680775484542578519882246127616.000000 0.000000
0.000000 0.000000 0.000000
-2651042300944432988836713830581222162306540855406492951767434523116162602183560087030387418334646033711104.000000 -106844007833477423275908459252763631078493427204832751850287893191703292116365603117121009287682624323584.000000 0.000000
-106844007833477423275908459252763631078493427204832751850287893191703292116365603117121009287682624323584.000000 8412535999521582933249030011106853674363479869403564445759603557696029887438740876558408879182626947072.000000 0.000000
0.000000 0.000000 0.000000
12750696301426483783341510465222206710424677007641330453349307868751155904360207077597261182988160335872.000000 7434687031613039073061733473268536287782804220688902247765056697677317047371379495666866909666892316672.000000 0.000000
7434687031613039073061733473268536287782804220688902247765056697677317047371379495666866909666892316672.000000 2370110450979990543580883284743756701873080409765209777516508437686089810030781548329592430529299349504.000000 0.000000
0.000000 0.000000 0.000000
-38778670151729389081735014989717687279458488190435878694522945507890741949598259520608365229472510640128.000000 -38746055639872934087288484021470501048500617961177484338198990286646147409296922140596193206080987201536.000000 0.000000
-38746055639872934087288484021470501048500617961177484338198990286646147409296922140596193206080987201536.000000 21784408166684462248072445338516364982819535685095075902474701926666765810388687104202303664393929359360.000000 0.000000
0.000000 0.000000 0.000000
119073913197982468517726527261983876583826195251072609581842704592651158587704637457408740150195580305408.000000 292772840375595191768245421039627883540422274327213648470246972212253486581115409047716209145538152497152.000000 0.000000
292772840375595191768245421039627883540422274327213648470246972212253486581115409047716209145538152497152.000000 150115779723722368328868630585345672103615386931692865739510261352941999502894982400546965534211194224640.000000 0.000000
0.000000 0.000000 0.000000
26621742644889934380671686892440092370911965882797054822157304548075112025331525565728086453930342481920.000000 -33049806260847402729472138776814358379117022840782608290563068811078788499019435110207896203842295955456.000000 0.000000
-33049806260847402729472138776814358379117022840782608290563068811078788499019435110207896203842295955456.000000 11922150672485150417006280516012412856157194179367716806037465041543660303525604416143263815799228334080.000000 0.000000
0.000000 0.000000 0.000000
-13471248199919624296797801466354377628363065249542029556976756763477346599889116784135779139411085623296.000000 1820219081517750447162869043299364514983671265306729670099054380816183027061431914937141507745185267712.000000 0.000000
1820219081517750447162869043299364514983671265306729670099054380816183027061431914937141507745185267712.000000 458509266627987692044724893474158500570320665310294466890640847770960445045333907451611227670297182208.000000 0.000000
0.000000 0.000000 0.000000
1144127105798708481133921316037725987026263068299059333751385566687922002476076542758378507484981624832.000000 -565567592790529615852695412550946809857038889223236699245659300272133200560483157752208852390447677440.000000 0.000000
-565567592790529615852695412550946809857038889223236699245659300272133200560483157752208852390447677440.000000 160676849627167636511316674109911057053853530420958422081617636248898379527661300183577285795774464000.000000 0.000000
0.000000 0.000000 0.000000
10201477841860276948181927752302085003656650461768308208127171354618625952254250048286293764818769805312.000000 9292781877420347561148906237191717399866038343439804600285593095097387828595274693698336443185389109248.000000 0.000000
9292781877420347561148906237191717399866038343439804600285593095097387828595274693698336443185389109248.000000 3997338122066248845087713074743903212225547362792739525434864684373343584806217151844258211191475666944.000000 0.000000
0.000000 0.000000 0.000000
7131616748971498173635535104902678582422476884060342952074443409760913328482874691936929187705676365824.000000 -2978683783122199675017035664401213271315566731379199084222974438607018840768043563102092176847190097920.000000 0.000000
-2978683783122199675017035664401213271315566731379199084222974438607018840768043563102092176847190097920.000000 1024033846717433304772526773166750541927701560772271620552294949888863591326507274581174740777854566400.000000 0.000000
0.000000 0.000000 0.000000
746343334487146171216883662939515775307889393857947364814686504305030052066853026268977753384651063296.000000 -544456169618192611144290681380470997148332819342454772313085509698218784785577297364071311693194461184.000000 0.000000
-544456169618192611144290681380470997148332819342454772313085509698218784785577297364071311693194461184.000000 198541643465088415430160057849480524882163212004310865177471515605146652576827799070854625092159143936.000000 0.000000
0.000000 0.000000 0.000000
58107372416370116626211309616864009654804859972380252048341362273058398502366780661451165458326022520832.000000 72760433963028871292723467367156291355395477546765927887467315427599886068439693885066320133979692335104.000000 0.000000
72760433963028871292723467367156291355395477546765927887467315427599886068439693885066320133979692335104.000000 39746669376711608378276085263340802236630795926432754519760137004202268169481029344092122843440400564224.000000 0.000000
0.000000 0.000000 0.000000
29634347441813681029427355848809871695075322251462234049344547551399967270052395078538871101128104214528.000000 -103980328917748968257126874601262131033739994692359171486953079917775912990750285075035715091612743761920.000000 0.000000
-103980328917748968257126874601262131033739994692359171486953079917775912990750285075035715091612743761920.000000 54911808058437289444641859561212455065160658808250481727658497707022571476660003231126964720829661708288.000000 0.000000
0.000000 0.000000 0.000000
-291817256119863607284830070811375722306102957719905086268627824997870208947708416426623732477488791552.000000 221372124744238598930191171083100019867255694312985365639709276404913809471243579838465226006870360064.000000 0.000000
221372124744238598930191171083100019867255694312985365639709276404913809471243579838465226006870360064.000000 122813649617623512601515322283341271164604218342861719920664341502754351733418642432673361495085547520.000000 0.000000
0.000000 0.000000 0.000000
43644878011178365158086558162738000134167082160272397818959046706341615062687766134616723107664042655744.000000 17004112474431716115896894505848775205471311210964485596080710621724141418795413645986875388567708762112.000000 0.000000
17004112474431716115896894505848775205471311210964485596080710621724141418795413645986875388567708762112.000000 4196203138103627837816130345156594247881896551206822484916348695891410548520779761353512412680548253696.000000 0.000000
0.000000 0.000000 0.000000
677391451594826342360227072361366027664835889876188973239191609251421595999728622106066440557825097728.000000 104513978325740121368811354351228018973752017627524912297866236876970554760850154071606551915228299264.000000 0.000000
104513978325740121368811354351228018973752017627524912297866236876970554760850154071606551915228299264.000000 10689349356515903446468572793673073035406564065965227088470104666283759762514161492560374552370085888.000000 0.000000
0.000000 0.000000 0.000000
35290324204928334648612032073386649854950799470581488596357887759421304469841839458119309946576225435648.000000 -25872274715260251425469380529661437735589208755828478304881450749069007385041273474370527051378807799808.000000 0.000000
-25872274715260251425469380529661437735589208755828478304881450749069007385041273474370527051378807799808.000000 9468998021840571392581282522275936473997806814455258791940215349278849059816590165622419296712698888192.000000 0.000000
0.000000 0.000000 0.000000
-11719582066202932911862246586816340016379398129364572768927804364543401091878169057764133690890784866304.000000 9857388529191152878427242738371839900963476876446021886541279070960274544059231300508233225851834990592.000000 0.000000
9857388529191152878427242738371839900963476876446021886541279070960274544059231300508233225851834990592.000000 5210569257880542885820657618385217686061333215059785480838410525323579513640764408009795953147162656768.000000 0.000000
0.000000 0.000000 0.000000
47405971170604656226935035191629380849842510976842048776005556535490414671046177492179445908668707504128.000000 -40368186597543304364869429833420390440609508498639068102518271773394283902199833509324468580072065859584.000000 0.000000
-40368186597543304364869429833420390440609508498639068102518271773394283902199833509324468580072065859584.000000 15910387336602335361979050659837596127304932261681664273940221140431749596307015264341814575520729268224.000000 0.000000
0.000000 0.000000 0.000000
25134681966238538591622300656174992231371955943096805230425362204762124725588904290148597015127378624512.000000 -4753875044689760770710648644077361916692696988390776573845739904015202091540712816738319887411519160320.000000 0.000000
-4753875044689760770710648644077361916692696988390776573845739904015202091540712816738319887411519160320.000000 585628647954350945964083674458063417946640036160689370905643460424805752738617748012708127346280890368.000000 0.000000
0.000000 0.000000 0.000000
216961035595728957559375890474864654485657122364733219932994800902692288891973393105822441384535574708224.000000 242864632490106443481586713144508650661745829641999267039206579956880325721798853900680980755660958334976.000000 0.000000
242864632490106443481586713144508650661745829641999267039206579956880325721798853900680980755660958334976.000000 105720526590834319937243442770182130116049125497314876498800839865274795740727417161040803324789220442112.000000 0.000000
0.000000 0.000000 0.000000
-51636992241793574911109923369030873045881342649825863995947180296524852078503530452445656708944716890112.000000 52058236768563181587163385994908341682143415392993833234782136966986014376442889724379270124541705191424.000000 0.000000
52058236768563181587163385994908341682143415392993833234782136966986014376442889724379270124541705191424.000000 30072741513227589155990253839986341936649490827913635144541165184251465529186063619961411002411004198912.000000 0.000000
0.000000 0.000000 0.000000
-44311563709922560506160796650989944423836198406755327356356166850952836517738986722251224885032403337216.000000 -34016590554029392521716559602007552905888190388989740327569706620033372955515971827724577990616555716608.000000 0.000000
-34016590554029392521716559602007552905888190388989740327569706620033372955515971827724577990616555716608.000000 20308961688630639573082544971479619632252580421099117404636439545190628793168760516618563836721194074112.000000 0.000000
0.000000 0.000000 0.000000
6681171417109184394158217245813002337442175762409690620898009423752902607548813224908735855255669964800.000000 5502397650260526408377449489116820397930376753651821434599032249036051674120603330901034975333476990976.000000 0.000000
5502397650260526408377449489116820397930376753651821434599032249036051674120603330901034975333476990976.000000 3789527300439502746341644775398610999770708870094599603071977617998238746435043180943234880865541554176.000000 0.000000
0.000000 0.000000 0.000000
-7945929424332136086359647585306255996519014571498773196705826104444215664767789905135525424903237926912.000000 21922659821086173231583978598833854693822466446506232771059123832788479196867060621427485750030709555200.000000 0.000000
21922659821086173231583978598833854693822466446506232771059123832788479196867060621427485750030709555200.000000 12585179136457069582904104033156726939770883973546487960771479425544549582302789587346830215666034802688.000000 0.000000
0.000000 0.000000 0.000000
-12296485506462099633927813471449933208027232010042597062695582740027558749652066900639476971111429701632.000000 18959002083388179326674783144306725278012787187816545740235218870165814235214426449723994627109872992256.000000 0.000000
18959002083388179326674783144306725278012787187816545740235218870165814235214426449723994627109872992256.000000 10870039666029086147826856263343418188901330916999810218834314653941222995077128959028286295818454958080.000000 0.000000
0.000000 0.000000 0.000000
750017202734362577136897209202224313112099096513623915389344115465603011645868822643041448360935424.000000 -728172334827870716399244314267639707407809423599962983877702290525205403099548258911051361992835072.000000 0.000000
-728172334827870716399244314267639707407809423599962983877702290525205403099548258911051361992835072.000000 303668238404470836879139208035829076339839412235328166413751066773446077466895576835434445608583168.000000 0.000000
0.000000 0.000000 0.000000
165980639949944187391240214280120802141201048249482481388064683467540664082947917598714925522711664918528.000000 -98851276479644780415603312384902023916359717520883347281323997241556861954778722939005824393582838022144.000000 0.000000
-98851276479644780415603312384902023916359717520883347281323997241556861954778722939005824393582838022144.000000 31946369870202408467155149839379142072060674913866581656338677493218393468643046603018117089081436405760.000000 0.000000
0.000000 0.000000 0.000000
-1152422246239863971894476520619047066484190195838657189290879757603382053189704180731729083768969887744.000000 6200947062921152343557413686150385141672061336739714027742962213395297435577804376613104378596902830080.000000 0.000000
6200947062921152343557413686150385141672061336739714027742962213395297435577804376613104378596902830080.000000 3520522909834546472953843692328297941758104529600104148964658920091865058183977820577582761283940253696.000000 0.000000
0.000000 0.000000 0.000000
4330100506249624100053377628729827491645587767783355964879834446055583951093345303503277368333431734272.000000 12507229213884362788837524635111581038973269561281532876564935118689472425737120441408107857353721774080.000000 0.000000
12507229213884362788837524635111581038973269561281532876564935118689472425737120441408107857353721774080.000000 7135215656124689408652257007196869934570749976635582017801996049703045800816077256505087507816519827456.000000 0.000000
0.000000 0.000000 0.000000
-2134064756869189439699544323583494865808319286684024008199478099374408891186051099775482623923585024000.000000 1282571253966963904824751366663883946593546982357726121621158357982416281279475478195359065480714256384.000000 0.000000
1282571253966963904824751366663883946593546982357726121621158357982416281279475478195359065480714256384.000000 685156698237049674271931126723239357879016368113277702720666345340281181501723021420865858110291443712.000000 0.000000
0.000000 0.000000 0.000000
12187410494131156167530636334114535063675319068161995694761911506101611920373903737993876608223274860544.000000 -23747438013116155813861535344896221872160706817070004702864518845718831143425846689516218854763566989312.000000 0.000000
-23747438013116155813861535344896221872160706817070004702864518845718831143425846689516218854763566989312.000000 13439616582470286086332915876602299038520517999217748024019075690629628384172582102435020665887834243072.000000 0.000000
0.000000 0.000000 0.000000
20348950989624833619916462663019898452782506012327087620931769453404370902759991889635933413036584337408.000000 -181060489720219002853109610697576863541840965310892664248939280386465028593296558621729275444446887936.000000 0.000000
-181060489720219002853109610697576863541840965310892664248939280386465028593296558621729275444446887936.000000 2404453554653100621017714932371818096357083954659104130219150068315053484243969296349605950074038255616.000000 0.000000
0.000000 0.000000 0.000000
13517362951889919404170343125497407596307379228822906857344304478331850626702119077944754670508575817728.000000 -1778195926314728008838567251964950516106506160636901780464738415521077363203955592296243693237366161408.000000 0.000000
-1778195926314728008838567251964950516106506160636901780464738415521077363203955592296243693237366161408.000000 308564324047383865653304858081000059558787171864548487242643861178118265145639552778941032422917013504.000000 0.000000
0.000000 0.000000 0.000000
1662228812038749036985685796842476037072528638146429344868672104394983128029575766742118555321402130432.000000 926362857196933431751842533992911208664152485728741791152733006670853354141001059101227417404813869056.000000 0.000000
926362857196933431751842533992911208664152485728741791152733006670853354141001059101227417404813869056.000000 286448793397950750177367055882434060971392342350954165265914732196871874877938980295758653293676462080.000000 0.000000
0.000000 0.000000 0.000000
-14838677375638902809614934506470182779869912627132358923563555045362191978115571890240952724395707596800.000000 -7603430079984448042960925908384611056894728796143858150995935370287285601442896025904302123151595143168.000000 0.000000
-7603430079984448042960925908384611056894728796143858150995935370287285601442896025904302123151595143168.000000 4760688091437174979601314368470398583943635914541737050846900289059635664579343569829675534135976787968.000000 0.000000
0.000000 0.000000 0.000000
-15269154728804438681410814788982257921162505826248291556582415550715866321432693085569969490750466949120.000000 -47761504043212277272876211784442563415081412880045098741419919198075994119054979096366327621427384025088.000000 0.000000
-47761504043212277272876211784442563415081412880045098741419919198075994119054979096366327621427384025088.000000 9471646454625659174309999308758634897500239642344259256871547381333493213781931290088806535341642088448.000000 0.000000
0.000000 0.000000 0.000000
3485308360455908919540827266260305696380116978064090326432160251166004991694903786417435862563559571456.000000 203867152277195428046261184593142671097180464236401382589351223101296578359298202394029003001265389568.000000 0.000000
203867152277195428046261184593142671097180464236401382589351223101296578359298202394029003001265389568.000000 9841973168005120874000962536086696198790022527159070863112361717950553438447149567691751540282884096.000000 0.000000
0.000000 0.000000 0.000000
2056400425837775534099938238602592572269583955104163572681995992440079069767086514892153923602009292800.000000 23697967690419180641003852944111047205960855423626618746913592286022630816354961488040303714606312849408.000000 0.000000
23697967690419180641003852944111047205960855423626618746913592286022630816354961488040303714606312849408.000000 12944865139739033741035297058306134909803560960602056792600537678224094425056684590133436864375694557184.000000 0.000000
0.000000 0.000000 0.000000
1912483844759360716533219662928271733461804536756140431817805427803172693203858814370566010913777778688.000000 13684393237035717771331995349766395863185289331480121045777270984899946355275218848035678814545708580864.000000 0.000000
13684393237035717771331995349766395863185289331480121045777270984899946355275218848035678814545708580864.000000 7945050979805688749014736189009052577257112736897018697990298802404204198656784660564717634593014939648.000000 0.000000
0.000000 0.000000 0.000000
-6400397693878470718683787600728121783797381838852206140541050066138358405802194750139431290771026739200.000000 -1227630125438954276168666304730532867219905935837544320447230346012666402472992279139471427801075154944.000000 0.000000
-1227630125438954276168666304730532867219905935837544320447230346012666402472992279139471427801075154944.000000 396830954721471600339906781345150119220297994146129194621124397025033212122322220412797068488514469888.000000 0.000000
0.000000 0.000000 0.000000
198986940137529144182179210900783208516923700401153966385557220400466053836858474192140738018665107030016.000000 627107149958855320922482504769057071196796702108140344831677590288132904882119516164638424628750756872192.000000 0.000000
627107149958855320922482504769057071196796702108140344831677590288132904882119516164638424628750756872192.000000 328696079831386956824972260733594390349786204959221745785245499155641766763103038917150719385742568587264.000000 0.000000
0.000000 0.000000 0.000000
-122373974086844066587046046121429756544614025767911070178244302394040091382201708636161329357409822441472.000000 169404441759397071945107335584378419977848286078233131178919613170957215744301494700659969120895590465536.000000 0.000000
169404441759397071945107335584378419977848286078233131178919613170957215744301494700659969120895590465536.000000 97599228795012791231518186042294120979400030039125605900766900834724350648298957692604349929661642309632.000000 0.000000
0.000000 0.000000 0.000000
-239106041631635078759014652248244278488684726347712659129301169538971673727656900174420973339217678766702592.000000 3713486822934960430263677001525157106769678864194473194686379850311500036705294177959059597375501183746048.000000 0.000000
3713486822934960430263677001525157106769678864194473194686379850311500036705294177959059597375501183746048.000000 117277891791648072649302001457712052813492593259246273031789608467865048934185334592306166002675928268800.000000 0.000000
0.000000 0.000000 0.000000
587491166156987098660967294646971594965085585632346560200685335310798919184890016225546397749635710976.000000 -17725440796846195385093734176585714538495150600376251759628134564534897109798973512360881692258252881920.000000 0.000000
-17725440796846195385093734176585714538495150600376251759628134564534897109798973512360881692258252881920.000000 11650341117438222317837897171466545455194974069197994853881942388122685033210956921108696792849562206208.000000 0.000000
0.000000 0.000000 0.000000
30046416923820147262696812368472173456752198173317297875396692214836702932030793423790978370660772872192.000000 30679299801884173621522853927323619975517050112898054903894233937427113473525130871334839187292125396992.000000 0.000000
30679299801884173621522853927323619975517050112898054903894233937427113473525130871334839187292125396992.000000 13037669792405827250669619171950406274842805868580669561813376080062197341293418440088113609066846093312.000000 0.000000
0.000000 0.000000 0.000000
265765028253701471683962940196671695807365374045506916873629213561000228734911827614827369866495006867456.000000 -356451974279910551642646199215439419772851690681433034148029813181676988371991349577944734169196788711424.000000 0.000000
-356451974279910551642646199215439419772851690681433034148029813181676988371991349577944734169196788711424.000000 165185976037256580066899747849618358096827506339104858646891152621647515581063911917300738431335385792512.000000 0.000000
0.000000 0.000000 0.000000
10494858970487297848863746357753378240889234362040384231091038079705259455278760549979829109836014944256.000000 19685388986910122599759419917588500575557142015585942807605235600234844956575387337721305596221777248256.000000 0.000000
19685388986910122599759419917588500575557142015585942807605235600234844956575387337721305596221777248256.000000 9746967034289379254539800093615752880223961589010743091522310148913797249851633887965382728036525277184.000000 0.000000
0.000000 0.000000 0.000000
-2337556727230864535329380022107241911433537745345410368846078866318069022794961011767512487422626627584.000000 -6481257521272911904500247493824945204332418931010006976547083384002351132702709808494285268335833645056.000000 0.000000
-6481257521272911904500247493824945204332418931010006976547083384002351132702709808494285268335833645056.000000 3723427125202566919902061882856441816861834768048655598659225234185667980308341548556300251432598110208.000000 0.000000
0.000000 0.000000 0.000000
-1639338904732754411143477577113800554305845412316579769465580230637067279607692767443989490973645209600.000000 -923238223912980407624824747894491957502231462492077602314335613037901434544058038048031675330515173376.000000 0.000000
-923238223912980407624824747894491957502231462492077602314335613037901434544058038048031675330515173376.000000 617037048827450011377742890838915188527884979858923063171442901209542203437736532751966470865319624704.000000 0.000000
0.000000 0.000000 0.000000
182268451787581959910928983282398448908493756451316863887123863521762269508094732720850992149460680704.000000 -7224298166465913732749837250969272509502158623777108084799084614264776449899978487858483555423223808.000000 0.000000
-7224298166465913732749837250969272509502158623777108084799084614264776449899978487858483555423223808.000000 238537989999283633581431911986678210534159012739468563406768385612960162106217546466973324880642048.000000 0.000000
0.000000 0.000000 0.000000
-97306885479225647505754812350664318497589367698245649655522204457760077295170957095932451771522220032.000000 206945261792781211953749814617719119220483023786838871689478828771269972681578620492169174000655663104.000000 0.000000
206945261792781211953749814617719119220483023786838871689478828771269972681578620492169174000655663104.000000 119308708632363626029214179996699569758261040145531053521326438019538779943623899567052903626060070912.000000 0.000000
0.000000 0.000000 0.000000
-30230368133598818441016860705579099945842389421027816149302066861942285788777671015987688380579629236224.000000 -25388575611836535228572293814795322828101544113994192351903710765707557941877030563343405779315559759872.000000 0.000000
-25388575611836535228572293814795322828101544113994192351903710765707557941877030563343405779315559759872.000000 14237466869794479477340902445133931431431462227333437051153155300694771672924484720843892099092412628992.000000 0.000000
0.000000 0.000000 0.000000
86533790736176913267999309706229369732322754771738906797317570762337450867928714353934607412195827384320.000000 -217831970573867357503445464770939811623049708660402484697872067541239953406229880788239646319000915279872.000000 0.000000
-217831970573867357503445464770939811623049708660402484697872067541239953406229880788239646319000915279872.000000 111950542303614449831572409899607321005806266465020527996868917838693546738607783622520169684498703712256.000000 0.000000
0.000000 0.000000 0.000000
87313650353641696127165433857476820889952224528207141161361927228868693730625530414919305200366780416.000000 64045305772945023156147957901153168898385474235612761470434382850096074131840772687168947335800553472.000000 0.000000
64045305772945023156147957901153168898385474235612761470434382850096074131840772687168947335800553472.000000 23415395762049934329290776904031712969361408107051671142207390248556070030216578629238424614853410816.000000 0.000000
0.000000 0.000000 0.000000
-5549669881222210421289420108886788103750959539316623984521751131059017894995037904016355391930403651584.000000 -5196179293308391003393366545161945265780385293836437747367977774911662172400731241706948756907984158720.000000 0.000000
-5196179293308391003393366545161945265780385293836437747367977774911662172400731241706948756907984158720.000000 3455450913543797247889681184040303681256514876545578204871718241649332252781382325559925950954954817536.000000 0.000000
0.000000 0.000000 0.000000
-98707044616248306644357975620020644412195620312942420967745304301540706388990225414879498311750163365888.000000 41685083229062914822645514050140045063334114317215119555697704015632452847429669286743777119177063530496.000000 0.000000
41685083229062914822645514050140045063334114317215119555697704015632452847429669286743777119177063530496.000000 22064267431405524913409716695041410040996082055325238033332360469612199355019575349051922492276753825792.000000 0.000000
0.000000 0.000000 0.000000
8243085271911083770890149249743228119322218140507146637990166873867810099177740966970496984431783313408.000000 -122560783904754152177936131448337959468210959550960371713951255129520598380313571238166776621328217669632.000000 0.000000
-122560783904754152177936131448337959468210959550960371713951255129520598380313571238166776621328217669632.000000 66638073936904241711524288936448626349554325919224858555222997863883208168367320021246052954945485799424.000000 0.000000
0.000000 0.000000 0.000000
-312001474345821339741434255093825399756005156686989300225879535337798924706525663092655750157658469957632.000000 133153525225961039637065394543747088760376792931762662428414857844336486719657734051683929502650021707776.000000 0.000000
133153525225961039637065394543747088760376792931762662428414857844336486719657734051683929502650021707776.000000 64537130289029054056695300439113791590357211158311587209520955776192795987044821536095660641882831060992.000000 0.000000
0.000000 0.000000 0.000000
9968084435865312943770201342274490091132941722245909547903902354203575091246865305073849685167015198720.000000 -7156089405186821609269575112653704635480411270905943009389379782316495903523900272907362015353065439232.000000 0.000000
-7156089405186821609269575112653704635480411270905943009389379782316495903523900272907362015353065439232.000000 4292326637615036478904758545810732463843825909617732465925268277069602642252889001393791776453021401088.000000 0.000000
0.000000 0.000000 0.000000
526141105261725371581058404239808468197214996419431063366388369589398282520250627239881195869544906752.000000 28267377139498676893534932280912062894880158406386003919759976578496729976967495713372912393161522806784.000000 0.000000
28267377139498676893534932280912062894880158406386003919759976578496729976967495713372912393161522806784.000000 16819118361964451469296382139434312285553526005938873413424110767398921247114853928681223666547334053888.000000 0.000000
0.000000 0.000000 0.000000
-17750780729529520758322600708496169495527656905163019657699547352044399684103990521572923275534420410368.000000 31643388163239996806902719113775679225158868808781430513651603677457179503052861077300916088952756109312.000000 0.000000
31643388163239996806902719113775679225158868808781430513651603677457179503052861077300916088952756109312.000000 18267166136744565659594593115311894175839888011737477533931675554302509139566993187589199906353941839872.000000 0.000000
0.000000 0.000000 0.000000
-23818142140296961200640785377355051440244530165393555189940072000815642676968315536127890558576087793664.000000 6786842276354176643251975327355380460713522495741518818703157870052741662781204009456638581962826579968.000000 0.000000
6786842276354176643251975327355380460713522495741518818703157870052741662781204009456638581962826579968.000000 2230196134176607918292421997608343255491079173909522292382321539499679059228509413587620074996434468864.000000 0.000000
0.000000 0.000000 0.000000
27503008689936971061108530535683254384713866516102686840382166647490234596914436899476004617177658294272.000000 -25508736036378752150333941543809430112770206205535821523651794197924901560769546147789401740700899344384.000000 0.000000
-25508736036378752150333941543809430112770206205535821523651794197924901560769546147789401740700899344384.000000 11770736119461035195095427535064094517482158909248233891716887104318142278952396980208186724211983646720.000000 0.000000
0.000000 0.000000 0.000000
4174984688090392368252601782998740099252492139964041710390910948168965118861540291532427689650838044672.000000 -8907041541559375021007707835235107075639113551808007071666565128638194253644294157257227384741198561280.000000 0.000000
-8907041541559375021007707835235107075639113551808007071666565128638194253644294157257227384741198561280.000000 3384799764594750745208173486679106114596139495093593948778381486736987620222163277551382172895006425088.000000 0.000000
0.000000 0.000000 0.000000
-1565106193497404215536370633869834603379589415204272546793447366820129850077425585341803055408845160448.000000 537018420487211549609082279055649914274017248070245305272375205294325122027104051683227791436078383104.000000 0.000000
537018420487211549609082279055649914274017248070245305272375205294325122027104051683227791436078383104.000000 467220939284012375379573170278424054195027657362177350785919503145135519832338298094716574014692655104.000000 0.000000
0.000000 0.000000 0.000000
166693076807972378575813817584105619373938743530953149852444962462950467445413789077708157533827098476544.000000 174087572389697917730865266607046714891218326854141364121677100956554104983260339198957015205874237440.000000 0.000000
174087572389697917730865266607046714891218326854141364121677100956554104983260339198957015205874237440.000000 121384527974549503032915795625529623742583493230850106284278737278914306129591962920530136075862016.000000 0.000000
0.000000 0.000000 0.000000
4755922328454143384593947651061509621799791852416464795939464604584871030380123065289994482309723586560.000000 2620591437966539961016902244462630636810805004995386312460914381843198629177083264084609311259081310208.000000 0.000000
2620591437966539961016902244462630636810805004995386312460914381843198629177083264084609311259081310208.000000 804051727459511956102055179020421898796895879140315725338641186640688606915719286173707623750373998592.000000 0.000000
0.000000 0.000000 0.000000
235603389558815084595048262516564670220981522887858932760068848347887498578605119106593109246635470225408.000000 382405535756440745003108822187500146159184368243282370019814270120990768598469744353620287563849558654976.000000 0.000000
382405535756440745003108822187500146159184368243282370019814270120990768598469744353620287563849558654976.000000 184603892090809839474046222477309577784278952146110037228291776409951453222894096821158627622092038733824.000000 0.000000
0.000000 0.000000 0.000000
722240648869324502174834283709502387073649816922031794728840370545485973526640448457122279394600026112.000000 -1638776886995591335094499611315050812951136628053323186094964185070615784764550464733041738972928147456.000000 0.000000
-1638776886995591335094499611315050812951136628053323186094964185070615784764550464733041738972928147456.000000 1325831168082597090642748091569712721227809317127916965160351730241417964541920905104592165489665376256.000000 0.000000
0.000000 0.000000 0.000000
1214666259960156918693379287877556632323404394156307593223201897374935541531234184034994839160725962752.000000 1419801197825019655435188106450622591352224736823017593650521270455195100158182066955698145578947969024.000000 0.000000
1419801197825019655435188106450622591352224736823017593650521270455195100158182066955698145578947969024.000000 630329915616179875928250118620835570772167054157560852185128073854614534922436947194118868568633245696.000000 0.000000
0.000000 0.000000 0.000000
4375226200366950007293849043163157642819276810824689677184881926140949890852163799333461783370109288448.000000 50820045143467536104865164740189924048206058135476951510658038224478527438351276605696069127389577216.000000 0.000000
50820045143467536104865164740189924048206058135476951510658038224478527438351276605696069127389577216.000000 84750049973038995329032427887376060070526985504105760965620767837498887682908943697708471405416284160.000000 0.000000
0.000000 0.000000 0.000000
5270210666896483648686008535121189005644224709331542098187500780634779904767730746786789325606955778048.000000 -5352940175430557422138770238776151771677893805387075448021657246708027174907750855989347755301326028800.000000 0.000000
-5352940175430557422138770238776151771677893805387075448021657246708027174907750855989347755301326028800.000000 1937352453011545236616712926156553482970020834620269414337436762859345403112429469459521343990903341056.000000 0.000000
0.000000 0.000000 0.000000
15418200605495820734752823701305756435844574854843119413529096223731220366197412964053108161943319871488.000000 -2499317233786502466846877396947067199904243734650363800875707260587757133243128936577381603136002588672.000000 0.000000
-2499317233786502466846877396947067199904243734650363800875707260587757133243128936577381603136002588672.000000 266150473302618260793586140896658654354075207767845768365152384789502676998881910536995672408157323264.000000 0.000000
0.000000 0.000000 0.000000
-3113738702986642965651681097478018075202165948110063937893369511280785026327006749180045255827020316672.000000 -1715995568132424561926692169291831529304343762511773265343107522833405879876194068391570866826133897216.000000 0.000000
-1715995568132424561926692169291831529304343762511773265343107522833405879876194068391570866826133897216.000000 626980265796601034297771727014599514401515572285778004193490934503563309234975065234866276254737235968.000000 0.000000
0.000000 0.000000 0.000000
-2000025784002272759432241612008416741174823384963670727298822478197923058504917626279660910732413763584.000000 -4711757130177035742111392999718696463667179780266763699997326640406547049810494123190791131330127069184.000000 0.000000
-4711757130177035742111392999718696463667179780266763699997326640406547049810494123190791131330127069184.000000 3323837040078684879005011963204999650584205560261112785562349949274781389697989586759447391810550235136.000000 0.000000
0.000000 0.000000 0.000000
-743901929382605157832179837322280373667633598449524618416531879959800527710950445166690533867454988288.000000 -50356473738498779661710718111263600711329883970331589398357700502278802378328215892090111589647608971264.000000 0.000000
-50356473738498779661710718111263600711329883970331589398357700502278802378328215892090111589647608971264.000000 28052212071642017457127070181120084788155286753237842935263342336922861543319083587546602478562403418112.000000 0.000000
0.000000 0.000000 0.000000
-1281556268593669347304880152314848198543262619116612200901675831339707749661820934645379688144348119040.000000 -1051335688301181862737490825908649063186521879141015544711680247132200744653604399428983770301566287872.000000 0.000000
-1051335688301181862737490825908649063186521879141015544711680247132200744653604399428983770301566287872.000000 588114656940331468989138037242315811178165421495297616652827209257389219665721627688374892705972486144.000000 0.000000
0.000000 0.000000 0.000000
22982125729674445570968646121936910372487415107955078819285654306819167864665646098017072307362410266624.000000 3175343102710908888661727145254683634820665046095896027254448936030034734368220139771050117817163579392.000000 0.000000
3175343102710908888661727145254683634820665046095896027254448936030034734368220139771050117817163579392.000000 578562189383079402091742928575829636175519443385418528551836791848516831152023791930145211839512838144.000000 0.000000
0.000000 0.000000 0.000000
10754996700201075677526895950388790816732865876635482299639535498042083708437954211642704892672805437440.000000 -1080190320259303234582009459267376826726427444774159224987685781628960928846444041283934807961540493312.000000 0.000000
-1080190320259303234582009459267376826726427444774159224987685781628960928846444041283934807961540493312.000000 79626171458070238039824030909523932914558987647083294379108715169435152591878925398401822015828787200.000000 0.000000
0.000000 0.000000 0.000000
89415054408960478133980266920521512739461819730192410887411036540998765620526701279260485171019776.000000 -57352336241635639958468438050833832531668503727309660780078201697658062921565289380016441962528768.000000 0.000000
-57352336241635639958468438050833832531668503727309660780078201697658062921565289380016441962528768.000000 20004927261515097095613019656989937629703153374553326368780574415934937654273126906789054608572416.000000 0.000000
0.000000 0.000000 0.000000
-63342568850246274097367295075376365234934748977743690357184556165554454119915466654329451394186998710272.000000 31130960151033304878657677346954905449086202579912281540243841312045325809099770846018277031190076588032.000000 0.000000
31130960151033304878657677346954905449086202579912281540243841312045325809099770846018277031190076588032.000000 16346533511955088913737169519386184490904722548073568332112362461000016638627947304193208278787456761856.000000 0.000000
0.000000 0.000000 0.000000
-173932560667280075556966292522599275013447153200144631725249434600622255272421877291332641415650567258112.000000 -42531948072849623370599671589306672738991954672204281273106647910667617651677616683449229648013377404928.000000 0.000000
-42531948072849623370599671589306672738991954672204281273106647910667617651677616683449229648013377404928.000000 15998091330661922069507933936047863822766193778177297280519099726330030376730634695645314607812886659072.000000 0.000000
0.000000 0.000000 0.000000
-1333135698481587700567879195560835269060489555247052429389838391387968334639762819250067292544281662717952.000000 113673543638282503432513549405067406047232848059005420677313125822195568828454119991585590468519303053312.000000 0.000000
113673543638282503432513549405067406047232848059005420677313125822195568828454119991585590468519303053312.000000 18591328490021617885400077819910742216304613119126963121560671974474962441389783570695298994159724003328.000000 0.000000
0.000000 0.000000 0.000000
19479459684226024366302696042983574156992248050621812555593879419931339540130018761895682640619688165376.000000 21083662164548937409997571215796693262094356467514985232417848798680173777971501608561682523007496486912.000000 0.000000
21083662164548937409997571215796693262094356467514985232417848798680173777971501608561682523007496486912.000000 9289472128170245675277773032058375842831105434754944561187034936110921887317297215806545401302000599040.000000 0.000000
0.000000 0.000000 0.000000
-170613021820719240084801183149379358770494038960372625491511969070222219230493605333013886592000538443776.000000 -51659553943875172660279539596553849939770976763613759647089542858371592343842891728706754037708933300224.000000 0.000000
-51659553943875172660279539596553849939770976763613759647089542858371592343842891728706754037708933300224.000000 22175646726813456690288599307708161058268907006719783133634037981325048422524344707635451535449099599872.000000 0.000000
0.000000 0.000000 0.000000
17240412352230652147156786325220698698624771303917677816844351736894637030910763397667296162371503915008.000000 12694356365639947159747883831866768401621787339874635293882944608413114874419106440521939538401738883072.000000 0.000000
12694356365639947159747883831866768401621787339874635293882944608413114874419106440521939538401738883072.000000 4657396512435421277409378560045779575924619893407471956751263256372861405824324409688702675657835937792.000000 0.000000
0.000000 0.000000 0.000000
-50869807858263638946567694502601965214790494199983196930519304699132929276178482498827470214246764118016.000000 -75407484556144595918887523619587958695462842456102661958654350837310343710679288920334358807682138243072.000000 0.000000
-75407484556144595918887523619587958695462842456102661958654350837310343710679288920334358807682138243072.000000 44037610384117848208205182149202157310345249813097103526233567151322620233251811672236937804702627659776.000000 0.000000
0.000000 0.000000 0.000000
-22066286952877526303300393410168309634570851943421315934378473671253931405915228508783646993613148127232.000000 45502578262869924644391576800240140079052558270840854168013039194422639570904671236864603375066415104000.000000 0.000000
45502578262869924644391576800240140079052558270840854168013039194422639570904671236864603375066415104000.000000 26771411400760771169110882596448203846882721348623453211575455446331125370477154145645869404419231055872.000000 0.000000
0.000000 0.000000 0.000000
-429137214741572029385087632238999875911052458969428793378413016900354833738877621722960317171934167040.000000 -27868761443834261470672340613607336227715323706376937720709203493887187468165779008038205515562710204416.000000 0.000000
-27868761443834261470672340613607336227715323706376937720709203493887187468165779008038205515562710204416.000000 15277024997427907676016888513496529581504107330350999475000365538709148014407901025587361958851837427712.000000 0.000000
0.000000 0.000000 0.000000
2625842929877819065683204324066616716861561465554440238636127271365621105691173368810551157133179617280.000000 -22364994097194635008580948894371320269367395971705633753730739408194341350894171145888718816301027426304.000000 0.000000
-22364994097194635008580948894371320269367395971705633753730739408194341350894171145888718816301027426304.000000 13822461238069915775104218242417579641550120791952483257755120191234726225114160239895643134230133735424.000000 0.000000
0.000000 0.000000 0.000000
299625560498645629251073100100722595583427546078414635251821944068516100559925582680811610473377038336.000000 -555218016128246967064721706152097502597536044395434946471179285361615207930359715111288712470321954816.000000 0.000000
-555218016128246967064721706152097502597536044395434946471179285361615207930359715111288712470321954816.000000 274680991867410226373081121338210599253311942178282812800866719075410278691153659607193896303191916544.000000 0.000000
0.000000 0.000000 0.000000
-51059542698338971653654825437117135800213272844144475989957851952421961021367335468469008733196754354176.000000 16939115812222015560664631142714558222343598809965759090322271742891927597159109401850900958921485189120.000000 0.000000
16939115812222015560664631142714558222343598809965759090322271742891927597159109401850900958921485189120.000000 7481815002774673512940777339555168494438950684361300337925300362014101063687766522793988991005803675648.000000 0.000000
0.000000 0.000000 0.000000
-766886004825471666420171688913608124881959406032101678309105982795985352474739906111899898204206940553216.000000 -13481545997602824194824453372468452853374886632181431683241352471858788777773871274233144832519818969088.000000 0.000000
-13481545997602824194824453372468452853374886632181431683241352471858788777773871274233144832519818969088.000000 852461027604406254947620032518472821133488588188366283991186153091279584071381102848710942061842399232.000000 0.000000
0.000000 0.000000 0.000000
