# vtk DataFile Version 2.0
Test
ASCII
DATASET POLYDATA
POINTS 1437 float
0.000000 0.000000 0.000000
30.000000 0.000000 0.000000
30.000000 100.000000 0.000000
0.000000 100.000000 0.000000
16.400000 50.000000 0.000000
2.142857 0.000000 0.000000
4.285714 0.000000 0.000000
6.428571 0.000000 0.000000
8.571429 0.000000 0.000000
10.714286 0.000000 0.000000
12.857143 0.000000 0.000000
15.000000 0.000000 0.000000
17.142857 0.000000 0.000000
19.285714 0.000000 0.000000
21.428571 0.000000 0.000000
23.571429 0.000000 0.000000
25.714286 0.000000 0.000000
27.857143 0.000000 0.000000
30.000000 2.040816 0.000000
30.000000 4.081633 0.000000
30.000000 6.122449 0.000000
30.000000 8.163265 0.000000
30.000000 10.204082 0.000000
30.000000 12.244898 0.000000
30.000000 14.285714 0.000000
30.000000 16.326531 0.000000
30.000000 18.367347 0.000000
30.000000 20.408163 0.000000
30.000000 22.448980 0.000000
30.000000 24.489796 0.000000
30.000000 26.530612 0.000000
30.000000 28.571429 0.000000
30.000000 30.612245 0.000000
30.000000 32.653061 0.000000
30.000000 34.693878 0.000000
30.000000 36.734694 0.000000
30.000000 38.775510 0.000000
30.000000 40.816327 0.000000
30.000000 42.857143 0.000000
30.000000 44.897959 0.000000
30.000000 46.938776 0.000000
30.000000 48.979592 0.000000
30.000000 51.020408 0.000000
30.000000 53.061224 0.000000
30.000000 55.102041 0.000000
30.000000 57.142857 0.000000
30.000000 59.183673 0.000000
30.000000 61.224490 0.000000
30.000000 63.265306 0.000000
30.000000 65.306122 0.000000
30.000000 67.346939 0.000000
30.000000 69.387755 0.000000
30.000000 71.428571 0.000000
30.000000 73.469388 0.000000
30.000000 75.510204 0.000000
30.000000 77.551020 0.000000
30.000000 79.591837 0.000000
30.000000 81.632653 0.000000
30.000000 83.673469 0.000000
30.000000 85.714286 0.000000
30.000000 87.755102 0.000000
30.000000 89.795918 0.000000
30.000000 91.836735 0.000000
30.000000 93.877551 0.000000
30.000000 95.918367 0.000000
30.000000 97.959184 0.000000
27.857143 100.000000 0.000000
25.714286 100.000000 0.000000
23.571429 100.000000 0.000000
21.428571 100.000000 0.000000
19.285714 100.000000 0.000000
17.142857 100.000000 0.000000
15.000000 100.000000 0.000000
12.857143 100.000000 0.000000
10.714286 100.000000 0.000000
8.571429 100.000000 0.000000
6.428571 100.000000 0.000000
4.285714 100.000000 0.000000
2.142857 100.000000 0.000000
0.000000 97.959184 0.000000
0.000000 95.918367 0.000000
0.000000 93.877551 0.000000
0.000000 91.836735 0.000000
0.000000 89.795918 0.000000
0.000000 87.755102 0.000000
0.000000 85.714286 0.000000
0.000000 83.673469 0.000000
0.000000 81.632653 0.000000
0.000000 79.591837 0.000000
0.000000 77.551020 0.000000
0.000000 75.510204 0.000000
0.000000 73.469388 0.000000
0.000000 71.428571 0.000000
0.000000 69.387755 0.000000
0.000000 67.346939 0.000000
0.000000 65.306122 0.000000
0.000000 63.265306 0.000000
0.000000 61.224490 0.000000
0.000000 59.183673 0.000000
0.000000 57.142857 0.000000
0.000000 55.102041 0.000000
0.000000 53.061224 0.000000
0.000000 51.020408 0.000000
0.000000 48.979592 0.000000
0.000000 46.938776 0.000000
0.000000 44.897959 0.000000
0.000000 42.857143 0.000000
0.000000 40.816327 0.000000
0.000000 38.775510 0.000000
0.000000 36.734694 0.000000
0.000000 34.693878 0.000000
0.000000 32.653061 0.000000
0.000000 30.612245 0.000000
0.000000 28.571429 0.000000
0.000000 26.530612 0.000000
0.000000 24.489796 0.000000
0.000000 22.448980 0.000000
0.000000 20.408163 0.000000
0.000000 18.367347 0.000000
0.000000 16.326531 0.000000
0.000000 14.285714 0.000000
0.000000 12.244898 0.000000
0.000000 10.204082 0.000000
0.000000 8.163265 0.000000
0.000000 6.122449 0.000000
0.000000 4.081633 0.000000
0.000000 2.040816 0.000000
16.388506 50.179028 0.000000
16.354213 50.355116 0.000000
16.297683 50.525374 0.000000
16.219846 50.687005 0.000000
16.121979 50.837355 0.000000
16.005689 50.973956 0.000000
15.872886 51.094564 0.000000
15.725750 51.197200 0.000000
15.566697 51.280178 0.000000
15.398339 51.342135 0.000000
15.223440 51.382054 0.000000
15.044872 51.399281 0.000000
14.865568 51.393531 0.000000
14.688471 51.364899 0.000000
14.516489 51.313856 0.000000
14.352446 51.241239 0.000000
14.199037 51.148241 0.000000
14.058779 51.036389 0.000000
13.933976 50.907520 0.000000
13.826677 50.763749 0.000000
13.738644 50.607437 0.000000
13.671322 50.441152 0.000000
13.625817 50.267622 0.000000
13.602876 50.089698 0.000000
13.602876 49.910302 0.000000
13.625817 49.732378 0.000000
13.671322 49.558848 0.000000
13.738644 49.392563 0.000000
13.826677 49.236251 0.000000
13.933976 49.092480 0.000000
14.058779 48.963611 0.000000
14.199037 48.851759 0.000000
14.352446 48.758761 0.000000
14.516489 48.686144 0.000000
14.688471 48.635101 0.000000
14.865568 48.606469 0.000000
15.044872 48.600719 0.000000
15.223440 48.617946 0.000000
15.398339 48.657865 0.000000
15.566697 48.719822 0.000000
15.725750 48.802800 0.000000
15.872886 48.905436 0.000000
16.005689 49.026044 0.000000
16.121979 49.162645 0.000000
16.219846 49.312995 0.000000
16.297683 49.474626 0.000000
16.354213 49.644884 0.000000
16.388506 49.820972 0.000000
16.142290 51.090246 0.000000
16.381031 49.246029 0.000000
16.476220 50.570036 0.000000
16.567534 49.809478 0.000000
13.432060 49.919357 0.000000
27.959184 67.346939 0.000000
15.062546 51.587060 0.000000
27.959184 79.591837 0.000000
2.040816 20.408163 0.000000
2.040816 30.612245 0.000000
2.040816 81.632653 0.000000
2.040816 69.387755 0.000000
27.959184 16.326531 0.000000
27.959184 24.489796 0.000000
27.959184 32.653061 0.000000
2.000226 63.022103 0.000000
2.040816 38.775510 0.000000
27.959184 38.775510 0.000000
2.063520 56.953992 0.000000
27.959184 59.183673 0.000000
15.000000 97.857143 0.000000
15.000000 2.142857 0.000000
27.959184 44.897959 0.000000
27.959184 51.020408 0.000000
2.058026 48.891267 0.000000
2.040816 12.244898 0.000000
27.959184 8.163265 0.000000
2.119286 91.907213 0.000000
27.959184 87.755102 0.000000
8.571429 2.142857 0.000000
21.428571 97.857143 0.000000
2.040816 6.122449 0.000000
27.959184 93.877551 0.000000
23.571429 2.142857 0.000000
6.428571 97.857143 0.000000
2.040816 44.897959 0.000000
15.808727 51.356253 0.000000
2.040816 77.551020 0.000000
27.959184 71.428571 0.000000
2.040816 26.530612 0.000000
4.285714 2.142857 0.000000
25.714286 97.857143 0.000000
2.021897 52.958989 0.000000
27.959184 53.061224 0.000000
27.914278 55.273576 0.000000
27.959184 61.224490 0.000000
27.879705 47.169173 0.000000
2.040816 36.734694 0.000000
1.985319 42.671502 0.000000
2.040816 4.081633 0.000000
27.959184 95.918367 0.000000
27.842785 41.012410 0.000000
27.904213 63.341606 0.000000
1.981595 60.897410 0.000000
2.040816 34.693878 0.000000
2.142857 97.857143 0.000000
27.857143 2.142857 0.000000
21.428571 2.142857 0.000000
8.571429 97.857143 0.000000
19.285714 2.142857 0.000000
10.714286 97.857143 0.000000
12.857143 2.142857 0.000000
17.142857 97.857143 0.000000
2.040816 73.469388 0.000000
2.040816 85.714286 0.000000
27.959184 28.571429 0.000000
27.957036 12.244796 0.000000
27.959184 20.408163 0.000000
27.959184 75.510204 0.000000
27.959184 81.632653 0.000000
2.040816 24.489796 0.000000
2.040816 18.367347 0.000000
2.101567 67.270721 0.000000
27.990742 34.718564 0.000000
2.040816 16.326531 0.000000
2.040816 10.204082 0.000000
2.040816 89.795918 0.000000
27.959184 83.673469 0.000000
27.959184 89.795918 0.000000
2.098379 2.081372 0.000000
27.901617 97.918624 0.000000
28.130079 4.091715 0.000000
1.869924 95.908287 0.000000
16.576970 50.167357 0.000000
25.954712 32.689406 0.000000
4.048051 69.354174 0.000000
4.081633 24.489796 0.000000
25.916213 79.588913 0.000000
4.086221 18.371935 0.000000
3.897904 34.877606 0.000000
3.923124 61.572806 0.000000
26.128612 39.133691 0.000000
26.214823 61.491956 0.000000
3.871989 43.375621 0.000000
26.265426 45.355943 0.000000
26.372982 51.593494 0.000000
15.011971 95.726257 0.000000
14.987483 4.273197 0.000000
4.095212 12.258477 0.000000
25.904714 87.741449 0.000000
8.590547 95.733404 0.000000
4.124327 91.817489 0.000000
23.644909 4.177846 0.000000
1.898679 46.664421 0.000000
1.887660 50.867252 0.000000
28.104743 49.216969 0.000000
28.091622 57.507646 0.000000
1.793213 54.763850 0.000000
1.898425 40.673936 0.000000
28.092220 43.114891 0.000000
1.898792 59.041649 0.000000
26.349643 53.492500 0.000000
3.788008 38.504633 0.000000
26.348185 4.174096 0.000000
28.073402 36.848913 0.000000
3.770644 95.809804 0.000000
1.947709 64.759841 0.000000
27.961478 65.481833 0.000000
2.032166 32.492602 0.000000
21.409200 4.266343 0.000000
6.436167 2.135262 0.000000
23.563887 97.864684 0.000000
17.151762 2.133952 0.000000
12.848401 97.865884 0.000000
10.720797 2.136346 0.000000
19.279431 97.863426 0.000000
25.741048 2.116095 0.000000
4.208553 97.884202 0.000000
2.040816 71.428571 0.000000
27.959184 73.469388 0.000000
2.040044 28.570656 0.000000
2.040816 79.591837 0.000000
2.040816 75.510204 0.000000
27.959184 30.612245 0.000000
27.959184 69.387755 0.000000
27.959184 77.551020 0.000000
2.040816 22.448980 0.000000
27.959184 22.448980 0.000000
27.959252 26.530681 0.000000
27.959184 18.367347 0.000000
2.040816 83.673469 0.000000
27.959184 14.285714 0.000000
25.913747 81.628033 0.000000
2.043283 87.757569 0.000000
2.046930 14.291828 0.000000
27.956122 10.201020 0.000000
27.953028 85.708130 0.000000
2.051111 8.173560 0.000000
27.948877 91.826428 0.000000
27.877535 6.025956 0.000000
2.132881 93.976795 0.000000
4.000357 6.267740 0.000000
4.120886 4.222927 0.000000
25.999609 93.732219 0.000000
25.879089 95.777048 0.000000
15.649674 48.560769 0.000000
26.010158 67.277614 0.000000
25.918367 24.489796 0.000000
4.081633 79.591837 0.000000
25.916050 16.328010 0.000000
23.873553 79.584761 0.000000
3.481175 55.433151 0.000000
24.733850 51.947925 0.000000
3.652422 50.744354 0.000000
25.910700 12.249504 0.000000
23.509255 6.363423 0.000000
26.366938 49.758281 0.000000
26.399277 43.548901 0.000000
3.661711 59.758281 0.000000
25.957156 34.691433 0.000000
10.699495 4.264413 0.000000
19.300303 95.735157 0.000000
17.109994 4.256463 0.000000
12.860039 95.741544 0.000000
25.918367 71.428571 0.000000
4.081633 75.510204 0.000000
4.081051 71.394408 0.000000
4.082695 22.452337 0.000000
4.101940 14.313488 0.000000
25.897715 85.686136 0.000000
4.098775 10.200519 0.000000
25.900922 89.799710 0.000000
3.484993 40.079859 0.000000
26.104841 46.997441 0.000000
26.094660 40.880576 0.000000
26.217182 37.055706 0.000000
26.283778 59.646794 0.000000
3.394990 47.531927 0.000000
3.704894 44.917521 0.000000
26.589189 56.610962 0.000000
3.896163 33.117193 0.000000
4.081633 30.612245 0.000000
4.081633 26.530612 0.000000
25.925339 8.209651 0.000000
6.124956 95.705249 0.000000
26.056738 64.934647 0.000000
3.837443 65.195708 0.000000
3.643332 63.322448 0.000000
26.181899 63.192966 0.000000
19.294998 4.257059 0.000000
10.706283 95.741406 0.000000
26.301437 55.150246 0.000000
12.863256 4.267083 0.000000
17.136818 95.732295 0.000000
25.918367 28.571429 0.000000
25.922292 30.652514 0.000000
6.508559 4.176475 0.000000
23.491534 95.823372 0.000000
4.048622 67.346368 0.000000
25.918367 73.469388 0.000000
25.918367 77.551020 0.000000
25.918367 20.408163 0.000000
4.082867 81.631419 0.000000
4.087811 85.710574 0.000000
4.083002 20.414121 0.000000
4.090228 89.806980 0.000000
4.086073 16.326679 0.000000
25.912810 83.674407 0.000000
3.917278 36.754068 0.000000
14.878780 48.427563 0.000000
4.121149 8.218141 0.000000
25.878782 91.781783 0.000000
25.877030 6.294134 0.000000
4.191064 93.660458 0.000000
3.706610 41.587650 0.000000
24.360874 63.474693 0.000000
5.368991 63.172792 0.000000
5.674069 34.909097 0.000000
6.109733 24.502512 0.000000
6.088864 69.353595 0.000000
6.132398 16.325610 0.000000
23.981312 34.665250 0.000000
5.376427 43.319631 0.000000
23.882585 71.433605 0.000000
6.124736 79.588316 0.000000
24.776210 45.416620 0.000000
24.946431 56.614079 0.000000
10.752083 6.375586 0.000000
12.894743 93.625460 0.000000
23.836000 87.699130 0.000000
6.155926 89.782091 0.000000
19.248565 93.623411 0.000000
6.164366 12.302233 0.000000
23.886460 30.607260 0.000000
23.877559 77.543952 0.000000
15.993494 48.772633 0.000000
5.251211 40.260448 0.000000
6.178688 93.732220 0.000000
3.877467 52.261786 0.000000
23.990247 8.280891 0.000000
17.186835 6.364626 0.000000
21.413206 6.362392 0.000000
3.711363 57.087486 0.000000
24.548632 37.413315 0.000000
5.712568 65.433508 0.000000
5.793943 32.523932 0.000000
24.589986 59.837123 0.000000
24.813004 53.682843 0.000000
5.250488 60.030776 0.000000
3.697518 48.909379 0.000000
24.119046 65.396539 0.000000
24.581314 40.691301 0.000000
10.603714 93.717869 0.000000
4.068917 28.558713 0.000000
4.081027 73.434619 0.000000
8.607507 4.236797 0.000000
21.392703 95.762913 0.000000
5.512345 38.522043 0.000000
17.126865 93.618251 0.000000
12.870913 6.383653 0.000000
25.921385 69.390773 0.000000
6.123796 22.456285 0.000000
25.918367 75.510204 0.000000
25.919947 26.532192 0.000000
4.081633 77.551021 0.000000
25.918367 22.448980 0.000000
25.918055 18.367035 0.000000
6.126108 20.415041 0.000000
23.865516 81.626176 0.000000
4.094668 87.761959 0.000000
25.903092 10.196473 0.000000
4.085158 83.675760 0.000000
25.916212 14.283559 0.000000
23.851875 83.638664 0.000000
6.166237 10.285603 0.000000
23.833198 89.714059 0.000000
6.100145 6.368968 0.000000
23.899708 93.630706 0.000000
3.849996 53.640692 0.000000
26.304700 57.958096 0.000000
26.390976 48.299874 0.000000
26.662179 42.156926 0.000000
24.928849 50.372815 0.000000
13.812511 49.014983 0.000000
6.961847 40.150704 0.000000
7.220966 63.583340 0.000000
8.149957 24.495948 0.000000
23.871440 16.336385 0.000000
22.546365 63.639938 0.000000
7.533761 34.314286 0.000000
23.539398 53.218806 0.000000
4.879497 50.090533 0.000000
23.877395 24.489952 0.000000
21.837403 77.544605 0.000000
4.942273 54.893282 0.000000
14.042009 51.239805 0.000000
21.957799 8.394841 0.000000
10.796003 91.534377 0.000000
6.137275 83.658457 0.000000
19.389985 91.656620 0.000000
10.642977 8.412362 0.000000
24.862291 43.842084 0.000000
23.887457 69.399677 0.000000
23.901485 28.589395 0.000000
23.882196 73.469776 0.000000
21.816253 81.579636 0.000000
5.179307 44.681010 0.000000
14.210175 48.650784 0.000000
21.781554 87.648985 0.000000
8.115148 12.462592 0.000000
8.650546 6.363441 0.000000
21.350405 93.635979 0.000000
24.663411 55.112128 0.000000
24.480994 61.756706 0.000000
8.023152 93.717055 0.000000
23.611367 50.645005 0.000000
24.922753 46.689466 0.000000
24.939931 48.967472 0.000000
5.138432 47.437222 0.000000
25.210225 42.253593 0.000000
15.083357 6.376675 0.000000
23.974703 32.674592 0.000000
24.018641 67.390173 0.000000
6.071740 28.533435 0.000000
6.032696 30.572869 0.000000
5.838095 36.820875 0.000000
19.313303 6.356962 0.000000
24.567791 39.067474 0.000000
5.934916 67.348646 0.000000
15.007592 93.613408 0.000000
6.109735 26.530614 0.000000
6.121468 71.394012 0.000000
6.121217 73.470014 0.000000
23.877083 22.449448 0.000000
23.876771 20.408631 0.000000
6.132219 18.371608 0.000000
8.164746 22.457893 0.000000
23.879217 75.504801 0.000000
6.122447 77.547502 0.000000
23.842069 85.655271 0.000000
23.863821 14.301895 0.000000
6.125976 81.631425 0.000000
24.747281 58.245451 0.000000
6.161833 14.324055 0.000000
6.156358 87.744384 0.000000
5.495841 61.447891 0.000000
14.375028 51.419444 0.000000
5.313717 41.826386 0.000000
6.202877 8.383179 0.000000
23.796848 91.616228 0.000000
23.850972 12.298467 0.000000
23.897727 10.313937 0.000000
6.162642 91.852046 0.000000
5.223624 58.441069 0.000000
13.628586 49.241874 0.000000
2.786570 54.199171 0.000000
5.093535 51.130499 0.000000
5.387914 52.233716 0.000000
3.358323 58.372731 0.000000
24.678812 35.893973 0.000000
13.607142 50.739267 0.000000
22.941442 41.026261 0.000000
23.223788 58.324579 0.000000
23.506071 46.765140 0.000000
6.482216 44.584016 0.000000
8.099406 69.355946 0.000000
6.357803 51.489803 0.000000
22.132765 34.570382 0.000000
21.884366 69.430514 0.000000
10.192943 24.500200 0.000000
8.163184 77.547578 0.000000
21.829594 16.348760 0.000000
21.836354 24.490489 0.000000
17.181425 8.462694 0.000000
7.654894 36.253489 0.000000
22.760177 61.916415 0.000000
6.728181 59.905241 0.000000
6.727014 41.596743 0.000000
12.864459 8.477611 0.000000
23.654334 49.356826 0.000000
8.007345 30.508084 0.000000
21.902053 28.606170 0.000000
8.137542 26.525713 0.000000
8.177006 81.607427 0.000000
21.794374 83.590324 0.000000
7.186926 38.525330 0.000000
7.015107 61.839380 0.000000
5.338531 56.651487 0.000000
19.872151 8.442610 0.000000
8.073424 89.599073 0.000000
8.271438 10.346690 0.000000
21.677622 89.640501 0.000000
23.449478 42.463540 0.000000
23.325650 51.972959 0.000000
23.330042 44.183491 0.000000
23.482458 55.740324 0.000000
5.148041 48.818759 0.000000
22.916720 37.715653 0.000000
22.015822 32.583921 0.000000
5.370442 53.547470 0.000000
7.507431 65.450312 0.000000
23.896408 26.568497 0.000000
8.160817 73.433612 0.000000
17.111241 91.511375 0.000000
22.292825 65.495872 0.000000
12.895571 91.525891 0.000000
21.867085 71.444405 0.000000
21.840385 75.505773 0.000000
23.876297 18.366873 0.000000
21.835560 22.450155 0.000000
8.248460 20.346607 0.000000
7.751615 32.465326 0.000000
8.179687 18.373078 0.000000
6.122212 75.510593 0.000000
21.807868 14.311537 0.000000
21.825204 79.544809 0.000000
6.150539 85.692882 0.000000
5.134328 46.040850 0.000000
21.779006 85.615406 0.000000
8.199717 16.395014 0.000000
8.224250 14.413504 0.000000
21.795834 12.397585 0.000000
21.699169 10.521320 0.000000
8.336322 91.561994 0.000000
8.133293 8.293858 0.000000
21.867399 91.706531 0.000000
23.516586 54.541985 0.000000
14.453896 48.556442 0.000000
25.238225 47.787622 0.000000
14.195523 51.302253 0.000000
22.958862 36.215682 0.000000
8.144178 41.549260 0.000000
8.421890 60.301761 0.000000
22.353255 54.162532 0.000000
22.464967 50.846703 0.000000
6.554031 48.817472 0.000000
21.044218 61.921272 0.000000
9.470408 34.412306 0.000000
19.896736 69.445945 0.000000
19.808323 75.512543 0.000000
10.221840 20.423287 0.000000
19.779021 79.496142 0.000000
19.775124 16.420730 0.000000
20.236331 34.461634 0.000000
19.795086 24.491422 0.000000
10.240021 16.469720 0.000000
6.413503 45.848624 0.000000
9.056013 63.626981 0.000000
10.165013 26.527671 0.000000
21.835011 20.408395 0.000000
19.674844 83.449691 0.000000
14.297504 48.455887 0.000000
22.349999 43.088950 0.000000
22.951502 60.196152 0.000000
9.021800 38.116547 0.000000
13.488444 50.412650 0.000000
6.365724 50.317585 0.000000
6.104654 55.080214 0.000000
18.986056 89.489607 0.000000
6.699509 57.246979 0.000000
10.044108 89.521230 0.000000
6.601349 43.002505 0.000000
10.776634 10.563823 0.000000
19.201430 10.542748 0.000000
23.606551 57.055676 0.000000
23.283637 45.471428 0.000000
23.009116 39.542705 0.000000
23.832626 47.983859 0.000000
22.107680 67.447639 0.000000
15.057387 8.467088 0.000000
21.878659 26.546718 0.000000
7.788147 67.381749 0.000000
20.781556 63.691942 0.000000
6.822586 58.427025 0.000000
8.162715 75.507075 0.000000
21.851491 73.475068 0.000000
9.702112 32.457152 0.000000
15.011124 91.520063 0.000000
21.917862 30.606984 0.000000
8.157559 71.390001 0.000000
8.072002 28.525975 0.000000
8.189608 83.659761 0.000000
10.208953 22.458613 0.000000
21.830076 18.393231 0.000000
8.165398 79.588241 0.000000
8.204106 85.655068 0.000000
8.212602 87.685542 0.000000
22.247762 52.043814 0.000000
10.281506 14.600909 0.000000
19.858600 87.627281 0.000000
19.768295 14.405443 0.000000
21.235482 35.786207 0.000000
22.055492 42.090022 0.000000
3.552023 46.248317 0.000000
6.477218 52.631238 0.000000
14.074613 51.468753 0.000000
21.267521 43.206749 0.000000
7.623500 49.895400 0.000000
7.454519 45.456673 0.000000
21.425923 51.623124 0.000000
19.361609 61.974414 0.000000
9.742125 67.387394 0.000000
19.951424 30.585322 0.000000
10.178004 71.399416 0.000000
10.202151 75.508143 0.000000
10.215226 79.565717 0.000000
10.248198 83.596478 0.000000
11.433770 34.358749 0.000000
19.659779 36.124614 0.000000
12.179625 26.525518 0.000000
12.330199 22.397486 0.000000
12.379252 16.414770 0.000000
17.653408 16.572879 0.000000
22.785660 47.586351 0.000000
7.869402 42.860172 0.000000
22.191123 56.893194 0.000000
21.406815 60.365026 0.000000
20.149475 67.520403 0.000000
19.845856 26.522525 0.000000
19.833442 73.494494 0.000000
10.069707 28.525376 0.000000
22.416736 49.749231 0.000000
7.460504 51.703671 0.000000
8.504576 39.859453 0.000000
8.319729 58.828183 0.000000
6.142505 46.759018 0.000000
22.247990 55.335280 0.000000
12.138980 89.165857 0.000000
17.914119 87.426583 0.000000
20.501555 65.594878 0.000000
9.496715 36.254127 0.000000
21.453194 39.077570 0.000000
21.596484 40.733754 0.000000
14.940569 10.545587 0.000000
16.964368 10.537124 0.000000
9.347761 65.498670 0.000000
8.621300 61.895188 0.000000
19.866367 71.473464 0.000000
22.239990 45.093362 0.000000
20.085298 32.542839 0.000000
19.792146 20.435077 0.000000
9.960094 30.507728 0.000000
12.859253 10.560230 0.000000
19.755888 85.526995 0.000000
19.783344 18.420410 0.000000
19.794302 22.450164 0.000000
17.066556 89.326025 0.000000
19.795951 77.496775 0.000000
22.136729 44.061282 0.000000
19.763883 81.477675 0.000000
10.233900 18.523933 0.000000
21.140825 37.504092 0.000000
19.893126 12.404498 0.000000
10.186732 12.619033 0.000000
10.207936 87.508327 0.000000
22.312564 53.030694 0.000000
6.717193 53.961431 0.000000
6.742458 56.121620 0.000000
21.677005 58.660720 0.000000
13.589769 50.546941 0.000000
7.741061 44.214374 0.000000
13.464216 50.616384 0.000000
9.731885 41.136364 0.000000
20.771535 57.274625 0.000000
8.490613 45.067810 0.000000
9.770659 59.143020 0.000000
10.909450 63.350601 0.000000
18.269947 67.566536 0.000000
17.861750 71.474869 0.000000
17.779913 75.435925 0.000000
18.286676 34.422817 0.000000
17.740798 79.435896 0.000000
17.931061 26.036097 0.000000
17.751471 22.477908 0.000000
11.993406 86.711078 0.000000
19.799139 60.341528 0.000000
21.244001 54.730634 0.000000
21.388285 52.675732 0.000000
12.183673 18.409634 0.000000
17.904275 14.697684 0.000000
14.937172 12.623506 0.000000
20.195854 40.358456 0.000000
19.156221 37.692705 0.000000
15.971062 87.354230 0.000000
7.670109 47.668472 0.000000
22.283335 46.855371 0.000000
12.497769 12.516127 0.000000
10.099674 39.603104 0.000000
11.326083 36.218072 0.000000
7.587670 52.882251 0.000000
7.602988 55.066063 0.000000
8.205827 57.600085 0.000000
21.520459 50.660827 0.000000
11.200897 65.480608 0.000000
21.158313 44.526039 0.000000
19.917008 28.573413 0.000000
10.188569 73.446985 0.000000
10.107031 69.353833 0.000000
19.055881 63.775158 0.000000
9.979963 60.454699 0.000000
15.030091 89.429578 0.000000
12.063477 28.521896 0.000000
11.642173 32.450128 0.000000
17.710887 81.477091 0.000000
12.233194 24.486911 0.000000
12.348198 14.417529 0.000000
10.207948 77.534361 0.000000
20.813159 41.775923 0.000000
18.135238 32.534665 0.000000
10.231889 81.583041 0.000000
17.790086 18.857560 0.000000
12.268043 20.263178 0.000000
17.754728 12.524423 0.000000
17.695072 83.522785 0.000000
17.763346 85.427074 0.000000
10.264455 85.656827 0.000000
8.820647 43.882350 0.000000
21.139207 55.958668 0.000000
7.329007 46.709657 0.000000
7.262855 50.785023 0.000000
21.362822 53.706851 0.000000
9.152980 42.529334 0.000000
22.666549 48.546495 0.000000
19.997708 42.720216 0.000000
9.935453 43.443779 0.000000
20.298905 55.292628 0.000000
20.557708 52.296448 0.000000
8.413521 51.971256 0.000000
11.253178 59.742807 0.000000
18.344843 60.443324 0.000000
12.510949 63.822848 0.000000
13.376062 50.795308 0.000000
12.194346 69.609129 0.000000
12.137227 73.802319 0.000000
13.266774 35.914998 0.000000
12.354395 77.371553 0.000000
15.570282 81.157153 0.000000
9.276905 56.768396 0.000000
17.926610 28.516085 0.000000
14.066417 28.531066 0.000000
15.487165 85.063526 0.000000
10.915829 40.435770 0.000000
14.205293 26.529933 0.000000
16.356414 34.470521 0.000000
14.348169 24.430784 0.000000
14.300444 22.468969 0.000000
14.214024 20.463572 0.000000
14.338414 18.528045 0.000000
12.275711 79.523779 0.000000
12.276331 81.544532 0.000000
14.357292 16.475358 0.000000
13.104567 34.145465 0.000000
12.309176 83.595850 0.000000
21.259966 45.407997 0.000000
10.839131 38.035403 0.000000
18.688418 65.626666 0.000000
9.591784 44.777881 0.000000
21.296096 49.784683 0.000000
21.398977 46.874424 0.000000
10.083488 61.990333 0.000000
17.983654 30.585260 0.000000
11.650226 67.428015 0.000000
20.594933 51.387278 0.000000
17.935745 69.502373 0.000000
17.678127 61.994429 0.000000
17.793213 36.330390 0.000000
11.928024 30.489825 0.000000
17.714892 24.320786 0.000000
17.638297 73.445268 0.000000
17.756835 77.396780 0.000000
18.028161 20.703249 0.000000
20.255031 43.935113 0.000000
20.379419 54.313924 0.000000
7.933531 56.400666 0.000000
20.422535 58.893288 0.000000
15.815976 14.836234 0.000000
8.280065 50.838455 0.000000
13.284558 50.557202 0.000000
11.663219 84.968960 0.000000
9.078122 45.887169 0.000000
7.826578 53.942857 0.000000
16.006397 18.582932 0.000000
19.701456 41.632086 0.000000
20.094516 38.804836 0.000000
21.717299 47.786848 0.000000
14.020261 87.168140 0.000000
14.146818 14.622322 0.000000
20.499408 53.327593 0.000000
10.397307 42.274427 0.000000
22.646028 46.030523 0.000000
19.272818 43.494399 0.000000
10.673454 44.193049 0.000000
13.122384 50.744545 0.000000
19.519165 54.741257 0.000000
19.804380 51.985680 0.000000
9.137345 51.239811 0.000000
17.776570 37.947859 0.000000
16.704981 60.634159 0.000000
19.687352 57.729439 0.000000
13.368895 67.503124 0.000000
12.801308 38.087834 0.000000
13.971901 30.512311 0.000000
13.267924 50.331371 0.000000
15.989487 69.502298 0.000000
15.857555 71.451203 0.000000
8.792296 54.371752 0.000000
15.789840 73.443897 0.000000
15.750812 75.369138 0.000000
11.265259 61.323052 0.000000
16.003038 77.408426 0.000000
16.823206 65.659908 0.000000
16.322296 36.223027 0.000000
20.826485 48.485949 0.000000
13.529375 50.962152 0.000000
10.982401 58.231536 0.000000
9.990519 45.794936 0.000000
18.636350 40.995957 0.000000
16.003580 32.382339 0.000000
17.344079 63.825391 0.000000
8.645174 53.039147 0.000000
12.947977 65.530577 0.000000
12.049109 72.173263 0.000000
13.543201 32.471576 0.000000
20.374875 45.164146 0.000000
15.936278 79.415766 0.000000
19.614641 53.830879 0.000000
12.200779 75.516685 0.000000
16.007785 30.322203 0.000000
9.073497 55.600853 0.000000
20.676059 50.545301 0.000000
15.970465 28.419413 0.000000
20.208040 56.401263 0.000000
8.677880 49.988306 0.000000
15.853522 82.673711 0.000000
8.162433 46.155518 0.000000
16.115013 26.406294 0.000000
16.308481 24.505451 0.000000
18.912542 42.317302 0.000000
21.631832 48.931676 0.000000
14.286139 77.517569 0.000000
16.188761 22.980853 0.000000
19.181537 59.006020 0.000000
16.333669 20.834067 0.000000
14.306527 79.498459 0.000000
15.649829 16.853705 0.000000
14.968672 36.207508 0.000000
14.166993 81.354495 0.000000
11.558615 39.494344 0.000000
14.125777 83.266107 0.000000
13.333460 85.173408 0.000000
12.664947 62.258933 0.000000
19.791833 52.867707 0.000000
21.742244 46.088515 0.000000
18.526488 39.391355 0.000000
11.200639 43.178038 0.000000
18.266160 43.118423 0.000000
11.764165 44.063257 0.000000
18.695660 54.139700 0.000000
9.324854 50.532839 0.000000
9.480077 53.661749 0.000000
13.161463 39.922661 0.000000
9.621993 46.659925 0.000000
16.889712 39.283543 0.000000
12.324608 59.001106 0.000000
20.527255 47.512687 0.000000
19.162557 52.492828 0.000000
14.217585 63.483201 0.000000
14.557630 37.801643 0.000000
18.414413 58.011042 0.000000
8.578613 49.035985 0.000000
20.504533 49.751157 0.000000
9.340541 52.113240 0.000000
10.399435 55.952810 0.000000
15.896601 62.369781 0.000000
20.646526 46.265566 0.000000
8.565534 47.040842 0.000000
19.174252 56.754469 0.000000
14.857041 65.893928 0.000000
10.014697 54.758370 0.000000
13.392193 50.140757 0.000000
16.412445 67.592022 0.000000
19.870929 51.195965 0.000000
14.038380 69.407389 0.000000
19.528164 44.619035 0.000000
11.738238 42.135677 0.000000
12.812193 60.382387 0.000000
17.871425 41.886648 0.000000
13.827574 71.433500 0.000000
13.046316 50.463260 0.000000
13.243285 51.041841 0.000000
19.413704 55.740076 0.000000
13.809389 73.446906 0.000000
16.237600 37.670984 0.000000
13.725099 75.491856 0.000000
14.547260 34.291607 0.000000
17.703442 59.219529 0.000000
13.713818 50.903029 0.000000
15.827702 64.246442 0.000000
10.243336 57.146715 0.000000
10.495991 45.079863 0.000000
19.053152 53.276450 0.000000
20.873765 49.185248 0.000000
12.844168 50.664110 0.000000
10.962866 55.153057 0.000000
18.212182 53.494494 0.000000
17.258246 42.774937 0.000000
10.022217 52.847173 0.000000
17.062435 57.933784 0.000000
13.438753 51.197620 0.000000
12.212752 57.735694 0.000000
19.910058 46.859393 0.000000
9.916938 51.244622 0.000000
14.344550 39.419241 0.000000
14.246505 60.238021 0.000000
18.442936 56.041372 0.000000
20.028294 48.476540 0.000000
13.887098 51.109272 0.000000
13.275027 49.914017 0.000000
11.322732 44.937686 0.000000
12.118402 40.937426 0.000000
11.311346 56.895935 0.000000
13.079606 50.158378 0.000000
14.434107 61.763730 0.000000
19.715898 45.838173 0.000000
19.148732 51.732031 0.000000
9.238974 47.714924 0.000000
19.911209 50.446426 0.000000
18.510577 52.903174 0.000000
7.618889 49.023274 0.000000
10.323769 53.967598 0.000000
18.647693 44.261756 0.000000
16.480658 59.238527 0.000000
18.716561 55.144341 0.000000
13.678611 51.138782 0.000000
17.489815 40.503110 0.000000
15.572420 38.968663 0.000000
12.938615 50.968535 0.000000
10.305235 46.433776 0.000000
17.909105 56.974746 0.000000
10.980332 41.383933 0.000000
14.837819 67.821848 0.000000
9.511106 49.736871 0.000000
9.525661 58.002296 0.000000
20.243897 49.101525 0.000000
15.268937 60.893569 0.000000
19.103649 46.410052 0.000000
12.154971 45.109861 0.000000
17.748362 53.044060 0.000000
19.369476 48.351635 0.000000
12.622029 50.896359 0.000000
10.801278 53.241784 0.000000
13.009685 42.171929 0.000000
15.677880 58.131868 0.000000
17.790902 55.408661 0.000000
13.578172 58.771972 0.000000
12.368106 56.526923 0.000000
15.826242 40.323323 0.000000
13.587155 51.371096 0.000000
9.465277 49.091021 0.000000
13.509920 49.563275 0.000000
14.453948 40.783165 0.000000
18.590754 52.181825 0.000000
19.230336 51.021474 0.000000
16.861091 56.679505 0.000000
10.996953 45.809594 0.000000
18.941145 45.337040 0.000000
17.808798 54.014866 0.000000
17.899828 54.648482 0.000000
19.829731 49.695700 0.000000
8.326209 48.277906 0.000000
16.741858 41.573916 0.000000
19.707306 47.765502 0.000000
10.143244 47.322548 0.000000
12.789977 50.341969 0.000000
10.316569 52.014259 0.000000
17.735915 43.956858 0.000000
12.988057 51.205543 0.000000
10.202002 50.529327 0.000000
15.101175 59.457749 0.000000
13.855186 51.332704 0.000000
13.448983 49.765429 0.000000
17.527738 56.155788 0.000000
11.674613 55.813718 0.000000
10.893710 54.465072 0.000000
13.412345 41.170763 0.000000
13.783480 51.598883 0.000000
17.364463 53.590269 0.000000
11.417666 53.842825 0.000000
16.789897 43.677434 0.000000
10.934300 52.490514 0.000000
15.863126 56.988568 0.000000
18.405798 45.962865 0.000000
14.266807 42.004752 0.000000
12.545424 55.323075 0.000000
19.000435 47.808167 0.000000
13.279411 49.642049 0.000000
16.789912 55.565239 0.000000
10.684743 51.358554 0.000000
10.939788 46.827363 0.000000
18.010538 52.515859 0.000000
18.581720 51.494915 0.000000
13.252448 57.321256 0.000000
10.400573 49.775356 0.000000
19.255637 50.376173 0.000000
16.196094 42.645957 0.000000
17.103222 54.284424 0.000000
18.160125 45.044728 0.000000
12.516129 43.299718 0.000000
19.370757 49.027802 0.000000
13.230231 51.381316 0.000000
19.242868 47.171163 0.000000
12.531130 50.557141 0.000000
12.760049 50.035242 0.000000
14.416377 57.929494 0.000000
13.594321 49.422503 0.000000
11.704126 45.563787 0.000000
7.358242 48.350751 0.000000
12.744480 51.136130 0.000000
15.431684 41.700210 0.000000
17.218213 54.948704 0.000000
9.411523 48.545541 0.000000
17.627515 45.666183 0.000000
16.720551 53.797118 0.000000
12.236497 45.951709 0.000000
17.061597 53.149969 0.000000
15.945287 55.996968 0.000000
10.869592 50.329786 0.000000
12.278247 50.816121 0.000000
11.214068 51.824935 0.000000
11.124919 47.697222 0.000000
15.775635 43.530892 0.000000
18.463252 47.067482 0.000000
14.247820 51.629657 0.000000
10.331421 48.223372 0.000000
14.924007 57.145400 0.000000
11.749549 54.603508 0.000000
16.507201 54.836714 0.000000
11.566734 46.359522 0.000000
18.094408 51.903036 0.000000
13.212055 56.071862 0.000000
13.432456 49.395577 0.000000
18.603428 50.851526 0.000000
17.378473 52.665556 0.000000
19.155431 49.698865 0.000000
13.586278 51.855089 0.000000
18.790824 48.518385 0.000000
12.987785 49.637177 0.000000
17.331645 44.813550 0.000000
11.480348 52.973378 0.000000
10.138169 49.073321 0.000000
13.011411 49.853488 0.000000
12.761810 51.417312 0.000000
6.698721 47.623765 0.000000
12.464125 50.202942 0.000000
15.098166 42.826410 0.000000
12.439877 51.161335 0.000000
13.884212 43.176417 0.000000
16.909466 45.458920 0.000000
16.152438 54.258540 0.000000
12.026602 53.308837 0.000000
16.728017 52.668177 0.000000
13.345067 55.034917 0.000000
12.748632 45.430150 0.000000
11.749160 52.237773 0.000000
12.125708 46.728242 0.000000
12.278560 51.513442 0.000000
13.310444 44.113248 0.000000
11.918673 51.102765 0.000000
15.010870 56.101293 0.000000
13.041562 51.679354 0.000000
13.346791 49.144657 0.000000
14.464575 51.653830 0.000000
14.050930 51.763086 0.000000
18.377781 48.004476 0.000000
18.094125 51.300169 0.000000
17.932659 46.530935 0.000000
18.693762 50.266879 0.000000
16.512697 53.326079 0.000000
15.776577 55.169175 0.000000
11.262599 48.385158 0.000000
11.009583 49.870436 0.000000
17.625437 52.173070 0.000000
18.699994 49.145398 0.000000
15.574398 44.403797 0.000000
16.473062 44.560621 0.000000
11.305146 51.238932 0.000000
10.956304 48.899646 0.000000
14.825931 43.785207 0.000000
13.194079 49.382044 0.000000
12.253532 50.446858 0.000000
12.396571 49.848143 0.000000
12.686589 49.734069 0.000000
12.728755 54.431669 0.000000
17.900212 47.627262 0.000000
14.147460 56.774954 0.000000
17.646504 47.070508 0.000000
16.013232 53.678466 0.000000
13.822163 51.957059 0.000000
18.166385 48.680963 0.000000
13.378236 54.315805 0.000000
12.294005 49.495908 0.000000
13.032789 49.112684 0.000000
14.705914 44.638234 0.000000
14.874754 51.569335 0.000000
14.806793 55.132499 0.000000
11.458053 50.306864 0.000000
13.552161 48.977396 0.000000
12.814457 46.283695 0.000000
18.087277 50.799141 0.000000
17.071286 52.297088 0.000000
11.680167 47.125964 0.000000
17.197945 46.304635 0.000000
12.551339 44.462572 0.000000
18.590162 49.706531 0.000000
16.268439 52.878384 0.000000
17.681472 51.610382 0.000000
14.304831 51.851575 0.000000
15.371731 54.414388 0.000000
16.224565 45.375958 0.000000
17.904872 48.247927 0.000000
14.108973 55.649661 0.000000
11.669673 48.919442 0.000000
11.776850 51.646053 0.000000
11.896565 50.588524 0.000000
12.592082 51.787847 0.000000
12.631174 49.412195 0.000000
10.864279 50.791753 0.000000
12.944466 49.378276 0.000000
14.100465 44.121762 0.000000
13.444759 51.623175 0.000000
12.203348 52.729729 0.000000
10.892635 49.447408 0.000000
12.050339 50.060778 0.000000
14.541902 51.490016 0.000000
17.028005 46.911888 0.000000
12.708745 46.982619 0.000000
15.433608 53.769110 0.000000
17.710332 48.980041 0.000000
16.513923 52.258656 0.000000
14.874035 51.771525 0.000000
17.525276 47.940597 0.000000
12.844724 52.034340 0.000000
12.574891 53.124499 0.000000
13.438207 45.703477 0.000000
11.907433 48.324342 0.000000
12.604665 49.027900 0.000000
13.941357 44.959417 0.000000
11.917195 49.573962 0.000000
13.551008 52.162845 0.000000
14.603445 51.889151 0.000000
18.169011 50.291339 0.000000
12.380941 52.208700 0.000000
15.396497 45.260873 0.000000
13.275085 51.940076 0.000000
17.290909 51.864795 0.000000
15.860724 53.186992 0.000000
17.681259 51.082684 0.000000
18.167847 49.231634 0.000000
13.047289 53.626200 0.000000
11.448875 49.758112 0.000000
14.561679 54.288151 0.000000
14.044970 54.738967 0.000000
16.507255 46.065095 0.000000
12.155519 51.878763 0.000000
13.246532 48.846138 0.000000
14.674530 51.623126 0.000000
14.089140 52.065167 0.000000
11.916613 47.768262 0.000000
13.205180 44.893102 0.000000
11.383234 50.777262 0.000000
16.464244 46.696696 0.000000
15.106482 51.802148 0.000000
14.876494 53.769563 0.000000
14.105969 48.363905 0.000000
16.154864 52.484590 0.000000
17.757726 49.425269 0.000000
14.692530 45.454761 0.000000
13.868247 53.902712 0.000000
13.097596 52.884579 0.000000
13.410067 46.555587 0.000000
17.536568 48.543069 0.000000
12.878342 48.864047 0.000000
12.196635 49.176258 0.000000
16.810417 51.977126 0.000000
15.305813 53.230941 0.000000
14.877127 52.008157 0.000000
17.286803 47.444950 0.000000
17.323167 51.361254 0.000000
12.700940 52.515882 0.000000
13.181035 52.351204 0.000000
17.664933 50.566507 0.000000
18.011940 49.786671 0.000000
15.745309 45.934567 0.000000
14.351155 52.137451 0.000000
12.368087 47.429353 0.000000
12.118052 48.798846 0.000000
12.257459 53.822923 0.000000
13.496616 48.730532 0.000000
14.143649 45.676366 0.000000
11.552393 48.074286 0.000000
13.837969 52.227717 0.000000
11.376936 49.319714 0.000000
15.886542 46.576126 0.000000
17.192280 48.221247 0.000000
13.298056 47.154955 0.000000
17.314509 49.148025 0.000000
15.156291 52.061888 0.000000
16.329272 51.938985 0.000000
14.769223 53.188065 0.000000
14.422382 48.274796 0.000000
12.715137 47.841940 0.000000
13.346390 48.494870 0.000000
13.975922 48.602089 0.000000
17.602806 49.857908 0.000000
14.662310 46.179140 0.000000
13.607820 52.606658 0.000000
13.614280 53.184309 0.000000
12.552001 48.572004 0.000000
15.691634 52.716604 0.000000
16.700212 47.320474 0.000000
15.438258 51.517034 0.000000
16.987112 51.588757 0.000000
17.329139 50.894668 0.000000
15.248434 51.590077 0.000000
13.032816 48.554527 0.000000
12.385823 48.034651 0.000000
14.617674 52.157741 0.000000
15.164729 45.858584 0.000000
17.738220 50.162003 0.000000
13.710849 48.844009 0.000000
14.025666 52.403050 0.000000
13.968603 46.241007 0.000000
14.201818 48.109284 0.000000
17.439152 50.192118 0.000000
16.035921 52.147935 0.000000
14.893862 52.371179 0.000000
13.871172 46.880107 0.000000
13.274157 48.159952 0.000000
14.668344 48.456935 0.000000
17.328525 49.526278 0.000000
15.108970 52.774353 0.000000
17.195115 48.757354 0.000000
16.206577 47.154176 0.000000
13.787074 48.447824 0.000000
16.966761 47.792036 0.000000
17.006906 51.146006 0.000000
16.564802 51.680225 0.000000
15.381789 51.761942 0.000000
15.661912 51.466398 0.000000
14.220847 53.185255 0.000000
12.823239 48.168034 0.000000
15.325879 46.496563 0.000000
13.969955 52.771266 0.000000
14.065250 48.747264 0.000000
17.238427 50.520784 0.000000
12.908160 47.499900 0.000000
14.417241 52.554495 0.000000
14.410159 46.801051 0.000000
14.497148 48.030964 0.000000
16.903309 48.485442 0.000000
15.920353 51.534959 0.000000
16.864555 48.953486 0.000000
16.990874 50.779758 0.000000
13.749497 47.406380 0.000000
15.449726 52.063606 0.000000
16.984572 50.526896 0.000000
13.365190 47.696155 0.000000
16.992973 49.274964 0.000000
16.388557 47.701615 0.000000
16.722997 51.353379 0.000000
17.256195 49.877252 0.000000
15.720577 52.301053 0.000000
15.695226 47.048012 0.000000
15.923498 51.840754 0.000000
14.766513 52.740023 0.000000
15.336844 52.381447 0.000000
13.892488 48.189924 0.000000
16.375343 51.446869 0.000000
13.587189 48.303006 0.000000
14.701290 48.232690 0.000000
13.897011 48.808103 0.000000
14.418554 53.722592 0.000000
14.270013 47.287641 0.000000
14.574928 52.917371 0.000000
13.017177 47.873196 0.000000
14.955430 48.214385 0.000000
16.654235 48.701001 0.000000
14.721915 47.314417 0.000000
16.724137 51.019428 0.000000
14.260915 47.887609 0.000000
16.475276 51.151926 0.000000
16.673675 48.128505 0.000000
16.609672 49.151505 0.000000
17.045143 50.224592 0.000000
16.679978 50.715073 0.000000
15.973902 47.503850 0.000000
13.616110 47.998614 0.000000
16.007779 51.236724 0.000000
17.014948 49.585468 0.000000
16.191866 51.661293 0.000000
15.260325 47.015649 0.000000
15.708220 51.682475 0.000000
14.066882 47.655500 0.000000
13.730393 48.667975 0.000000
13.939524 47.926605 0.000000
14.787803 47.979958 0.000000
15.066909 47.960110 0.000000
16.259041 48.051144 0.000000
16.288085 49.068679 0.000000
16.550269 49.610521 0.000000
15.526778 47.488809 0.000000
16.510149 50.919751 0.000000
16.477445 48.413044 0.000000
16.487894 49.417810 0.000000
14.499076 47.691606 0.000000
16.734498 49.379297 0.000000
16.952568 49.882061 0.000000
16.470272 48.905752 0.000000
16.722273 50.429575 0.000000
15.080084 48.422415 0.000000
16.275162 51.232461 0.000000
16.274404 50.952374 0.000000
15.703288 51.966294 0.000000
16.154101 51.422461 0.000000
14.916264 46.867381 0.000000
16.400274 50.751706 0.000000
13.747441 47.736651 0.000000
13.589532 48.528841 0.000000
15.880965 47.849220 0.000000
15.476312 48.485495 0.000000
16.151726 48.347633 0.000000
16.274977 48.659445 0.000000
16.159239 48.902712 0.000000
15.282036 48.434241 0.000000
16.762170 49.673109 0.000000
15.096318 47.354117 0.000000
16.800250 50.127075 0.000000
16.521160 50.371535 0.000000
15.197776 48.217866 0.000000
14.895168 47.665933 0.000000
15.668606 48.354214 0.000000
15.347989 48.000647 0.000000
16.543975 49.959043 0.000000
15.871188 48.245665 0.000000
15.996603 48.543670 0.000000
16.704298 49.931790 0.000000
15.240735 47.726583 0.000000
15.526145 47.844476 0.000000
15.439461 48.259796 0.000000
15.827628 48.654662 0.000000
15.785793 48.500682 0.000000
15.642796 48.079589 0.000000
POLYGONS 2699 10796
3 638 743 547
3 887 1006 964
3 1300 1301 1263
3 1072 1281 1120
3 1387 1399 1374
3 1206 1267 1232
3 1315 1341 1337
3 902 907 886
3 286 337 270
3 996 1059 956
3 1048 1110 1081
3 1316 1342 1321
3 809 939 876
3 559 570 510
3 1264 1289 1220
3 1300 1337 1301
3 887 964 640
3 1001 1018 981
3 1212 1230 1186
3 941 1003 876
3 549 745 683
3 1188 1250 140
3 797 860 765
3 1299 1316 1283
3 743 748 700
3 885 997 945
3 699 806 801
3 699 801 745
3 719 797 765
3 858 913 822
3 822 1027 776
3 561 617 571
3 969 1092 939
3 1082 1113 1059
3 1022 1083 1057
3 531 680 614
3 469 708 616
3 1079 1116 1095
3 431 638 547
3 1207 1248 1148
3 1151 1197 1092
3 747 806 616
3 1120 1281 1177
3 646 745 549
3 1141 1151 1092
3 1228 1253 1231
3 140 1250 1218
3 1041 1103 1045
3 893 935 751
3 1375 1396 1373
3 432 475 337
3 561 571 530
3 949 959 843
3 642 742 572
3 1048 1081 1066
3 1114 1118 1057
3 1004 1036 969
3 1108 1122 1100
3 1261 1283 1231
3 766 938 868
3 776 858 822
3 1087 1111 1062
3 401 470 429
3 1405 1406 1375
3 1192 1220 1149
3 1419 1430 178
3 1294 1364 1323
3 372 401 371
3 1299 1409 1342
3 547 743 700
3 843 959 937
3 1320 1359 1341
3 1190 1217 1208
3 636 1294 612
3 1337 1341 1334
3 1415 1428 1392
3 880 996 956
3 1180 1219 1196
3 1429 1435 1428
3 1136 1140 1102
3 531 1117 680
3 1351 1381 1322
3 1316 1321 1264
3 1152 1254 1208
3 479 642 572
3 279 423 217
3 712 870 785
3 401 429 371
3 577 677 546
3 1415 1429 1428
3 620 1013 682
3 573 648 558
3 1232 1286 1206
3 1356 1360 1349
3 890 913 775
3 1164 1171 1118
3 712 785 590
3 1285 1315 1300
3 578 619 500
3 511 573 558
3 1184 1262 1246
3 1380 1413 1395
3 278 362 199
3 139 1188 140
3 1386 1407 1332
3 1090 1143 1107
3 620 641 581
3 904 991 944
3 969 1024 1004
3 765 871 771
3 280 465 221
3 1092 1197 941
3 772 826 747
3 1375 1406 1396
3 765 771 727
3 707 774 679
3 941 1197 1031
3 282 336 193
3 951 982 962
3 1348 1411 1351
3 970 1007 935
3 942 989 985
3 1192 1264 1220
3 1413 1432 1395
3 1367 1399 1387
3 1255 1287 1247
3 700 711 580
3 1246 1262 1245
3 281 364 219
3 1010 1105 1054
3 1336 1409 1299
3 1120 1177 1078
3 1274 1300 1263
3 1190 1244 1217
3 701 859 743
3 575 609 485
3 1219 1255 1196
3 576 610 484
3 885 932 839
3 954 1105 1043
3 485 609 495
3 283 399 223
3 484 610 496
3 1113 1207 1148
3 963 988 957
3 572 644 538
3 218 286 270
3 1416 1417 420
3 841 900 864
3 951 962 905
3 1217 1244 1232
3 1054 1105 954
3 717 792 766
3 619 777 706
3 578 740 672
3 1019 1055 1041
3 285 343 228
3 407 646 549
3 1303 1356 1259
3 1433 1436 1425
3 284 466 226
3 952 997 885
3 681 792 677
3 463 479 336
3 1263 1301 1243
3 1114 1284 1164
3 649 700 580
3 366 430 365
3 1036 1141 1092
3 1041 1045 997
3 809 876 841
3 1100 1122 1049
3 434 476 338
3 497 611 432
3 743 859 748
3 338 541 423
3 498 638 431
3 937 959 838
3 293 366 365
3 1401 1430 1419
3 672 684 619
3 652 807 698
3 270 467 341
3 717 766 716
3 1187 1261 1231
3 1427 1430 258
3 643 674 576
3 1108 1192 1149
3 1005 1040 994
3 484 643 576
3 291 372 371
3 430 474 402
3 951 1007 958
3 861 943 880
3 149 964 150
3 155 468 156
3 942 985 910
3 1118 1171 1134
3 365 430 402
3 775 913 858
3 338 423 279
3 647 738 575
3 1081 1163 1121
3 701 743 638
3 343 433 265
3 812 956 904
3 1086 1179 1098
3 1098 1179 1119
3 485 647 575
3 608 645 482
3 538 543 427
3 1170 1254 1152
3 998 1007 970
3 639 708 570
3 1147 1253 1228
3 1035 1133 1072
3 437 608 482
3 1082 1170 1113
3 935 1007 951
3 1158 1178 1116
3 1283 1316 1228
3 1051 1071 989
3 343 543 538
3 1302 1309 1266
3 1031 1100 1003
3 420 1429 1416
3 865 904 890
3 286 432 337
3 436 577 546
3 1178 1180 1116
3 1180 1196 1160
3 910 985 936
3 792 867 766
3 1045 1103 1077
3 1136 1150 1140
3 1026 1087 1062
3 1397 1415 1392
3 773 885 839
3 579 637 577
3 639 839 772
3 1149 1279 1195
3 1210 1230 1212
3 218 270 198
3 1059 1113 1074
3 883 961 916
3 1413 1436 1432
3 219 286 218
3 267 498 431
3 1196 1255 1247
3 411 649 580
3 685 814 760
3 221 269 197
3 1087 1216 1165
3 223 268 210
3 1352 1377 1346
3 1019 1041 947
3 1354 1375 1373
3 886 912 902
3 998 1029 1007
3 839 932 772
3 1113 1148 1074
3 495 609 461
3 989 1071 1032
3 1144 1281 1072
3 650 723 579
3 496 610 462
3 1121 1143 1090
3 708 772 747
3 564 807 652
3 733 779 681
3 1097 1176 1135
3 1177 1184 1146
3 953 1023 961
3 958 982 951
3 1348 1351 1289
3 381 495 461
3 607 737 648
3 841 864 749
3 382 496 462
3 427 572 538
3 881 977 850
3 1315 1337 1300
3 607 648 573
3 1191 1314 468
3 1376 1392 1353
3 503 1137 620
3 917 943 861
3 840 903 783
3 581 641 476
3 770 874 548
3 269 486 342
3 1083 1195 1114
3 479 572 336
3 1402 1417 1416
3 504 577 436
3 618 740 475
3 1362 1375 1354
3 873 939 809
3 651 717 716
3 774 904 865
3 160 612 161
3 1252 1284 1114
3 1206 1286 1171
3 1381 1411 1389
3 337 578 500
3 1377 1398 176
3 913 957 822
3 1392 1413 1353
3 499 608 437
3 102 279 217
3 104 278 199
3 41 280 221
3 777 842 706
3 710 1137 503
3 996 1082 1059
3 819 952 885
3 619 706 500
3 1331 1362 1354
3 992 1048 1023
3 885 945 932
3 45 281 219
3 275 499 437
3 685 849 814
3 1230 1302 1266
3 1242 1276 1260
3 1379 1410 177
3 1129 1238 1214
3 1001 1064 1018
3 177 1403 1379
3 1049 1083 1022
3 883 916 748
3 100 282 193
3 913 963 957
3 1230 1266 1186
3 107 283 223
3 1067 1120 1078
3 220 361 194
3 1372 1399 1367
3 1124 1179 1086
3 706 807 564
3 806 873 809
3 895 903 840
3 1077 1141 1036
3 946 1010 960
3 699 745 646
3 1370 1423 1404
3 944 1014 963
3 1326 1344 1288
3 176 1393 1377
3 872 936 811
3 1389 1411 1387
3 336 540 463
3 1135 1176 1131
3 1377 1400 1398
3 38 284 226
3 1303 1360 1356
3 1293 1359 1325
3 228 265 190
3 682 804 641
3 1350 1403 1378
3 423 463 217
3 1219 1304 1255
3 1279 1310 1252
3 997 1045 945
3 767 881 850
3 948 1039 970
3 226 266 192
3 1177 1281 1243
3 258 1430 1421
3 1308 1332 1256
3 953 961 883
3 637 733 681
3 1376 1397 1392
3 714 840 783
3 98 285 228
3 486 577 504
3 1288 1376 1329
3 899 1005 994
3 1293 1325 1269
3 1161 1235 1198
3 1094 1214 1154
3 1179 1205 1153
3 1148 1236 1215
3 1199 1303 1259
3 1301 1337 1334
3 723 779 733
3 1344 1397 1376
3 1040 1124 1086
3 1035 1072 1014
3 1325 1360 1303
3 486 579 577
3 1353 1413 1380
3 1150 1248 1207
3 1367 1387 1348
3 1392 1428 1413
3 258 1421 1403
3 1416 1429 1415
3 1000 1093 1033
3 715 839 639
3 376 497 432
3 1217 1232 1175
3 1318 1378 1355
3 776 1027 709
3 1236 1273 1215
3 1124 1205 1179
3 1330 1373 1347
3 1255 1327 1287
3 1203 1237 1168
3 1346 1371 1344
3 1307 1347 1339
3 1378 1421 1401
3 228 343 265
3 1110 1163 1081
3 1030 1116 1076
3 285 543 343
3 369 499 275
3 762 811 684
3 1280 1302 1230
3 1233 1300 1274
3 1269 1303 1240
3 133 1382 211
3 1356 1407 1319
3 1214 1238 1154
3 502 613 465
3 956 1059 991
3 1264 1321 1289
3 578 672 619
3 173 1398 1394
3 337 467 270
3 1115 1169 1168
3 946 960 864
3 1134 1216 1087
3 209 369 275
3 819 885 773
3 1042 1214 1094
3 4 1427 258
3 1290 1346 1326
3 1172 1213 1141
3 222 287 191
3 397 424 340
3 1107 1109 1071
3 1014 1072 1068
3 723 838 779
3 1357 1395 1385
3 1118 1134 1105
3 1227 1273 1263
3 1148 1248 1236
3 1159 1193 1126
3 199 434 338
3 130 1410 1406
3 1398 1400 1394
3 1036 1092 969
3 227 267 220
3 895 965 962
3 277 397 340
3 1342 1367 1321
3 1108 1149 1122
3 741 865 775
3 336 572 427
3 910 936 872
3 994 1086 1039
3 1295 1310 1279
3 1324 1352 1290
3 270 341 198
3 702 840 714
3 970 1039 998
3 410 650 579
3 1010 1054 960
3 1265 1288 1225
3 1189 1202 1163
3 561 709 617
3 989 1032 1012
3 1078 1177 1146
3 988 1120 1067
3 1199 1259 1145
3 1346 1402 1371
3 1265 1326 1288
3 1325 1359 1320
3 977 1020 952
3 1275 1318 1313
3 812 904 774
3 1109 1162 1145
3 1147 1228 1192
3 1222 1326 1265
3 1171 1286 1216
3 709 1027 750
3 1145 1223 1194
3 291 371 247
3 1245 1257 1202
3 1298 1324 1260
3 1204 1265 1225
3 992 1023 953
3 1377 1402 1346
3 1133 1215 1144
3 1295 1335 1310
3 1223 1292 1268
3 1403 1421 1378
3 1277 1336 1312
3 1234 1250 1224
3 897 1028 1000
3 751 935 815
3 1373 1379 1347
3 1329 1376 1353
3 1198 1276 1242
3 1292 1384 1331
3 1304 1353 1327
3 748 916 802
3 651 716 582
3 1130 1183 1158
3 435 473 400
3 1272 1330 1307
3 341 465 280
3 1139 1172 1141
3 1306 1354 1330
3 1169 1203 1168
3 1123 1159 1085
3 1111 1211 1062
3 962 982 895
3 1202 1221 1143
3 859 883 748
3 943 996 880
3 760 859 701
3 612 1323 161
3 949 995 959
3 965 1025 962
3 1026 1134 1087
3 288 397 277
3 1164 1229 1206
3 1326 1346 1344
3 289 344 248
3 1371 1416 1397
3 1078 1146 1124
3 358 501 269
3 1074 1133 1035
3 1131 1173 1080
3 1121 1163 1143
3 983 1005 899
3 1074 1148 1133
3 1239 1306 1272
3 1426 1436 1433
3 1394 1419 178
3 1247 1287 1277
3 331 435 370
3 991 1014 944
3 1225 1329 1271
3 1167 1242 1183
3 1421 1430 1401
3 1241 1307 1275
3 278 678 362
3 410 579 486
3 503 620 581
3 963 1068 988
3 1149 1195 1122
3 1271 1329 1304
3 1221 1240 1181
3 1290 1352 1346
3 1045 1069 945
3 501 548 410
3 1153 1163 1110
3 1047 1126 1088
3 639 772 708
3 878 942 910
3 463 540 217
3 198 341 280
3 1327 1357 1287
3 945 1069 1004
3 702 714 653
3 1202 1257 1221
3 771 871 790
3 210 678 278
3 199 338 279
3 277 301 288
3 1347 1350 1339
3 1357 1385 1336
3 170 1417 1393
3 362 503 434
3 991 1035 1014
3 901 1019 938
3 542 679 584
3 1204 1225 1178
3 1395 1431 1420
3 1085 1159 1126
3 1126 1235 1161
3 1165 1190 1111
3 1395 1420 1385
3 467 564 502
3 653 714 589
3 1320 1360 1325
3 1327 1380 1357
3 1142 1169 1132
3 1006 1135 1002
3 381 461 327
3 1088 1161 1128
3 382 462 329
3 376 432 286
3 469 562 421
3 500 706 564
3 575 738 494
3 1084 1123 1046
3 1397 1416 1415
3 1203 1277 1237
3 1290 1326 1222
3 584 642 479
3 1260 1290 1222
3 641 804 551
3 966 1047 1011
3 1195 1279 1252
3 1393 1402 1377
3 764 860 797
3 752 965 895
3 1229 1310 1302
3 1116 1180 1160
3 165 1418 1414
3 1162 1240 1199
3 684 847 777
3 281 464 364
3 1142 1203 1169
3 642 775 742
3 1289 1351 1340
3 811 879 847
3 1237 1312 1261
3 900 1049 1022
3 1235 1276 1198
3 745 749 683
3 679 774 741
3 783 903 849
3 547 649 527
3 1363 1412 1296
3 1409 1420 1372
3 1200 1272 1241
3 1002 1065 179
3 1011 1088 1053
3 1086 1098 1039
3 491 631 602
3 215 381 327
3 1243 1262 1184
3 216 382 329
3 1229 1302 1280
3 269 342 197
3 616 699 562
3 1321 1367 1348
3 869 923 897
3 268 491 363
3 992 1075 1048
3 370 400 373
3 1122 1195 1083
3 1322 1369 1351
3 510 570 442
3 719 765 718
3 341 502 465
3 1220 1340 1279
3 611 711 618
3 1183 1204 1158
3 486 504 342
3 658 776 709
3 1004 1069 1036
3 989 1012 985
3 269 501 410
3 879 1009 966
3 897 1000 949
3 197 342 284
3 1222 1265 1183
3 762 872 811
3 1062 1211 1082
3 707 812 774
3 819 979 930
3 954 1026 917
3 370 435 400
3 809 841 801
3 475 578 337
3 1081 1104 1038
3 1262 1366 1245
3 43 218 198
3 1259 1319 1223
3 950 1009 879
3 644 858 776
3 44 219 218
3 847 966 914
3 268 532 407
3 1206 1280 1267
3 194 464 281
3 190 372 291
3 1146 1205 1124
3 559 715 639
3 1059 1074 991
3 654 719 718
3 564 652 502
3 991 1074 1035
3 1073 1169 1115
3 1289 1340 1220
3 40 221 197
3 106 223 210
3 1009 1085 1047
3 364 411 376
3 1046 1123 1085
3 1159 1241 1193
3 549 683 631
3 1235 1313 1276
3 411 580 497
3 1012 1046 950
3 549 631 491
3 1187 1213 1172
3 199 279 103
3 475 740 578
3 1032 1084 1012
3 1030 1050 1008
3 570 708 469
3 1033 1130 1079
3 198 280 42
3 512 651 582
3 1331 1384 1362
3 680 1070 1064
3 1051 1090 1071
3 210 278 105
3 1043 1134 1026
3 1098 1119 1037
3 879 966 847
3 1165 1244 1190
3 35 289 248
3 1396 1410 1379
3 194 281 46
3 1175 1232 1185
3 1288 1329 1225
3 895 982 903
3 1091 1132 1060
3 914 1011 955
3 331 370 292
3 868 938 767
3 1166 1239 1200
3 217 282 101
3 1107 1162 1109
3 1044 1099 153
3 1069 1077 1036
3 193 543 285
3 773 839 715
3 1047 1088 1011
3 1282 1388 1314
3 407 491 268
3 944 963 890
3 1106 1196 1142
3 1434 1435 1429
3 1240 1303 1199
3 1123 1200 1159
3 1193 1235 1126
3 904 944 890
3 698 770 548
3 1009 1047 966
3 191 283 108
3 1076 1160 1106
3 1362 1405 1375
3 942 1051 989
3 1186 1266 1249
3 1279 1340 1295
3 197 284 39
3 492 612 159
3 1395 1432 1431
3 1352 1400 1377
3 990 1089 1055
3 1298 1355 1324
3 1233 1274 1238
3 917 1026 943
3 1012 1084 1046
3 1157 1182 1070
3 1345 1384 1358
3 942 1052 1051
3 1342 1372 1367
3 1372 1424 1399
3 1075 1110 1048
3 952 1020 997
3 867 922 901
3 337 500 467
3 434 581 476
3 1087 1165 1111
3 193 285 99
3 411 497 376
3 95 291 247
3 980 1016 992
3 986 1028 897
3 947 1041 1020
3 888 1025 965
3 1359 1368 1341
3 897 949 869
3 1301 1334 1262
3 267 431 361
3 966 1011 914
3 1428 1436 1413
3 1319 1358 1292
3 47 220 194
3 1016 1063 1037
3 551 707 679
3 546 717 651
3 683 803 631
3 503 581 434
3 611 618 475
3 876 984 841
3 1418 1433 1414
3 1071 1109 1032
3 1044 1125 1099
3 401 571 470
3 1046 1085 1009
3 267 361 220
3 811 847 684
3 1229 1280 1206
3 1276 1298 1260
3 1223 1319 1292
3 545 744 147
3 1000 1056 949
3 1145 1259 1223
3 1093 1167 1130
3 229 264 222
3 421 562 532
3 109 222 191
3 1332 1407 1349
3 191 357 283
3 500 564 467
3 1065 1080 1044
3 1017 1052 942
3 502 652 613
3 707 861 812
3 682 1013 954
3 1350 1378 1339
3 168 1434 420
3 761 805 618
3 1132 1169 1073
3 697 929 860
3 1237 1261 1187
3 1073 1089 990
3 551 804 707
3 995 1030 1008
3 501 652 548
3 37 226 192
3 370 373 227
3 1333 1386 1305
3 950 1046 1009
3 342 466 284
3 1146 1246 1205
3 954 1043 1026
3 697 860 764
3 1060 1132 1073
3 814 980 926
3 1106 1132 1091
3 1275 1339 1318
3 824 912 886
3 767 938 881
3 838 959 908
3 1119 1153 1075
3 560 701 638
3 940 1060 990
3 878 910 857
3 1215 1273 1227
3 857 872 805
3 217 540 282
3 1324 1383 1352
3 811 936 879
3 1317 1343 1294
3 1401 1419 1383
3 882 1016 980
3 698 869 770
3 936 950 879
3 877 973 862
3 580 611 497
3 1193 1275 1235
3 930 952 819
3 1099 1125 539
3 361 527 464
3 1126 1161 1088
3 1268 1331 1306
3 1190 1254 1111
3 548 650 410
3 1344 1376 1288
3 658 709 561
3 507 653 589
3 1194 1268 1239
3 1334 1368 1293
3 97 228 190
3 967 1025 888
3 861 880 812
3 1148 1215 1133
3 1330 1347 1307
3 1205 1246 1189
3 1003 1100 1049
3 1181 1240 1162
3 1075 1153 1110
3 584 741 642
3 1037 1075 992
3 1220 1279 1149
3 880 956 812
3 637 677 577
3 1018 1064 1042
3 736 868 767
3 432 611 475
3 960 1054 769
3 1085 1126 1047
3 750 784 617
3 1304 1327 1255
3 740 805 762
3 527 649 411
3 433 561 530
3 258 1422 127
3 1393 1417 1402
3 399 532 268
3 1260 1324 1290
3 546 651 436
3 287 442 421
3 1178 1271 1180
3 1103 1139 1077
3 882 980 814
3 1243 1301 1262
3 807 923 869
3 873 969 939
3 1038 1052 1017
3 716 736 582
3 836 979 819
3 990 1055 971
3 721 844 632
3 959 1008 908
3 654 718 563
3 801 841 749
3 342 504 466
3 847 914 777
3 359 436 266
3 1008 1050 968
3 902 912 845
3 621 701 560
3 751 815 778
3 548 874 650
3 940 971 922
3 362 434 199
3 850 977 896
3 560 638 498
3 410 486 269
3 1211 1254 1170
3 1378 1401 1355
3 1109 1145 1127
3 1080 1173 1125
3 1029 1063 882
3 492 1338 1297
3 1321 1348 1289
3 1160 1196 1106
3 1168 1237 1187
3 958 1029 882
3 552 628 583
3 1354 1373 1330
3 444 654 563
3 1400 1419 1394
3 1379 1403 1350
3 1089 1103 1055
3 900 1022 946
3 1277 1312 1237
3 760 926 859
3 1387 1411 1348
3 1282 1314 1191
3 487 653 507
3 905 962 884
3 720 778 686
3 750 1027 899
3 192 289 36
3 864 960 919
3 442 469 421
3 1249 1282 1191
3 815 951 905
3 652 698 548
3 1116 1160 1076
3 292 370 227
3 930 977 952
3 882 1063 1016
3 1259 1356 1319
3 1147 1192 1108
3 995 1008 959
3 357 399 283
3 896 930 828
3 161 1323 162
3 899 994 948
3 1127 1194 1166
3 506 583 418
3 943 1062 996
3 938 1019 947
3 860 871 765
3 470 721 632
3 48 227 220
3 505 654 444
3 1229 1284 1252
3 971 1055 1019
3 531 614 142
3 473 657 621
3 672 762 684
3 976 978 818
3 133 211 134
3 1402 1416 1371
3 685 760 621
3 892 978 976
3 644 776 658
3 924 978 892
3 552 583 506
3 110 229 222
3 190 291 96
3 856 968 875
3 1385 1420 1409
3 894 924 892
3 393 510 442
3 709 750 617
3 770 869 843
3 357 421 399
3 810 857 761
3 1319 1407 1358
3 1050 1091 1015
3 1426 1433 1423
3 1180 1271 1219
3 1072 1120 1068
3 1380 1395 1357
3 984 1049 900
3 1143 1221 1181
3 875 922 808
3 632 844 751
3 1028 1093 1000
3 1143 1181 1107
3 1032 1127 1084
3 681 856 808
3 336 427 193
3 899 1027 983
3 755 850 828
3 361 464 194
3 293 365 229
3 211 1382 1345
3 680 1157 1070
3 1158 1204 1178
3 1186 1249 1155
3 908 1008 968
3 1168 1172 1115
3 1183 1242 1222
3 957 1067 1005
3 1167 1183 1130
3 1095 1116 1030
3 846 884 817
3 919 960 803
3 272 505 444
3 571 721 470
3 1227 1263 1243
3 876 1003 984
3 1287 1336 1277
3 538 561 433
3 192 360 289
3 723 733 579
3 1177 1243 1184
3 621 760 701
3 1252 1310 1229
3 371 383 247
3 580 711 611
3 845 912 823
3 440 495 381
3 1245 1366 1257
3 751 778 720
3 1003 1049 984
3 441 496 382
3 1107 1181 1162
3 779 908 856
3 104 199 103
3 1228 1264 1192
3 1358 1384 1292
3 43 198 42
3 846 905 884
3 44 218 43
3 135 1305 136
3 1049 1122 1083
3 45 219 44
3 364 376 219
3 1358 1407 1386
3 106 210 105
3 41 221 40
3 421 532 399
3 1198 1242 1167
3 1162 1199 1145
3 47 194 46
3 102 217 101
3 1109 1127 1032
3 656 720 686
3 40 197 39
3 1030 1076 1050
3 107 223 106
3 644 658 538
3 1164 1206 1171
3 437 482 413
3 1141 1213 1151
3 1045 1077 1069
3 1042 1094 993
3 1156 1250 1234
3 656 686 550
3 1355 1401 1383
3 1139 1141 1077
3 109 191 108
3 100 193 99
3 407 549 491
3 869 949 843
3 994 1039 948
3 1005 1067 1040
3 1195 1252 1114
3 849 958 882
3 780 823 703
3 542 584 423
3 105 278 104
3 803 960 769
3 864 919 749
3 780 845 823
3 103 279 102
3 42 280 41
3 1080 1125 1044
3 805 872 762
3 46 281 45
3 1306 1330 1272
3 1355 1383 1324
3 380 506 418
3 1384 1408 1362
3 692 836 819
3 566 780 655
3 431 547 527
3 1170 1207 1113
3 1015 1091 1060
3 348 437 413
3 101 282 100
3 215 327 254
3 216 329 255
3 108 283 107
3 1292 1331 1268
3 513 656 404
3 1342 1409 1372
3 1196 1247 1142
3 1131 1212 1173
3 373 498 267
3 487 507 445
3 438 509 366
3 949 1056 995
3 677 792 717
3 1115 1172 1139
3 431 527 361
3 151 1065 152
3 469 616 562
3 39 284 38
3 227 373 267
3 657 783 685
3 1318 1355 1298
3 38 226 37
3 1034 1096 987
3 999 1017 975
3 265 372 190
3 655 780 703
3 359 504 436
3 1239 1272 1200
3 692 773 622
3 1266 1309 1249
3 657 685 621
3 226 359 266
3 344 544 406
3 1329 1353 1304
3 442 570 469
3 1293 1366 1334
3 1182 1233 1129
3 375 437 348
3 1039 1063 998
3 1048 1066 1023
3 208 301 277
3 1171 1216 1134
3 1155 1249 1191
3 1073 1115 1089
3 617 721 571
3 99 285 98
3 1338 1365 1297
3 507 589 435
3 741 775 642
3 1215 1227 1144
3 463 584 479
3 1406 1410 1396
3 693 850 755
3 1067 1078 1040
3 1272 1307 1241
3 782 846 817
3 1079 1095 1056
3 1432 1436 1426
3 848 965 752
3 1052 1104 1090
3 374 425 347
3 813 970 893
3 98 228 97
3 1057 1118 1010
3 1228 1316 1264
3 1271 1304 1219
3 752 840 702
3 566 655 586
3 400 498 373
3 37 192 36
3 777 914 842
3 222 393 287
3 1010 1118 1105
3 749 919 683
3 18 256 231
3 79 257 230
3 1078 1124 1040
3 402 559 510
3 1145 1194 1127
3 1128 1167 1093
3 814 926 760
3 215 254 5
3 216 255 66
3 49 292 227
3 48 220 47
3 926 980 953
3 1183 1265 1204
3 1331 1354 1306
3 508 565 509
3 1257 1269 1221
3 1152 1208 1112
3 97 190 96
3 1225 1271 1178
3 110 222 109
3 111 293 229
3 884 1025 967
3 1056 1095 995
3 79 78 3
3 1 18 17
3 153 1099 154
3 857 910 872
3 362 678 503
3 1405 1408 1382
3 406 615 552
3 1221 1269 1240
3 875 1015 940
3 947 977 881
3 1031 1197 1147
3 429 585 513
3 899 948 813
3 297 374 347
3 1309 1335 1322
3 825 918 798
3 1224 1270 1234
3 622 773 715
3 572 742 644
3 1200 1241 1159
3 799 825 798
3 1064 1070 1042
3 298 375 348
3 1268 1306 1239
3 1391 1423 1370
3 906 976 818
3 363 678 210
3 1307 1339 1275
3 1093 1130 1033
3 1014 1068 963
3 1428 1435 1425
3 508 509 438
3 380 418 379
3 1309 1322 1296
3 967 972 817
3 985 1012 950
3 1269 1325 1303
3 1232 1267 1185
3 995 1095 1030
3 635 799 798
3 781 906 818
3 531 1218 1156
3 589 657 473
3 975 1017 878
3 562 699 646
3 1166 1200 1123
3 1257 1293 1269
3 782 817 688
3 1117 1157 680
3 1223 1268 1194
3 287 421 357
3 1233 1238 1129
3 750 899 813
3 541 542 423
3 1133 1144 1072
3 582 736 615
3 302 369 209
3 728 799 635
3 1088 1128 1053
3 305 438 366
3 783 849 685
3 889 967 888
3 445 507 331
3 132 1382 133
3 1353 1380 1327
3 808 867 792
3 1153 1189 1163
3 435 589 473
3 1194 1239 1166
3 265 401 372
3 377 412 345
3 616 806 699
3 378 416 346
3 1011 1053 955
3 226 466 359
3 364 464 411
3 999 1038 1017
3 686 846 782
3 586 655 477
3 404 656 550
3 800 863 759
3 579 733 637
3 1275 1313 1235
3 704 753 722
3 558 719 654
3 18 231 17
3 79 230 78
3 843 937 770
3 903 982 958
3 1256 1332 1291
3 914 955 842
3 704 722 660
3 1351 1369 1340
3 747 1024 873
3 553 653 487
3 999 1066 1038
3 541 641 551
3 1187 1231 1213
3 623 848 752
3 739 800 759
3 1431 1432 1426
3 184 366 293
3 711 761 618
3 503 678 602
3 406 552 506
3 476 541 338
3 36 289 35
3 221 358 269
3 817 972 906
3 159 612 160
3 344 406 259
3 604 673 630
3 1161 1198 1128
3 538 658 561
3 1097 1135 1006
3 888 965 848
3 268 363 210
3 1053 1093 1028
3 49 227 48
3 266 512 428
3 1062 1082 996
3 569 728 635
3 738 790 673
3 295 381 215
3 1328 1412 1363
3 850 896 828
3 781 818 689
3 296 382 216
3 890 963 913
3 590 785 662
3 5 254 0
3 66 255 2
3 371 429 383
3 682 954 917
3 810 878 857
3 111 229 110
3 209 275 233
3 605 673 604
3 299 377 345
3 1127 1166 1084
3 96 291 95
3 448 586 477
3 1082 1211 1170
3 300 378 346
3 603 728 569
3 1241 1275 1193
3 793 902 845
3 618 805 740
3 1128 1198 1167
3 771 790 738
3 308 380 379
3 1322 1363 1296
3 343 538 433
3 761 857 805
3 1002 1080 1065
3 282 540 336
3 889 972 967
3 16 301 208
3 648 719 558
3 277 340 294
3 659 781 689
3 77 302 209
3 167 1434 168
3 473 560 400
3 587 781 659
3 221 465 358
3 684 777 619
3 660 722 591
3 1334 1366 1262
3 714 783 657
3 853 892 891
3 736 767 693
3 682 917 861
3 851 907 787
3 393 442 287
3 255 329 225
3 254 327 224
3 1084 1166 1123
3 957 1005 983
3 936 985 950
3 408 553 487
3 935 951 815
3 585 720 656
3 383 513 260
3 900 946 864
3 1040 1086 994
3 1339 1378 1318
3 681 808 792
3 677 717 546
3 511 558 425
3 1090 1107 1071
3 1163 1202 1143
3 491 602 363
3 692 819 773
3 754 892 853
3 516 587 517
3 467 502 341
3 617 784 721
3 968 1050 1015
3 961 975 916
3 492 1258 636
3 552 676 628
3 1066 1081 1038
3 144 1001 145
3 260 513 404
3 838 908 779
3 528 605 405
3 516 517 439
3 670 800 739
3 622 715 559
3 164 1418 165
3 754 853 704
3 696 871 835
3 405 605 604
3 587 659 517
3 1033 1056 1000
3 778 905 846
3 886 907 851
3 841 984 900
3 439 517 350
3 238 439 350
3 219 376 286
3 473 621 560
3 574 645 608
3 664 782 688
3 1189 1245 1202
3 162 1323 394
3 670 739 671
3 408 591 553
3 547 700 649
3 623 702 553
3 588 643 484
3 806 809 801
3 624 754 704
3 1130 1158 1079
3 602 710 503
3 585 656 513
3 790 871 696
3 1076 1106 1091
3 470 585 429
3 169 1417 170
3 804 861 707
3 898 1018 993
3 248 344 259
3 834 837 794
3 829 925 921
3 916 975 810
3 724 793 687
3 277 294 232
3 172 1398 173
3 1383 1400 1352
3 458 603 569
3 1063 1098 1037
3 367 508 438
3 754 894 892
3 745 801 749
3 545 981 898
3 566 586 488
3 355 533 459
3 596 622 474
3 794 837 691
3 1115 1139 1089
3 356 534 460
3 524 603 458
3 1247 1277 1203
3 395 533 355
3 662 785 588
3 396 534 356
3 661 692 622
3 1210 1267 1230
3 208 277 232
3 679 741 584
3 259 506 380
3 489 660 591
3 402 510 393
3 589 714 657
3 854 894 754
3 632 751 720
3 0 254 126
3 2 255 65
3 130 1406 131
3 180 331 292
3 470 632 585
3 830 925 829
3 297 347 196
3 512 582 428
3 663 687 566
3 248 259 189
3 299 345 204
3 231 301 17
3 135 1333 1305
3 626 788 756
3 631 803 710
3 305 366 184
3 474 559 402
3 374 511 425
3 300 346 205
3 298 348 195
3 367 438 214
3 230 302 78
3 824 886 786
3 562 646 532
3 349 487 445
3 1053 1128 1093
3 232 294 234
3 443 588 484
3 867 901 766
3 247 383 260
3 670 671 601
3 828 902 793
3 35 248 34
3 34 248 189
3 550 782 664
3 233 275 235
3 485 495 412
3 837 863 691
3 945 1004 932
3 755 828 793
3 601 671 529
3 734 788 626
3 1197 1253 1147
3 697 764 627
3 928 931 833
3 796 832 831
3 1276 1313 1298
3 873 1024 969
3 50 292 49
3 180 292 50
3 418 488 379
3 824 915 912
3 627 675 556
3 706 923 807
3 1168 1187 1172
3 484 496 416
3 663 724 687
3 7 295 215
3 68 296 216
3 95 247 94
3 94 247 186
3 247 260 186
3 753 889 888
3 408 487 349
3 112 293 111
3 184 293 112
3 753 888 848
3 788 918 821
3 924 928 820
3 444 485 412
3 234 374 297
3 436 651 512
3 763 832 796
3 514 588 443
3 367 515 508
3 567 665 515
3 514 662 588
3 1371 1397 1344
3 691 863 800
3 624 854 754
3 694 786 633
3 856 875 808
3 596 661 622
3 392 524 458
3 833 931 834
3 358 613 501
3 633 705 567
3 661 787 692
3 627 764 675
3 703 823 757
3 1343 1364 1294
3 204 440 381
3 961 1023 999
3 443 484 416
3 205 441 382
3 755 793 724
3 265 530 401
3 354 524 392
3 556 675 599
3 235 375 298
3 820 928 833
3 767 850 693
3 798 918 788
3 508 665 565
3 565 596 509
3 600 734 626
3 545 746 744
3 732 854 624
3 568 794 691
3 753 848 722
3 907 979 836
3 288 301 231
3 202 398 325
3 530 571 401
3 583 724 663
3 418 566 488
3 418 663 566
3 400 560 498
3 490 734 600
3 930 979 828
3 236 377 299
3 276 398 202
3 820 833 791
3 322 395 250
3 323 396 253
3 756 854 732
3 126 254 224
3 65 255 225
3 237 378 300
3 204 381 295
3 12 297 196
3 205 382 296
3 833 834 690
3 214 438 305
3 201 397 324
3 1039 1098 1063
3 264 393 222
3 568 691 666
3 73 298 195
3 195 378 237
3 705 726 665
3 425 505 347
3 940 990 971
3 290 302 230
3 813 893 784
3 631 710 602
3 1037 1119 1075
3 1106 1142 1132
3 862 973 887
3 368 397 201
3 592 732 624
3 196 272 236
3 590 662 514
3 127 1422 128
3 591 623 553
3 9 299 204
3 694 827 824
3 626 732 478
3 791 833 690
3 827 920 915
3 70 300 205
3 775 858 742
3 691 800 666
3 574 608 415
3 223 399 268
3 828 979 902
3 690 834 794
3 287 357 191
3 722 848 623
3 1033 1079 1056
3 592 704 660
3 592 660 522
3 667 789 554
3 626 756 732
3 1349 1360 1291
3 415 608 537
3 250 395 355
3 271 378 195
3 427 543 193
3 253 396 356
3 208 232 15
3 209 233 76
3 711 802 761
3 345 495 440
3 346 496 441
3 726 851 787
3 863 934 759
3 489 591 408
3 688 906 781
3 554 789 694
3 414 576 493
3 492 636 612
3 623 752 702
3 595 735 625
3 695 789 667
3 266 360 192
3 759 870 712
3 377 444 412
3 606 607 535
3 1154 1238 1226
3 675 737 599
3 272 444 377
3 490 600 335
3 460 576 414
3 666 800 670
3 345 440 204
3 1022 1057 946
3 346 441 205
3 600 626 478
3 378 443 416
3 752 895 840
3 232 234 14
3 271 514 443
3 388 529 454
3 789 829 827
3 233 235 75
3 779 856 681
3 1007 1029 958
3 690 794 669
3 271 443 378
3 787 836 692
3 786 851 705
3 388 601 529
3 347 505 272
3 599 606 525
3 453 490 335
3 829 921 920
3 294 511 374
3 842 986 923
3 597 735 595
3 413 590 514
3 204 295 8
3 478 732 592
3 205 296 69
3 784 893 844
3 759 934 870
3 331 507 435
3 525 535 457
3 664 688 587
3 294 374 234
3 173 1394 174
3 535 607 536
3 142 614 143
3 1210 1212 1131
3 482 712 590
3 599 737 606
3 624 704 592
3 129 1410 130
3 1055 1103 1041
3 853 891 889
3 234 297 13
3 908 968 856
3 669 794 568
3 235 298 74
3 615 736 676
3 830 927 925
3 275 437 375
3 426 573 511
3 525 606 535
3 471 567 403
3 309 445 331
3 554 633 471
3 275 375 235
3 457 535 339
3 635 734 490
3 348 413 271
3 563 727 485
3 787 907 836
3 915 920 823
3 665 726 565
3 472 525 334
3 272 377 236
3 17 301 16
3 196 347 272
3 425 558 505
3 788 909 756
3 705 851 726
3 557 703 629
3 340 481 426
3 236 299 10
3 195 348 271
3 261 403 367
3 245 367 214
3 261 367 245
3 831 927 830
3 6 215 5
3 7 215 6
3 477 655 557
3 67 216 66
3 68 216 67
3 416 496 346
3 237 300 71
3 444 563 485
3 740 762 672
3 78 302 77
3 666 670 483
3 676 736 693
3 412 495 345
3 704 853 753
3 196 236 11
3 695 829 789
3 417 575 494
3 695 831 830
3 829 920 827
3 419 600 478
3 645 712 482
3 195 237 72
3 16 208 15
3 77 209 76
3 556 668 627
3 485 727 647
3 555 791 690
3 643 731 713
3 569 635 490
3 655 703 557
3 648 797 719
3 727 771 647
3 668 729 627
3 335 600 419
3 988 1067 957
3 731 785 768
3 768 870 825
3 483 670 601
3 630 735 597
3 334 525 457
3 409 669 568
3 558 654 505
3 406 506 259
3 413 514 271
3 516 664 587
3 695 830 829
3 522 660 489
3 181 1308 1256
3 353 528 405
3 8 295 7
3 15 232 14
3 481 607 573
3 69 296 68
3 76 233 75
3 535 536 339
3 821 909 788
3 768 799 713
3 796 831 695
3 718 765 727
3 825 934 933
3 891 976 972
3 696 835 832
3 725 855 795
3 459 575 417
3 947 1020 977
3 630 763 735
3 849 882 814
3 471 633 567
3 696 763 630
3 725 795 729
3 409 568 526
3 629 852 758
3 645 739 712
3 339 536 455
3 1052 1090 1051
3 556 599 525
3 555 690 669
3 802 810 761
3 820 978 924
3 14 234 13
3 588 731 643
3 478 592 419
3 398 537 422
3 75 235 74
3 453 569 490
3 635 798 788
3 379 586 448
3 340 426 294
3 689 911 820
3 384 408 349
3 274 460 414
3 419 592 522
3 387 526 483
3 877 987 973
3 147 744 148
3 273 459 417
3 446 471 403
3 756 909 894
3 604 630 597
3 261 446 403
3 349 445 213
3 9 204 8
3 70 205 69
3 13 297 12
3 550 664 516
3 317 458 453
3 515 665 508
3 74 298 73
3 403 567 515
3 687 845 780
3 10 299 9
3 335 419 385
3 628 755 724
3 356 460 274
3 71 300 70
3 403 515 367
3 387 483 456
3 355 459 273
3 554 694 633
3 703 757 629
3 785 870 768
3 11 236 10
3 827 915 824
3 694 824 786
3 565 661 596
3 726 787 661
3 891 972 889
3 335 385 262
3 729 795 697
3 72 237 71
3 458 569 453
3 627 729 697
3 12 196 11
3 353 391 319
3 625 667 595
3 509 596 430
3 870 934 825
3 317 453 335
3 273 417 353
3 472 593 556
3 309 331 180
3 689 820 791
3 73 195 72
3 757 921 852
3 922 971 901
3 392 458 317
3 634 729 668
3 464 527 411
3 304 384 349
3 725 729 634
3 426 511 294
3 593 668 556
3 354 392 321
3 263 389 183
3 224 327 206
3 225 329 207
3 404 550 516
3 182 317 262
3 853 889 753
3 447 522 384
3 688 781 587
3 436 512 266
3 213 445 309
3 763 796 735
3 246 263 183
3 920 921 757
3 482 590 413
3 686 782 550
3 789 827 694
3 449 523 409
3 456 601 388
3 835 929 832
3 333 449 409
3 448 477 332
3 758 855 730
3 483 601 456
3 313 448 332
3 494 528 417
3 304 349 213
3 243 447 384
3 419 522 447
3 567 705 665
3 855 927 795
3 244 317 182
3 673 696 630
3 384 522 489
3 1060 1073 990
3 730 855 725
3 517 659 598
3 629 758 730
3 446 521 471
3 474 622 559
3 189 380 308
3 379 448 240
3 262 385 182
3 352 452 446
3 389 452 352
3 390 537 276
3 696 832 763
3 718 727 563
3 931 933 834
3 519 668 593
3 243 384 304
3 634 668 519
3 409 526 333
3 598 659 555
3 318 454 251
3 588 785 731
3 263 520 452
3 419 447 385
3 674 728 603
3 308 379 240
3 689 791 659
3 417 528 353
3 865 890 775
3 59 321 252
3 120 319 249
3 768 825 799
3 795 927 866
3 320 455 201
3 731 768 713
3 818 978 911
3 817 906 688
3 756 894 854
3 390 454 415
3 635 788 734
3 317 335 262
3 183 389 311
3 713 799 728
3 557 594 477
3 594 730 725
3 659 791 555
3 385 447 243
3 405 604 520
3 170 1393 171
3 452 595 521
3 739 759 712
3 493 603 524
3 594 725 634
3 477 594 518
3 472 556 525
3 240 448 313
3 625 695 667
3 866 927 831
3 404 516 351
3 311 389 352
3 352 446 261
3 523 598 555
3 414 524 354
3 583 663 418
3 415 537 390
3 818 911 689
3 452 521 446
3 537 608 499
3 529 671 574
3 477 518 332
3 521 554 471
3 260 404 351
3 332 518 450
3 518 519 450
3 526 568 483
3 605 738 673
3 557 629 594
3 350 598 523
3 523 555 409
3 450 519 386
3 273 353 319
3 821 928 909
3 481 573 426
3 493 524 414
3 350 523 449
3 451 593 334
3 517 598 350
3 273 319 200
3 351 516 439
3 186 351 303
3 303 439 238
3 92 303 238
3 53 304 213
3 114 245 214
3 51 180 50
3 113 305 184
3 88 306 185
3 212 306 88
3 90 307 212
3 94 186 93
3 115 245 114
3 53 213 52
3 55 243 54
3 114 305 113
3 214 305 114
3 116 245 115
3 89 212 88
3 32 308 240
3 33 308 32
3 27 312 242
3 52 213 51
3 51 309 180
3 213 309 51
3 55 310 243
3 88 185 87
3 91 307 90
3 116 311 245
3 238 307 91
3 28 312 27
3 186 303 93
3 90 212 89
3 92 238 91
3 54 304 53
3 313 332 188
3 31 313 30
3 30 313 188
3 26 187 25
3 29 188 28
3 188 312 28
3 243 304 54
3 27 242 26
3 242 314 26
3 93 303 92
3 240 313 31
3 188 332 312
3 32 240 31
3 189 308 33
3 26 314 187
3 30 188 29
3 34 189 33
3 56 310 55
3 57 182 56
3 182 310 56
3 113 184 112
3 117 311 116
3 118 183 117
3 183 311 117
3 182 385 310
3 310 385 243
3 350 449 212
3 307 350 212
3 238 350 307
3 212 449 333
3 306 333 185
3 212 333 306
3 386 519 451
3 494 605 528
3 518 594 519
3 206 327 326
3 207 329 328
3 332 450 312
3 246 391 263
3 290 369 302
3 274 354 321
3 274 321 203
3 795 866 697
3 519 593 451
3 671 739 645
3 398 422 369
3 673 790 696
3 454 529 415
3 312 386 242
3 242 386 314
3 386 451 314
3 384 489 408
3 786 886 851
3 757 852 629
3 391 520 263
3 259 380 189
3 334 593 472
3 333 387 185
3 311 352 245
3 245 352 261
3 312 450 386
3 594 634 519
3 325 398 290
3 333 526 387
3 488 586 379
3 629 730 594
3 324 397 288
3 808 922 867
3 244 392 317
3 314 334 187
3 314 451 334
3 825 933 918
3 263 452 389
3 625 796 695
3 351 439 303
3 260 351 186
3 253 356 203
3 123 322 250
3 520 595 452
3 62 323 253
3 866 929 697
3 206 326 322
3 250 355 200
3 520 604 597
3 758 927 855
3 207 328 323
3 185 315 87
3 87 315 86
3 252 392 244
3 521 667 554
3 832 929 866
3 633 786 705
3 461 533 395
3 462 534 396
3 119 246 118
3 24 316 23
3 118 246 183
3 187 316 25
3 25 316 24
3 58 244 57
3 57 244 182
3 200 319 120
3 203 321 59
3 185 387 315
3 256 324 288
3 632 720 585
3 249 391 246
3 187 334 316
3 555 669 409
3 326 395 322
3 520 597 595
3 328 396 323
3 568 666 483
3 993 1094 974
3 85 239 84
3 86 239 85
3 239 318 84
3 405 520 391
3 266 428 360
3 576 674 493
3 387 456 315
3 713 728 674
3 315 456 239
3 493 674 603
3 334 457 316
3 23 241 22
3 120 249 119
3 241 320 22
3 59 252 58
3 200 355 273
3 203 356 274
3 241 457 339
3 423 584 463
3 86 315 239
3 274 414 354
3 239 388 318
3 241 339 320
3 206 322 123
3 207 323 62
3 388 454 318
3 257 325 290
3 321 392 252
3 735 796 625
3 339 455 320
3 23 316 241
3 119 249 246
3 58 252 244
3 239 456 388
3 591 722 623
3 595 667 521
3 83 251 82
3 84 251 83
3 84 318 251
3 529 574 415
3 675 797 737
3 1370 1404 394
3 319 391 249
3 878 1017 942
3 316 457 241
3 834 933 837
3 551 679 542
3 892 976 891
3 251 454 390
3 793 845 687
3 628 724 583
3 687 780 566
3 121 200 120
3 22 201 21
3 21 201 20
3 122 200 121
3 22 320 201
3 82 202 81
3 60 203 59
3 61 203 60
3 1373 1396 1379
3 353 405 391
3 565 726 661
3 494 738 605
3 553 702 653
3 574 671 645
3 461 609 533
3 492 1297 1258
3 179 1065 151
3 462 610 534
3 366 509 430
3 123 250 122
3 62 253 61
3 201 455 368
3 422 499 369
3 821 931 928
3 1016 1037 992
3 536 607 481
3 1385 1409 1336
3 534 576 460
3 276 537 398
3 201 324 20
3 202 325 81
3 1382 1408 1345
3 955 1053 1028
3 175 1382 132
3 1403 1422 258
3 251 390 202
3 533 575 459
3 430 596 474
3 778 846 686
3 264 402 393
3 124 206 123
3 125 206 124
3 63 207 62
3 64 207 63
3 912 915 823
3 606 737 607
3 82 251 202
3 1249 1309 1296
3 832 866 831
3 764 797 675
3 1152 1207 1170
3 898 993 974
3 955 986 842
3 1155 1191 539
3 1242 1260 1222
3 784 844 721
3 122 250 200
3 455 536 424
3 911 978 820
3 61 253 203
3 256 288 231
3 680 1064 480
3 202 390 276
3 290 398 369
3 1150 1152 1140
3 750 813 784
3 126 224 125
3 65 225 64
3 884 967 817
3 257 290 230
3 1185 1267 1210
3 138 1188 139
3 329 462 328
3 946 1057 1010
3 327 461 326
3 165 1414 166
3 1295 1369 1335
3 823 920 757
3 19 256 18
3 20 256 19
3 80 257 79
3 81 257 80
3 326 461 395
3 328 462 396
3 938 947 881
3 1391 1431 1426
3 815 905 778
3 909 924 894
3 81 325 257
3 20 324 256
3 1347 1379 1350
3 422 537 499
3 1390 1424 1391
3 424 536 481
3 1189 1246 1245
3 1112 1208 1174
3 1184 1246 1146
3 125 224 206
3 64 225 207
3 429 513 383
3 1104 1121 1090
3 1364 1390 1370
3 998 1063 1029
3 1213 1231 1151
3 875 940 922
3 957 983 822
3 1031 1147 1108
3 650 874 723
3 1351 1411 1381
3 1111 1254 1211
3 368 455 424
3 962 1025 884
3 433 530 265
3 925 927 758
3 852 925 758
3 647 771 738
3 1273 1274 1263
3 1345 1408 1384
3 1015 1060 940
3 602 678 363
3 1153 1205 1189
3 766 868 716
3 1054 1101 769
3 1317 1374 1343
3 643 713 674
3 1261 1312 1299
3 1175 1176 1097
3 968 1015 875
3 693 755 628
3 365 402 264
3 1302 1335 1309
3 1423 1433 1418
3 476 641 541
3 1142 1247 1203
3 428 544 360
3 1096 1174 1138
3 531 1156 1117
3 1364 1370 394
3 1256 1270 1224
3 1231 1253 1151
3 682 861 804
3 1314 1388 1365
3 933 934 837
3 1125 1155 539
3 428 615 544
3 582 615 428
3 1332 1349 1291
3 973 1058 1006
3 534 610 576
3 802 916 810
3 533 609 575
3 1119 1179 1153
3 810 975 878
3 420 1434 1429
3 1154 1226 1209
3 1013 1054 954
3 923 986 897
3 424 481 340
3 1258 1294 636
3 1365 1388 1297
3 620 1101 1013
3 1058 1097 1006
3 1287 1357 1336
3 987 1096 1058
3 1013 1101 1054
3 1227 1281 1144
3 1076 1091 1050
3 972 976 906
3 1425 1436 1428
3 1112 1174 1096
3 1094 1154 1136
3 1257 1366 1293
3 723 937 838
3 842 923 706
3 1305 1332 1308
3 909 928 924
3 893 970 935
3 859 926 883
3 1156 1234 1201
3 862 887 640
3 1038 1104 1052
3 971 1019 901
3 229 365 264
3 1312 1336 1299
3 1313 1318 1298
3 1070 1182 1129
3 1020 1041 997
3 961 999 975
3 1226 1274 1273
3 744 746 640
3 973 1006 887
3 532 646 407
3 1391 1426 1423
3 176 1398 172
3 1238 1274 1226
3 174 1394 178
3 1208 1254 1190
3 150 964 179
3 1101 1137 769
3 166 330 167
3 177 1410 129
3 983 1027 822
3 131 1406 175
3 1026 1062 943
3 1151 1253 1197
3 156 468 157
3 466 504 359
3 137 181 138
3 468 1365 157
3 1293 1368 1359
3 1291 1360 1320
3 330 1434 167
3 948 970 813
3 480 1001 144
3 128 1422 177
3 926 953 883
3 1089 1139 1103
3 1138 1175 1097
3 742 858 644
3 171 1393 176
3 1404 1418 164
3 420 1417 169
3 545 898 816
3 1150 1207 1152
3 166 1414 330
3 676 693 628
3 1345 1386 1333
3 181 1188 138
3 987 1058 973
3 1261 1299 1283
3 1258 1317 1294
3 1034 1112 1096
3 737 797 648
3 131 175 132
3 171 176 172
3 368 424 397
3 826 1024 747
3 1018 1042 993
3 162 394 163
3 174 1427 4
3 1399 1424 1390
3 150 179 151
3 1176 1210 1131
3 1004 1024 826
3 128 177 129
3 896 977 930
3 1023 1066 999
3 143 480 144
3 1328 1361 1258
3 137 1308 181
3 620 1137 1101
3 683 919 803
3 1249 1296 1282
3 1070 1214 1042
3 1297 1328 1258
3 181 1256 1224
3 1258 1361 1317
3 211 1333 135
3 541 551 542
3 1068 1120 988
3 1243 1281 1227
3 1388 1412 1328
3 1164 1284 1229
3 1256 1291 1270
3 1244 1286 1232
3 211 1345 1333
3 465 613 358
3 175 1406 1405
3 772 932 826
3 903 958 849
3 1270 1311 1234
3 175 1405 1382
3 1154 1209 1136
3 1361 1389 1317
3 1362 1408 1405
3 769 1137 803
3 816 877 862
3 4 258 127
3 1216 1244 1165
3 157 1338 158
3 932 1004 826
3 1297 1388 1328
3 146 545 147
3 974 1094 1061
3 168 420 169
3 637 681 677
3 163 1404 164
3 1185 1210 1176
3 145 981 146
3 1117 1201 1157
3 746 862 640
3 1136 1209 1150
3 1414 1425 330
3 1156 1201 1117
3 545 816 746
3 898 974 816
3 1226 1273 1236
3 1383 1419 1400
3 980 992 953
3 1349 1407 1356
3 177 1422 1403
3 770 937 874
3 480 1064 1001
3 134 211 135
3 1343 1390 1364
3 1291 1320 1270
3 1201 1251 1157
3 1363 1381 1361
3 1424 1431 1391
3 921 925 852
3 1234 1278 1201
3 148 640 149
3 1323 1364 394
3 1335 1369 1322
3 154 539 155
3 394 1404 163
3 1420 1424 1372
3 1031 1108 1100
3 1105 1134 1043
3 157 1365 1338
3 1358 1386 1345
3 158 492 159
3 1296 1412 1282
3 1343 1399 1390
3 136 1305 137
3 1129 1214 1070
3 1002 1135 1080
3 181 1224 1188
3 1305 1308 137
3 1175 1185 1176
3 1251 1285 1182
3 1081 1121 1104
3 613 652 501
3 716 868 736
3 140 1218 141
3 974 1021 877
3 1390 1391 1370
3 1021 1034 987
3 152 1044 153
3 1058 1138 1097
3 1080 1135 1131
3 1226 1236 1209
3 964 1002 179
3 1173 1212 1186
3 1425 1435 330
3 615 676 552
3 807 869 698
3 178 1427 174
3 877 1021 987
3 1270 1320 1311
3 955 1028 986
3 1278 1315 1251
3 141 531 142
3 1140 1152 1112
3 1234 1311 1278
3 1267 1280 1230
3 981 1018 898
3 1317 1389 1374
3 1034 1140 1112
3 803 1137 710
3 143 614 480
3 1061 1102 1021
3 148 744 640
3 1310 1335 1302
3 1173 1186 1155
3 154 1099 539
3 1094 1136 1061
3 816 974 877
3 1174 1217 1138
3 1157 1251 1182
3 146 981 545
3 1374 1399 1343
3 1314 1365 468
3 816 862 746
3 1096 1138 1058
3 1209 1248 1150
3 544 615 406
3 974 1061 1021
3 330 1435 1434
3 1285 1300 1233
3 1102 1140 1034
3 158 1338 492
3 1311 1341 1278
3 1201 1278 1251
3 835 871 860
3 1138 1217 1175
3 1236 1248 1209
3 1224 1250 1188
3 1218 1250 1156
3 1216 1286 1244
3 1021 1102 1034
3 152 1065 1044
3 1328 1363 1361
3 1381 1389 1361
3 1282 1412 1388
3 1278 1341 1315
3 1125 1173 1155
3 1404 1423 1418
3 1182 1285 1233
3 141 1218 531
3 918 931 821
3 1061 1136 1102
3 918 933 931
3 1251 1315 1285
3 1420 1431 1424
3 837 934 863
3 860 929 835
3 614 680 480
3 1374 1389 1387
3 178 1430 1427
3 874 937 723
3 1340 1369 1295
3 145 1001 981
3 640 964 149
3 155 539 468
3 289 360 344
3 360 544 344
3 539 1191 468
3 559 639 570
3 1294 1323 612
3 708 747 616
3 620 682 641
3 700 802 711
3 748 802 700
3 774 865 741
3 747 873 806
3 844 893 751
3 901 938 766
3 939 941 876
3 902 979 907
3 956 991 904
3 939 1092 941
3 941 1031 1003
3 964 1006 1002
3 1083 1114 1057
3 1079 1158 1116
3 1114 1164 1118
3 1208 1217 1174
3 1231 1283 1228
3 1299 1342 1316
3 1305 1386 1332
3 1320 1341 1311
3 1322 1381 1363
3 1341 1368 1334
3 1414 1433 1425
POINT_DATA 1437
SCALARS UX float 1
LOOKUP_TABLE default
-2403189938201356173191036604048066382835744768.000000
-9858159141611037816706619786794371261006872576.000000
-19193148860943678681486663263518337110913318912.000000
-73264408012182878948483256799689532623485403136.000000
1811631309145115657937210079541006522035526510033867481546752.000000
1090940721517142456869912382191414738847531008.000000
-160036706706491714808266455095570891571986432.000000
-6143627821553945208351575739491491078930956288.000000
-5735469308006249306211950432687789672381808640.000000
14264433186146974628378473809382672168642412544.000000
-17071715183581984463790516337887390741378891776.000000
53793662206778465711862372868112850876568174592.000000
-192572428408308727030855764844986530915692838912.000000
338333695486679719701494035456510567349821112320.000000
-241779347397151559843729381013670952150147006464.000000
59015968297716249860804541054597555612838526976.000000
-23059402192991003768417051073384635666968608768.000000
19215913616807891169246711611846140484219043840.000000
-121658291109814782633004835372336472219938665831955987169280.000000
-168321491490006411768037620467620603511925043887891105710080.000000
-796273264860685114868631677641727540576971714411788211585024.000000
-72975236736724421046115859538298104543859001100620368183296.000000
736865016739231249593803834071036840589602563254254013775872.000000
1078591683166964142730275154523755468170394485336850288345088.000000
737589426623686599502174971667773035933865833434532932485120.000000
1310969113319105944970342220529932464828925844990531928588288.000000
614189485694686931637498661110654238558018414155746842247168.000000
768532752832654173462325747282012181298815468253770332241920.000000
878615402273233683188518685329438084967064152733496104714240.000000
940638561663390425012688466979989569830231602770821240586240.000000
919366397295170623782886565533658525645319067136797465116672.000000
1040083145655181592428510015198668737309123325851452752003072.000000
960631093232621549535873665536103506342875857888355012313088.000000
1417859778952071940343054068411242025307977881564987267219456.000000
1450387365217321699943948511810851102249610406832959133843456.000000
1326786646405894474579056735509915683817290096713987153461248.000000
1218698805234506825053851404689626310035131496334277864325120.000000
-60466634001295479943580390145579938788966190373747698958336.000000
-2625629973080041542680653327056990020940789546266865409458176.000000
1867793791010608494975418334222375063628569652493943547363328.000000
1796537194615863113255607631839871320946030816704804776050688.000000
1297230877096239196469838518750129214355623051836127493226496.000000
1337148256021490700847814625297981232955331709445875739656192.000000
1801824588398212655771624320936054897836172719142368163397632.000000
1536906970780029078422631386369632874259650733418073355714560.000000
946217178278319127376079059719823686743187830063936326074368.000000
1427473832658070251660345429739245939903674629829520682647552.000000
1480464745515037564300049625241082044644156508549862091915264.000000
1013193550918328622753629044781578210260296112850236575055872.000000
1123261078279874662497668294307798525708802606955830934765568.000000
765731612605950466152534911787921093972517838266955382915072.000000
725333706579896907662967339858352925707764763019547554873344.000000
700370999682309323735380860979599674079603540010797402947584.000000
546752988079519721712342908230698067236067188716889106808832.000000
844927308861879753257201053300675388305616818872908020449280.000000
729502217378422800097192460480135031966005769910214635552768.000000
848728107399392947699604844478778136176455663139335604011008.000000
792424316534240259878433535776200144367035294036339348996096.000000
516867199528441669078016396475216399148748915662081335754752.000000
646408045321391205133849533774038389292403131863046440353792.000000
536163289840067048455223854736138855300983913844287165431808.000000
440105547490575644537941099563479314542925614217056084819968.000000
335641537065660650399452441528192438097494585525109727952896.000000
-107479629156635787316022405526487854914040105367724324028416.000000
287368887341900921928786551323852596925782878565992662827008.000000
320200954417703337594651749764556822621379486768874274160640.000000
6133201500232407972454552479350599389890478080.000000
-225996190500511334024480588716892817681127833600.000000
885285092405764414733308470056021711124850278400.000000
-839980223559551845557558806023166255212250791936.000000
178206934742262644661953982311131294845095641088.000000
-46476566290456249920013947165510444439494983680.000000
-12202683157660960476242713939547772872158085120.000000
58747876969557498412032458531566505359583477760.000000
-83504093681896574017816134095426751224405295104.000000
123725705443514950793624419744512322483332841472.000000
-136743705313453396210557911372175500416414384128.000000
68928912797652499381400094832023188307848462336.000000
77026145161435790247414017011320959153572151296.000000
-181389548940477614957963419456679653903803325844147736150016.000000
163856096462067702083911710591194086037599688332867153166336.000000
-223588848463836002713813832324457259340602768141155506847744.000000
397151345799027187575753121587192934017857851983379801571328.000000
1209484937780539731743940428485975400200536133736061135224832.000000
-93084457570696218409872080808530876234746070508276866351104.000000
106560450195576721328054493723950077663966902198698539745280.000000
257710239070274228887001355573087805760072408232581195104256.000000
389197658530984414570507762514256959074572656573939812663296.000000
597996165335749013674805320066489830211167002100873218228224.000000
676327118649992972756033478097473820842406601110805242970112.000000
779063409100386094044956674425393235396179862429099683217408.000000
828122234389617343831435363272941622548523630623143948713984.000000
810315467540529754915432954899723531157026599298830943911936.000000
1432571642099342603236375259954050342069248302895412866449408.000000
-213700668898504194516797893474285591135636395803854801731584.000000
558340330658783929999959775250945755790700979614310962561024.000000
985523876586534616426841858435889218214524256614888943648768.000000
1190697635313504726528877600200742431024649146273680890789888.000000
1161845073416550991370864980811687874780926930686200913068032.000000
1132502015222018585328559176264113094667753381856540337635328.000000
908499292517108739846811208204931035823891937898957543309312.000000
1161199586790567945317352896166182541254509605546793180856320.000000
1446415103359166090391883917875578040395874748050022808420352.000000
1730637999210306159492946194818863527950653562344950791667712.000000
1697086315663941164386586162101358941133023774199168903413760.000000
1820849972274870662681410239950098428260374243423326824300544.000000
1708636530165558068433263267526773487419917967782415502934016.000000
1729506144390259875454029514058964200169132972720103597539328.000000
1638103669484988791230468880218958267712061884536215253811200.000000
1860445682468370979965567603458476123346770497951444787789824.000000
2300095317265073928034058120838868060740986797992295962509312.000000
2508939657790239017369100679459795183630487881492771612131328.000000
2355230509325106863608761519483928132546606087757074633064448.000000
2159975953662268438385823070949541125727952837987517834723328.000000
2282389766066255990329881897192707992105212578736477124427776.000000
2445941821554782880196408864965589126727769330019586231238656.000000
3503164385476126808446510476686011322239696368733474003091456.000000
2755459209841668898317878093998148082894944144161350828949504.000000
6580895773389861298551422072257652115315086486044012974178304.000000
2661891628417585390389040726400120571181142367159367644479488.000000
1331173607836187450364375843880763247401018280560203225104384.000000
287745607996224806708628888253552328921809228893213855580160.000000
11368479891077631337805308158739955664843776436051084574720.000000
83636841275996738208383459432689787720185012483913200697344.000000
101493134353736826318501302389753229784672407688638596382720.000000
483869156248609263413129876530655928077761439384026602274816.000000
-415362088394368230803240256704119728611370025957631446745088.000000
1523571058165070793614067980455808386259055165709450611785728.000000
1479258868250125847049414104890890302578035282800757853650944.000000
1276489306158115315331036494806702801135146390389401787039744.000000
1048029363698606517448775666762220227624073719248499056312320.000000
661918299746469472819986283662544122623260484035143398326272.000000
775311176248993907893393893446614139520255566268243868909568.000000
1014887968734129050383406794634046618916257351743689055010816.000000
1110661157754242565093904635514030888339363049504066578153472.000000
1134819815671521460718142684874889610035722370895176531968000.000000
1114752971376355876055543809788746106985517490273203934724096.000000
1178462911450554568587881047616225986028997780639901527572480.000000
1259541254754045744050135326760232814740109906716833790033920.000000
1232518115038463052231512364855593536235633063245495767400448.000000
1234033889862629562173133411977463573695182368404781477658624.000000
1343870689221252588932331150106224427917926099651148405276672.000000
1571165311328974978193619616474759214747611331348428765528064.000000
1789764887451247011154896551944086866086218012537628433317888.000000
1514095985913390344484268285339117111037210427831055045099520.000000
1290772359879664688503203232786917918494864054049881043501056.000000
1208446937785391952946434194317282905982735743374603709317120.000000
1230171714107259399015837593492412607965170881257674287087616.000000
1180714371276776634163444327077101478963144240620869798330368.000000
1119156201835130043083945565774208321334941110493386823958528.000000
1423720603381443864763898343782888209675492016795201627488256.000000
1362161420960818570566992019017230897925790020256295072825344.000000
1317406831631976848962270965570363979440471869951330477932544.000000
1325196479169244319701050378429795711148728597832678818971648.000000
1352436620225718557847711766112486936882273890152400623239168.000000
1303492032624952471217683699174767339045116505984201117401088.000000
1302196196053744797246705540446622104284607041001589751939072.000000
1129148594580974478874874461635325373101668541669908823408640.000000
1076624591702032261443262084628911204491100309131446810836992.000000
1231800022098988452796891954409986540255143323318555229814784.000000
1322379580491291959351971605679586512068324479104779544428544.000000
1299843596452412946012735263194452365007693398701814539354112.000000
1162830358031668476247585236968073682023649255235469155762176.000000
1021000972953751453305585300451646115350683330487092753989632.000000
828013604530588457343356418635515678987994315958473971466240.000000
825585595508464216135840747632274990587135767731710571053056.000000
1100221552053363456833751872649844739976756094084059066531840.000000
1315383561174756782233931739471158267122859128229346907521024.000000
1478973445545358442242594646946341587186792110801569244512256.000000
971381903931919121276164012276905450759858303942327594385408.000000
809296090295723976787372518010660003393521209333459261063168.000000
335511705667168504442580936937255018442980100248024922456064.000000
-75492383358998507783477309760062946315505936185174379200512.000000
1132202488681644486505246852280864079500767355539200875167744.000000
1525456537336805662637766118283268492237968919104974959411200.000000
1042296750465589229733463710984562243746748196281109343895552.000000
793275483287329558567905211841057060902059696346339259449344.000000
1255753384677874280312044523654946681444361203162994345771008.000000
1547974980175927603868433861209319685647196585642434806939648.000000
1346558247636912876951806782611301260038792622287692756942848.000000
734862516780096256330335243484684386727426301172489574678528.000000
1296648718589850935004405533308785404643100105768723441254400.000000
802843352700035428544784123567843979215555698424516473520128.000000
2226477798715681745687304973097778260429507156438413851230208.000000
2322335842919633125210971616646716195394892468242712350425088.000000
364695771368403917529624064454676798916220122739159794188288.000000
617099840284232847351050932866537536358966077186406835290112.000000
990035096083376353417957154363943807670484242735389627908096.000000
945048320432357529991391900001356316338122805626577929371648.000000
1317135033705169183958271366514077420608859593326703056781312.000000
1026174375576354406871241223272017953691375870587723979948032.000000
1555485130457415085027458533585098672125484120952206694285312.000000
1079098327169689912776529584234289755154038968915738320961536.000000
1107105917125448193452799365861417117664294065264367060910080.000000
1476906315894342631950849794818807586160531557394302722113536.000000
-410234516254035390164069351424137247252497989530307388243968.000000
20603965708377711541858783216184830247337028508155117568000.000000
310146909228535468435608927871726770387769514072300811452416.000000
1165881217676362469651128343048144712879959222023954590859264.000000
1556572850662342063316825344748934387575254949985111861362688.000000
543536919527002389449798302068612706384421542774370964865024.000000
-45933355251306143158715134223389044305969659826682602717184.000000
-74907218258511298863613001030082807661561893503280967843840.000000
694878200938438835056359197031610681368706894067169295859712.000000
1854567159128817201681408033641447048693601643910142099456.000000
-133100825696004026598215190162694786190800009800960394133504.000000
227125590874122913361336581790099830829574481510619848638464.000000
751074207071650405386174583675309548269340626325792188530688.000000
166442662089537809750520243265595630646615677753559126900736.000000
1263327343219313243147639291666170806805549724574527071977472.000000
1790226935092759247222299233430280054486714002368671399280640.000000
1200381178158483446192220907105016036943656399157117604331520.000000
691845317835007778420383712660281927080496114599985806311424.000000
719825378556453751283586553579564561625379481095148027248640.000000
1994544096332623275323179241947006929752074096151657101393920.000000
86926352850947849844265960028103837375428690208164925145088.000000
-596248609244456806314509845260766155199639940338522529988608.000000
1166635563791921314297290377838234172815180362742367139135488.000000
1790275668608741799902869881994671530298677962822194487623680.000000
1591987290132010628873075420857740446752575397584949489958912.000000
1374448787951057313485406956018927137672022980625556358299648.000000
2159059170117182276745518839518955261966930700682020056465408.000000
1713347706743949885912057200863305197899384016090446721712128.000000
1524271573388043278580080612942156498684676050444129274953728.000000
9791232789639103434453667309754455469703851576483435773952.000000
532839581532631193874158804191540942720034940195365376229376.000000
1705733909051908450451620380998337693814882641171545669500928.000000
1089114438569133968709774940102783229381699497412675950870528.000000
1222172862044954857517125149959480458160934592118774369878016.000000
2300397879254678180323286271203340033596470312813548124766208.000000
-184725037828749627485633497432963840844794834758942425350144.000000
238507476204676390186770291810782439929319103357242308558848.000000
135304847505645231693791692458642506093902059462283734548480.000000
1281723940452629857395858798657144791729052307476304239788032.000000
104670884322002576029035449199240694625084003270337761378304.000000
-249734092591933258220207942899826657801807868434777645252608.000000
4866813595192142084784232395162432768619289741049850757120.000000
-483564965755805052550079583208816502634315010196597999927296.000000
897344728661055689009494979162144294323705976272404122435584.000000
221058883073211715229917033025158458065581281663354402766848.000000
643795844220426366361485861603143378322895746844285472866304.000000
724640103457629476229144302825366480483383414385109324791808.000000
915199152021439518346974301075288721155711894070294390767616.000000
650957903843325707362625162645095225807314666509483508760576.000000
1013930294272354694947855561035617830225232459819249121099776.000000
2449891543834758249368051805978408268443319337201908395802624.000000
3600328026569434672587427149569581352927623407890949604376576.000000
63979140525747533021065954688203635950560777927151335768064.000000
1405466068346189686822564257531744845867252587258484042498048.000000
1595377707679121409480581360641376461405213948254229492662272.000000
135997466324045466759018011772086301349169524467401888890880.000000
725010848157025347252293968218479143136278043107987290062848.000000
519804615275528366962918994879152926720380868592837934972928.000000
480125331996161451572620587131027951103634259664774436487168.000000
-51330604482285683432619176492601822443726977917016655003648.000000
328352852618919760824679968394011364359426013911342653636608.000000
-144220259494013442373468805074824808481639469285660877127680.000000
-250033009554673784115562956124890083420816382562428375793664.000000
1445020221053894278993310750940788869165307720783306248159232.000000
1288491988002308662024192998769970224750696593878685071704064.000000
848234164633224998087487549006224877879818023264913050304512.000000
2398227364178386277142483222177710125925943438229599386861568.000000
796681993915281251088819997123362956775797407256318878679040.000000
2798416118129368172406321138032945094153985432601395508281344.000000
2330737333735032357934279165163835193996448436949138102288384.000000
1430003250219448990170523312276972946955065656006510936850432.000000
1212251929128226661039806001192586267448114124845000763113472.000000
1224062879214223723681444679305731190447011251710801261625344.000000
1572221060734592734276764635871988991449158661262321135910912.000000
325317388367520439093198515212916366073275666180838415925248.000000
1704682620588945057407635483787757597811165755198365837033472.000000
83136498661552103073524871117322128475921737477380361945088.000000
-131584078078095017578263640769939079617193863375920734142464.000000
541629361503837192010248107382982850708602367824506780647424.000000
1070796540669743076307540842348238427548259849483915676876800.000000
-744786204869571937581075419216647628070234659669167310897152.000000
164336846612242593122951662589059239252310465140182696853504.000000
157153136706879721662490082115886209012496082767709669949440.000000
1670033886043918467316496542232687940516993164229495796793344.000000
1318201515795938883404030247417236052343901044783193436192768.000000
1284030703007494810236920520508089438617885230192258227109888.000000
1215046410178182735815465927518518316110245859712228294393856.000000
899260766929142228539151064257653840648231958531534430928896.000000
1598628217618399540939744372492555316959892856824874682810368.000000
484148037739691122995423651282687337991594239065167241412608.000000
1191803823651732428421289643824992079018016705725765399871488.000000
1752984374510183756325401853383293714132615778618685727440896.000000
1471567825628978495200572462587696607486702364968325321064448.000000
52557002967961517985662315979376457928569640841281374519296.000000
1317295282382842713823710998629666662134583492423902266654720.000000
-655256804961014646419909058665948299657845775076557294927872.000000
1068627072642453623894415840715142064466461635903763817431040.000000
1049058351705216519077720071268207663763250182198574815641600.000000
2413505357700112528670495432321157355478686015192729420562432.000000
-339017822481440666098266358743740721041864745157917629480960.000000
32829461304461695482584093902005426139638404090000916348928.000000
-120063525504357822746388159461709205049519920912062767693824.000000
-84731230432980712979640880605391818609789243915429526634496.000000
-403071163033661885502205815245389213442918637146143245467648.000000
2407362012934167142875473969494956406122042421151407276032.000000
-811007372037138842476705325345028558993084006208357955272704.000000
137782859168863325044844319792195768883907403705259170725888.000000
280196802669803715188115773163465831209646558422804790771712.000000
456636376808707441506031057990434047130282002044744533803008.000000
553226623312649027251456297045046304596812191200221480353792.000000
2164107528457864584830034225772039572038308108590987368988672.000000
559957269746878006852914347248691238568524474862929507778560.000000
830427015205323973940409041706918776073411259007828014137344.000000
942971854575917378749894516540944018495825005413429483143168.000000
622128035899824955948489481068333837960452234465414752501760.000000
712497942674328357945978074569984184010449351707488809910272.000000
4325867027368150703235721330740118051270470135680262589120512.000000
965672461672731020368660013353330987843042500067231572951040.000000
1019558659073436829746529172564705016566365409669159789264896.000000
760555263105613125229550132334901290496829435239097404751872.000000
89266170449447350198502840975142724938826439478261195997184.000000
738440844723549688245752602554671024750875652527590744260608.000000
967211422685294521752497472891662616613920752667902787715072.000000
-76122791708884877962431596805648170367531402431040678002688.000000
1169271126500605746453157860434639721902102060615985264590848.000000
465402739366906917125516353751729070257955665263924023918592.000000
615270503894255419022068376996959447145705908216149697363968.000000
80146492425345880283922348878984002714596583741481524658176.000000
451171755857792021228359785716948000898100782445371890597888.000000
-728269791467524786706169719768419164530889691606179582574592.000000
-543623662802126288610407047200507895609562500820084295991296.000000
456493982127880457614568903546614536501400896738652869099520.000000
-65492383613145983607504086937119358197433179386964103659520.000000
731114727050522875510871262507202587249163866705016720982016.000000
952745619825128815978626828237852227267730951465231856959488.000000
1112441626601922272051769201860090884617727217394990478000128.000000
560199770238182410866531347925301177882781118484614114967552.000000
1079314339307642691956958490824513061520759179173941976498176.000000
465732759462185173163985647837664723393294979047597522550784.000000
923465496896877988869921148273385361103888927519282735087616.000000
733645697572257153647164123035053437744162642414323598622720.000000
1096786590205238384062846977836206696079378681600004363124736.000000
1494546654903697755851763214404782292678467532487883728355328.000000
1276966046665237498649782984899494689990560568316988133212160.000000
676714860289437480058655105953151407514587007179794310758400.000000
299449553062712385007473915265912583311347712943870468685824.000000
1184902882000921515703149368855379074637527405471746406481920.000000
293204298881888475726566716926588748409846400267627528192000.000000
1354598408051662442141028404010268512637272778269032697561088.000000
1896455414440968021459157975353692099886186142653624673632256.000000
-42611945451408112863036631995193050224641921817174075244544.000000
-435548772062680965455031588999322894741787764319989895528448.000000
-411074291265639004353498715571398053745981214992786710855680.000000
417053141979141315181515100723503905582439582064065736867840.000000
667323746280411505093426442555633106843350371915932624748544.000000
670468875666665177091372010080018333477212201331362971516928.000000
613263055513360689448678085672720109207236041404647049527296.000000
2898398136253454001510527732398843324580237017986199531290624.000000
857923105090415755944723647903919426282140681453086351294464.000000
709802085419757900111706205504879864063268389523207015628800.000000
-163737190149892776871144904770500575884570958958454919659520.000000
487171581121257104998090650028721819364841975415316928266240.000000
1524068770420099951030712793669148420646303381614473882107904.000000
1790174068024091834572079467441037685427646776674405262032896.000000
1976803714281191424852681615464400731159859409135323983118336.000000
1429967072285367026608605481738340982502896859506799567437824.000000
1555894125684023819373770615093938243209899736547546279968768.000000
1596532843964704886731291497806907237888736814079212372623360.000000
1718556158007958911555558934781736159686525592329058334539776.000000
1593762810704086293838917813880821143084405879505381918507008.000000
2356932590227473523925616075636160632172432052471205214552064.000000
2246882420395955870752289365471785889559110045110177651228672.000000
1930958491537596318027117088453109697820132258899680336805888.000000
327116065813772538075283618789672810911080601122440749252608.000000
-1053550984941806733474298594558105197045926562830230489137152.000000
1042017746138735757472912936363559605358797236699211245813760.000000
1033689172138598990757450351195362094241852869158076518760448.000000
1117838691143453405353599136490764139231674910899256155963392.000000
1263967911080918122936807194418764615268602027268166071091200.000000
-438468342377745675125551009959667915781399005820261614223360.000000
-133900727701159776147127342108058828381104524729311635177472.000000
1819901860114873649378980330428776388532245395280270884601856.000000
-64785881620622646985772950078641707987088132645482605314048.000000
185141614698941823187069445254485270997601841822382537310208.000000
537076928950586411316838851055856494512979162698117556469760.000000
983783381746530169262820782257832901305507163924218727366656.000000
162065987010210004806642234004197341761959823983334635077632.000000
-1847205011613352327725178330318915682439658255697662556766208.000000
371172337309875782527862385342161340000266769716485870845952.000000
571561759642724555488299926524441578076753173854823167033344.000000
843564385853356745741453858869705241391988936694297652101120.000000
860761609572993641142609067637290559749258343113136118169600.000000
397761548493822474062277685787850519775534669236492933529600.000000
134190117940873459377127860719049189031444258812297033547776.000000
3370446838321416536050875389418073222270082548362686740037632.000000
233099469197119371267301665891326609021375598057532977840128.000000
1788511905774951168043214899843475398314298600384315252539392.000000
162672192834257109984840811906014521918294586720276384317440.000000
1458473932704011027275678540083479835708138176281362470797312.000000
1075932474427034707107828529952883648069402467193427303858176.000000
-661511225990531547596551283910696862084082298824853442002944.000000
445003059684876158260786413075970324377845458453682800558080.000000
422647985376663193400986249659045264528256931108356188274688.000000
-851145771418210391757639596723780939708877828082702798028800.000000
1549590754914584327881025776991510610817862179594063096840192.000000
1265875513188019539320778470389443690998363580436651167449088.000000
1365794465814601536686092601661147907268800112719165936107520.000000
1930558959830684930674579545706343842836583775011686905282560.000000
2388555298780785264680538154946266477859890203764963019849728.000000
598661305024704814367439388529870308943301221340335300411392.000000
1766689982420247578805566914197557490250492311860309940764672.000000
226904742997390430309417651003270340884339040549169870667776.000000
1544191939600299238774444309425449318798964031735180736593920.000000
521993459070250924490741017550349275311866307519480426659840.000000
228487857754893049181575259309455603593456884095710474010624.000000
1160845212017226730105606224400064001295054375639126143664128.000000
1539086454319470692012091577354416344822920471143574744858624.000000
-312683224071267313920485918432062394803536194258683167768576.000000
-705974648749268526599094141620680781454756544470029579583488.000000
792871482226104782574257301927696090381696709685155198926848.000000
89683443944475931379885416745043443965264479094214626377728.000000
775635462380002017189933275865715611333741751314189878558720.000000
570664744265536852317729444991728400158274427999067528232960.000000
855075828954243771883134337603890159034300796095947914346496.000000
675277481008196175085626359672306427011011015580150143123456.000000
1164068569719498855334031883384812253292854549802163780976640.000000
1441536828859625960184549692118515356824378312796258305048576.000000
-408814897320848481642420990717693962657370641776894518755328.000000
1163722781440747532829095320989005653187624783834490356105216.000000
726821451541846983731257271824964378791485494937340879044608.000000
-99519784604448551790336182998877728802472218708418303623168.000000
-57347061708332816858648153366125379446558637449301433778176.000000
1025087931251246765608175635720913236998993968668541435510784.000000
2161652154901983092938557356683723611887895207782925117423616.000000
955762775720374788545100675527976216589192886275594627579904.000000
2066794032269496597575359844700589742002163602229728225787904.000000
1433174932275300999956724574596956834443376053286834679054336.000000
1821814634382971468591960061285209087079177100850037713272832.000000
1397716624973602896844874643464307249354174197609489196122112.000000
1551656607560649867131160111905698368792622719797195364630528.000000
979637275223921953641749046469766870662538346197393405378560.000000
1465246534659292905947853418285349943905145754772352243073024.000000
-369810599855308745031530412205563488072719112446555438710784.000000
2147709988715673160312362069416911187631765606311534595670016.000000
425491295175873423919937132654390639693041547928428697616384.000000
158694491465543128655303713028033335410589249414354664685568.000000
-620409259040804694483989973439731867362002648329313690058752.000000
1446703246052034378824186407522703888952323101192229172019200.000000
901034546414430985797878713286522588092418540389762888368128.000000
-467591223578979915564535282421352265267200500810899695599616.000000
536130199546333948561014872967709034710116433586135683301376.000000
3228531503560122972937631241611601848519731861306041241174016.000000
597082493568626835616942504803660013070262101784650806460416.000000
1404116079759600291501908595324199207450876373132436463157248.000000
583614004560820283956641943006875245981098267667310823079936.000000
785332039205427347362548399690799432422960356762734135607296.000000
937377894439263731312835700091181557485018984098758576308224.000000
4256241606828637805547622144581021232395850128484752051666944.000000
902074054066353560209049769521098838508604379734994577260544.000000
-44278545539523158845829660401772713159960131134215195459584.000000
650553580457901270144202244196809226638969812201647173009408.000000
50009374952961054686528696078499445421448397085168514367488.000000
758686856312507031752686605358761583469728108792605306781696.000000
579816979036021085082466850014281193910639386359655533903872.000000
677350080493491592711937489992161279118294167678060595249152.000000
1138248681731313627713530555713973505022751477146248619753472.000000
58908879377783345553648673665248923266348730289716092469248.000000
632890438223959443832272600626201198340184674274641734270976.000000
1011783658406967964583277600024815721775100308053946378747904.000000
1343368120035014076828324816055009287020223734423243043373056.000000
1996138304116901681623542445020493957909439578396613524062208.000000
3423711000988748833003419580462389885744755041509831178452992.000000
1559129314452747578897036460348636799758725744993022278369280.000000
1310361403315867045097561877337286866090419745910125773193216.000000
1505234660528482236682351749591497959727617225447910297042944.000000
1159852382070537006277584615069205997356459460977217392082944.000000
2343460608025219022488064312971154291849860707448665038389248.000000
985943907126076809852415606124569709934444758305604137648128.000000
907114714441020328887945167827877043280028956100722516033536.000000
1901512899741454115789492079305699548920149839450675771080704.000000
1419962491248504067989258073164031211753075638772908077088768.000000
1187637131463581220080277761469103979623966263941186287828992.000000
914814686440804214791666151012252143712183973441134296825856.000000
656338733056577428172197633386963835159419798559491501326336.000000
1264020155337885017159763701395840713860567234350659812720640.000000
2014980601995056424247841340653165379004552558412936580694016.000000
680479313796013571787223068676424272163317898302686360502272.000000
-924443782630517197435750876010427446166367797727368681881600.000000
455600996591879350534343870398793413399370167289934780563456.000000
224401968747737703437489483296915400214820909977121654308864.000000
-212661279606698172730788087102503148248868192331128104812544.000000
1347481159556214011969429985995667417852738599126677908881408.000000
670468476907604401815841646922828187781285025848199756120064.000000
1166306239910698691347554501024925367328248720746418421104640.000000
584383577635707458405120736172304408524531240853695784550400.000000
808777423019569895443445745446627479036528302268191080448000.000000
1603826559291018037354680354881278252607575893581653270855680.000000
1299831362446548063978546931072923847967470027155251123978240.000000
454113355391016545804579830559570415611842667971897295110144.000000
456437787769964660945816292091158596648601628231677083910144.000000
72704148307692044168037451821052487924562706496493564461056.000000
637967714398475174283200263643383141482940264134727786561536.000000
1744864254685099193567423746500538376739473915120508576202752.000000
1194544228550826515851568322693997978534991334957510566084608.000000
-325694829165676145760337164645849430604731956512833467842560.000000
1637054590160937137144880090488848909098618460035645773447168.000000
1409013072970452674916008690362111979979830494760420367138816.000000
1707394973588127379670920577191652263474943502847130996834304.000000
1413163330722202894085233434887361534643768225034652193128448.000000
2941076797493518161221942538508179240919710391568884475887616.000000
-360777591132209204786166731684529981475242077659336600977408.000000
1540287485553378570292984440907621413406391698989297302503424.000000
255184360764538302092164689320973669490938738420511726895104.000000
1609095673181350005819450492742299634217108267469442595684352.000000
2162772504261268190536941463280901249289445361469651312181248.000000
1460413814437649603002641637110002406127069242394458504298496.000000
142996818922770637980300171893925422365451430476432086663168.000000
1183413814434404633090883506611744525760286064724392215052288.000000
376386925071632019546867361613273190739349235948997662736384.000000
101337081268404228648634981321767096510532809646496498581504.000000
1963300943024947066769096661832802757737351474585406571282432.000000
536748631485185073105640574264446823247532826179855653535744.000000
421484351411433190962486020478725833696218605388683261509632.000000
518529914495567096394974672519323283924596741009252905123840.000000
1346152434947114313730976797731250143005604866365708151291904.000000
935605778776589397159628451051100832758846604939533783924736.000000
3209943548870251625870220921001470939599154356559378795986944.000000
662395548243746767731094983439105118971766714333946764591104.000000
751034935532589299319257846732413125883151639756151300554752.000000
914143781811332410330039481896491068858305755585213926211584.000000
510855152066363269659237577280251747263326785403991479025664.000000
409225031004793743269492710294592904208349215570616469422080.000000
1038780343697205331003009408266965020848570051888145177247744.000000
562034127817671482756360820548786540041941362516371588513792.000000
141286186410418877950174997475783224565758955757821717643264.000000
1329216760156217123594397922403749212457596667537634113880064.000000
1289925907134744811320836054607006494788175925651744357351424.000000
1497240853847893828409836343740744307387601222094593487536128.000000
-1024052537754505634150591259514691377366864399424038419562496.000000
-49364916813060824761517765520301248497437367436828592832512.000000
655776734005747398778511326145499260388858801578686768218112.000000
555646250928079310521380559939317908391897439296377705201664.000000
201675233702244145049586256302831395749394131424350039965696.000000
1115722954457817516005385399514816539913136628053068218368000.000000
1339285235060476590100834742020458277015633161702631559659520.000000
947584350967956014733364587313039428665839806770025571811328.000000
1193033431680661126598795874008725331792063389188353555431424.000000
1163332856411153269537297876455698591782460700470795487412224.000000
1142511055374426932573373340789794533750015729001566490853376.000000
2953983604102839220808989441633028692870294055368074213720064.000000
1256583983230787350093964507443330834406223845083665575968768.000000
1425907540249213917191727034998166465423593782951565835894784.000000
1311469879666796270092775277472686885697279921809237827649536.000000
1994562545184845814759188478878462185790019860564755953483776.000000
1574828302634675465918740879325972793676135837236808487272448.000000
607124036135665723455057254885428564822596131528252252487680.000000
1200994707739677981147845698706392195045001650601537877049344.000000
1976672288720944888584105351661693709705853660455043940220928.000000
709176511598093236570334964538221250951541897139723335368704.000000
2336890662895593183073124861522414273471077052291096596447232.000000
429601786521265683795512323243439271586328075976708320133120.000000
675053882261450887630562126535900800251443904636169249357824.000000
791421385780737981030357912152849195512815778995517758898176.000000
239900332506688303328896473929140832603409246193571887841280.000000
1061776004758419565467582067150128482856573828472825872121856.000000
1403171413414880808354806543506572869064944485342835130761216.000000
1227724488276416092479724394238319473456627634619047938621440.000000
1388743252545655922764949791573211347562946572170359184818176.000000
93022868789181907453354283631703710620650801004401829871616.000000
1707742583155842991238442820059282915609150367743700786741248.000000
2170018107770754021451956379678588912333663242339444993294336.000000
2333960341354293269438101956533653523188840431881571652337664.000000
1779409035208354848527403061497760834665606021739453469425664.000000
317066395111891860499041662179334823143919522492790469558272.000000
575355906759448360194398612308086950610308561883941404934144.000000
1434004374273218998873288825808866017576580147869880034525184.000000
1213903517016337723766133699628568083048900210237467275558912.000000
964566915035749800085522544469100136252748635328314311966720.000000
574736898335171795443415360695737790260048191202048492961792.000000
-842288734352655360104294753310854183450293433035029125005312.000000
440964396141859941026489194604293238910868674029261806370816.000000
527307070273556413429687572269001962058348434353078545678336.000000
2092360163972827062358680906702903407444385602788293387223040.000000
1501206541172095360581895796972913217184656148351413838151680.000000
1597315833506398212693934714134011242059783839192659443843072.000000
1521387743454081556341435255469537499098410042095652898340864.000000
1367033170067841835472805408889708662390414671589802260824064.000000
1779641034690032109973331377641962636682132341864048933994496.000000
1730972758670562560953367339626567591640952043248473518112768.000000
1220956469846724420400856168754998274800940774274122909745152.000000
955642119980476996895215398881818075210570671597984216514560.000000
1309895743509197196535199798280972539693646284872601179258880.000000
568610410554621418572331025022919943233159359572802338291712.000000
191389542117390152419374629856256420856910605102233214255104.000000
913381960490778927278415606023962722621150476263388302278656.000000
-685513879498666630654124934426102280885997162147262261886976.000000
526433731718401132299949818179243902083228578161917966680064.000000
770839805715667434825661892831775167571742517512073405005824.000000
974982037107125838185185050104554440956029089867835105083392.000000
532123344061469604959057079330676854077269893739181712080896.000000
3708783287903369082500006487159166291929446316014439229292544.000000
1950099002109636262416869381427642659346283456935699622658048.000000
2203898541088460174941407396126959007097290828370028965920768.000000
816221720943293991492502955726977157340158839961077722120192.000000
493341721745142483777298416163656890844488224255790169456640.000000
672816443772767157949592652037449612920184568415679764496384.000000
169481799989769064395721645525593100677793329336894802100224.000000
1685431308250349041423749136325004972715434287519624622768128.000000
1069734316469706972188411535397003752826290922343407156199424.000000
-5512130923898452304930374449768605086173590951470970175488.000000
510351713195558424146614493322852493320321690872406769401856.000000
649007141600899272274242421885342238685573824434446245298176.000000
389396174905568225926685263096947363635595269011407770746880.000000
-919556796759154233061861266449661543722015816330834119491584.000000
-322183435223356444620069314320683567504179413418163499433984.000000
147141649740298566630321278838383482276646643054949754208256.000000
2124810168044887962530944337375758266345711699357372143108096.000000
1356687463819568385570701976253355283289576341180447094472704.000000
1761122596185752200160371939650348704200577594153625981026304.000000
1433963594085994727499910591038844001179859923410395145961472.000000
2668264288346141517935051777204858270435025667052560436953088.000000
1264468291830093566113990475146540898430322862109599194939392.000000
1052292760698734946815435750402397116718518503262482243518464.000000
1232892062686906193192633037564718244531487546446733364953088.000000
1262442265256985039547512167120259125724831898596492315721728.000000
1362761596651413848840372910352334399364437396947071238406144.000000
1383384472406278793802790830981922016410043879500740311384064.000000
1521845892588702626860246687210754432096703044869636493410304.000000
398188537064491987279668337836654013651694018791470719303680.000000
841601003220949171929798806482652195073336423681132591054848.000000
4095572140233468673560563071512522163739223477451220391559168.000000
673462883635269319585683412330959419078541363574098286870528.000000
970126464252731003818351192654179220761649191225609628418048.000000
2072064126351335028447175000604952589121694818185191708688384.000000
1243497054869509711340839382315110137748858839924400975773696.000000
-1062766889076004633382376955276398452911994150008230533660672.000000
1822077459053269637177141108005190798356077199142179190079488.000000
993482505678792831739981818948688339365965022872139244503040.000000
1573991816451843044710703216330929518714745839740043252465664.000000
1575933107356129788847645838064608461952096029495633857478656.000000
849211245672230638072871186481953735837139803960359954415616.000000
1130059214384833384084225643272342197027305794245187642327040.000000
1876866057087320024937048153749609060319000180162688379256832.000000
1213978031199680214407174192789307505632313304783758500560896.000000
1287445812331086036404586382251402542938964790244862706319360.000000
1249744056793071812050552037791740197705304504230628852498432.000000
1211915468255158536585821320993587086652783139657912751751168.000000
1181112651587898763357425030874707513880292473730670576795648.000000
78254079905971601940691786936932825197422195154171136573440.000000
1023577972349534132622423293624205805941985359938937811894272.000000
-389305468951120698138942670679649074026780666098510454587392.000000
1514866575745305659612961424495693422714409633664981366996992.000000
1248314912795319389171480196587243030856019726645349096357888.000000
578263540711240393170223327906148698243745478274913465794560.000000
1342648055051112217216314097783249291188499879342403550707712.000000
1843563646165195579912624636342437257821867465243695029157888.000000
1877001093798581015637014432732497996460458128997138135252992.000000
2190043391814914256749524060788071058373358245934460448014336.000000
499324523878645042683321350801624841333613914802624726564864.000000
85115061343064659534267620751068531564362889740041316204544.000000
1324181353288514552637805752055937744131876865569575866990592.000000
569544593073711307170425621442790762910291685665216537821184.000000
826952864229372225194294283618089053295647125227386137739264.000000
1071835923790116560581389813466368567890137858330573347487744.000000
880108234669078193693742312317709660616357290818510635663360.000000
714471186122766500130981485257279757904729126526523942109184.000000
1990124635368776116182454312838981144149418809298905234145280.000000
3537460972217847259766346323208438818818393915644555821056.000000
1286450505085455988232489561412006135592111998088626193825792.000000
383419478072087348835857586340937033559458577469990139592704.000000
1460071435842538233789302555414237853738773383001741673365504.000000
226913785207230460816926352279569505722375934218445258752000.000000
3819432879162460852879848921254024763178265291452601600049152.000000
1602535596453784867282113619928704279218177422062292484227072.000000
543838496693905583591877250179423959906371159295794289311744.000000
-30666526170444820682334106454079816232479061496620619137024.000000
417299130192475982641096981630037466626731895017302111813632.000000
1449185148027834543456280640190622675592006280592414864310272.000000
327583973229031801275269537646218456033203237095924559773696.000000
268704964124324242184048493601512341004218232882482391285760.000000
267446752122821881468500802865975683299780451922886629785600.000000
2154003062334365788994262105275039097393585877368796558131200.000000
1939108619307123866278428032846195323594234230503078277152768.000000
1649389777218776387492175380873506066645955708246026964959232.000000
1158177921363026477972595654266179397507109565090042990297088.000000
1223930623184690217403459546070824783724534356286003581288448.000000
1948089777768832753454490655227843570607016649246246566887424.000000
1218705432512883223350431270301367222041548372736029080158208.000000
1549129528668299128326529944212192043994044093400556878430208.000000
1084377515019031071881604333875137645392093300446524765896704.000000
1400995026711025424377409745553822827433193611343286807560192.000000
737131171720446709856086569242161097160844342449109498593280.000000
1440369963676478416058613125438646948146356482761114911768576.000000
730415045520053445484654172836762497196718591807121189240832.000000
647557010691586366807744302957403657484680711116265495724032.000000
575520319367720848087568814149400628498805248498333160308736.000000
393026202186921386798413469788588478309964605538305652555776.000000
1688228606197690465095104561150623176585840096384934058393600.000000
1941078073775164150641698056980100675409280443618827318591488.000000
1609319175576437482777309519958486794769128231871004708700160.000000
4204644975261743050666259196234410852346880850519127142432768.000000
-888896159131336101454262340273290767573876539542388011433984.000000
-367707091694480965703759908614046932389391110809480738111488.000000
1906851885368319690036619514907373927046774322030845888561152.000000
1483090724876964230249319384798721143768689858342500079501312.000000
1496939310419538187575532809357643462367830975728628524908544.000000
1211482787076255554667741585487632147456852443590855491584000.000000
504698788286961412019269631878792657414565621099670672506880.000000
1311691863830611885146584369893725520110509765956698869071872.000000
485679812733668925095649115313370732438403071579506931138560.000000
1500134354875801107605569735225580894119724200961528349851648.000000
1805400552238410989065235642251768197753591631639430188498944.000000
1202937330746837898283746640044739819471716131999722883776512.000000
1667094796832803886624811557403350719532487528638768807411712.000000
1118664816720869588341528609191524275974710795260173892976640.000000
2048071259894427453192455332539443589344117904290330500399104.000000
1529578334823379814633318575647834213095622885586321125933056.000000
-333856222662604142157307363276840903440656867269574586793984.000000
291100982959024883275852229631231969088797520301176569987072.000000
811926559993278950013751908914709258386508464869920770883584.000000
1065043561848430328283166398372691854112044295240447940362240.000000
2626951647576401868071959574581986571609943539302107782840320.000000
1368814177617865631362949353860639370896448854679581548871680.000000
386705001066387195613209768097069670701575907221338874445824.000000
607044050917564539241000214665998352536140699026527266799616.000000
760843224636581602177065081206307898301760904920256705724416.000000
1121451295660126924223943285950394892828444311161619215286272.000000
427589658662039113257829930648686317074489688062929949163520.000000
1822385995531101516171477552835810201194689629877567882264576.000000
1806883843028864393737002114365184579117705076768477972267008.000000
1797795985335803289601539214276010810181950876198689927331840.000000
2040615302598850429145764977525849767816836293525459741704192.000000
371492367280022669667024395797967166924937456203191847747584.000000
928407287017095427578275534985531977990400326588499761299456.000000
1809782020793386386667347382885426484258166510658887182450688.000000
563967318175006693373270751562869979150243256604105015033856.000000
146645454208944930092759022469124756142508815746416743809024.000000
661301534869827326411895692475879920693853529263698819940352.000000
2299153794996011355583858366964875340309490347301638747717632.000000
713733905786486088878978760974746547373153678670292416724992.000000
2439388163851970497679492223535307590374174220491234127904768.000000
1683968075974211887834473477265766206129896622875935412060160.000000
736384133653944216149385315279590703480429067683571467026432.000000
566678909104240812605719163986000493857484873567802383925248.000000
-491621824892157727246570818773158038809655373134964050624512.000000
1358407527461528563988492700470145668622946509072386926575616.000000
1181012325960460972543178429780583218251229770655523370172416.000000
1054222763480261653855078836907276575901923041050796822102016.000000
1281376051818499091779852251965664868586863474076627050168320.000000
1202523145210435486679271495990949809208293911160034124890112.000000
1505066071344434583751328327148182889910718908652966826213376.000000
1195910607458177139198531760486692669245283156317368544657408.000000
1346163931481295568445776421108191610917444928255766139240448.000000
1504212772567187737364610330027764902442002368185985197408256.000000
1469512403858577115583399516586855009523944193576396216336384.000000
1083638554748389026070183931006658748965103092257466148192256.000000
1013602178916464372262698740451901527268382246690850246492160.000000
433570923718799218294129126585569541368661985121580324225024.000000
452258149450553959641023856157652619788993713362414050738176.000000
833879887557385189156534439011240628793893041562378232135680.000000
1584470610229815678596516943099647109821629900966465642692608.000000
672819514131622470086029799217967094476475385343464028766208.000000
1711641138876872228411618180469479755058736149529815316168704.000000
1200997104833159503284957383725780363582415758723737261703168.000000
-587274695245194944182019625147056767550975975481511994458112.000000
1318938937871363867757275038379300559471846856335961274449920.000000
1376676716687641107181448605743252464316423885758036126466048.000000
1912339662318763115603004927994605061986443848556824980619264.000000
1420743982317426097693302401463272975930417786168505465307136.000000
455398525099229438657460588393812223901474206737804799508480.000000
257966580508922536307640818896488760677138247843105627701248.000000
2817651277647897118589795104292805703402846174878499428368384.000000
2098378028055225210920084250772886813497023393646974808883200.000000
295881064047216089315849586356112304207034968641273023430656.000000
1345665019320174984492023807788576302950645904534896574988288.000000
1922887776773574786872359734171462089560407416105148155428864.000000
760472051848351145127109741234371708081254914232160991838208.000000
1586239968231892088719771083923209398567720196975088646488064.000000
1120088404450470385508653818210713857497358636375958743941120.000000
1172086957689516455172098082245617990106640345687195878686720.000000
1159609889104153340745400279970136357206986419166933269086208.000000
977489536625932326615731574306977456481836665708340421066752.000000
1723146841332273443658733882620429249195120735766000946905088.000000
977526800599681423671186449582112661439249515339466615554048.000000
2040903279796546451233284766813260129381272841798123043946496.000000
2546865646838214946161349046128973605786500294161452257771520.000000
631219609257708852674008146873498552165841090405556406976512.000000
526772050098287409271424239123764065946573912320549075288064.000000
988566086447454965158374162159685373785471088362600955641856.000000
1058319176341852191624343007196442607422945859227645732978688.000000
-322046834144303190810453419911365630565501311134080943783936.000000
1627357745092389128526187260727961711278685103505518670905344.000000
2073078828155544247599002842538096738465099790886879694422016.000000
693675737396300788215290122012014646994228912184930697478144.000000
2378220537529469432850973305614904290105228706583570324389888.000000
425165098443923198408962024076514614770609198928738465611776.000000
610619871941894700990702658129971033788785054123212796854272.000000
1634118445229584175921916546252910965068453618019672248025088.000000
1246263745286592821568647576361094565673518782400617062072320.000000
492031761039020206603081673848473319191733400947387646607360.000000
1855912790050625391712317726782659825292387296036253530587136.000000
3024499871610256264931123461227872911985754575382717505994752.000000
746336251216525271917839946525692400327951343263844524883968.000000
965985909888876846864438748863904866480243874145017429753856.000000
383608682497541598939651422610464998852274461144588111314944.000000
62552688332151865897960104662805823103722474902083239673856.000000
1495720689805671468014469667515915034175972234131929743491072.000000
1877213713765422667298990845346211128005526504228887810015232.000000
1500804913775843326607250199819502323645711993369097530245120.000000
1239763817000406915685240573262828748926249860376192194969600.000000
1128253698706372405134765070351157314934980080977714834571264.000000
1478855941513964540218949166964670794365332492411416136908800.000000
1631424138395254881212931999654470560013880604008039739031552.000000
1465940481461068137346715837468320163114628271164983825399808.000000
1490127619289385456287684455189014208339148623908796511551488.000000
1769911735087626881474481523155223854760058567011305540026368.000000
1678496136611536884799614198432856251995643069606944435077120.000000
1223257780135751109245233371600104862500090232409175703420928.000000
1348051341225025535950692436535854963436290698359856519184384.000000
1028088632505161485526106165991965465632419459788685975748608.000000
1156836846220050087826370683387638358991726283087429421236224.000000
1236658305583761434456821120152056777781040719444127397183488.000000
412629930124770250031051857025831359762771473943362250211328.000000
363069319142588286041132554780892685454779678269179563081728.000000
1499780410837096457363351928631619320173742158634442763010048.000000
522252961196693050013109812120105341892020239424337473437696.000000
692919589492245842178740584253382202329722417586898338840576.000000
882153098469616865610727345835792084341548111052309962686464.000000
2165331895826750678590502249450344676000380983958591290474496.000000
1215287381762035287812523680782105867594974789719586596978688.000000
371127043138497680111043460359198965558722074474885689638912.000000
1653917370717940360272543916877005224694582123151715853139968.000000
1987521169432217186349618055605578891840933605776524172066816.000000
1581174832822315091172709522100095377252345503335923648036864.000000
2264455151009232327689919882299976653118767492381321208004608.000000
3186147332436775907253425735480753095407586485844341474459648.000000
2252213839337518532820214336442468996220476691965653213511680.000000
766675147355782960656892446845506911619865797759605185445888.000000
595498429267829640228266042746856691862165034762149604360192.000000
499957813509493215594086438526338643038057343155996266070016.000000
-1078518736264548887102888327150453741123937957102045555064832.000000
1747832536548553338750470771315854622218004751939973152768000.000000
404074108857908308193691111339367321649404846236213295710208.000000
1963825368961317862293947536151879016850823956265798094290944.000000
1454765678322076055231478970351336471251680943300938314022912.000000
780671634348285795578913133579684468576354148041710188363776.000000
1194455865945655060873502338034548403129462794069965424033792.000000
1969783983852468588742109762394316894295121844897656669732864.000000
2707814582553690431141690540310790391890192463730110663491584.000000
1121219377858887602278103793655861552808556362637946946322432.000000
1380130232432588244389855114727417193300369494255966449827840.000000
1314448499864352372824673773263900647150329042617698424455168.000000
1548070235779251600200124143310481761665188165076547323035648.000000
552554020017147126260532621288541172422649978037545352560640.000000
1070763639593436527834250095341763232735596758888858951614464.000000
2308579620272272295696275465298778267283533952783170723119104.000000
1694942728752581910675035784745309845048916546591619595370496.000000
1493622775761613248233848218925112513906819776009705520889856.000000
684712264604533879504489074846354741771164116934556045541376.000000
449018716135590016485527280631214354102582942802034047320064.000000
2122778874493295443852221616458749565894926773205762909929472.000000
1728256415290300577522262800878712122136477720830440204402688.000000
976159550881302267614925484203561497151539861997056650379264.000000
870707240755217636794474915897549002238677701656988769845248.000000
1236620297926499666085899991833932476571111672267310572240896.000000
-252539024963386039662038993731604054645307089372850321096704.000000
1267281419009383757835407381265581530107283361334919161708544.000000
1179756628900581173688962098703435220511055723469310934384640.000000
158620132265151248854932734416684803083828926830129159602176.000000
1269178011449829374707758685497437628536650998976955864317952.000000
1192433459831802474812378845482920944670267167487445878964224.000000
1538475393540187973104096673833520272171323845679960511479808.000000
1819259810306103965848000387323426884242778148979848740077568.000000
2242269391581088341223428078262500232672223336165510848970752.000000
1488112308727275511145966386042919136514035481153857122205696.000000
-474431010026009765160182838178106578818908735324578297937920.000000
102588271317211524253561510367461272248360945195404228558848.000000
1338862590885182098407923082700146338121765711129179920007168.000000
1378751049506289455667560754578254313007186112371457412562944.000000
2360631450139711354764735374291370177022551894207703675830272.000000
1975660408094809181994981358806006418302038812806998833233920.000000
1113181318899811806678715512792976839672278608189473941356544.000000
1212404264791559885656855805214513046696907475921500725313536.000000
1196330022953651497106098834151502502340715495526970163200000.000000
1461108185885061113403268696285618502470969428728693460566016.000000
1263270280582334597974873718452401170469506714150381394329600.000000
2068718982766965167709851252314767099718524529334670854193152.000000
1057983940939698164986801220437903808122585971936155354005504.000000
1168193079597918688371325273161673712397732694544595374047232.000000
1339223760933321597262649541297530983396681855763092166672384.000000
1782465259315462901589140144376760203759881823307608767856640.000000
1347640289362621058685771925087726041515517473682707254870016.000000
1344192485032650285024508038012826614198042613856038866124800.000000
537087164173490573741494173087402816950172942809437332045824.000000
518086886790670285034052952930417436776631510253706739187712.000000
1154810070455971023915477368885192691980138906548542722015232.000000
612601379348358697919924075192840540779882786001237271642112.000000
775492253181355358852080235944008864244611753081621557805056.000000
1095221087733201850043989140038058912460839724537217703477248.000000
661509833758663717061826138723717672586014365731420704342016.000000
902697401166540652272220994225388293670680619699251389136896.000000
2347546162784356289386573187268366365908024536515612745138176.000000
1731281657637129660781765001783483119184120797856619300913152.000000
1338154951130149942369321109649155205094940148182096787013632.000000
1006783751973272305414044210191852403658623272546612006617088.000000
1269762804207837813750225436837776104848597795446588910338048.000000
2023366865023494310701634556109417844033411820811640639586304.000000
1443255964510323851332327151670459878737721175886418352799744.000000
1094214144221014479546888783897785504947894826068782264352768.000000
1225363501537374850511350370616993265695527171867142676021248.000000
1088835508705694006487162901627432441871399997873971464765440.000000
812654694347752194859712904681493817910176830329198403911680.000000
2180437979604280449802935628242692302972978635787108425400320.000000
1864444817996870005360492981238740672809605456512220475162624.000000
679107453109095683871833249183925212218378806148327184269312.000000
1267580523023855578386919621005140407106547399314946708733952.000000
671054783468371054179965276127291274929563154041004372262912.000000
1283167450538313055063389762150357346190838595087708475883520.000000
939256841590068883333651005367258114470232693585688655822848.000000
1842203623469376267709657591227098433418461151667506596806656.000000
910870625517654297114030201775817548537224650075043260268544.000000
1409425804310948305270814948717635342366698811754864153985024.000000
1197968765251582260075084224953702454812389889441601394049024.000000
853187892551370132518659659799140675660568672990556789407744.000000
1296626557828138431046154490987843122000790344070044820963328.000000
2041870098875980952532006599028067443626152943365510024658944.000000
2299300324576402306965714536621961932266649511321169551163392.000000
1671639038050213765180269704406952490333537245022441961422848.000000
1063003890271886211088686583291910417787280859310895195488256.000000
532764796771476479133151284722168108152250215308744976236544.000000
2606147297210824865732661887785296897353749599851993070829568.000000
1219649689029169206636986376343704652888554804779821024935936.000000
2482227471872124055379027591249859066254406207671364292182016.000000
605968525193708806901687483506018038871847784803371013111808.000000
-1001863220531809005993917411200489283031783938789024909492224.000000
1927033469970604444130866794503790733729497431271338753916928.000000
555506380986542221349719518715111233428683552244297868771328.000000
2279602139385341758437398640290305308788411959313236769112064.000000
587139758077949683357572843369703998347794464311799244128256.000000
395861238241624171295826773986206079462032381873099009687552.000000
1318913955062365987376270166672906902634840131650450249220096.000000
1408434370937853231703578650772284115998568986772399919726592.000000
1939059550482006634430843739754885036540760705907142239977472.000000
2049897980767607650924106004269441893803926113864031250939904.000000
1271304747132010711877257558356012402978548853837172664434688.000000
1224800857476673879383881499396929536004995325657395140493312.000000
1156632734965638407275067781406032159953872028322923777359872.000000
1266554631023913464152578523850274016276042565287316048314368.000000
1310967441470092409653357532297516821720241795206563758080000.000000
1247679249517806494019898496476854315443270865475059486556160.000000
2127980137956880486957396741856556921371831966872497414995968.000000
1355222238051500270669967921806152937318648586320185663684608.000000
2089039427748058840400392609867035146429853524162837735276544.000000
1222215323611589000176328881887800506370665726041352566734848.000000
1523782568207416810149467688779132429447618535768716054888448.000000
1188424955395541300597440956630556506428826416727809442447360.000000
1167679781246059136248931023284422013975066342242404576264192.000000
1022022206123660955206687676980649541117097422915965391208448.000000
1375145678323979600589485617958697968292374087956487437549568.000000
1297530363236133889017833170409722778998206964138276812750848.000000
1861240408623690136426187797660949192335065554455901360881664.000000
1260389324855778569722894470097507818280267911659287736221696.000000
873650219604382221499553041939339818194096732438399989841920.000000
1023487965970531376224905488602145308717475239070765793935360.000000
1454970018620915223003990981000195771494056047105402489274368.000000
1390048880797351779655269541322738277682724976902874219937792.000000
1434031828810744869091852971197023343941816753598923060281344.000000
1095045886874537316625742801386536694853872058757524811153408.000000
1098742300737940253800422806516277633770609294899979541807104.000000
1407364332971771379634924625824767166354538177283171276554240.000000
475518059445307696247955945777762096007901002226294530768896.000000
1804353217815573637050200266860145074258007477253643977097216.000000
538320577385306073407452173984592792632259928576969318334464.000000
1374994476729668934777596872838709194537453205371904732430336.000000
1374275310224692374379149838034323411615371559604448317669376.000000
1245056025842833970700613930892141948593035340398597007998976.000000
1761818707621753453867820206379997551953238198365224135819264.000000
666068927593578445473657584482811681477674489075763129614336.000000
1253568207244265663249743500224359692733156396722242235400192.000000
1341111315996764805242277443480449153932778323628021998682112.000000
1375425895012468728082043130985503141351612801974529177944064.000000
538752404460441214063903391156387075179970488563899540963328.000000
1798210368197751107573700438000152214081270895623412824145920.000000
698797364922180444748390712017417613783970544832326022463488.000000
1875733724423893085634448307156664570408269493876498683133952.000000
1021543052232703994422766021388200215901339486085081248825344.000000
1288823901301208623491966849237591629125267244004321750155264.000000
1083141196119016618917664127851850140738520126158862215544832.000000
877689657815208963340741463353527867295876092286037726855168.000000
1169874019268815774361208803466816991311206832670882834415616.000000
850770675577579817522077812221726514975396989815438884995072.000000
1873708837151576213925342306635410892819651103109678482063360.000000
1243972288285064669141716811249642478311013399191201410711552.000000
1048593812249576782035454536607219821496303418001953967308800.000000
783742617302613962395428264814065336623792835603443707019264.000000
1348555723556613653646957795663592684159321628365987908681728.000000
1221953935620952947699711767592218322553575699458380967968768.000000
1253496511110588561130360568021412385362996758748717152993280.000000
1317251977282715105488431690543354655890674381143643437137920.000000
1243292177312801562210853574598995003236802807160643931602944.000000
1433349615450402061027126216293666217566727807135582294900736.000000
1262381406119978605268441535054642034233521003128230904856576.000000
2320685452357629037428163867638679072408958833265018790739968.000000
1246133833548538349220516510775464607530234144187726186938368.000000
726020940548030711794098883029133880742843476680343973527552.000000
1615932855427532548191396788113711774370081581778131868450816.000000
1302451676869245081324539220248921357230947217728520608284672.000000
1373083217976983475093702315952434823158544238550175868518400.000000
1149222969376735512677174953356460849932589083021282151235584.000000
1336471613979534915821086678662184377164014963732472485904384.000000
963021916502857732274075532809296770028947925966776944295936.000000
1412244333296014325917475147163501007396454329795809441218560.000000
1150701749878311739944729345095807404180287406137045151645696.000000
1797814365776666335976102698025295116758892523546493321216000.000000
1575931620512487414707568879796767068446202915690004797718528.000000
1384932353567180053290061653191496176897522748978403137814528.000000
1861294266365065642626842450142705421022292601347561322708992.000000
1024290574832952350761998103580054861359581599197671276412928.000000
1293198322465328206320885090124796150928183721401001944547328.000000
1197114797086324129483214295829142523377999132414533563318272.000000
1093716306409332168461293907781502765503633748339237662490624.000000
956883637841209293969207938728001005943744233527368034025472.000000
1180580602460537462431269890321387972911665437237354505961472.000000
1348264540531728158030833305389239523825349536242990332248064.000000
1686494356406129867150671791108735490784219267972942807433216.000000
2465128904759273360415723167303421726358646927801353876013056.000000
1270867951084284064838567613059091462841957657228132491460608.000000
1363667313088901542996360918311655560229979392071970221719552.000000
1423545786604672448473656280781173425204481252356639340625920.000000
1302958005641717450045555043520441332967358075693195937710080.000000
747872512607728881397237784287653204105834124844367895068672.000000
1308699924990173380827017924487681808735264851738126161281024.000000
985402996495772605798543839317715305033778102940142158217216.000000
1880952804771252442768986015794339217838422508324352281280512.000000
1137880632861188375478865202218878313269110269550803640385536.000000
1884993773006851268440728818650580862953155215149427350044672.000000
1044148488057635875992566474308884462031709008293172831322112.000000
1110826296065136774607259279883924745422598071304679151632384.000000
1682586625546758710151886418756533670998202665181619565887488.000000
1262211835722053605730277029953715521555414596125838922481664.000000
1172351446227749870096984579017512536775453915239038756847616.000000
1370415207290357449802078984893635551752377095702824741765120.000000
905003376722157531742662492781688236877947232329637113626624.000000
896022054856379968642061758820236157578437999072271371599872.000000
1217664706886626342967206946723203938656943321790002019434496.000000
884314488248093204326696156684750822762333122671863580852224.000000
2022621767324602891986788895407977568013304215053808028352512.000000
1272919920392460110437724756694075298833434739689635497115648.000000
1396909008474643634177490191811202392199478181655955533463552.000000
1317393261755909146177289613614934873686532726715087618834432.000000
1877794324648270539794544307503858994249036281210236978593792.000000
1069418631335540607984514201367454093298356142500775999832064.000000
1729837934528576710788197515008743279571111899895579747024896.000000
868810171180096380244470883876708476096886031744331788845056.000000
1200705917974305986738595338130598791524749077449052155543552.000000
1626006410240828509551813699409307226911562658084950877667328.000000
1290923483678581813706224130906544125108291693070281292644352.000000
1237163430554302454607841874172655842295585841531508645429248.000000
1594534208316158240623788642670505937374671572974448196714496.000000
1344449164146873146430535264443767629929465639188078098644992.000000
2159074099517117129365212078726565517243959087884780208914432.000000
1478501653785432732381504711790703774303637070116305844043776.000000
1281917124636296207635512457702392685703039617356479986663424.000000
1378332701774469553012531031177427303882980979898323679838208.000000
1308760000345755149664927125476769232399895164027154643025920.000000
975646330043956764672251588654163803654645009409196538462208.000000
1321184793032595071322492062704219140963287942882727659831296.000000
1321251388028769539981871419672663041118306867989713464066048.000000
1257193839722695206920541795943430819048214295473343793463296.000000
1279746043629341256868805022336131776764108438771755437260800.000000
1369486942994086527813655109762673917482761284515272952119296.000000
517026753495486514955882306905458209952053991665285466161152.000000
743472566197250747672025112792097132347972178590833676648448.000000
1138155497188678617682001734568130229870818999796401677795328.000000
1409831672437376343019661252182415503234673059658412230443008.000000
1191502603107603823406880597496139421625237214731939885350912.000000
1401627982025818665532795221094406290724944006790374714507264.000000
1194648094426206696522764777096540132207077595354782656102400.000000
921025518751880212403491005168237485239638861456198554615808.000000
1455516661997084791758840299236377744175508976591510972661760.000000
1535028327713629638865505774322621655577883339698157429719040.000000
767878786678414472083978554404857386249224143977979253358592.000000
1402335529454993558652863463891871242278080758109752541577216.000000
840253461163609633351678710419511733336220320606510165000192.000000
1504769774783310965893076644485562017711867411956575087099904.000000
1362484855994796237711305150301439164350777451569066205511680.000000
550351802392982812524595825995337136067509380214106865270784.000000
1276467249205153554627111639576045830596034294930656972505088.000000
1391038410289666511778399652402586737660208971486821596790784.000000
1214401634015055459530025314016638486494243714183666151194624.000000
1839847516438849546019365704959563745158570763312911049818112.000000
1275852375502139898483691306095935789411619628806884003151872.000000
1333182262463807026979682270383084209213714977682640984866816.000000
1644392231596735220486913552527528698590713172693945489031168.000000
1440642811212622310998685637789815799886036503717830218219520.000000
1074119269509377857317930951243478194574910239339268198629376.000000
1060106881683155607758939668026153061682462901875565047840768.000000
1376192335781381393467227808481595645699473480542797030227968.000000
1746067108483363824044102981628924749938407081878374934642688.000000
1292032694745641621252092852219458739204915525508111005646848.000000
1099269725093215885905722489951342694279646037442235646083072.000000
1331553615594317567741765534780085982825086740935956706099200.000000
1351054418555123001338251933002746248270857132659639719034880.000000
1151349279758745135781879161259030066222023160768552071331840.000000
1339869583148676017232720316461032064836839672522716238315520.000000
1072169019969653623625388758740687906028306094487297025114112.000000
1333985901326595514542392227402140728209296539109743088631808.000000
1311876972216722535758287402260816913088608641189148840951808.000000
2135717798377812180639942942629122474169129876817757171875840.000000
901418308216088714308493225280449136285613459012736549650432.000000
1325253361413389863612864068936579268227237381055074921349120.000000
854036341134330371470618909360655890762234634417440500482048.000000
1246467952615927102472722328472541100444114320766515093176320.000000
1142534034847309438976325433797317363826748207021275255668736.000000
1089619222296693265904697311167036544942595255004561793875968.000000
545820744241825276564322398047632470471379753700559979282432.000000
1357014919872346258796202382578558564976349089480434465636352.000000
1282702893042426258890529339808986288397267636580070220365824.000000
1333938164565607925045455031719246288275749854744831556845568.000000
1337849696957799263025502314873391963266918162573004145426432.000000
885668680450004006717690269247799188816921309064150497886208.000000
1300716301781833781238255067785355756405812947764791495098368.000000
1168706391361236597479208504255990811953614580758360090476544.000000
1378392083701647960121916190392598527347543676448590893416448.000000
1602971421704981093897310882428608720910043457565623823892480.000000
1213680971141885481948137770711403131549822502262511077687296.000000
782422494801035614361374604131637142201280002913095005503488.000000
1362523835607052730384175948039311477116035704852222543134720.000000
1477391813813046232262586902066616763748123706503817129361408.000000
775849791394456808084009946403701780935984692420402147753984.000000
1327080330053563381563447741757209561974779157036597805842432.000000
1679826898574850680166037793759560890797760136034284367511552.000000
1110551551428550911446067535813122594626106163972749979025408.000000
1664957924843938345771954581372018228497008696727648537149440.000000
1026852396641348072049228723008902478216370923644503141122048.000000
1559333125138781270867128836253012395089650032646574890287104.000000
1355405559783346866037409160574473975127258331500193907736576.000000
1138872222301105983796865228888863894168848311293023751241728.000000
1363343651517936516093606411959109082024244349141359605579776.000000
1472061112404694087531648228726502072751651232621680165650432.000000
1379422342189769448889632464696970509704402259895414968811520.000000
1289369093053374607748672399362300387450095404397167443443712.000000
1316744253556386534656304187163123313303992804683506677448704.000000
1247230151427903695643691662031057385570974526081193545302016.000000
1557584058412980325959167259415093206376691692593715668320256.000000
1419835430541506298445336353525094578389170298535504263512064.000000
1622780643388151280142226246656025673121561636678947055861760.000000
1240993839097033375575089084946741316850474447362454018064384.000000
1095835591194885084134441664510407318072204091414503380484096.000000
1271050472861447708265612653812337991649517373174490884734976.000000
1198313191136310572025172993185843923695755553293304590237696.000000
1162614296377082719500321350801803265629505908984650169057280.000000
1097218289877126432729871413328587408864016373444046074413056.000000
1426131353796063741997700124955213814068964210761771104862208.000000
1167378833512513524485034463878078830313530909686468892950528.000000
1232356265414207574221426406882727802416863296253921459175424.000000
1295419145813555781816885697321755521488562833207613796122624.000000
1398830009315655243345699904462132516835696575552058023739392.000000
521773935641434160267946147782442600428921873326500273455104.000000
1228873063526478004451918919884696726280237180011056719724544.000000
1350606680438451115072342395255762969116184326502529458241536.000000
1308081764527957452122979779459888207445495603012457736437760.000000
1185214976860724435077353766539377405526375014261714904416256.000000
1329944693264806154988526179752186129751705541147527928086528.000000
1828896640905093185115315698762006516762826452422924836012032.000000
1283758100619565050762906110062236195122648966192704086081536.000000
1621198587261990336057252597710582227277415884550769716756480.000000
1047431545607396100994149611083155695670395463556089816023040.000000
627252845815016138413317126162034393717282923697028179427328.000000
1374210729685643112181095117899597357295323170712670527553536.000000
1340806828802510771319759263915427063541578432413382853263360.000000
1543867527244346727483624797806405700736864643568912977362944.000000
1494363899210854944149975634986961640353943899090717744562176.000000
1026174841824834394182876789212582083452111995697576888238080.000000
1118360829326625388481331044607662978554200525390407268302848.000000
1266202610235794511616069542841568952231885539947657874636800.000000
1388397605110622248302447803311110894112243639455076424089600.000000
1221832505915770021331472096252597838280713022181522840485888.000000
1369109603832214775559528609578132235945937210234648836177920.000000
1313480534174922102943207185696973565903962907428555252039680.000000
1382456667969337204976213345380470751361133667415879690747904.000000
1400551035144801860772658357657850591146916445147465200435200.000000
1254807303160438215690302855856061756902661610980072983887872.000000
1539556700143998696439178924457589493472301210888858389970944.000000
730808064821030386127215369883648742247160068031787764285440.000000
1375991786219199144419506790288282772235151958499466919542784.000000
1225180505814896623442207554099827873941921137359862557048832.000000
1067868750771835749506188081545884644963575905663811569319936.000000
1296396757601494953498259272271122554331801057357105006116864.000000
1457619233218976211012045662131428427270890850120405037875200.000000
1371807520234744936826110192897773458140634485450502152650752.000000
1338161065608500475916364199204539162840951616384626516295680.000000
1218727349770569684998158875981243407245009506282226310971392.000000
1270443938185074162206400907955689871923261529472808236613632.000000
1621870149637425413303058096717095059585192087453803139301376.000000
1230686983572271908785946211419884282888422664270107159560192.000000
1399962985888464246202206977636980187634944192660549178228736.000000
1141515312614010572227481996968811060650192680156778377248768.000000
1686452542445306944196463958205143720311744880964125646127104.000000
1623728088195655011019622499425421418223121221035699952680960.000000
1262412495348265878755334080929728550872256196295864140955648.000000
1057814829921802751198274951649613012118686257841264186621952.000000
1072410947330609945820599456956548563922907904520771571023872.000000
1632712237967579541428829727990771052023544917410135622549504.000000
1024963735738784433259954269475048852565546071416108755189760.000000
1575785706073211789768877008725960612463712147818852904861696.000000
1254828519667630939278615036638825070574774538699423709396992.000000
1823117534518381733192314256210978541445820282208298530242560.000000
1201235056466538093249232438582280093679610645712937798336512.000000
1241678664655406575196348007346327424791717723893655723311104.000000
844735515717558963997677202790444123344485547613262968782848.000000
1393669956538388960142897143180737696801557169017196273205248.000000
1313058877298734277015110099963043034933327317364314935918592.000000
1304191633829894102828432504912177564189317421292849234706432.000000
1382017156646859412536704221142276422713451094342994080301056.000000
1363829248173011612155973998106134022873514422647794153029632.000000
1303513170387204477863699277069030959243971800651496249360384.000000
1364784224385247763885559862597982780254818014028207212199936.000000
1445729631691963972413355824318116947491187468603899500298240.000000
1282739802728654967340630429052936616865830696455676358557696.000000
1579073476597775660273727422704682289470998352477288247853056.000000
1374779975233806968106372891903818413799118535129350904217600.000000
1297102103317451858786463653742379021491045245681305152126976.000000
1279688160981269147993792433631749918021498493199861673885696.000000
1433007809142620027037625614855315792882936349921120236863488.000000
1298190120904726252112415396340829286191078725016213937717248.000000
1172599740897365557089337877845798045496331482862280199110656.000000
1284646613794431340884710445456197444841692471495124850835456.000000
1547870175050641526693238454796990958588463566407179773673472.000000
1196018271808967099659755458874817841803464864082404784996352.000000
1487259620757010575216452198489946609019426947342028955975680.000000
1350199531986695764234771152820974317007254133771973869699072.000000
1300655327090563838920398349838445370659210628369396868841472.000000
1157994976622714662127123483947750474075158328804699956838400.000000
1389866441875075732171038649954729659125988204272448511672320.000000
1433334871522077730172519797885910754104049294487097188548608.000000
962644156784101059752210493670206220060215583298682519289856.000000
1430282368562154771939995959199951587703538619006028783550464.000000
1150644006167299227297798584359189052933577915366535411531776.000000
1137726100396580211020416647811991201785111073788923306049536.000000
1617044555039978495315576510401625993089428816750289405083648.000000
1393620401915535321010845721173918860393852047861037177765888.000000
1104769462340159797104213279358817919843879580095013099405312.000000
1089434446326088561373706623721525145882172326378337088831488.000000
1505742215598310770690425711590754574424851542050067160498176.000000
1307948303837769576708645695831963716835530473534453253668864.000000
1688088007242472934035860279459618491047221515082311051247616.000000
1271682287635257219681593807536061746388189435627544405606400.000000
1234269998096021094681948597610632742462244408281999727394816.000000
1360184732775579156835970480532388519928201458815123528351744.000000
1107314233845344944280336630882508814541759667136464519430144.000000
1284288466349053553333068934048733175416843063768241368203264.000000
1184941907804168827157348438411412232299453675566528865501184.000000
1387485725585411189508633538017545498244943244161481357393920.000000
1235063475281557184061940498264273655106271150994468464754688.000000
1308690644391173712257470052664408530395766003616961878032384.000000
910488222861532824986786673152814615371862790777873469800448.000000
1334550837179686194295638061972670435247135660199541414559744.000000
1131114483373109375385241973346232461997513901945983455985664.000000
1361434999999839199885831349484574539702903042258487774019584.000000
1240790964654058818145139799676998752484066468635106860859392.000000
1226628379539995636965101067508304157484380074092680070561792.000000
1172617837197874041777632147185181693373416940493004137824256.000000
1227992001790853482916918175385951578014530602873176270569472.000000
1349859876850026447073953317696975633927109102488940099665920.000000
1220616463798339456045919686072330895902211572040542449565696.000000
1042210142176430269983688611473016742925305738485072524214272.000000
1153291122895664649453787715346751292921923509260202845143040.000000
1333788824113022877702092710869601045438716468182581185085440.000000
1236108844434431276025356378350162473319947193455199375065088.000000
1251350106253138391927016197051045325439855030681237385641984.000000
1473038186425724078240617826125201452604559585525420622086144.000000
1381341358994807794084260488554269142065680460855352083087360.000000
1294884660112260786377530998848615826798013874972084938997760.000000
1359323164030165440487448682552536154439238945453500260155392.000000
1186575533045148625044458568118950782329268167279636398473216.000000
1571692267743484817805442985448301794377107377440729767870464.000000
1465750009708682500304230370593993581009500871351040842137600.000000
1353902150050512878677680892590465619922382995665345363050496.000000
1238516070944552778403548082349945608984907800963907789520896.000000
1611823648231971632087431665966695117320899076052639318802432.000000
1549320059781529273308606187211213090934898326063936505380864.000000
1120877985674340035407596608119460202346669201320299896766464.000000
1020572489763141304071106472667613949791067855978556230205440.000000
1297259663075970991724542978640598879795930448556737039433728.000000
1450756004371915292440441185731214564670366203379047957790720.000000
1286693312246503359571897014407428529560060555793955762995200.000000
1223967835993461920049423433087036506820145830095796062650368.000000
1149960186583646002280206989272218542890306812837041321017344.000000
1370899835304937636017009768832361839899327054941060931256320.000000
1098933781594081264848566158190609673183618590308947093094400.000000
1384675370698818201166158144213243386764982213120345751158784.000000
1248316638703338324526291664960647028650292266051241735356416.000000
1301862575226563447920602373944057786908030394527839388958720.000000
1313498585754151826939328723882654123925667769862519410130944.000000
1033735332190202570069761962464658334730330686966485668069376.000000
1283766693978054744169482184224707335535560328279585451933696.000000
1276729039770524834414199619819167123705073363424785509384192.000000
1379503779562422593930938298306371293913369842514918501253120.000000
1207812288802521801754775289266926458763449905740944789995520.000000
1418622999722786238981426393141549289960409334933881402425344.000000
1149811384692440606221519272209915678793563698899207745175552.000000
1189607102274528401601903187483342406239634122529475219423232.000000
1460668955268898580881005072917868467727399126013225111388160.000000
1273534526533919397324775436451418675852412015127272563408896.000000
1366670021979261048088487233007518053009320589419701212282880.000000
1528110599657331702442943336411164747897408845548416250413056.000000
1399415977516006041364920172910028199376336648203114175791104.000000
1348076118130762015826011933963045166539271158467225630801920.000000
1386806199391590978276240887344618618040355775157730667397120.000000
1235948115281766949385932101885497697756372426969915802517504.000000
1597628731126858400047300083343228266459774350951519090638848.000000
997578370560616353931601602030202828038797637553627793981440.000000
1261722477277613001516894398087491711990882723721658106904576.000000
1351155085213168950463758027976669002028215229870989872463872.000000
1397784554720552890831713918840715669234210353254512363307008.000000
1098858026311702218873196675261196295676130169658895004336128.000000
1180006997407952509846213532321244058297109011232871050903552.000000
1787131532811710603685258184893430897708312954871904917782528.000000
1202194248900502816358461063076781783333613690885816627232768.000000
1079330640023729436521567350847503273406307610771033725861888.000000
1219960970559991173230482730993752004000962449356103088078848.000000
1175690222832289670950462647531815912997695428951559240679424.000000
1782472474077710122979129084265542029741729025477300432404480.000000
1268116261865701966708238286875208802364035492095723049058304.000000
1419496842564879307119966551032953020223433447349271033544704.000000
1208146511991114363148496031215568228212411223816578392915968.000000
1350752134432371823501621396819333556536707147701831040237568.000000
1224341953011185619207149953661558613007996670907676713025536.000000
1367077593076628363799724591729820049830564450304103397982208.000000
1509143125557819636881887540171595478931397724499041690058752.000000
1079015134102462317876673923146403781044112801353591951458304.000000
1354641118095868896825718500397110814029410730104225798291456.000000
1366123991684487500089353741137250608636714557841222389465088.000000
1510087418191828067246174679112223672058773176302276012146688.000000
910002901216621024637561525753149902066907375597200684875776.000000
1499323590023919845759268291580804882891255129751211565121536.000000
1207620181364832602785677488631039160337385839878756540350464.000000
1204629644917789424758772309804145236426929732577342863179776.000000
1136651278353658611520073552529210454842914452079831064510464.000000
1376952124325699285269693423744494329576905878555578140196864.000000
1291508691743543993262611656621904426696409465688760680185856.000000
1677153764486996773537194933325429761003671779187473644519424.000000
1305321830874044750457025302366388765429922757189900162826240.000000
1588796024328699813005921570998056366021706325879546976403456.000000
1336570221123860395304526720662763283283034629311444639809536.000000
1607562576013437157904934343299783604822400125884879043821568.000000
1104734149199000506081880778683443653050314601540171478335488.000000
1330212830923905989919171508777708780226910203817810559238144.000000
1257885033022564005332993712979419327484042465185238576267264.000000
1259142158825973266815459709159855660716936238083075242721280.000000
976843785370436053575754575047891587838340735958913566900224.000000
845306160525863624228025280233031682291721108543745975910400.000000
1348447647691057081457699785153144099150491375355108427563008.000000
1349409372179171460400410924988028886794464905322277279629312.000000
1388388428478828324297019255268050291347433400670871003070464.000000
1353332749988014630524662485747805375298429205528565606514688.000000
999136923487813814560023525485090910182316820880778355277824.000000
1023195984653687936450822884267167036073512108163245207977984.000000
1481398785613005485737272257017476523943647649006827331387392.000000
1506231134698422044865049505520798989875250547097471503302656.000000
1227383181411315662523218056529585514431703659788185286737920.000000
1226073244168104633055075937569361525485427834283930144473088.000000
1173881517484555841116774189555752425138844813480298889084928.000000
1239403181291819134513258918104814889897643660296236384124928.000000
1242149046165151070324680718719228873000061206650060957286400.000000
1384665983714181000459752932298206092768531289364801024688128.000000
1564191358040409722961848148318290802774004327369956120330240.000000
1334419343409221111862897441555425912292166056903034108116992.000000
1350199902933545941835572873908244857284771586638561190871040.000000
1171640615509693177751792503123277416113351210604953230901248.000000
1176721725044262730297836315127173722686721062884567783833600.000000
1142475778679863281408620502115596309175727324633377542242304.000000
1277020437591440164421538245576233165624943554393080743329792.000000
1423553121603763418337932134971772099737610561048037046616064.000000
1083665400779106062488013447559179628867595070805267720437760.000000
1022208484634699302822880090289602955389148890678981380014080.000000
1120787866738853228343387615466896662525085463835332562649088.000000
625769795885033374180650875071628979604942877043210550509568.000000
1505324548129808261523141784639985349842601247780970738745344.000000
1096019121665576898273249306515526062561386019820399249850368.000000
1119048951246402563269970193831812799285367888074721693007872.000000
1102730857398128635130457773675630279622079183478281090367488.000000
1500428985488358140243139771438657317236466725419189434056704.000000
809976810804856455475442983460385682513587194106078690279424.000000
1309307665070804480160847248568120293862043143024108516671488.000000
1373887270262181070294843267087717346510828512944447853428736.000000
1342730094051776605536162197952655800066666179575805626023936.000000
1235876628571197929668471683265330287399509888841769889562624.000000
1367527607746532460371294830964108291585572313661218389753856.000000
1229678015790102292391976301544274630052054766633266763005952.000000
1288790137315728701577820156482934827716992867481322451369984.000000
1089013810244999472118688496742892133258518613563834080690176.000000
1185254714958483166644394096920410381705533329440760114708480.000000
1608509561627565685849008263531435478619880904148914442076160.000000
1294914839282459817788396116237321420686513926583061906980864.000000
1249486980232032530739786199925861497167117470193860453859328.000000
1138475138373218533859838316504804764442411065489200798236672.000000
1227541286618012831021550782094020959843666552216154462486528.000000
1156448761803088796162233463665774337735532649023508949499904.000000
1165148128631701688403182145446808966037121366004251393785856.000000
761578460340909886441909277464691273047827124539248837918720.000000
1030307015227457241515713875373124728053407378742836132315136.000000
263693841350954955326173944569268013664601892486603262132224.000000
1104129013869859488972426537677249439337784234695718946734080.000000
918162488634986578997307390826871388765597520657928062763008.000000
1920239039146907663941394676066532507161573690899386427506688.000000
900215178696399393509043150968681278668549342562232658034688.000000
1487183795642523672654336846128445482334819911721237717450752.000000
974967983553581312808540094708772238622803808259633592664064.000000
1459206314156067703477062061009690097785035008200702706057216.000000
557647941787611424900485435610489307750001894506380799246336.000000
1343318418969930980979289532194419168197188304505686055714816.000000
1272528320801904716973723310892358024905334110017842411732992.000000
1113893106256058098343689131364674231832300330223870068916224.000000
1030068807172554687967110175773598865408832449925694214897664.000000
1424198029229664464779055220176642779737254751487263550472192.000000
1100367599601383934263773801069303620895818817469681242210304.000000
1071355002240432667920755613915077507532851781301158098763776.000000
953511503813434342163982880281807431064786849257828122624000.000000
1084463493914112000613100148936297862946960401705801586049024.000000
937116744238315053218333266529196195781269781861255719419904.000000
1176455149169782280139238033536711564259724569424888567169024.000000
960276502623009225778407058247256441108582333579859641499648.000000
2147919899555665215977527374845241555503755518688688527638528.000000
1103667200760162470694388922199057400607244327590017470824448.000000
1492941029662101140848249314986634665709409841004124896755712.000000
1464391973203089508688672739214547427733343559310078258446336.000000
1077557011737336306460228534088873135347118776181915694137344.000000
1256491015153914433189389404015690624784006934587206275170304.000000
1179921288128260178603624405878657402664221986892497175969792.000000
1219909006632739183300836797361645836555810840843177265463296.000000
1743765599377862206543117358857196534340236208845955750952960.000000
1205791527858531269878237155372703928563185456711943262830592.000000
862020160987317607043989212296916320139328967514124181307392.000000
1571736688667472087176761392548121108524776767003979935645696.000000
1434943238414592803233359571244958585980634253703680003932160.000000
1338356699146382491954348464816653367971025436896853684649984.000000
1093740816130937264593062076637845636774116942307552818888704.000000
1261150426500987060576509040502287343881069691424848142663680.000000
1255660575273291678899124325061581971017225421300586155868160.000000
1178094342307017148389607493015038167634938299264220625108992.000000
SCALARS UY float 1
LOOKUP_TABLE default
-1802854320909774533244735794458587215970697216.000000
-12223866879257619075320561583358555126822338560.000000
-10635797459485710223509665728919372891013775360.000000
-43024979960658782426404259742489642184401223680.000000
-307574517162569423357673648077440176850414183552571754414080.000000
-14576828447980804458213982778215686154993270784.000000
-8050964890908839897641773716863552952763154432.000000
-14404959124662875741035873317398487444729364480.000000
7215562173706318450308536912351693485226590208.000000
789881304969453748918801928267278843534901248.000000
15936058724482695577561612289867631339998543872.000000
-8991398489119684270249607715812671692883361792.000000
91724525707057881101293299720204533958231195648.000000
-115459911263766243503874802634351388547755278336.000000
87234937779473222730411282481680516877949861888.000000
-18694120254635109255337139030157598066321915904.000000
-19169417562108283735910517476995242728255127552.000000
5129047692352704954329392877914077351886454784.000000
-79942012310904877090783100334114261856698248204498912673792.000000
-321251465655226155229635881175109627236407793381527827513344.000000
-1026495058470136974181431467649096103647022173930081977630720.000000
-914819182378636263712432211801054956572914836238003116965888.000000
-842798592309075620215283080594491141491107628106857450569728.000000
-936300128835184561114486963504112274917876969097801729310720.000000
-788709922572095999344255490185232056303691740605017680248832.000000
-690065981614000783710294592043933412289398717812936577908736.000000
-165161332329619764218076118068268043456780900374573651853312.000000
-444391197372530555293012603329033644399092630854196789248.000000
55212173739649504958391923800330217023608193257950089838592.000000
3502724201527585451707274691157611812940644159362261057536.000000
53473097003930072642941949093987482698492263717874417270784.000000
153846990707197381797785159005501525491323117732352258736128.000000
129423528879660502818260386304060557783023804123269289738240.000000
237776805745351483825072040624620883944217304764153325420544.000000
253054265463671925645766056076966433174408602232566776332288.000000
379222665130736919643368475415176494228932894659968805896192.000000
820498707934766752867806171112429341261019375277940196507648.000000
2002836930995251111997401451673085109132596471358782282137600.000000
2185119526764804457601981705349013724454565160255745580597248.000000
230147561381566973751995886443021559141373179577423714320384.000000
320175937859579813029890845610742987748181913427881148547072.000000
924591167444220152366353273799507291569142204066025655238656.000000
941500738056276238087727449904526146149452962229128659992576.000000
1044383576101703081499841548038685114752324182691940979965952.000000
954277124081708120466661067819251022342142304459741940678656.000000
870087412478218669646110516219010242509763090491664318332928.000000
727884634191637417759620084501840978740615214883947358978048.000000
855894001083229809025862072403305674395691676267406912651264.000000
853114672619154487903434790552122570548257605592722448580608.000000
690718438003916102297643186610843299495099251479961443237888.000000
533451689060526605187261226459779273981523802824184036327424.000000
407117726548954143819885622557181870808285515930496399310848.000000
328332120566749670188271568528716453419335150241605918654464.000000
304126486054000199496124732204205994271172471506186763501568.000000
260606705131068659243347453638875438339549759415399609270272.000000
-27313496647387815847781006078618051744180370503896347443200.000000
-345390543700839090315551096712815391677072305020097750106112.000000
-843035409871962121468794702606518228403135610174342644629504.000000
-40096686964013573912761685251411110367018052292574065983488.000000
-359928877607477894684021767423135270502372800122146229583872.000000
-656081145246498157235364298453616934646558463138669248118784.000000
-504012681786381967370609791047680194232275772248440336023552.000000
-625464281254841955065032065115032171044159362746256904421376.000000
-482115115424805857319243276811013198024806373644146191630336.000000
37788043146953204420316232761963106157598969705844034240512.000000
5567719176118874707649138072082220656512121550564076027904.000000
2232914296380860172082182886559947453255122944.000000
-211084755725630410144592873014884687995165736960.000000
358439754022579692717987800006416364703290753024.000000
-151686664537654663484242154951334810106837598208.000000
31199725970939173661814990403869664255397593088.000000
12291942098698732807338400457557360231365738496.000000
-60080567792815222909225239872476368065039171584.000000
80617399764396815849901445744654747211720032256.000000
-15942872249030856739938386138719321717399879680.000000
157579128371765159718936309274175185917929586688.000000
-290814988393347370122740979036408075424049922048.000000
142284319266229371218734502363518597308614705152.000000
-29863313391993762438587581973314736341295038464.000000
108390052318259528855597985210398494259051755919009583726592.000000
-199190493746084762364761481486679472716607649954170054639616.000000
-603392475040942151235942238830716187809918787677366515662848.000000
-849176679614955439093903000019785625501252257978062404059136.000000
-1285544305392081885690173321398495795805061884442458934214656.000000
-622968468391545640643202851983517331951196323990120851046400.000000
-533158645162560436903920728242174385329518705032740944740352.000000
-462024126499446392409914974654621519573031231720700086583296.000000
-482853850281380670711530066356009841998482788339520083329024.000000
-446016229801260554048184183574923472101503253408114725093376.000000
-388958947728593595239409458505872621079637399753800758067200.000000
-334757005782788324964892483033208167966371025099297428340736.000000
-269041811853616425014289577621258730431243872367369466675200.000000
-211886218742866162207423615106036505326705776522385382440960.000000
-137789775032220333519750824617736519023219062784897723662336.000000
222235597100288066679061412661127310014629128602780830793728.000000
41947904054375187999683849522302876995510675315691563778048.000000
38838704291133186470959573720313829836192906836471841816576.000000
70918279876887868286737812899108857159696300886936266997760.000000
191123635238553914783651408060903524676654174236616679227392.000000
190141438309205422027194107602693932522600537643392190906368.000000
-22040372870553046144008422908439046206626050813361913856.000000
-59933091141279670227401756547531828266169365596706411905024.000000
-6635921153497710309550483317790776845975721186798210121728.000000
-14226636988539311485349256620944373634446497944089867059200.000000
-134052538128455015001874478052615451126854588411305709797376.000000
-248167224918880387356635879134040225340561541290125189709824.000000
-295239471639290519554195502530381469966673584276412292923392.000000
-325804180349757195226673232752833531308198006637394495799296.000000
-373118359001272497663522790216438793952955108179901117628416.000000
-440731511783896547023238237624958258297279548549232355966976.000000
-407040721984077511939991535891945007763616776841249469497344.000000
-356820436078254128170751788281614860073353356438185506242560.000000
-379929471381990447930799215987641361765651046093483250024448.000000
-436207659967185213852460686576305901815285456567302226968576.000000
-734671525776108070369181021395308984375603861755702506684416.000000
-1121403089541964725317902130574418890789353622403480631115776.000000
261857264108784449486189669012359593315247107739393244266496.000000
1029273111802491437429965162608698694196628897141066232233984.000000
2156166555084389427514408657757606273427765733332110626783232.000000
1418113369743925994199903751679081803246364555642800554639360.000000
894235766187764270404319310074558765354274828818989038174208.000000
-375236689596033325904152093998032630427228132164827585970176.000000
-607267778403332039156983759395600272297638399425034993008640.000000
-534150885835207979526974109394964734531012363493946974797824.000000
-334449448971616341979365943631014442448384243180193198374912.000000
-212119786964382733465455139282165707990651754876325435801600.000000
9670308493945425251278077612007356739572570219250408488960.000000
-168999634863738289851133896022678434252130892616400084402176.000000
-151388055217957331666113396226230566229666719990104604016640.000000
-206688300159219675522371538211787735655381395898497754988544.000000
-480707333163408560669273819715716870961892908545713492721664.000000
-794468808627976536939382244061209646664503571678640111353856.000000
-321397635976480131773204191803992272663291240606517545664512.000000
-187288124361103293321120221555349699939218482705267976830976.000000
-364417261688713297529330546203408355485678505133814428205056.000000
-307072906633758388539264615266380202522027395741995293999104.000000
-185031344707716522433125699801131750527837380146661020401664.000000
-230947933861624040206740749778499143157602893947282539937792.000000
-212353576334755759665748134582926494929361618004384828882944.000000
-69811641467770507990838135736510512300874506167940749983744.000000
-183642018808467928644010124826925192415489975963336545665024.000000
-151978786061276643823561615904623392650104845835318423715840.000000
-218420454390988012797029087417571748634800465251848807251968.000000
-858848314905447156748351171723195778600493253193906016747520.000000
-732049515163612529096027763928291561636140890271867079753728.000000
-125653748999355361313979057103434981474559843910712008114176.000000
-43129192157699436538117393086342058370630411833446322143232.000000
-19165465169789656863320563795682304086831695162888811446272.000000
14689019610299084823796272626396062745764955940213495955456.000000
12207656670118190600057404449387286773933951540481973288960.000000
86430551719390126907457867068440309336507212912550653984768.000000
92423411732944465349194243237430011728210594891250431688704.000000
-109801638819070504630314242956074501484162368057896861696000.000000
-76129040068140845809013349249335530882935080192508864495616.000000
-72186065385556387564808427402569286326312794557896533737472.000000
-79022834450030696674516755738918614494445357302245700403200.000000
-120920414587508548513475320910461601296132208373568288849920.000000
-150626559923122387367759043981668184006317932601262248820736.000000
-199522425292781473414074949619485792223599897672757974925312.000000
-222139484804089613067205413090182527752855698116723634864128.000000
167806431458253685027636229328172432202608802548866795700224.000000
-93768837468858755199807336498630847263794871887054076116992.000000
488164654939766394872728498080050129925096080278506673537024.000000
-162462901755001737173224140027505884418297987739789434028032.000000
250423976304934790485546139537807828752437370317796733353984.000000
326756149444006820898992474462774061283726869317589422571520.000000
258229524854829315013527278910864870096101474969025085702144.000000
621558047987905815932941378557266963436485981679396572889088.000000
137253438312287889186747757300444746045023227238496008667136.000000
-813200838379396621963958114578051090481204768819942210404352.000000
-172986505838821182682823134981869012552719309589001573236736.000000
684592989077758587704297702598891843318485456973727877038080.000000
1035767231689429634345092297829728371542466427921183698583552.000000
267144711650472816224345110356421329102209324985208176377856.000000
106414202778230865240491153054282507009813095039275381030912.000000
-718660927924598554618983980477618494597552905005172843872256.000000
-140461818959803905764402029672935914700786127284229812256768.000000
-46142764889113310679327129087808691668840276723945147727872.000000
-302573472939481931652625520589797464397017575604852499677184.000000
37302287457376948480220301776017942499938905742519885103104.000000
454028335374578592264304818462007586246694372749301986099200.000000
-188282272922558543960861924800863388123435833271752585117696.000000
32830188719942724590837014636865664890246943064852772421632.000000
-799519726891303235714833874491578130349613661855849121841152.000000
-462618925729094516149268481625597351386566692409378231812096.000000
-314069359902824811737946642736640797491451045267717828378624.000000
-25013518719900311836533992513833711135034243474927399206912.000000
-192842282920554869038592054734294315146489478859189234171904.000000
28708656291762974114095261365083527646608257223004776300544.000000
77439201523610707487672200017139601797849800068829668179968.000000
111618248389240201683807526167896640871996426241376528629760.000000
-47353150086014380830755734878384078566604634780637027368960.000000
-27201708047948064754849447729255849861785486868463264727040.000000
2736451868950646423782625019292290194377038564983905976320.000000
618695695216135144844328073710337182217274241855001899040768.000000
-179979671792154224956503105420006575277128753607526076907520.000000
142268152733450995628430700378969016280316671368754169380864.000000
266567728557128917760150745803044497251846790958142227218432.000000
892123529716691424401137047905568588041762277879145478225920.000000
-141766228017092222088942884740412062012792005984437059715072.000000
-247623037789352506328035564154610593759521898686945790263296.000000
-78838534369271247246049595993975157202430840637626205077504.000000
-305920845303394355675280358676832316762758014362112833355776.000000
-493328748738439636819805635139290377150342276217448282718208.000000
31445349504696688847017440743894852120080477973018597916672.000000
438965062946622486282713504019810596642326929125176571330560.000000
-154474664085135072323849616500626866168375316834225934565376.000000
-696065777759277878504820542896348371280067160855355668299776.000000
38256287365955611861267134036045373459934450007533881917440.000000
-1116488352752403554720876737549865414380709228890555760508928.000000
-152193993826527887682807756758502106768198646979079700480000.000000
-333335119458897266272425953037167672564775000468437315092480.000000
-291636421538240023205556580532980820800851760659109326618624.000000
220428878533945882729234995236604295757460220705634800107520.000000
-179413277284495919876797300918170668920552070584778170040320.000000
-110545255828961387341620905336977472005706377642725158682624.000000
-710867218332278991440905320376539108010938064386746298138624.000000
-35792612095184835220823310671663356270134788914483998752768.000000
796930217006888181518202530331692455901142960209824957071360.000000
740785228441079584965706942500023498084056622324789475803136.000000
649879955412408056725663857552335904258980610641823117869056.000000
790568814783956512792003431943458470002078938912092625829888.000000
-95512351120281934989026877291685678741130829009835832377344.000000
-106657068117607399154849897922245562045888999786272119586816.000000
-143730498291809775217484453421446582760528744703642342260736.000000
-398300374836645294001933129715420677262992156915579498790912.000000
-1048619567369560367700303764965468883471390528188329364553728.000000
617150491971443055031206525619203785554992734534662159859712.000000
37008437670670454989058925541752213007855495342800832036864.000000
-200753335983891849129683258524112170092571805057999578333184.000000
-13483558047103536262250370887825891477991429787878734954496.000000
-44099407790768221625933050063241473981712510749855962890240.000000
60815272763497333522755596629868118272375686873191020494848.000000
209593943737022016468853798570070857258497382080942423670784.000000
144865251647658120376829798936974198412965290286860256411648.000000
538318864303777859042781499612363151104795013783335167066112.000000
67974241704475644213145014477230209586572898101267829620736.000000
-247869631956552725998656103859935703136289159834933938618368.000000
-238742442833401089072826317520634438549139381817377074184192.000000
-355850889370237148799982863872118211981336293274418201755648.000000
-39707410507485273297917859344502981705567878896824153538560.000000
-264462121017991916160880744150319731498188175586941785341952.000000
-104650524271595084496908301221716061381505874145188901814272.000000
153794291840525475912868245704014569350957962331469025116160.000000
-22337627665688611794729090696524742597863290522381234208768.000000
-64404707162937016653744260684824883765301031344610530557952.000000
-180061837517284721616943880581004207708552334996279201366016.000000
142013467601560689123783331487678109894145540366830705573888.000000
273011066568533125879060206476566745078861794408621699760128.000000
-156391934424451250375561499280549750958597624810145440595968.000000
-186162144932303868468530790119892985945026810153073677172736.000000
-419837192166566585186532292716603009437697021178192091676672.000000
-534690261599510306303885548493027868045033461884595566804992.000000
-738907678687476815164539745817933352485579847105223728300032.000000
-103644438725317401044199269727276004205972189604040436350976.000000
-319587825425710160232029337526755471194771091897041081597952.000000
316431224428889751878154291875606213357670406709718571548672.000000
-289355003313360108247880232565885603439285900880275365167104.000000
1364750970946207516780263095400645783451189295732723023872.000000
570752677265901264948944672130572697398741695978860877709312.000000
-257602925218246936841875020190154459621185924352451578691584.000000
-804975425210762230748763930460543308218190601994871418912768.000000
-62642047101602831696096873648738831957949721236011608965120.000000
-739813233249696570384037480795169438241003182131159477780480.000000
-222201916444637922508144138746726992053201111752635997749248.000000
-120697453365338275807827741536674872875888314208692943716352.000000
329672848195390813320758628781816802715131352778621132472320.000000
612750038036181938922530276402431107503410925003602290278400.000000
-199249233436363559456097388393121308621008697576227816341504.000000
14225004734184165255651142215095278864699904269732720672768.000000
374643557222623784023858508821965962112537117681621519040512.000000
47985669172459125019840684081223837641661078067364057055232.000000
337374899223865352735386718426772363392273595101134484144128.000000
-877423196911225770970916322158348770472547225985226471636992.000000
-704069391980414132795246293752880773588546894734214240927744.000000
1069230737719525612519564672096160009491105944696588232294400.000000
-213659308888459474620006585745206349694139025187771986739200.000000
-2504722214269119282006510838574880397537562951914092494848.000000
-146300636543095789416204249063879781474319888780945860329472.000000
-72999760430186121301516652659184845689299895282021823414272.000000
864021280437733633648259694621025019228734552523889939841024.000000
580534064612031770243396673025221664570231752130799427649536.000000
-54339740066247079267422070312653566532607540284602328285184.000000
-94407615848527809416901298683310792793187629086670168522752.000000
-923828103214203167410977477502806489024940342638686930731008.000000
31786688847826298683565160140709821210964737350356852277248.000000
649149631956255122218382824123882735321824279915782257770496.000000
-361297205394876265996326091229707104514729383825112374968320.000000
-820894454451863630792799261264656704275560948799586550415360.000000
315997028563941845055257477769229576911138799402138747273216.000000
35314542689897523096447553192024040815830432258181547687936.000000
39566627059920362791509553384108390639850480718133201993728.000000
548578578240137097620150285180917972699477000931668194754560.000000
-351069267627410866339125226086167632368546375465829065031680.000000
227731192284389937905630798066039831668959337599107782934528.000000
-89520602578917650610504555610021996188930296750674244796416.000000
874248353087238494746761294427549109677372799019614730190848.000000
59051062991330277326432186902570356400648731711117635616768.000000
266747473101239822390149237580599356481269948950209542225920.000000
27140270550307474461608749569334654128669042246131575160832.000000
13254266306547220476589526994578755563192725485103972614144.000000
-113815528751735530215514270851821940176724057357276434923520.000000
-97861612419398041653072025693921943751196739584777514909696.000000
-80989497651668069156750964830367354398272452793806064975872.000000
146632516293308981537163322573972628290080436983237357600768.000000
-482236185712365987909537583111320769933249590993836912410624.000000
-306672451230666402955719381465534302423046544777864980463616.000000
-253830631929110510411625636695051665024210627886348337414144.000000
-67195050425347697762313576012774689856376925139816685764608.000000
312546079927233883551407372819349701969482725848280182292480.000000
109350343635784046949273849598612347724802174769523423444992.000000
97490661281323427494446372731370693356484603194918163185664.000000
-126556296313243566985438890425625541556799403575885353189376.000000
66969135929644319548786598795874593554706575316185780322304.000000
-108729165746033368490435118437882563277917549639557187633152.000000
-311993532165776524561125944087690258972872610585552636346368.000000
-184257406346396455640844890726946693020941548486980353916928.000000
-93826998615060789084894852411343849237607573212711048183808.000000
-320502170692827852975408991959429869228868128047690145595392.000000
-17987708430161920222325118480452872600635990531900633513984.000000
-219651512024973932848098519455791475603335417172287629033472.000000
-335827641975194567827910186033887156196408880923779413311488.000000
-358190630829593875485478563915908987043975880358850153414656.000000
-918458905524364699898623012048464018715316757689039568502784.000000
43480472772624211137804564475460845372018176768057811140608.000000
-284018040591941057365940832038820377612540283773454120910848.000000
113433833159322762641333880473944044721221082987500130009088.000000
-147780134897231569142694506066639239837373822362006650355712.000000
-424589548823243012850691549508555127531897250863125014511616.000000
-1187886237974148683281956861798365803233827734769803701780480.000000
278448176839842132157528577016933446418832519630726237257728.000000
385109520442981118606912791241742001331182914800880543858688.000000
170340103854606541840256241032630449171740253575041442119680.000000
-38717531001161858378946963427113158455397948611027925991424.000000
-247969768277132268155105847555022909569949745627459389227008.000000
146305946759832381729313107162776681831979136973233696276480.000000
245435733425892038563302413022260265733304927338689667792896.000000
676656133590038700466817724147643370587991074208845999898624.000000
8275151542293220107288530416930529734052683721432406949888.000000
-368792822200449632916427829312154935419730046414503440023552.000000
-318004477133101160451278377981672205221894855322602521493504.000000
56268997121690134580149543198535773881314384729211962130432.000000
680615263863931769474726513287263468059897906413075345440768.000000
35934673618605841405606673113695957344224434748192228114432.000000
651510446009280564836937423004654645938269021461543835926528.000000
64581499208817516830681928633001881811438460237679335309312.000000
79987189382309450892552038943161254146867880447979328372736.000000
200793106529375762967689774847246597178860976434906358874112.000000
-375206658867108839616701882506086017986810401549277686923264.000000
351776009738327654654133009617212974447591389232579041296384.000000
140913113037027882318843525522561213896527669823133727064064.000000
-125614232952045742081242635609653676435749035587466757668864.000000
-372744884991827460716571621802301933911221208511721009840128.000000
-1667887920785509781977025845166701089674072822351310947876864.000000
-385715355192092311189601506613620326560793183514861575864320.000000
12234530055110383524527084151168933399103978424516313350144.000000
-977500608289152713714352200409017737261374187243073485930496.000000
-364270208901201073977582536903794985327257819707452621324288.000000
14735098880450095978361589636707064985270909205998745944064.000000
799999144556260550588704649695488601590738891462902533849088.000000
316901329755810082224483777309006848801600329798470254723072.000000
789024549264089525199909493449386179643459963900591192670208.000000
8750806271930164290400336983137304180396691116267667456000.000000
-135195165908715086343292747605199810829795385649950686707712.000000
1062519649210386010773914449683555023802243738612387033382912.000000
-345422290947531819475867492130547321262716900695800165695488.000000
-491773895393531465928674932751169669607607272419324176891904.000000
-813954820698700615486008672260850288238822791349266653642752.000000
-455385856016817592193208920811898030742560049712730923335680.000000
-337432811125422876119473195154139480724847673762889435447296.000000
449130074046576657693698285803249501915696923175267373940736.000000
-274676812866544125244986879771242831478583695096967856128000.000000
-162215478678749790492225777010560932426681230487225693634560.000000
606586752718283874263142251054343524019352044975189949153280.000000
43961582960916014847972259556942701008277203203477118910464.000000
796127590175365144821617745211930296023165386363079101513728.000000
850081901682603740190913948176978151060786692547239800209408.000000
102970080447188950944545733631095974555972890026197343272960.000000
-254759786514380358198440377187536512291630533677481409380352.000000
262820769000871789034669689476652318771176796077177209618432.000000
324639671103531717299097740841452872399536106586078504288256.000000
-142859182657259302280025168098685475045290570917037150830592.000000
1062937902156041594039641151854039533312594587045816141086720.000000
-208570189842452278141773824744088808563139389067195723022336.000000
288019831919864685106687335146186881140749244442889825550336.000000
-43387491656240420791963581082733302042042504706543167995904.000000
-104773993968805647795295121578935272269895250535277637140480.000000
-194978487804201559053661475082359475298912156935411824852992.000000
-87779646713945751186990779774438879416066671785630870011904.000000
-47032000145958132298292062659450132666849155090681136414720.000000
-119041924949734798696464351282216658559759385928983015063552.000000
-1115053067815058261983361431690205427893523948118049063698432.000000
-22165581590654836617413542774345603985362823042827699617792.000000
-386971989792100834876960532224764421298840402335354081771520.000000
206165745099966911154639282479048123741956254622170732298240.000000
134603831306501897036197879435682701423163946405754124107776.000000
-620030214178059893988772598540577260670653926835010045739008.000000
-539858189948199425148902061531804172585532692221635143401472.000000
-15496318861572951882778721160188456435937225685773378912256.000000
-290099978338656954569387188151850608907907846666446717321216.000000
137021727508957901646305431460449223067798220799045124751360.000000
183404155858673712425297018079812103518175270657941384986624.000000
-352955279215646524849189133666929526575848792091764111441920.000000
-1435150335375554170112973394069729300838151821279183606120448.000000
299925346220178394518654210080613824561415747250268701458432.000000
-648579447027269380319016839692445068169038494000937049260032.000000
441949097668368591459453156595736365535877486027857966661632.000000
-131378701640486079703127916149280167345902758674182178865152.000000
270343089925711892727700753076432233320285504869782112960512.000000
-87301719623438873454948638773367357193703040442550775185408.000000
430688287212120798461533846142404683792926238950374957383680.000000
581326813273577974365816844975506371757310484348011863343104.000000
248550428205772578676973566164383128092437819486128050274304.000000
846259177473174496201288078470775243973651024568065544159232.000000
478589768996403733345221001338283613820086814720383049007104.000000
-156860233677774154294922310562288771045796940760213356544000.000000
-5730578182677796502336113878277746753948249317030158663680.000000
-476068091408042610249081986583669242093381323883577308348416.000000
-1890877849438484457634309178345563745783437837547138449408.000000
203137548271748003268876120729306836961177224801411026386944.000000
-550442162071972851461611921293556800800825860075437072318464.000000
-128014835306376468640016401721337082136823674469704265629696.000000
-82088367793699038259518751713769262224388772735438722957312.000000
-50330926942125828312320524106007939159306804128508687679488.000000
-136934465669682989249795942609379888605901765739911862812672.000000
375526708032778930629843432319446344193014972290013778149376.000000
142419747959213788074338718050198990015715689641897493528576.000000
209442221637869408268921560486768479416643503966356011745280.000000
1886717238169414730077447666110670668327542025649757022584832.000000
316791337734472740122177566422654162588063354344029202415616.000000
-469154757328703905518986740305197760391766034671206651658240.000000
418026324111995914407087977122145400472040975568715298897920.000000
991686920275061693982475043140868529411141038685608256471040.000000
28861250628680284386293611924219372977496231910846373036032.000000
83945979406155567211460829888180951789451392394692206264320.000000
244114949863834234543581333760245067786672893865741369999360.000000
1131025296035566000735360336805617876399520313375127658037248.000000
149427608355392770693041378461233135316635724307376533143552.000000
-567331271354226820300920870230155401983424419620494195556352.000000
64087153115285542421212829257737042971215638431402779738112.000000
-60535598392797655270559287100283427061238910886548229586944.000000
415840733178627430564386934351467805575340980123178067034112.000000
-285268533345979183612272026200310520598805672231954401984512.000000
-448483736018873172410341311022124714385352444872897704493056.000000
404274404385664317775212475504974094046696304744538715455488.000000
443971134474112091459078091560776412263619880953911237935104.000000
-2033459803302220377549938908467097423049133839111156821655552.000000
133177925195989714883566057856377897584851719020904127135744.000000
182741874853351330352292218944773028552578785787158496018432.000000
122682271380803370884032704829736604596699624201510832832512.000000
366567288721655142327322840953486648484267394608054403072.000000
-229318679710639879890921694422820529296838435888389681053696.000000
-1498761982644485381228232492469679554538801022536012871499776.000000
35006238687148473414428496751371191015354562250773100494848.000000
-98898800236282048771574054686387453525271078484532130742272.000000
-404585495698798253552421761173778183839559350082210772287488.000000
-132753865926983893144262794709542509302656822031876385406976.000000
-309163133736767122412275775769668398823758435657781727985664.000000
99216395092461728880090375124929352901991158651428431462400.000000
-1005681266833659575483717208855232022365284609526546091212800.000000
479502380818459200966906466264013747656425696229257071558656.000000
-237651666134840721131295650602065291871711444873460848787456.000000
-316862937382798172249356265746950711277418012612322670936064.000000
-10805452965734586313862515381000431572709676236083872923648.000000
1018402777415292052171530739090452117575979411114592202391552.000000
104423689144427489829216715010429985250339153600022814130176.000000
880437444573806467914577454754090889922052388464622273822720.000000
507277363811218398324690448558385908024292794261776902389760.000000
-93229162543183054807837851306733720408989572930013967155200.000000
-139183271921676528215205447370152325617340636592297958440960.000000
464399492857631232650461783316819926346731896136742438174720.000000
-683759877471636545221029217219739883074949108699022323875840.000000
44613062480944527323411283056587097267375497615085441908736.000000
37408640272218141889034878054830285481604023576827170652160.000000
-586599804362340055874486344877376780664405867603486518018048.000000
201516528919639379076351925657167668615381149465662271258624.000000
-217548320908540779730785622365503072571394972353444930650112.000000
-52294111526686851393953095972014063762412518634024048001024.000000
100514839898962520642320040986518773090696651113681511251968.000000
-265756497960626423874736517597919200056950326018684905062400.000000
-770079525451426705599052102452187192998341097850233820282880.000000
-265312382919851556620402372486588737666754231935075568582656.000000
171011514931697089818301910114745203993584882029650614681600.000000
-172830781163203260242143689190644087075376247654527677759488.000000
183332208083834853125357500189938174128116180904512547979264.000000
107582347117447701795390460766562615424197109393370543816704.000000
468068300210069166773536414043348294040108957216215511597056.000000
344560571685509582738903953138591038225398002448574174986240.000000
-135216450641590428741021970599405163731829539249705193570304.000000
355659772122323281568819172695882536773135997841494153101312.000000
212430442598199116316323523453327414472741646665609363062784.000000
-118774495072963751325395703308968551305247042640905527885824.000000
-173100506902816476199615900203044905215365381694695283884032.000000
677571143159271457630429824033596251115388414903839738560512.000000
-452611785973437679736548957346910715533491507964508993748992.000000
-180143941292230025697652903061191766809697651361411269394432.000000
322203480576949912861364795529890512976122613594166195650560.000000
748458536034204480950253142585483898990027742405342242275328.000000
432878821867822081631839375529388997743785859501891774316544.000000
846621029396136758378059635221128361895946965895774314954752.000000
834961536954466746088201460791110211352540252675046295732224.000000
772977078805807746443884372886067123187743142524113060364288.000000
459559443154539933014015013462758139195717159621105534631936.000000
-20929981713103164719848437757126599044768066204654895104000.000000
-13809836667549151816498077425825919388279916051465288810496.000000
538768214389968289935299982247042387379361009681131869569024.000000
205449989675281731153288770972773617087722462199996500410368.000000
462483909958562782680610821032287205035116849880151466442752.000000
-1041130652173127794930782364314916188306837399320902464700416.000000
-752892937187991181173116012360750864338634968223077992759296.000000
-384547494195264615521932266346447814864333778932324081074176.000000
-120590307363037519058142557408957113069806132193727363416064.000000
1447495307276717898489420292400518427394530959921762562736128.000000
382524878682139340338998966715684099653139983655801330860032.000000
168523012365169929987379220664409821002213083093632756482048.000000
-1252047356324019809288132304845402386686098718296347982692352.000000
337921872519490667312368575510173676389638203223636636073984.000000
199387882779663494791232256829787313692217784575767793893376.000000
-658778540566625308215380589213066633712063352645292654592000.000000
-352727035005252180633220300893098945255491061624035352772608.000000
-688385113697110827419993446416671693007928369296042163699712.000000
-984090186924150305754215090011096080046246610548572351889408.000000
280007367478708939452959670142668488921885613427555645259776.000000
160525643474955176949596767193369627731142429522269499817984.000000
145081885203547357562857475841921742283506446344136027013120.000000
-31849801174137247982535129479737334863870166034244144463872.000000
-139021956709318481581946296186374552478869727826062117699584.000000
380498740256458813330810913454888596053330791468310024159232.000000
-452630591842840524905573843714463878641153974486659881762816.000000
-19134470033881443236147551254143486562523291700776524578816.000000
127764530452338912433522529960031283313333330552876483739648.000000
-165469720027395260503284099955619176101218608351349267496960.000000
-136611026048912669694403421382053343295572343668191369625600.000000
-946672993804625836676706321720059585958892726403357439164416.000000
-194599719670976600245452419699294806467540875248912727801856.000000
-55696177653286040130856766284360699765744349971043848290304.000000
-96016207719185339196553792689876338152606811379240770994176.000000
-71236478622328058457769436875736485901024937375658877648896.000000
30007491239047171120686549833375915288680076575583405867008.000000
-56933455615242960445784529896659516825804406577753791397888.000000
113615173502137484952345146170137513154456883581131757191168.000000
-205373319850435643737563709206557104397094154020957221552128.000000
-195383140093338572464888573369389828295435716834360337367040.000000
152203767425083856426340658996517200541215713585226707894272.000000
1930122481947115207064052635357419273899970400059063653105664.000000
23358270754433641732159530343111968052819380221691379580928.000000
733425138937041159583145648913048645486079467274275425091584.000000
429052982630226280552720332718178769678604346809005660700672.000000
1365784387671896724267768084410539429249318532125122440986624.000000
-313454353015153094598214907712963405012963406271257845432320.000000
242848461242319465741550204987521613914429432983866046414848.000000
-134373448624729147107518144820850222747274669643492155719680.000000
282721219939661982638992932862253360107274844622273579581440.000000
431261740825644924523049649624318055371391106250472614264832.000000
-7287048858556905732172014174334848976628475061355224760320.000000
156764131392939634496768179908233344868742374457142421749760.000000
-476001583401895768383814370460194369899361506349707356536832.000000
118812192003464061317494627000054781010758032833240664899584.000000
390558847678523409181239895148465888360388851271289924485120.000000
-621520647252453374444601928935464680036888630339056095461376.000000
276767560931482516084118818132040595228386870414038725033984.000000
118062082214821292537879495725755985045547563448286702469120.000000
-182135807221141937673671495899218704268290083000596276707328.000000
723708477533840629489754532769164658556517943770825403400192.000000
1129635962904305449462989389416401646202996849206918377373696.000000
-514832289560517607680754060035705285818362758360580365484032.000000
459208244300937750219457145975951658999765033093168044703744.000000
-710766613828320816874817612898415092751910177143539986595840.000000
471679374237274898807789380959502011831198791508649268215808.000000
325505006128596182731774364552454620164049173956083899695104.000000
-265535774053800904006684987047780342918327905270396742533120.000000
209729530516424135758880096451737868251168001207935183093760.000000
-109144775488327357660796972445460263508050480302726706102272.000000
-3315147426691092968636736931317875276929936011715611197440.000000
587586142384656528329172814293356700083980465984563786547200.000000
-511951900922506315605663923288826055750463901736191548981248.000000
644792681232591310346980889377656298800692385938913559052288.000000
1462980214427613046987720739519104386833484025882698573676544.000000
535668406139730848467775000449194959361901461887847132823552.000000
2135099452812860394034135543490779941869679308152423235715072.000000
427631156827686246720602205814373527159875246381484533088256.000000
-180466080010807996568104367333289212855106033645793138704384.000000
281047120081385128217492131635713388423319742270381288849408.000000
495681856945469003323575764230628569252922236779685216256000.000000
-202821702151338661060173026155764027477565059572994462973952.000000
522444326675941492424557859764184877474454847199799574265856.000000
-230588815153299269922079940407255190259074922658227768262656.000000
149252153873823893165736563187243055928934551403757240844288.000000
-82535667991011087664637841183966110807126636603791187640320.000000
-145811422518500441016909828992187650905506898389711884124160.000000
923821996910344215512300191164553829859901605180439831511040.000000
221169191131622947856207544499243812841395310822517119123456.000000
17015413757052620495756737599220422532399294043592654323712.000000
4747469445605702597222324033324487931009041539245807763456.000000
-155737382399861012668282172691348765256371258014961468702720.000000
-1397699093836372908710558817005234850398739061586643279413248.000000
-622510055545934079563082635092322763478173067940655412543488.000000
-1627616135414463705789428089276625130703970323539286114172928.000000
165232321571836062495754246475941810661614244867371662573568.000000
-198920576557609482954587596159047418183116518798517612838912.000000
152923329531912792973374594112915224605394412536432699637760.000000
-128439956668482089683766968455258180785314226412423353466880.000000
-44110991731411980888506779519553591706692738391954239258624.000000
401714785588704306178646471903516852536705434244733042950144.000000
-1286609197116981118141674326740755614584191422285603550527488.000000
-470226534060964791392007159673080503758738036946675234242560.000000
-111853024145194776523494876768077232092208569005961683927040.000000
-105743495645457312065680250339982353426305142071665899864064.000000
755061946520858111184745519867672908033553558153355056906240.000000
-273095077241268027556192079224254722881065794719046401261568.000000
450181685288789093827899380426567942206978211128010587766784.000000
496260386465747353343789784767307046428435222757651884539904.000000
97570943054588113835071378654024440991151541187085674217472.000000
474712874704904072105348157103348450966073403422898288328704.000000
-730241073852336345187833741071437955867709952953767465844736.000000
349917446428109070906760480808416181600049223502424484872192.000000
-338691647751273053226653578519804772533456690800991263522816.000000
118443700080585153464105714489339583078315495805999877455872.000000
493666634448097239751055284811971701240176973005280021315584.000000
958666528617502107089901999537477639649117539931040574865408.000000
-132272622519329865218400125453801545257189578004320659439616.000000
236173280591556768999500178921101243031666231533633686994944.000000
-451040507267638001608037628357676048640159179260907218796544.000000
171093003497617953214541106949205134622106644206467508338688.000000
130539192372224608848857440408084838243031034300902735347712.000000
-832448935218022457754513335453782332361838023920976635363328.000000
191103681533075962839052275986419020475807884995322020102144.000000
166012453518431113374346352132581843246199388690899238125568.000000
823255226872898647938926586241493443054828189062566286196736.000000
963505007919333504319959930613957336694857375729413854855168.000000
-1525874911360107671320479171876084316618562692490493111042048.000000
-381999761723908175784083009370012590582095239234893889142784.000000
-4960821835575317019726959376999397342440960367661900890112.000000
-133055680250003198941228287364761820453596610334905931399168.000000
-322957600401508786428688758466933273965439897758549976023040.000000
306099928908688545584474378832112794147535649592085986672640.000000
-274404348221309829297021919414684816950461417952393761390592.000000
263280333842093116809118002474673277515982173215831021846528.000000
376798087942561820109748725549494742441230804315319404855296.000000
-495788368502910775576808062760091981633687531181780670349312.000000
22784523873426238198989347999473036041480454974632112422912.000000
-121747391556309801166009872329403897266763272164055315382272.000000
-89335282948287226062780254371956531457849844299007575195648.000000
252671828889981794866945859885231224072847748328314332250112.000000
45557464461150271069245432684024142341489988789894863912960.000000
358005083320682985819621932958696696842497347648473415024640.000000
-289679164026418562771866498222991246421784785193216317063168.000000
-273246455979662293077626808456634485866801518719948862521344.000000
-19517057118175178318987447197317075737094074350006721052672.000000
404122738209225398024272886579132258013342545234224526393344.000000
1676735447085648988025758173411621170942015678877088838844416.000000
825851167624524308843644032516644463632600616665817741787136.000000
1663216764899298999099001599203563951977091562621829996609536.000000
264612694690646104983776819134831283726511353875884440289280.000000
289577317497978454520275398415748575858701170836302410547200.000000
221273721418029234303508389816308097763645584785350680641536.000000
375359365773620797507434974775322183919402828259099733393408.000000
531293639308189259015348129175161121459685690583978390585344.000000
96959021206889364171847416411568615192249561643827840679936.000000
235658869392717379233964387130333176198442998009506771763200.000000
10574237586913548464088757300474332926621627089896844820480.000000
-245823167563247790191620934346344106516186312543948664471552.000000
263946417301497304610843578887009958104452295624719027142656.000000
562675141459064200950748753091982686723803743614901229191168.000000
183449343253731474804100756074742265706375503801876773601280.000000
-787021273409339461187416682028858843353492987403758280376320.000000
383375957060443910587948152496272250374151061715189514633216.000000
-373503272489571910034941438695485837751951977384414833278976.000000
-329125337309957418156561355458776044961054564529773628882944.000000
457477852410305474342977879727138928910981635728087296507904.000000
177767842727044524735146767727697240950679952125162961240064.000000
-192198095850875707852485256596795192480925985549242698039296.000000
907437830535171914553801835685580146116382544996872654684160.000000
-1179814630475313799741698844300614764141415860948305423892480.000000
463471356696230715672063461066903721640029557415605409153024.000000
298643153381572878586393276714927713863044509836969366257664.000000
299237312344148735678114907429439146675612902685538380677120.000000
702242530560558288134434006744759179579472041056156914810880.000000
-91305320097180766617382235881382438224084913708191675580416.000000
-119712659056708816518554860636951336956253816207287267622912.000000
-436471517234770532960611081229447384866608279288355194142720.000000
775270274112762804247572092590318174756925545182548233027584.000000
-70482095765910022685039711566092061780856292682589668376576.000000
-158053602919440395283816664486134985588804991697862074040320.000000
642612017320256904808571294884740331094837223255385791528960.000000
287174344758197285793357625011715320847354560102729345138688.000000
204838707556239971729377202966384126603167642874036365557760.000000
1348398524738215684475805332057621369125867431684475533131776.000000
238993217551294972092648127816231083705743926997740316262400.000000
303457786996297630266199712155553714572735327103249115250688.000000
405126331488608323095824308809530261876556118503237003247616.000000
511047914293536193712328494144313908011538707390678324740096.000000
-260607422660811187694510254064703634455864385690943193350144.000000
401336740194363699164083957023796385185052404272995969794048.000000
53200876111021493902131174050151921696739324124882265964544.000000
664098598779244924898435173599356146335215256312558177484800.000000
1073721317231939987874241042332787233049153944724294621724672.000000
-338786610890834335048740827372858902147269018563331569483776.000000
1014439553217543500921657059396187918282685185228659692142592.000000
-225167753154507700191038985353350234008656224882690187329536.000000
459417593755450264923380895093228043774733603702126562770944.000000
304571984238179759893268616453752340392634039517272424316928.000000
333621995880119301624019385184559128187397891215148672090112.000000
1492121524190691938880287339972209952122955000566803976945664.000000
60670449469786812088161758782991594575564789743343621898240.000000
-169382793141308984384186139236893855330829178918093918830592.000000
1099663375703588199538524364457922615017685516833995033149440.000000
-107487595645431995579363275729151421727763390489269742075904.000000
-227634251875370737624620402933435328285612764637869155287040.000000
23354619319303288199361901758284550622147188602662044041216.000000
-459439837487782490512702196899707132501348426775065882787840.000000
374028538783362612813443835395156000223053341245619759480832.000000
968021542783635762182602129398638082606482492746791322124288.000000
274398373824821536340445799407059683439947336809700072095744.000000
502114881822597137892223770631214194266601515288585406775296.000000
-583121993293755510137428973895156554687345162048563920764928.000000
374622166822436934869597663746401809083241181607480369610752.000000
774668412168735953472232388337939184554741992338448860577792.000000
540349335509902611699494313554658342808858282766698524180480.000000
385431171308970469543537565817359177798107161886247318716416.000000
83840190664267350519086604181474728095348146520628242939904.000000
102004086774795140153355010139223213335333610564678703906816.000000
155441224197074701036357830322010575124985753108749643415552.000000
991746505352756031446326400399197532758763684816386525233152.000000
1011515210412475227089822729930125419728753911978775306829824.000000
909398719853843371882326752604852867325238287407784099053568.000000
-3463952739931402796925676300120456625947367309214088167424.000000
1013025374295084908585224637577579895904920936605517355155456.000000
197957890234730753389103540036264552388851059206200345231360.000000
416859735416346207995287950966364449028085526030390139027456.000000
512200838766566951597804821021043243967575339931865534431232.000000
135035644787049934203005910481080826847845428378615085531136.000000
110827534782039467806338920615218529754395843647901903355904.000000
-5152923357497399259136863290161320829994781276972911689728.000000
330018965988298741629394140639772347605339494469515698241536.000000
585380873252685446014509949308224862225940223240745991012352.000000
-92708481052600089758398790618228017124206393791561169108992.000000
27539481411510236935615985143399610967888652037867840733184.000000
-894500729788237777595284724609798200939134474296208815816704.000000
726792310972596859550966209605737214013900928638980148166656.000000
464137952022592861358822452801636898389023841160855027712000.000000
-94707860940916996905892166189226950445833423193447700889600.000000
5467007481125509557318472262988147976737849302750328782848.000000
401160803832934996159088905481237046382298222479628002394112.000000
33808799616474632719378616038722009844192347587313884200960.000000
-175574097485817940762817579182696022033544166389646582874112.000000
-24611363724716734746951794904628382587246619505542935085056.000000
-510777199026731643029553885833632803753513430243713415643136.000000
73493897831192349844539798695677901522817268699707798978560.000000
-23984792200222428213058710249997276607213401873980302819328.000000
84385412121103400857029274951242349905213876963079071203328.000000
148693874598345451007834026238762876238180006402320261709824.000000
240881216676643774768705038516908808479992474964678370394112.000000
140470607695097730377303864613756010960174457419517669670912.000000
441260249585590791894662733524336277874718657798266393985024.000000
570256258710269061830503689325148299272727440659060464025600.000000
202478693255104093536216683419511763375165969821986306654208.000000
1053189554701661368348106090346160154850003505125698475917312.000000
1452768656769096722693946341222836686953160774178631476838400.000000
1023287638814820292593791593419605545150376075662741978742784.000000
433791555181546675594215593361780501183759009633213775609856.000000
703813213072540486030503931135231021473292749131028019281920.000000
1174736334037525809255615434880120355303207797757628569878528.000000
1505179008467611802972522751578875401192857207044554996318208.000000
-780335688266050505997107075985315231387081552063948614795264.000000
1331337914047440373380301057946350777454822439607900204695552.000000
-229619389144457863040090485347996044374165458689024552075264.000000
731581430346347498496014130034915177957513343597651234390016.000000
101282925789985747254991181807579707410461930512425309700096.000000
-78066794610757924025762161246538298294864312414464727056384.000000
934248745589069459611988720234715452995937652491110813007872.000000
335676758932444777079547563768286095115948990515035183775744.000000
-762921032653665796658811740190265260179073922670109315301376.000000
-340799069157707036909062115559541894325274713590283175460864.000000
-110226352096231298783108099658601317438025035986423886381056.000000
-5797944088118987509585706781530725137029425390497680064512.000000
4190154459690391831604379882583060193262105526114965258240.000000
765902517169179714993247532487892638847764075911818235609088.000000
178490804046292214335048313114481530897936080933269343830016.000000
239183715600577380698510557242557636535295535194442775396352.000000
1457817291558360908482412007025625266015482994041682885869568.000000
282739746429704030012399633840727046829865610375462081527808.000000
215497629234280004378220234861923758435116491294155433050112.000000
348190788728743479435160778175573865658515176667028706557952.000000
38825418823241145894061134956471002109677131576260574576640.000000
361900667671551392396006081276147345322136846174660560158720.000000
-397150855666064092572712738383959061610467552655462111379456.000000
-224109550680931938623595437670497794421312012790118922321920.000000
138134018295052273947597965626296160065005861437659932524544.000000
339071029449238733968386494972316653871903281696988114976768.000000
628258456551722644548482303107856591363282462967417253396480.000000
432779402446682737633505708933520094669367134844040020754432.000000
-89153784134501340412276938618645023714289910577187321282560.000000
738083707762278195109854044866207323270612493806876093317120.000000
420711810588734968442488913670635415859074567738973543727104.000000
533098357361015367563939135656740956081749852569656799264768.000000
2179866201685066747752476418992415697252270865661150544003072.000000
215309188723189380428785738836180467558278271484196217159680.000000
257094158251003533937583212736096605389055752800011684937728.000000
540772498185924551975488440542762287279168291098585225756672.000000
423647687032545158912324180949865600603882630456193811742720.000000
-162904327720904132047130107548453995748330030615512355962880.000000
477986816424909281388252866485270822047139693232741224022016.000000
-118839710473423714952847075843644865914713350252498088099840.000000
-105264204377303241096714373534538293837341083716767316967424.000000
782481091322761225736516144448470042494914196874301834002432.000000
-301197480016354793329366741707082393136317594506883024027648.000000
1346687868441611694455032814331426846741685024723321409765376.000000
-495975967663892899931739231192355432822582589835612063268864.000000
-60790374209888097728469868665342920532485230382185126559744.000000
1063422921027073809479911970295082325181795842280596042678272.000000
797222438576932899304717809984836705086219222259373587824640.000000
-551671113647924505923920874633537820611806847451705376768.000000
-12983604857155541972582672022326898303233893038094953742336.000000
165747298603074004335901938053075742577691117650546780012544.000000
-302019609351185703311395916104528787902597668931423034146816.000000
44003664052317880694982545150188038614127033564105266954240.000000
600449788798313915425182839462656859000311070887629553664.000000
225159539354637282636948997240387886559415193784966977683456.000000
182285873789282395270642814841903567303044910982004859731968.000000
320662487372965116299732166033099067113086658850050776498176.000000
206144739423831343794305065683128496653851124050900467843072.000000
53831413653494607889892197086113881660530168304033809301504.000000
1284451293015474998236004837839704545419836346302639640674304.000000
1523765551745612586861088157187302102894301793414179731800064.000000
395840385497497660804816841032805325962619101298791154712576.000000
-206565746173143449884538616952572311813401485097520037101568.000000
766939239294910868264359791617270608464504095870978489319424.000000
1024784294865915208063065292555670968202547938032122928824320.000000
554499451476638446770283178604642609819729006213358619197440.000000
721317128811076847803118311228820700020465909855446320021504.000000
1207266108006744278406458286376628168060844272570165933113344.000000
1769145421944164684395151638605910891043715762323270729203712.000000
433241284371897170656633060870308529544959954676502440706048.000000
555047283087133368386724492312806605255952214866024720236544.000000
1175366902417135430112174141950129045304020023192947301285888.000000
192187214382381500780210636011431628380092041070294434054144.000000
570924218620842338686927269806108177948947842476293530583040.000000
214339631055417517647194406839676539435059954248570080591872.000000
-741691133070550706480986747840558780684480630098498976481280.000000
284791652603439722729776975447736955126706007434323988316160.000000
-79636423625486778000299076211598745804744404136391327350784.000000
580994623709278737997901371322398263141237012163823373647872.000000
1897822261713707931257894851986307179104623038665833515581440.000000
94167097952012226312437786197547766080616675412868629266432.000000
1162795521686584939097266718389386344121802445169589099692032.000000
108956325684790642454064931190162906967703231687420738011136.000000
600769544983696222119183022183142523312736484031231042781184.000000
132793324078820757691554759683542573842495759114088388493312.000000
77992118222167772142750474276480230625313600616615483801600.000000
963357447238821818715220209715220784627147216152404368031744.000000
-294912680746659765026050149973136500743863901863781020467200.000000
1325913806782169791191381532810602985813711512653711221456896.000000
283306125036121067774905704725718389036216223792637677666304.000000
216477608465382844591272153804538756494265064492172836864000.000000
1396409767529627271111987973279614733003955662240821698101248.000000
-447229266759674618140275926373482237370921247302537185329152.000000
701660099528483513478756951138653004212442384462064042115072.000000
-61617349604788902047414962551889973299282179701071994159104.000000
367657442972518325525231183291404606271221104764164417519616.000000
1439829111960359948858347695774430223370481526632080589455360.000000
16529264726444771460395525702629447829126134067515975794688.000000
72213604953602456355884167279030862616922955190824094138368.000000
679983575506403218128244088050677978205619093283476514799616.000000
-29414678874449731103708061597720792140557659462916020109312.000000
-9012585007476518136089498983360277146577221317352113569792.000000
1318172081318902705635562403755887293784915451080886127165440.000000
276124057695600737037373970856077151864858611814019146711040.000000
107606479420703476231136803070959580369129714746662152306688.000000
1372554170653485226830439208439802449035065237593996442730496.000000
552165116230037910239155437541957875348329785682367883509760.000000
1242386803875450160638213751201047304326686664193722476920832.000000
594260617051221043088286885260859074037821841948645215174656.000000
-180483185017317387134229678113827144458007200152312944263168.000000
1065295518563665413389031308121955033902048515809606723698688.000000
-695010734104610974645005543893534169950269547918386029133824.000000
-386679784914604293306797256756904346555510987355166928273408.000000
48225188126441443471833754805851814887045363307404425428992.000000
-48022220648606652855909033215384061282251221965638710853632.000000
285081959710871113445763512901212927312070998704190671290368.000000
10182924886314581803816881567852057866793114420439861428224.000000
772086564936543635202149168696949935281215123464710411780096.000000
-58671006476398105884307312513736079327677290629429039464448.000000
608682847155709895551106609361287290884518105834040701485056.000000
79574135886535491314182091244476189865396740140244840480768.000000
159968941097049374460804228244270867201306299867006660247552.000000
867270264030359390402078591138819154060117081851471310356480.000000
51069882810438266403534226184503677786457662426739107692544.000000
-74444845504701541289774273254060570156092270060430377877504.000000
122826688466013766586993110415596482909528334846990210826240.000000
-25330216784204770769513605549708383164336064569846557310976.000000
320534990271354194413426954734194982129069785100951205445632.000000
430201046674754013082814401003969326162664554531409589436416.000000
19314596588295143701532317436209370773706608400259606380544.000000
354969403882984009296100086008578720340747689616116421754880.000000
45132119551889291693090540147211365051406731897528538628096.000000
819103418050279813169975000685543011750335302314649676939264.000000
233689915443058291728329308744840574999024993517565709910016.000000
70992552265982558723880656364483452407511441605801262710784.000000
120144925630860087005871935981380803701622247707630496645120.000000
-134258575219094633112322069511308918899876197471825363468288.000000
853185281628966451122893549071747637865635081295202103590912.000000
1258806572650464552433946790612141053191349862099822588198912.000000
4904096266061779002290631002379770796957892108150095478784.000000
4327135836209643803222837337865450173461617168877348716544.000000
-160579274347346532134239826712336881247419272317821524115456.000000
101244860080949627446692974311539774257913540081290661855232.000000
155391869315841646896620979227235826942698053881263292416000.000000
-748617681548863238772225530628070916121729125863903171969024.000000
259631169217674860802681696046516599770808253643250271780864.000000
153731514398547818778166117732707928886296803607865714540544.000000
296942504315844713589417300456098216216921117931814554435584.000000
854165330543231451974494040831551550330487859493421721845760.000000
-28921298633390394635865146222988820862748327581006994341888.000000
451822360081794562232806992896400154170204528867650278785024.000000
956388017570832323031854705891781744643693825457853156032512.000000
761112802088050792998804748491850313441817683565577427222528.000000
-24633253959959724790938984044938312076035960968321137901568.000000
462717737605804408279453972319576851195579408958186896490496.000000
-15288440950408918348744992738261999409548996065556720254976.000000
969421926360474451637129042582253350571659956465558607626240.000000
971399960054162458769225503504092688411503705695620838719488.000000
123902580141677763116771364260511185336211301817708760268800.000000
814067134771421613253316044936422218940469726734431041880064.000000
370219011813686489905694148353527840426517172400289466023936.000000
669006481924374962500733522771417361373225225539297543716864.000000
381068628994848116174750922971701120088888005323007817940992.000000
661991414447662512946602031518822961786745141822957683736576.000000
522560599843673557740109541575189087683846341161497804144640.000000
1652412203594065887786450904646918741151172240966549260730368.000000
492119928734539325952798869010690414875469320073479421165568.000000
723268312955099767449668106284674037982061483645714709872640.000000
187475346393864932983993624709243453850456967770340499390464.000000
519017643081666030011773079520839336914228506449703398801408.000000
480452667526366118828910146561084634013467591932883375226880.000000
-186790609523674097054074892828988963038266784746608718249984.000000
299167713116442859535287690554749192727580432078724369743872.000000
1225157162909217167972719256435734182666700899349318602850304.000000
972031619095280965526142490297856358640419408272346912391168.000000
-313270520987687726792533270556212595468331677259164790292480.000000
865713083081326072225804072544579672879871411548828918087680.000000
-287217130289728982404829797033820719386683586010784622182400.000000
39533543567292904026358989398690764292024050382848642777088.000000
19643029063980177680668797975549372013780461393125734088704.000000
70862444660988576725309827162570091094767771046437988597760.000000
-250108279562842874291928203986224351384578707495939085434880.000000
-32480030250645454097544213951656482169858893874089611493376.000000
423385344062076601740798605960276790056178578244031104417792.000000
-37640026531062197009365241948267595394171398765879480025088.000000
-512589899007054378259447113555594501396331921191255951802368.000000
137182554041318122157352771596068348131884419482590610718720.000000
-231970274604499714460254477833440038159076700362605099745280.000000
361605294872094644848718455706465004160659266006886230523904.000000
253734128107698456532862525482735949550215406163785884368896.000000
-47694854238657189913301113136009176601802118846173646159872.000000
322835673065907579760995956746407725673560496076416142540800.000000
30551691473350846048854795484104268343775290722080690012160.000000
143497538670246563764424345634247430176020074209239915036672.000000
88898506830232543808676220051885162818419199966268518039552.000000
-1021130798863003881008543673572423511280092226249168951181312.000000
-8636522577461736389173847940079872109870444487970826223616.000000
231948328043132428980792316338684338248843595714425721454592.000000
-155838801783634860687591561628659185479118205692734311759872.000000
56591313162166418241315933569269989608020910793329609801728.000000
14205581589791600512655549766262804488542520795238731087872.000000
945200164865877403069439462782896982899032262563854286848.000000
270456112920957144564169911357594735337120448946998649815040.000000
-82129139555204210551530547613374541036317826317781764669440.000000
-559755497034364735462838019135830751055215377221971146178560.000000
-90839528494978239824980282447076085649358193851448139186176.000000
11590381715302133179047435581849694909703407822944736378880.000000
452382623907729410859826768312078267615353494684475158691840.000000
-48113679815327171809076683291956063251849989330730812964864.000000
6498841131707014811193193129855979100815029744492527747072.000000
81099969740390936803255579676347399724293289335644764504064.000000
129937303967662578392362767115745083775384126015460790501376.000000
-41844604582229787410327488400772343148054217485752096260096.000000
546375652778583389527229104707118280101320461222674398445568.000000
143471927836414285215683507989605188580520922279552500105216.000000
434002799027226352577573553407454954507700421516470878470144.000000
-50892619832830088326040741589924402403552196693551327739904.000000
27746211436061889522707625246396513607095089707023465447424.000000
-6574361109150360456832626542588482762040765916774878150656.000000
93361188381839597521925442632570291767927559828449716600832.000000
-249428738453190199722814883882885348094310934677002775429120.000000
371309321786173130131068688784985687244567677694369930936320.000000
277168742887939591207264148031059536475409518026232665473024.000000
-29110631552130229250359868462336564706767840147275079745536.000000
196434888026101350093345252307136927415288645143360153059328.000000
-34385276337987955893807163616705497311734749010943729991680.000000
858197502742543897404220308422434567947855082333110022438912.000000
59458011579984030679448737515982673172891635990407279542272.000000
-366918049749345995723128218640842575100751729341218288566272.000000
83065403363977248664289405877054183393655942865845443624960.000000
-77934311531338283086802310656129214184725016659978170138624.000000
-367046017585898281676507127003428456865019014060099177021440.000000
89212760370254255832477264104462913719775160343653752242176.000000
120208377152830103318177011501421041394346677082015867600896.000000
-127079276258176984243601869482822123734134817406451720388608.000000
396472860961726099916470782230635920065875460648392722481152.000000
160155907028313493097449120496530265993876147225202654183424.000000
28118856029530387206834108817494151325448724773633257373696.000000
28808262905016865120385723110628867850829191196374206513152.000000
-357183720011749941719868929731079447207220542650729680076800.000000
406095020508272875636143500193814979752934194582577177690112.000000
153269219310112102300086909589907957134537225201556104675328.000000
45524728372294739024642801096279818937777707308742644596736.000000
-282669789489812046521512500097984993915908625851828544733184.000000
-557796253884320520914426684402947113093409407476487707164672.000000
-23630430963666242847581203366902189905664771343514742030336.000000
1187661850793683623916460757820036666984724909967842213888.000000
373195727860395855893221699033105546206367365893955195502592.000000
288148727531584011522038637523473005620040669145970992218112.000000
-71731254030209870887449468337582851174709406264427739611136.000000
94377340278186136846623599030563973850436085490469688049664.000000
672264691804564110991987563628182142728848431322216055963648.000000
-268372699779151155368598671705010836111978998195805591961600.000000
303496481022193507520116586647244063620730994412377922863104.000000
83694702343819168478619878488148179392700932111951810527232.000000
643478047075871265313178648872177083643289349755955560054784.000000
521411007988762987495646495153071331933165166697743806103552.000000
26118978095224921897572269890385871930094489763133444325376.000000
-186431918159513972511379417847820895110743827519040217153536.000000
180599955866410886058401889891566367436905156092703363039232.000000
-140467014574629176403969938088042151314970324595841293090816.000000
-248871345136990005032756771800601944118282116670555999436800.000000
44310982644108709062131956228239044251558417787526039207936.000000
114405886693373323706024119738466082298582904052330107240448.000000
281904199752966459082012853749349938556662210344847270739968.000000
-64104147940969160429874678349851947572959781475052479840256.000000
-880598759873471708992632010230749584740758906043156383399936.000000
-51923688390520005058989937735707966193078498783812753817600.000000
-162677389063101977915964698875300337342805256557696693305344.000000
-207745366952524814448455371619598520760857997804448551796736.000000
-55736088103191899839672040066242984578986235709875304792064.000000
108527738408111018521961808240345875225762110970758531383296.000000
10309977849002633801626311155426565568932223587353807028224.000000
-388219428858747674858236599864348878472559518143048415444992.000000
-172681226873927499847238005939147441377673230195067703001088.000000
54305366480953831919862071554129859343195543751284578320384.000000
-4891098621998009079744139827270950471386082003596318081024.000000
500222116638882448144958494555156338399620757546606218182656.000000
92191148163070725230293119019809955210665901825725118283776.000000
40785282722607515952608959467595364584876553498149701812224.000000
-49555570365968381619357413500960192214638317214357275017216.000000
-62623741250469622327893252255855822412959836140806218973184.000000
479564752034554561479824258215684147111657675307005715152896.000000
-41379845179356815821475065469143559870411963804775687913472.000000
-421908150741588663639090239422676163816627707209769237348352.000000
-327379837037909578950240176097060535874008116512312115855360.000000
-330822865008818321942611678525976205894273432124405063876608.000000
11801407640015973222813071935987659307781999227314037063680.000000
-92576532543523883155371276400396647503533885745570473050112.000000
185248618639135983382458651753420760968063916304545714536448.000000
-54352839788907263287616361926139245848095741414953707372544.000000
922459440517390502531228677869299664018921783592144303292416.000000
-201799592684772959895665995600978644697248400759684878827520.000000
-13649635101130226998716780320266935538730667574698440654848.000000
-39418649473056948042078511507047262756891430879085635567616.000000
84628436116280053428970249493964883402534170021975725965312.000000
76628120589226640171224127791139085706736879984873996025856.000000
1859731213818952231201400707892995864591303439926155018240.000000
51731696044761007114629965646254396241215233059859525009408.000000
-132980804537839901129683844443769948815135169645715447087104.000000
152094668449615968315997493192715829128214005753205017804800.000000
7905254474667847602812103772321249735134090934201649987584.000000
-477666269793918857365189625002333455052465835109155929587712.000000
163228378413721993655182292594855037778425342377840261201920.000000
166395746534164858505550493599944386176498386244524771901440.000000
-293554268462360385389602433942271274135166122157217784266752.000000
180183758128761734806687023357846761323728969602441563602944.000000
-81797386108556742223761712249954298310828825021868985548800.000000
71068769490098709503097277599247265072063585518417162010624.000000
223416607227528802561105741365574701570521188240296280850432.000000
79929887871992340556906020316210388872723501280487723237376.000000
-569720260525960662674396066252575445833086686200823491330048.000000
1082184253338145620511377518310908652184117592448175630712832.000000
-55172882078008755081316396397132200848593122168236566118400.000000
30963001117873949260879243389889013711245886369715665764352.000000
47482743018518502239149425014950115555683204788133782618112.000000
15608985517094668960363887923586892025770763097340601434112.000000
-426844047821465493053878935113305268569694716489653486092288.000000
109790808808524179127672238026397675658197759243085036912640.000000
-293263558992123011960648395482331525832341813380841467805696.000000
200408961035244722525910052258159937041730102980195240640512.000000
195606348665235263558008509947963582654308313346616380620800.000000
-237347613031932668302866849188052407893239383427819704942592.000000
59720686969903992922583294538663547682927719250614061891584.000000
-122948373358118865561661473203662235542997967021276663906304.000000
150269846069188258955835514394050700107205807812820116439040.000000
-162802120399804842797260803645008962277113979247499983978496.000000
441429734701517760712834101504220933953881728230190747746304.000000
12847636680502865201097366736022797443863431185134025441280.000000
-59497544715662959881261050234669164864901723145072057253888.000000
49793902631401433743673036217285034166718683129788042838016.000000
-255651461933208098098283501348662584385889266072209017798656.000000
-70426333051513706938101854199431621092611355428530740527104.000000
-16605535406580171990479214221510931042396196388816679862272.000000
71970281751489677300413837114198572865238367255040557580288.000000
-61297987986353425214169588598310757195275976658946262827008.000000
-98926825845682470499748947250172492706346838655663798747136.000000
-104256172358991135109552935818509776579390241601568334938112.000000
-53972497979154147774741466907125329786556555327816603795456.000000
136851182656783717274505776809945627088311132545856741310464.000000
-220044688207957122904522093666569157567037126779191817142272.000000
28468386969123458532718441985826229878301964110768652681216.000000
179654057137906896600224010933605615599478827559127141580800.000000
-213362717191659086951997981420981070905492848826722830778368.000000
18326117995190090754748521075228782259154627594510745468928.000000
40911939276415546799546918911585709504893374639208275116032.000000
-513993478671011209203882823368833842798100731651055593455616.000000
87439336444674814813417370399919977117479862121316441128960.000000
45047892524641721908972921060660195903336394835275204788224.000000
82235579387758363358594602060740639419645746223979184521216.000000
-175815958788542705485088154986376346802934039799885643907072.000000
496252787293419525359313359726188447637170956639205205213184.000000
712387356646173184880542139293146032647012599445651250479104.000000
-287356928934991192592713670544378463408548906268997986549760.000000
89652754249737734703233243122540783170980734496187351040.000000
437169600266600467739116229079849104841339819963607116939264.000000
172445389369323277500398628466013411264926504174121287417856.000000
-400527152049635555831033940909276134451389801692762019463168.000000
-188491475916429236982832186904414081584162974573877046280192.000000
189190124741213191563067400737097798804128274501028286562304.000000
-124800747335019240805752142377145798050417628613300356907008.000000
-60790745208975027965170155195014471970333934328066336620544.000000
114489146984081870886910626074568711071651407819983206481920.000000
-406105850690770925653162154367400567249052351954894490435584.000000
-82693239701916104679916173547816169481088258132807132381184.000000
20036114680601728624141993498046009834818517756439292805120.000000
-13138849398609636877319528551098501912483468555254251913216.000000
16994277475335764376814676147613023693715782552782679048192.000000
221221287823339012639671098848630097529638567458221059997696.000000
85311633379630795506180793023665751902423532142051186442240.000000
1850982219517102674137770881183116152578872112706670821376.000000
24600149608908017861959895641093292179501937926241790197760.000000
-45058386575790215168538659526365590849616646678109902340096.000000
-219662062911681577445847807197090217297979432540552722120704.000000
-6253608512386013862285281919119056649743463189008460283904.000000
-72141887351992620598787798838317921042441493954023020036096.000000
44098422367488141690587781332967972481833784972517046222848.000000
146217174178939679844287639290596837091090772805504345309184.000000
258335123051236243996750850489694561224823836731557355192320.000000
-513217559918235003104046236905005280298441304859263820103680.000000
351558821144153889872926173781198135233502786604824304549888.000000
138746937457551156764416701140589918824465336520970906632192.000000
-358327871807737029496292375185524589338477702109009593499648.000000
-38217489193360069874916735283929426488343426511262499995648.000000
41194247217292685660840766964005698531558628042544422846464.000000
-59229054165545919247053745458697507764543787506483953926144.000000
-1150577807861470058830533743166536059948094597052160278528.000000
-108344978720020728298514037799024524379667212395063023763456.000000
1539330219752542149827189328457039235484433743122880528384.000000
199539397695012997285937708647148387864406051457233978392576.000000
47338825955369203531938468297168585947651386751039163072512.000000
-91283126072634541537130605909691739199289376815806408556544.000000
-207533156476054715417066114780296922530182038313096810856448.000000
-118346865683900071866168499248269373184050660456336495476736.000000
321843616503842342177663171201692096104231258068812686163968.000000
95556113699980283011369615206821144537487591574744284004352.000000
-116019430441516563443365911925085267264332326657852851617792.000000
-30472302150774024546838235988367587085039171323843772940288.000000
-197677461329295850511529068295737574083154426148130329198592.000000
-525658862356326345066427004058040207261181080773056534675456.000000
-99824922663280656757592325649350611623553114396384917716992.000000
84923062390535125585089658488098207916319782660267478876160.000000
-198996189082694245882777618265381968640545300071557032312832.000000
-69636015192938294703097206226296331625077242451995708620800.000000
326392488172214135475134119617578938850396374227363456614400.000000
302400408643845393181111245684369642398680338810720334381056.000000
75044089277407550634247763573168420796134581218693521342464.000000
-20362668437114740372551576241712316383416843673799141359616.000000
41242526361287105242864249194450039312076342272477072719872.000000
-6009176656719356745527816749684281504215112303367233208320.000000
35345678491076557062233847368076394609744148802381461585920.000000
-36005656405373995971011209491405189415270278821116051980288.000000
-26471758313175695811305322187079321394255792586806920216576.000000
544456197387876272387177953367084885973762689532445669195776.000000
118370936086798836673659552892478852242717138229209027575808.000000
-3321952446129542462438454102336043421840059999042108653568.000000
-30926685391956439864908760383682888203112667090270048747520.000000
-262609507330156298189087958499409794753286573650385142022144.000000
-99175899604714262292355472617374073218744896261886190813184.000000
335258097760303098199954183630700006534750192974261731196928.000000
-431234439021556968348735869338137881594236449359103950585856.000000
-68466545115010106875757647926631151879562612757279600017408.000000
25233575677210513446403245971102031249647314561689886654464.000000
236710267076660917820420346170372690476820913586764074975232.000000
-87378853073942593723450368258024909807509971043024732422144.000000
503765888803911951313909426290302047171941013658868979335168.000000
129801479997009300379712942623949075657983115070574604320768.000000
-64156640344307455565765092034986233438702625041498853343232.000000
-35676160268056944162841959802558927323729001822587648475136.000000
111663836204529295977261332719008739740706143927189114978304.000000
-282781920238914957133506083897701140250524284866035441467392.000000
15176104372991212236162267524810601525598419250309425528832.000000
251992541374582983426492371874488616155457407859003190411264.000000
25547381107779628593668960968530880567940741603694527643648.000000
-112825565758081328671996161666308455732343312234284268388352.000000
-260844427601228197064370873539035886208917050591308146540544.000000
-136178581988820689148949431947505823023498459936667677491200.000000
-332848835773904019353543655639371746867159897796130497363968.000000
346599038311218778364955364037712960284104917748323071295488.000000
225336064638494770383651780256966779023433907234010105380864.000000
392795558637844538928578507348633072697328868630998428942336.000000
-185376866510423567732580485164146081535457403565395008290816.000000
-16232651946923639243727799567825189025904424861828061855744.000000
15265134056741594206108489462915906390775061202564938727424.000000
-18778455635084145883921245439906287864917983789539636805632.000000
-41764540447266234294497414594240036634278269689956843651072.000000
-187187897323271225240801519504578483489253728123120254976.000000
96054728423943070642629705820460391758578593430537917956096.000000
10507667144721447675696639032981357624933090672238881931264.000000
276980137079674402376085853942681030147506514538253655212032.000000
22313535748489710567986208974736760018510765157968936697856.000000
-188456566379733385522494648793965516391958797607850739761152.000000
79316666738445684194787260532852699725884817375375428419584.000000
-70566575339554471382826855269733749438824882922554805714944.000000
-170865880882972177653646593461570155605580808762259048235008.000000
393001540784137789973331271048735395146089132083757728137216.000000
44068101756423259567855869622562514662610682672894256873472.000000
104540442166971890923483264831462806764742926481805449101312.000000
224824774450566130636876909035719583622243659775366307774464.000000
-32093151291776500718545744921715789358429962924648657059840.000000
-127660114647575738894399402826354693525827949440267316101120.000000
320944932389282635461091025853495803377297186795309297041408.000000
113055493012931635817236841340080644650306456728137124282368.000000
216710642180193265357799735886349291885123119965094461571072.000000
-85971954785156495907711313625958630621662830083628242829312.000000
41630269772152938958651854360902394768791253063049446162432.000000
-101264864436744986395823197129868940595204875757954084634624.000000
-63620015651058738592966350090915618556150131615106766733312.000000
-75281067290304985288809212849035370028253179316407420059648.000000
-39696493296835407709316134228238047530810720997655556653056.000000
-155963505309490194042183613076105151167278018917930243194880.000000
142507535470856577270748274954592157809275932648351222202368.000000
-130235804468692179671927360419742078063234774071858142642176.000000
250116677103839106580191557060192890771582208680964304928768.000000
71058409618401831344797751775668928813996296204043012800512.000000
-164525030538810943659712931859847103762309321983923591315456.000000
-250584882861265442613971118299668375526534989798270654480384.000000
36394438316789421688130894076130536640623119874328964890624.000000
190375470006132904714922726328288146534284423037971089850368.000000
407472302443713226133733212904227843888025752955232974798848.000000
132437650853237449684260722592734942156692973022282151624704.000000
-133124279202151241572134101092187875651614867456106568876032.000000
-79823421893534922664007771462960954938208264054077426499584.000000
198341786648312098498893357661180791435950478422173934419968.000000
-44777441142667885882717215536015943404607168880798943150080.000000
-104694651774501077037665769102304794153860848882828160532480.000000
-126249359319296255148045839766371794616888688583350052454400.000000
263981663652972459644877136399343629432060129088488700116992.000000
111429998415368171738525706028613200511903600824645190680576.000000
-109258001723211527872827691990714729877094830311654010388480.000000
84370425486926670548857247295486369987130033859015701692416.000000
199892781376002425993274654751106369528816006386119868416000.000000
-165082704215121378529303694832811942962096366435190437838848.000000
-104518170267223288753631923230392305758777276988987300380672.000000
-21315048396341684868786635899074453573100611560778143629312.000000
-319082050931095363587171749135063397281114452458194163728384.000000
309150514694776025132558363453203271049491808969131940642816.000000
155585730157236357573568784951925701850325493412815471378432.000000
-271955646897717823269886372027400746395139539090994316181504.000000
231124436509879579097264613600122751393181719816306755108864.000000
-138705230943272092542026005894751305642387642836666135085056.000000
193338447088753951863097502290342510237652240581894703415296.000000
34245667153125823720657908855652120337312669853458232246272.000000
2318817107924098147549429338768126287938721962838338830336.000000
-4973510182221098610983775522705439825943209527305750708224.000000
46801671572309589804522912349407915690166697338221132513280.000000
-83323471373112702983301278739879619755550358911790362918912.000000
284694167129228170283652983437260866535151276761681775034368.000000
-20725981736900563793061608261555956524488367377834938728448.000000
164787129930845996331538513687971382211432946054271976079360.000000
106090986754691352056554429567207790445366072230692039688192.000000
208956367432117296804399449867541062649663989357072835674112.000000
129899560249267562763525853660331386458544900699723143315456.000000
174368274264266223545546900879824269998779155170885168529408.000000
-431853932093842533256628796655162375750109456077956224909312.000000
-13235504275238617581449437624977683325625685758963026493440.000000
21770355399007045101796336072968469892094356494301255434240.000000
284326320487740652652745986841352524708045904346574735015936.000000
-95969840987317850923215831970547001713784199022223818752000.000000
-171467578867019004149876305197432260527893094801471094915072.000000
-23543117113608767086319499018597185707944777903823990554624.000000
-143446899007894588637159619840437766359269982906762389356544.000000
101396724017443724682047569014743960037526857408419964387328.000000
99001869579587574094554403680930518376984041273635098329088.000000
423673342287206018752763752819153454197329884642370943713280.000000
-82028468713460342671249098514486239709018023374150120243200.000000
488228036248421913151360680840774628467032885880158779604992.000000
-203789003071553251153660824768405974579382271920496061710336.000000
-178270134038030007594860553371000266332445147106251714330624.000000
-132815830337195273281602061117465938162723321952968156119040.000000
-72528148866900621697629380509608896970396628827844479287296.000000
-14991085505747168767364057649393071302608237320959533514752.000000
-147267174798797905403713893484615750180360837033918696783872.000000
-53654861260446275276558607102465568321331913940248387649536.000000
424182764042738183610330611590970120823686322516372978925568.000000
161160461561275249979115271361247194817141812338016370294784.000000
-167326499799143697232599063080908951286149220659334563758080.000000
-348653564216820591622352537686798751119993700978800145203200.000000
-83023191412166740159047130093426870934472279479709620764672.000000
-226771060132715515827056810451846012708487767155942537297920.000000
284691757172112207367141472063372997018935340773370029408256.000000
-273419965839405904796580132664227608238761111548342315253760.000000
146311785744108657863324633684457852877068448352773714477056.000000
193408907401193224819937840716761336250213780788832160972800.000000
-208362289468198900733239770441092808444810631202612176748544.000000
6334990451166668358809566648057057688693997098506521673728.000000
-32385840580365286743997236698826850042393094247378814238720.000000
-90088866654478117275988082659808922469253346188287755157504.000000
197319498590243545668924748569243995940474855266962540331008.000000
151072119038949308229262059803321785363551317871842526494720.000000
-134341058235883929227675228155548561295795027383923102449664.000000
-214999062443055098350481605000167036732911195217253445402624.000000
-159938571836237756568631150496809333997562901452487651229696.000000
7881050867579466060320265938953113542322820910576429957120.000000
417618188802092330808999790440577897131705862960690707300352.000000
-219735869411971931641769166426569342873696098939680434683904.000000
-78082823145465459774053039912365308956271656102571183964160.000000
-74336532934761081515397671741894800439811890096106465394688.000000
-76481865876931228636580918729268478912832490355338734731264.000000
140697043329930223378838300312559626228976149362260538556416.000000
866746186092462984815726117067510336792204916168835282763776.000000
58730008940958533206865343118369122027425137274473372712960.000000
361564768085889349894501732977543178018795508569058492547072.000000
231504880712723123160681532312985403180018433805692440674304.000000
-151680139506737705143248327500436753978140493184666192314368.000000
336173732695788029725733938167877894732779176396051865141248.000000
215612897244998024035157051276877142864824357562954169712640.000000
-80796639020855691345254867667113314131362094116854212591616.000000
-263963060019495990835827164614818001196856252331121354735616.000000
-321788097009708834499361465129222494605699636518502791118848.000000
-162975602151891652453128981257861635053557831763928400527360.000000
40321684033072618102623736766801283056803475841500577792.000000
150804796816926649122964932690556589836591117677472872660992.000000
-406250991789318583587010497876385858281539206179774867177472.000000
-55653716189103070815494014946564078032979737868064348176384.000000
280456977384670965489467993326329905355015492120486629867520.000000
35049258134568469113928727989216249653678833781748675903488.000000
179889774272765254334560879859884447293519448674101505294336.000000
-78083440175680647359567178697512347039793424023103385632768.000000
65473281849494500599041124742751043703693059107380225114112.000000
339750316807230545318906594397045227862307516169886244012032.000000
-388638745423172970497291531506174514501798799825216991133696.000000
211159014046746564519315072785921050337598619606716304588800.000000
288765738113908122261890656394329354243875325556576512638976.000000
-178656682281275396096091594161154111872763754111780152934400.000000
-260388688093509577294301236556768963048309717555193566986240.000000
261319419970934849272448055850518334020279443264312489017344.000000
-49149432121116412674419585500958119724015392787259950366720.000000
220638718852325115807750918488722772039564787043516257665024.000000
87281667570703398536905443888551390082808673684036108943360.000000
252076961706776720730817585220459192072958781025334153183232.000000
602916154321753339009303841761642896341590178016769874067456.000000
-372931477672477659810784998072839971380112838194978260779008.000000
192660766616662352671825573172615456302008678071608352440320.000000
-438090839801448156455823217950945251391918583787940573347840.000000
-357051639477239139967035380065396398324516602255069235118080.000000
-242983878472312109672687193927590431240171990042420378075136.000000
-161063098859664925918668921332886050048941679159324142731264.000000
-348179351573717785339484631462349274713200426665521857953792.000000
-126422097123932042262032434553787823418122562544399693119488.000000
-56100855360368066178462200097084499204569563135102351835136.000000
-133042158350977967185629004993091840978616991928605680336896.000000
-277265166393656379033062318237187334441880678637703505379328.000000
26101550398388167435418988982945137579931180868935484440576.000000
-97039183590735932342552764470674253582220276213983647629312.000000
44711374088297471004838035150301839570677332852877490651136.000000
13037794217949680888481475582636557895902501813497924419584.000000
190243002263514296188530489393464950431429787712947019055104.000000
124598018956830347984698164737864130941251453178984064352256.000000
210949388468804307148952250505675309631055231166719104909312.000000
99153325754732376311233457978884570618049476752319566577664.000000
26019051471991903155796105532153495502449428851165495296000.000000
215345954565583196345195390471707208367574963060401864966144.000000
-33553954465805857566406884879033678858803092904204562333696.000000
398274321074194852328435152567650814681673149195107830857728.000000
179352821306331517838137241432097311326555626924496778166272.000000
230668594683613849105578958000583762762725632685570959343616.000000
-189006149801899452652775738259127651185352432354608117972992.000000
-346638114916177056369344733332243424505806164298076675637248.000000
355073627953087354705054506935011799604024642171775544721408.000000
-395863190761038909831044909295764951268388329414070328360960.000000
135237123326431512252736852396025561355464242753103829401600.000000
-355969241670278986748192677794706388317915810350788658593792.000000
53856540826073699873684069911508270970066956318832781688832.000000
-191730364140653897100605630784470538495077439822616514789376.000000
-186398245485702193616342901342456346751973063298370483781632.000000
-80805250998956493579131032191904039631923251749195446484992.000000
56300349105497220656033612747231223711152856549596891971584.000000
27546397581296544508410127860344404997867374206229384527872.000000
52331888988687307394200363340819465860681716764041686286336.000000
-522737898921332459129526433698569829955621767166847665307648.000000
137215845069698077268524280185037327124568042134652812525568.000000
387986004531023768715721638768341314970774405160422084706304.000000
174377929015313152525870423675715865356200043154070090809344.000000
-404854899330348133065815527709226302829627999575199625248768.000000
70689360994915927714997673392453329329627761406560117456896.000000
-77575912443350316104332248854007148606026782397558257876992.000000
483113594684070874890565928177952797800678206251921917870080.000000
249467763817856649821312467954927638132330396553641510043648.000000
169687219692859856960618103271483380643789914287943939260416.000000
-106950907930783719429873971399504249127899171182757583781888.000000
-1040724840334782744559470042167776996639627319284557108215808.000000
-598584063823462649344087240179822566405096081336417248083968.000000
-406076050860069801366282440940244314792494174452580653989888.000000
-471273393962364666924276199590304483737419575425834193780736.000000
205741040395811859242737074818533901151264629011265829732352.000000
-41560415248578357217540539089793769607657198670253544964096.000000
-181460021582416033605131297941146793795151732482975389974528.000000
-37108799149286176217368547743595722246519522724486622216192.000000
135163789474475220582236596339929526351217989762678112911360.000000
387060183517510617151893892045314861971566422280670002806784.000000
322170998682212694105594145019342708858881256816593845878784.000000
272508521602252648448917736220741728518409797579329809416192.000000
-29201031990220154623666642089627006775194591265074838503424.000000
245494233257683983463334651680823714985187691668500897595392.000000
249198405667291414223863067455763586603807758181128621522944.000000
54501089960617371890476560711671290417593913390136521916416.000000
167334858371116299668231757884446375029139672083010250866688.000000
-7692744706888468392836590604727457069853362691399489683456.000000
141824004024347087578150904340043652263057011542097548804096.000000
22424246908690008910870263763268363830978082680636463644672.000000
319489009878911235728586046362359240531828263779054500446208.000000
280325169566245667072460488654488896094979626040213517631488.000000
-144795368263186251945701902653803469188178883653654718447616.000000
179770380032479856460475054053306551524472272838525896884224.000000
-228089867270762743736032947559005513392063938704672081051648.000000
52628168250402850592022716884812910230330195623481144508416.000000
129088532190017776315920408089275757293035327292166385958912.000000
411965555984597639424528234032059326362932249692585062301696.000000
361471010572112348452646257448284907910121937543547966193664.000000
449003438462333990886313858553083771128516239912818427559936.000000
376534861017999900443378823838778186094942038935299187277824.000000
422192217606013882357627928660758032369363112838633598484480.000000
CELL_DATA 2699
TENSORS STRESS float
1054505756583725294196506717321500171064271822724205117440.000000 126878639000576945794550725222996154234937574894858141696.000000 0.000000
126878639000576945794550725222996154234937574894858141696.000000 11808146262126056527950146027418165705915598128906502144.000000 0.000000
0.000000 0.000000 0.000000
15511119390104471487851426580052411677826204233333779464192.000000 18249059075146661187374823211049991790893195991317848522752.000000 0.000000
18249059075146661187374823211049991790893195991317848522752.000000 8137068499336554933428338067839417177319083328555207098368.000000 0.000000
0.000000 0.000000 0.000000
2597985456275124752935228251951342783682974440481292812288.000000 1272588562797913337845807475797086829784157082967055794176.000000 0.000000
1272588562797913337845807475797086829784157082967055794176.000000 358269085455364460865907219767039713405553947280058351616.000000 0.000000
0.000000 0.000000 0.000000
2316473124665195737472071927874860776163919669548453724160.000000 2666278841538900726014725248371909351779221002784228769792.000000 0.000000
2666278841538900726014725248371909351779221002784228769792.000000 1180688402407079467712536288122075636409328776275113803776.000000 0.000000
0.000000 0.000000 0.000000
1841546730261570764985163829285716068712858056518449233920.000000 -1628347611119866550056492938644052419441807167044215373824.000000 0.000000
-1628347611119866550056492938644052419441807167044215373824.000000 652825394397033637211914825692648319598185690298276904960.000000 0.000000
0.000000 0.000000 0.000000
12792036366349894556676255825235549975465789108983640883200.000000 1136231187637247040652649878243122561878001037572166385664.000000 0.000000
1136231187637247040652649878243122561878001037572166385664.000000 66983236894926393698099396067672273016124295059840434176.000000 0.000000
0.000000 0.000000 0.000000
1112995528877343809758935051710765806407399001017200672768.000000 -17362165532833460039910598788196030968197970871288019812352.000000 0.000000
-17362165532833460039910598788196030968197970871288019812352.000000 9571655986027850430855000843905516086214925941896988590080.000000 0.000000
0.000000 0.000000 0.000000
2474636868147787768578553131861890902558513947640653152256.000000 -1514624714251377989362836768153796041906794871803682488320.000000 0.000000
-1514624714251377989362836768153796041906794871803682488320.000000 498068415389307241427054959443991626654335341247575621632.000000 0.000000
0.000000 0.000000 0.000000
7885818172430349859442260435719651272204148419704414797824.000000 2015796857418539126063939770572103346948631921650340724736.000000 0.000000
2015796857418539126063939770572103346948631921650340724736.000000 329632735908449219721834167675745656980499234507550883840.000000 0.000000
0.000000 0.000000 0.000000
-2023978003577113571030806534137678924865496336427187699712.000000 898236198388371994522911956489379547527269564234445357056.000000 0.000000
898236198388371994522911956489379547527269564234445357056.000000 442664664594101972574431589346602229511713453971121111040.000000 0.000000
0.000000 0.000000 0.000000
2371519393365084934632220463819430847631478650132496384.000000 2808691093781520259829754875944513890360214267606597632.000000 0.000000
2808691093781520259829754875944513890360214267606597632.000000 1254421547926670027306463444829908905627935081234432000.000000 0.000000
0.000000 0.000000 0.000000
-13407570323382655008822534585654790375306010395852511641600.000000 -9433634296380252621495864038941173422384035389894213763072.000000 0.000000
-9433634296380252621495864038941173422384035389894213763072.000000 5175498357293331459810910064470878417789596214515262816256.000000 0.000000
0.000000 0.000000 0.000000
583065005128113136357844050417663102804985534350696120320.000000 2144572860326820029568388709069280502940151153251915399168.000000 0.000000
2144572860326820029568388709069280502940151153251915399168.000000 1141236790030867289769004765631468173410081762205983834112.000000 0.000000
0.000000 0.000000 0.000000
-9079823302982194026704007061599612714319334052061599760384.000000 83439693431212782284128107963778560730789498744840650752.000000 0.000000
83439693431212782284128107963778560730789498744840650752.000000 4605496840985783963715275381894798522891220292940595200.000000 0.000000
0.000000 0.000000 0.000000
-174399794423379195330151579217992618975741047640849616207872.000000 29127015695366757589681816102782303866634628062089710665728.000000 0.000000
29127015695366757589681816102782303866634628062089710665728.000000 8442324014629131295225700034741252565655873781237154840576.000000 0.000000
0.000000 0.000000 0.000000
752514088065425210944923009211991612375388072001404928.000000 -9806739179341862492932958321672910956057696685866876928.000000 0.000000
-9806739179341862492932958321672910956057696685866876928.000000 5390592535625194878568226100257588921689224438725214208.000000 0.000000
0.000000 0.000000 0.000000
5313113695198304347801264280227924555218158404720295673856.000000 2773876685031553614232874762585307709899661141894632570880.000000 0.000000
2773876685031553614232874762585307709899661141894632570880.000000 819670878625674116307194259237041857050959406696698478592.000000 0.000000
0.000000 0.000000 0.000000
2125910215801226198393493597718483155477396010212253499392.000000 2194234524789606896461722074802230956243537960823446044672.000000 0.000000
2194234524789606896461722074802230956243537960823446044672.000000 936256247169732770637850364265976560773230828823708172288.000000 0.000000
0.000000 0.000000 0.000000
11981901928366115489196547926999858799260447413734207389696.000000 -5042762576904358189181692936591736936678851579040986300416.000000 0.000000
-5042762576904358189181692936591736936678851579040986300416.000000 1268007089406051791542517209593685197017873261890786820096.000000 0.000000
0.000000 0.000000 0.000000
-39765131133954000937149609506690077587491187064832.000000 16307003077362212585522366299259894576409135284224.000000 0.000000
16307003077362212585522366299259894576409135284224.000000 7840256785372773909962248620512096619236473962496.000000 0.000000
0.000000 0.000000 0.000000
-694104530808836359180622890269430359520038619272527740928.000000 2207788488602067394696829220490304433508712399826036195328.000000 0.000000
2207788488602067394696829220490304433508712399826036195328.000000 1268448390156291964033197640980469117791302294869163114496.000000 0.000000
0.000000 0.000000 0.000000
-32621438773612423385013737712777396738292085635033979682816.000000 41532174151314273852351744957156916752633508355311736455168.000000 0.000000
41532174151314273852351744957156916752633508355311736455168.000000 23882118927122836687052699782729254652311802027730626674688.000000 0.000000
0.000000 0.000000 0.000000
19939538350631197527757084815316576512933567077310969937920.000000 -7590399828816914091910195319636859933388074462237046079488.000000 0.000000
-7590399828816914091910195319636859933388074462237046079488.000000 1757878993317327758210410189514996631706980835767986683904.000000 0.000000
0.000000 0.000000 0.000000
17721706756265629388722807679533591091143253194386144493568.000000 -1127104178656915897308272914602174144826501128345280839680.000000 0.000000
-1127104178656915897308272914602174144826501128345280839680.000000 48401249488093660999614654453930717268220379338903650304.000000 0.000000
0.000000 0.000000 0.000000
-23845364491000438326980516585541971082043762805662466179072.000000 -5196631005415796473988645622649084228405456382621099491328.000000 0.000000
-5196631005415796473988645622649084228405456382621099491328.000000 1817616035156692793978114538940616299734131801745585602560.000000 0.000000
0.000000 0.000000 0.000000
611971235769705986243473090814698299835776054354358829056.000000 82857269149771529087944570492282502252325148613415010304.000000 0.000000
82857269149771529087944570492282502252325148613415010304.000000 7538244599123480290762746785516995470466205969605984256.000000 0.000000
0.000000 0.000000 0.000000
2195917865434036747116835211740383202384571878400168296448.000000 346518054082866093607361165687906368802124020281382010880.000000 0.000000
346518054082866093607361165687906368802124020281382010880.000000 36416402954031465966420110955989418885557824772655546368.000000 0.000000
0.000000 0.000000 0.000000
1395658342728964054469188508543085699127369477703566622720.000000 563730444104005711938647783435229579231403245264365944832.000000 0.000000
563730444104005711938647783435229579231403245264365944832.000000 137373953007167802824336558269474873941315955292591095808.000000 0.000000
0.000000 0.000000 0.000000
18809505831422944793019046767477390542952775492332276416512.000000 -12049421088238470445805585245962694465096088042621907238912.000000 0.000000
-12049421088238470445805585245962694465096088042621907238912.000000 4076372271845174092611823056698795898717580723720829272064.000000 0.000000
0.000000 0.000000 0.000000
-962004539282206885587345940383141918952590239348526415872.000000 1339398650965173644536156051210378411621006563456237699072.000000 0.000000
1339398650965173644536156051210378411621006563456237699072.000000 771511876392232126843610559838430112147299389027026731008.000000 0.000000
0.000000 0.000000 0.000000
330607766079044147439544733302036615754924265235044892672.000000 514096949247957632079275324007233562357961930819944579072.000000 0.000000
514096949247957632079275324007233562357961930819944579072.000000 251298386638469807272564621855803964730504886987394121728.000000 0.000000
0.000000 0.000000 0.000000
1051985015378443699779591920251235995687650280705636696064.000000 75204065402846570271286643891341984753123955656320090112.000000 0.000000
75204065402846570271286643891341984753123955656320090112.000000 3659120305843212842622666322817515729453869639678296064.000000 0.000000
0.000000 0.000000 0.000000
27199373989819186577631709003791557712838191131396145152.000000 -46418727495993885673920353530594900640750733623296000000.000000 0.000000
-46418727495993885673920353530594900640750733623296000000.000000 22708575850281070389282046524388440493902830651138113536.000000 0.000000
0.000000 0.000000 0.000000
342259994026061958387902806820942957609481141334086516736.000000 -331310907800124347056347752588331753861325980957461708800.000000 0.000000
-331310907800124347056347752588331753861325980957461708800.000000 137721662101681377606873255881190377981918610504609169408.000000 0.000000
0.000000 0.000000 0.000000
835893221747373424773495353356528842695157827194989838336.000000 -5602369710319689783776238381129927164713742720963639771136.000000 0.000000
-5602369710319689783776238381129927164713742720963639771136.000000 3041282689290078590335380187052550509760067447821292273664.000000 0.000000
0.000000 0.000000 0.000000
-3878936776580075604744919330369032258852776765833832554299392.000000 -174651544854004561849157826312006178639863859789224877228032.000000 0.000000
-174651544854004561849157826312006178639863859789224877228032.000000 15534793867766276598493611083057072181386175670284950962176.000000 0.000000
0.000000 0.000000 0.000000
-99820118994882049332313419860560313403981647236795727872.000000 84666403691152953563857453783134403815481170716021227520.000000 0.000000
84666403691152953563857453783134403815481170716021227520.000000 47526278701529184826360013440312535339993598648517656576.000000 0.000000
0.000000 0.000000 0.000000
32926179131507909174569953022950816403929511497406873600.000000 -13389861731165169756055603388249062460960762225366138880.000000 0.000000
-13389861731165169756055603388249062460960762225366138880.000000 3272276968722107703883057218332478854597883745536049152.000000 0.000000
0.000000 0.000000 0.000000
2353522613071509157274435028867632551780025437835568873472.000000 230367459437049242697270114350180055673094961981286252544.000000 0.000000
230367459437049242697270114350180055673094961981286252544.000000 17724004172507639171350508847232621712684697539823271936.000000 0.000000
0.000000 0.000000 0.000000
29766938972606673211451672234207523489199409147641069568.000000 20777732959122622872498856717365560000037686356649967616.000000 0.000000
20777732959122622872498856717365560000037686356649967616.000000 7393589901825957891405192767156392958390909074797494272.000000 0.000000
0.000000 0.000000 0.000000
-1186520153499059267979106665075105948836391135807012864000.000000 -325316792796324394712002308947912464925278071936174260224.000000 0.000000
-325316792796324394712002308947912464925278071936174260224.000000 127921924014913625988258133236259409706343302528497614848.000000 0.000000
0.000000 0.000000 0.000000
-248886393548114000957975774662751431415203721788264546304.000000 48757915961098906507376149036612019284636763081035218944.000000 0.000000
48757915961098906507376149036612019284636763081035218944.000000 5006072580472032598959773829869048800642294505415901184.000000 0.000000
0.000000 0.000000 0.000000
2227123275079291252225821995157136315138488360726431793152.000000 15058842982717188835870616732826283055394176076930250440704.000000 0.000000
15058842982717188835870616732826283055394176076930250440704.000000 8177465190111778294571892636740814389667175341438686724096.000000 0.000000
0.000000 0.000000 0.000000
-1212478621009329395640964473154629216126578045317686493184.000000 1979669741727021401569624972441062808169027309172399538176.000000 0.000000
1979669741727021401569624972441062808169027309172399538176.000000 1142684249991047414970337258831163847817191343722665607168.000000 0.000000
0.000000 0.000000 0.000000
114282695711911595099630041907688431474827150500154048512.000000 -552944091333574428402210213561816381528289342899745718272.000000 0.000000
-552944091333574428402210213561816381528289342899745718272.000000 298534173012070238219687846138279653384932622629097963520.000000 0.000000
0.000000 0.000000 0.000000
2968395829733361602038975445802009400467175158013690380288.000000 1134623564289786777144054926967365180580750368349655924736.000000 0.000000
1134623564289786777144054926967365180580750368349655924736.000000 263870817711075266740913872022289556802520427558374211584.000000 0.000000
0.000000 0.000000 0.000000
5700211901020587416533347760587283818362898203207754842112.000000 -79447443987480832956660833697919024027403742360370226921472.000000 0.000000
-79447443987480832956660833697919024027403742360370226921472.000000 43729423626596041822555039464809145344334433219526109691904.000000 0.000000
0.000000 0.000000 0.000000
6820509849439311684338019960413811937189075311891841024.000000 -2176100730194577246142742553662519756062569763654598656.000000 0.000000
-2176100730194577246142742553662519756062569763654598656.000000 434035730277659642498998454901190035418062840764825600.000000 0.000000
0.000000 0.000000 0.000000
1660405905352733885510318812263556432634104144301500923904.000000 -814629701307258911278253164618515368566974701071885139968.000000 0.000000
-814629701307258911278253164618515368566974701071885139968.000000 228811755061950660108366878894847876365649520444552773632.000000 0.000000
0.000000 0.000000 0.000000
-9534602169662545073768221251242418779975287016816352690176.000000 -13029567829762842642803594335531186582156975065345197867008.000000 0.000000
-13029567829762842642803594335531186582156975065345197867008.000000 7503363535703827724941945999657602319735285746219622596608.000000 0.000000
0.000000 0.000000 0.000000
1594904990367186694877831016796083388884446903536218800128.000000 3249364815792984838370591784932315337688062205936963420160.000000 0.000000
3249364815792984838370591784932315337688062205936963420160.000000 1645939438106699157143358348191613271638019958882883862528.000000 0.000000
0.000000 0.000000 0.000000
2666433075098189107852449613546820710782713695383322624.000000 -1575019790251522775649779359800797640250239209479077888.000000 0.000000
-1575019790251522775649779359800797640250239209479077888.000000 506228238541637944296536540765893760942320308654702592.000000 0.000000
0.000000 0.000000 0.000000
1185325049219305304142497547113936512200287182954589847552.000000 4539130953747530836961648142789874288406311587490125840384.000000 0.000000
4539130953747530836961648142789874288406311587490125840384.000000 2409850805521534021623536880445514258154998599457322303488.000000 0.000000
0.000000 0.000000 0.000000
3993483437385453750720189612710023314660506069440135168.000000 3306924307366310567340894786452514283238106702869954560.000000 0.000000
3306924307366310567340894786452514283238106702869954560.000000 1286700806349165864085846560221736627777677753868877824.000000 0.000000
0.000000 0.000000 0.000000
-340535478403504602203014162034487789408912132003594240.000000 1585892831699292927708674664940540125970080470080159744.000000 0.000000
1585892831699292927708674664940540125970080470080159744.000000 903132401649608190870269719097547302775696841972383744.000000 0.000000
0.000000 0.000000 0.000000
6571809568038469876654488114558418766441233874307019440128.000000 -5806431371776332854267267958326771553701049378706032689152.000000 0.000000
-5806431371776332854267267958326771553701049378706032689152.000000 2326888481571237744841248774824427998863942284871032897536.000000 0.000000
0.000000 0.000000 0.000000
113405903426721884526537845293912604767564244705167278080.000000 -180469456184648776414324807186836763928177784195217620992.000000 0.000000
-180469456184648776414324807186836763928177784195217620992.000000 91895923800068958754209571888624585935013661887076237312.000000 0.000000
0.000000 0.000000 0.000000
3803261002142089485665245165741441161745134618129452761088.000000 -6120691574131386524199166864250310089236594311150778187776.000000 0.000000
-6120691574131386524199166864250310089236594311150778187776.000000 2949833549413158149956638527301228272361694846021783257088.000000 0.000000
0.000000 0.000000 0.000000
160279389814873858960170826783485725558279055052749406208.000000 -3323568350429355046038018953097598977467176402178547908608.000000 0.000000
-3323568350429355046038018953097598977467176402178547908608.000000 1855080294904343661048816088592905453946291533514541105152.000000 0.000000
0.000000 0.000000 0.000000
887774611291294572741559865601700858827550249550304247808.000000 -1728606002984756343870020603198685122555400336410004160512.000000 0.000000
-1728606002984756343870020603198685122555400336410004160512.000000 861033476004736533815246570466270352653069738239957401600.000000 0.000000
0.000000 0.000000 0.000000
327621196875285675736073531960916565927853210963028213760.000000 928760322135149653429850016747959989582272470067940687872.000000 0.000000
928760322135149653429850016747959989582272470067940687872.000000 487812830306372559095836360357067007690529456334183596032.000000 0.000000
0.000000 0.000000 0.000000
-3560890217704995988396802696948807811866535214600071151616.000000 1327448221914337775629911644477263444075237581253450399744.000000 0.000000
1327448221914337775629911644477263444075237581253450399744.000000 615080012245117113093382962644145285699945144442033274880.000000 0.000000
0.000000 0.000000 0.000000
51446862274247496832033450708199923663419288964749590528.000000 -916570210655700209194152560282994575453924636412486877184.000000 0.000000
-916570210655700209194152560282994575453924636412486877184.000000 507330816565984089953484458010555115432596689940530593792.000000 0.000000
0.000000 0.000000 0.000000
467362929462084034870652098011841968506545360984145395712.000000 -9331010471113624982100331683571826857764423899908222746624.000000 0.000000
-9331010471113624982100331683571826857764423899908222746624.000000 5153434142151249492751237376853470047197455777212280078336.000000 0.000000
0.000000 0.000000 0.000000
2505067847230109801726010341070522837001885285936831397888.000000 2441491380121721592717615605501706059154378770055019102208.000000 0.000000
2441491380121721592717615605501706059154378770055019102208.000000 1019353182961146304652914286331055096440512188867766386688.000000 0.000000
0.000000 0.000000 0.000000
5026278505983785890385409749329608392401955670828506939392.000000 -1783842165069184219452611527841385256225994247606699556864.000000 0.000000
-1783842165069184219452611527841385256225994247606699556864.000000 402001238573000675786711989712044809183297465907207471104.000000 0.000000
0.000000 0.000000 0.000000
-11623929055353559471781324849730193118340455971349864644608.000000 28058748585572085766340449431193813221363795990006263185408.000000 0.000000
28058748585572085766340449431193813221363795990006263185408.000000 16151051069593065600109878280181402489774895591067964407808.000000 0.000000
0.000000 0.000000 0.000000
3032288187966544302041055771470936542856807161929614229504.000000 490687811403906460945599929843360857139417945033729376256.000000 0.000000
490687811403906460945599929843360857139417945033729376256.000000 52021659792246115184676575813965608388633483672182325248.000000 0.000000
0.000000 0.000000 0.000000
1296667979794699501389998621868827339308470184852412432384.000000 -3634298475285497502172519523810277584273624980665462161408.000000 0.000000
-3634298475285497502172519523810277584273624980665462161408.000000 1897891908000131692488816403016749582622013515703169056768.000000 0.000000
0.000000 0.000000 0.000000
-848444365940612404203030885692968843153298841993530572800.000000 -2410812709421642315669420250625605841103561125781592604672.000000 0.000000
-2410812709421642315669420250625605841103561125781592604672.000000 1384467183399118444676695522173445478094191055867951972352.000000 0.000000
0.000000 0.000000 0.000000
524223095029181288339494239465950474278777538233635962880.000000 2603008313523206874666048860534637347279137961476007919616.000000 0.000000
2603008313523206874666048860534637347279137961476007919616.000000 1427906021682033422463942983161425329300810998843736850432.000000 0.000000
0.000000 0.000000 0.000000
456919367455101103287049821657508431625164308605518741504.000000 2501010986767389072255951658125603452498482769722769145856.000000 0.000000
2501010986767389072255951658125603452498482769722769145856.000000 1349383415829573167155723824508011673163664131342160887808.000000 0.000000
0.000000 0.000000 0.000000
-692834288852756272953566526612691939493236740518758580224.000000 -6907731071470472625174535941150773611320497295511747821568.000000 0.000000
-6907731071470472625174535941150773611320497295511747821568.000000 3908131892072872949201545787216097772205166752505125666816.000000 0.000000
0.000000 0.000000 0.000000
6081717210387978974547595737482408576634668242111272321024.000000 19616784003511490855053077483483135087220763655197312417792.000000 0.000000
19616784003511490855053077483483135087220763655197312417792.000000 10299948434268199519103696643269238733549888947185510252544.000000 0.000000
0.000000 0.000000 0.000000
21221004714471057537915673222946686597436747261785527025664.000000 -399033053604468106847494977558465128040524881979605254144.000000 0.000000
-399033053604468106847494977558465128040524881979605254144.000000 5000826133158610537923957791630384743312234351079456768.000000 0.000000
0.000000 0.000000 0.000000
-8499195105498015756315590793453091901241560716690128371712.000000 -2532605775950530860676965119997385085299617593551723954176.000000 0.000000
-2532605775950530860676965119997385085299617593551723954176.000000 1058394089562922418167696662932319822971111651014246137856.000000 0.000000
0.000000 0.000000 0.000000
-272201375105259854629699065761361869482674491921344233472.000000 3711965422221395065740171460559506666577266293223911849984.000000 0.000000
3711965422221395065740171460559506666577266293223911849984.000000 2084828549306790781638757209201513025905028489860131848192.000000 0.000000
0.000000 0.000000 0.000000
16857222636218031339061816518267974532600145335573020672.000000 11989989081409467733873368448652421258088711450592804864.000000 0.000000
11989989081409467733873368448652421258088711450592804864.000000 4311843871903010548559936003707431754806908703547064320.000000 0.000000
0.000000 0.000000 0.000000
42165372545128112921761999145207702223842937102881968357376.000000 7910858440713739211160014908701758655510846997284517838848.000000 0.000000
7910858440713739211160014908701758655510846997284517838848.000000 1004051475897473922875030603428912148015263801505401012224.000000 0.000000
0.000000 0.000000 0.000000
9766495701406478987587723218807599704523905143163037155328.000000 2991108946628441813109442850824728112921857742147510337536.000000 0.000000
2991108946628441813109442850824728112921857742147510337536.000000 574971314401087455611863109270508483493560614351020228608.000000 0.000000
0.000000 0.000000 0.000000
3509465799053511231419170618935624970413590395890220138496.000000 -3011762796476111272412926029257326570247444614888321712128.000000 0.000000
-3011762796476111272412926029257326570247444614888321712128.000000 1192584756696635486146251254429877090085844006352594141184.000000 0.000000
0.000000 0.000000 0.000000
-6003925937050545108271975878004705191231949108853908439040.000000 9231226467846491972555602750805044984369524338005463007232.000000 0.000000
9231226467846491972555602750805044984369524338005463007232.000000 5341351674257718057249685988017387129733674731518468030464.000000 0.000000
0.000000 0.000000 0.000000
8223156038805358644567432141079406713682566376361660776448.000000 19580021670137306014689850187726748648317150700442793017344.000000 0.000000
19580021670137306014689850187726748648317150700442793017344.000000 10005505104554397378777270911912399310861473400350228611072.000000 0.000000
0.000000 0.000000 0.000000
-393884615216478608958364726390110046953356534622931910656.000000 -3197497965191855298723710091105589407644083368899953819648.000000 0.000000
-3197497965191855298723710091105589407644083368899953819648.000000 1832048492642821671160609163106336488980303886900768276480.000000 0.000000
0.000000 0.000000 0.000000
905031084573624325486304222979008057669038550223035564032.000000 69624971581472575538858876350404872427323502551183130624.000000 0.000000
69624971581472575538858876350404872427323502551183130624.000000 4345370957656494175432590745891078585007919982587150336.000000 0.000000
0.000000 0.000000 0.000000
1205846023619967749435398394344935616456349720962794520576.000000 543067658795280668248905282004614819074587655164143861760.000000 0.000000
543067658795280668248905282004614819074587655164143861760.000000 143842094238537299977315082795341265873771113842563088384.000000 0.000000
0.000000 0.000000 0.000000
241261046170889423989327595782103130580929695683918692352.000000 -150927830853699610282418083508713670981814044437591883776.000000 0.000000
-150927830853699610282418083508713670981814044437591883776.000000 50317298236576161021383120286385469492580789783516676096.000000 0.000000
0.000000 0.000000 0.000000
-6118739446797373877962902872214839017934869901632077824.000000 2643252586585198999591056914731309421452520455680294912.000000 0.000000
2643252586585198999591056914731309421452520455680294912.000000 1294439911273962678887619321587252576413945591043719168.000000 0.000000
0.000000 0.000000 0.000000
-126921637919340628943044344812082090449093849483717902336.000000 677204455556979749885421504364940999675032324064881410048.000000 0.000000
677204455556979749885421504364940999675032324064881410048.000000 384651679655608884636494097567471583757667764458657677312.000000 0.000000
0.000000 0.000000 0.000000
-6459779805945094680857836190849414191067037581205604466163712.000000 194514143945151973356119389979790370957568829434016733069312.000000 0.000000
194514143945151973356119389979790370957568829434016733069312.000000 11649191388736737816481042766568081928657848371859909771264.000000 0.000000
0.000000 0.000000 0.000000
2412367502633557023863779455253021524162863444725292072960.000000 -1172830496812581323173733079450227574843490310431243763712.000000 0.000000
-1172830496812581323173733079450227574843490310431243763712.000000 329133566872426724898857003853011244354351865138350391296.000000 0.000000
0.000000 0.000000 0.000000
11146436337413744533757972583982966543085297483964802400256.000000 -6065946741257291244879623364905883381306624191076509941760.000000 0.000000
-6065946741257291244879623364905883381306624191076509941760.000000 1844547215497015997429750868007878637404213110209983283200.000000 0.000000
0.000000 0.000000 0.000000
3562547685401323154425672552489200502814625400943680684032.000000 -4334232470504180135337900457319626154540159898840480088064.000000 0.000000
-4334232470504180135337900457319626154540159898840480088064.000000 1952052369085208459913444596665546119843740521219875667968.000000 0.000000
0.000000 0.000000 0.000000
11126053843060993599385136518387751980598370332916102201344.000000 11679603939968496788896916467516896457456227189001885319168.000000 0.000000
11679603939968496788896916467516896457456227189001885319168.000000 5028361761273367251962747363584858951963254393789302702080.000000 0.000000
0.000000 0.000000 0.000000
947589039819901746246594157555123249342492871567349907456.000000 439383611294563780784049832250481038584356245731773775872.000000 0.000000
439383611294563780784049832250481038584356245731773775872.000000 120202239882722607483886037469418202132197363981557432320.000000 0.000000
0.000000 0.000000 0.000000
-38179529835670635420415562185611189496147563565120355303424.000000 7258936383563275861475779291482043525173619798358391521280.000000 0.000000
7258936383563275861475779291482043525173619798358391521280.000000 2315524402784359962592463073907842231348045700087601430528.000000 0.000000
0.000000 0.000000 0.000000
200810515526822432122733645813655054755473500883189235712.000000 -58401457746938775543692108286223649963067846715762540544.000000 0.000000
-58401457746938775543692108286223649963067846715762540544.000000 10719109059761917633720031187531998454330214210118615040.000000 0.000000
0.000000 0.000000 0.000000
30425441357538727832133388927648144158496493960274781405184.000000 780516856033913556389514009918529283403392230296981078016.000000 0.000000
780516856033913556389514009918529283403392230296981078016.000000 14344674033981942776648092898032093905700540271999057920.000000 0.000000
0.000000 0.000000 0.000000
3465285617664494160989169487885506481166560253341704650752.000000 -5223967512870146195881221267362079910178422179208072527872.000000 0.000000
-5223967512870146195881221267362079910178422179208072527872.000000 2483964358507674260586248892349217881115589430986206609408.000000 0.000000
0.000000 0.000000 0.000000
9091359879068634964169498718160427495445177660929290010624.000000 -1343411570234618065272205377590093365045762863298181595136.000000 0.000000
-1343411570234618065272205377590093365045762863298181595136.000000 164164843478320098399566510663539974013366467522564456448.000000 0.000000
0.000000 0.000000 0.000000
249898625356374940390733085807257640126600799059917668352.000000 -1106257250245680044419722477504425065486014729523375898624.000000 0.000000
-1106257250245680044419722477504425065486014729523375898624.000000 591514568047400067820912764092111519787834567992572641280.000000 0.000000
0.000000 0.000000 0.000000
2499214243021314740837359875301409856199139613197874495488.000000 1527356929873845949115157317984266436766596660471785324544.000000 0.000000
1527356929873845949115157317984266436766596660471785324544.000000 502075923875441980427521190104703879620706801595113799680.000000 0.000000
0.000000 0.000000 0.000000
-286508108982162591468195778066890624658740961792481034240.000000 -130284570487360256225111874191788813455812592162870132736.000000 0.000000
-130284570487360256225111874191788813455812592162870132736.000000 82420338456043051916872706773971762507764630262313385984.000000 0.000000
0.000000 0.000000 0.000000
-10168504764664094376715752013703072618303931101243460550656.000000 35500054952153245969953579771660071368401558657512629075968.000000 0.000000
35500054952153245969953579771660071368401558657512629075968.000000 20312746555407590999440665000759594231335435480747139399680.000000 0.000000
0.000000 0.000000 0.000000
13347887285137396329345850205094058297803174840893406445568.000000 5731827784380754037546488610422028125504016442578773737472.000000 0.000000
5731827784380754037546488610422028125504016442578773737472.000000 1462902806542541646421067647852172363069362628483243573248.000000 0.000000
0.000000 0.000000 0.000000
-271995986561548414957848501478995934241383199032260715085824.000000 -29088485200685582453835511235626069657999959766392748638208.000000 0.000000
-29088485200685582453835511235626069657999959766392748638208.000000 5835843778909619379578944643924705830365875103735677452288.000000 0.000000
0.000000 0.000000 0.000000
3912718418349478687321662433966664062457679783573585920.000000 1693091068794243685030946073964339828451342496076660736.000000 0.000000
1693091068794243685030946073964339828451342496076660736.000000 434733134583244550798654611092341376511361767742373888.000000 0.000000
0.000000 0.000000 0.000000
-2264128551547660079205833315093444543807427202726806683648.000000 3140403891598631626908320710747507937830928724517221040128.000000 0.000000
3140403891598631626908320710747507937830928724517221040128.000000 1808496247567484524121210743336484897582707665920449314816.000000 0.000000
0.000000 0.000000 0.000000
4222433474301957896141711692460361208478313701064048640.000000 -521611240419421661181980382147102507945090065018912768.000000 0.000000
-521611240419421661181980382147102507945090065018912768.000000 42529272019730016903247293260562863516367653739429888.000000 0.000000
0.000000 0.000000 0.000000
-9848255617695711941351213554016748991045828138557390192640.000000 -8230037061877965023564788548754240335087653976186931904512.000000 0.000000
-8230037061877965023564788548754240335087653976186931904512.000000 4595471339980874098038307557536164444514258265727876202496.000000 0.000000
0.000000 0.000000 0.000000
3241108031654710508470917992786910096690434432397475840.000000 -4386263593057780193303797345696679049350673264378118144.000000 0.000000
-4386263593057780193303797345696679049350673264378118144.000000 2033652415060510859576049746775394183584799611668135936.000000 0.000000
0.000000 0.000000 0.000000
-3104510047327544115647284415864797372516966306035074596864.000000 547682825944827420307509412281063624766276813855765037056.000000 0.000000
547682825944827420307509412281063624766276813855765037056.000000 164543368515699243939746886320821794219761547413616066560.000000 0.000000
0.000000 0.000000 0.000000
1061169255528009688637664242666395079522378500630827237376.000000 791874974778884466749044769645769809253151681681916166144.000000 0.000000
791874974778884466749044769645769809253151681681916166144.000000 292338552645450794775819189506360318327190414310282100736.000000 0.000000
0.000000 0.000000 0.000000
-3711129820503380342193742438530684377427271650956122521600.000000 -15070265863987370521921697748650156018243109254477354369024.000000 0.000000
-15070265863987370521921697748650156018243109254477354369024.000000 8602651384060382547544516725910674342279412224137814343680.000000 0.000000
0.000000 0.000000 0.000000
-26631767293679786945191820878049356857838131929884770959360.000000 -28894558380026214025640422214343342341101454569649102389248.000000 0.000000
-28894558380026214025640422214343342341101454569649102389248.000000 16494569308685443749979267068848565408477167580254262263808.000000 0.000000
0.000000 0.000000 0.000000
-2479657946559528624623921610101447617680290049911796269056.000000 1401166621952341606563941584325487252163234554561234468864.000000 0.000000
1401166621952341606563941584325487252163234554561234468864.000000 749241958849005085896360929111197371070086129379465756672.000000 0.000000
0.000000 0.000000 0.000000
-12276908531681489985828946964085262186461115033101271040.000000 11090632725001332805012747474683516025835092881323327488.000000 0.000000
11090632725001332805012747474683516025835092881323327488.000000 6262508168829127051286670608168952259154413083435204608.000000 0.000000
0.000000 0.000000 0.000000
234219722408783530557464740617258961267930066437523111936.000000 267523610680992419615056656590940133143681978181586255872.000000 0.000000
267523610680992419615056656590940133143681978181586255872.000000 118178374892486597671747289046252813020512249988320854016.000000 0.000000
0.000000 0.000000 0.000000
-3758773555698077483627412537325830832042629056476133457920.000000 -850323685101970362010424063723333816531541136410595557376.000000 0.000000
-850323685101970362010424063723333816531541136410595557376.000000 304575193971169536595690530666489202132079510923201478656.000000 0.000000
0.000000 0.000000 0.000000
7541733413506553857313855220873252694850077382194048794624.000000 1668322038132244333096890986188993793163876930580186660864.000000 0.000000
1668322038132244333096890986188993793163876930580186660864.000000 238745098303377864535345819640092577641510960853852094464.000000 0.000000
0.000000 0.000000 0.000000
322107010299432707270451215568868732074214053708191236096.000000 2212874861649231094447873036649937812578453839489617887232.000000 0.000000
2212874861649231094447873036649937812578453839489617887232.000000 1204134869381845567694767850962226599166755735294732926976.000000 0.000000
0.000000 0.000000 0.000000
-8348664159352595281413345528971664413867809547374940913664.000000 -8317503811839608941754540154459627417491918792900988633088.000000 0.000000
-8317503811839608941754540154459627417491918792900988633088.000000 4730069003293413555549368238830381057118163728319329075200.000000 0.000000
0.000000 0.000000 0.000000
18748272114428192057500818285931271833205692642568962048.000000 -53677589521628963574764059702620869419500076088072077312.000000 0.000000
-53677589521628963574764059702620869419500076088072077312.000000 30951356456915866104154894216262799279121548247555899392.000000 0.000000
0.000000 0.000000 0.000000
-3914996690875346952500674264502452899550549588706899001344.000000 3585524645305315509046388974306611387717625519829646573568.000000 0.000000
3585524645305315509046388974306611387717625519829646573568.000000 2049081692734824155349382266030410593816178448161124122624.000000 0.000000
0.000000 0.000000 0.000000
-7418550059576805553143889284331512341684753217555424870400.000000 7802983321949147453641799398067318818020238108732103327744.000000 0.000000
7802983321949147453641799398067318818020238108732103327744.000000 4451950881130057232819829729328606726336077798008233656320.000000 0.000000
0.000000 0.000000 0.000000
1209332001260361069346503233396399658600464333425820565504.000000 2707011382058286918184069441830458981636046143314246762496.000000 0.000000
2707011382058286918184069441830458981636046143314246762496.000000 1393541396239107745975359599975113157393203374935293034496.000000 0.000000
0.000000 0.000000 0.000000
-2823157903357726522903093423599915729334535532798124574638080.000000 65515650598935552781560220135901595402136655804320282836992.000000 0.000000
65515650598935552781560220135901595402136655804320282836992.000000 3034230529811727204506304671782215772299989482792607023104.000000 0.000000
0.000000 0.000000 0.000000
452705292672539933045224431314804600944366942562524594176.000000 2561641969977589074927500299859517069296040498982174064640.000000 0.000000
2561641969977589074927500299859517069296040498982174064640.000000 1402376898859108929791298812282024349466735774777974194176.000000 0.000000
0.000000 0.000000 0.000000
5994533950935595516942454706755908001151196743495235665920.000000 6556777150466764376907750209156684652156618164477590765568.000000 0.000000
6556777150466764376907750209156684652156618164477590765568.000000 2854197516710829158075745776928834032422816120557625409536.000000 0.000000
0.000000 0.000000 0.000000
-7081019001032857871547080637737415585230012486606776097046528.000000 89755492225874771897183621671085957056128314921192546893824.000000 0.000000
89755492225874771897183621671085957056128314921192546893824.000000 2273098732017882860161871666231474186711024682749281697792.000000 0.000000
0.000000 0.000000 0.000000
-4916147721025469382198037258510258158008531334091084136448.000000 -12449034441119988527035006021070820640260362471510263201792.000000 0.000000
-12449034441119988527035006021070820640260362471510263201792.000000 7162064478300055174767312569649775237574832428625917116416.000000 0.000000
0.000000 0.000000 0.000000
-1677964463336132005894569910996013266397184362239085248512.000000 6549010402809446403389764366843980895143942403598334296064.000000 0.000000
6549010402809446403389764366843980895143942403598334296064.000000 3739321407208378429868653473162734656991583496045567410176.000000 0.000000
0.000000 0.000000 0.000000
1713783809158850251530005454174215605137329515959274176512.000000 5861881271312010553350798886059085491247416135404516016128.000000 0.000000
5861881271312010553350798886059085491247416135404516016128.000000 3090655185761423607786448724640690377772947498069649260544.000000 0.000000
0.000000 0.000000 0.000000
197026413832846137937942405799468695885509023071024971776.000000 -3856363540987487843952551570866431369186218231132804087808.000000 0.000000
-3856363540987487843952551570866431369186218231132804087808.000000 2128613704913930685552188674853565706307705519659538186240.000000 0.000000
0.000000 0.000000 0.000000
5521317080911841680252893455504555970189959483948632375296.000000 7283723476074981631791696957646761505993330506500570873856.000000 0.000000
7283723476074981631791696957646761505993330506500570873856.000000 3354921318202581322678421059838644164154754676415115821056.000000 0.000000
0.000000 0.000000 0.000000
4964987353234730421471035126614319989476534287601426759680.000000 659761435292715787123328931294796058540221592810402349056.000000 0.000000
659761435292715787123328931294796058540221592810402349056.000000 57886404087249737132147107741922762879482526877456793600.000000 0.000000
0.000000 0.000000 0.000000
-1019103513234551586011601214071135128260157482410218356736.000000 2982891305430328820820009519913680520426725735065540624384.000000 0.000000
2982891305430328820820009519913680520426725735065540624384.000000 1714678392265393975442118881632987547565736154139577024512.000000 0.000000
0.000000 0.000000 0.000000
101614367846205947557233942583584777973343095383427907584.000000 -74169611718325005656666688410446200619167009675633754112.000000 0.000000
-74169611718325005656666688410446200619167009675633754112.000000 26921551913023983625943022776879117818111757049764249600.000000 0.000000
0.000000 0.000000 0.000000
188960794652743326125900591326859909992924562368906657792.000000 1105333959395197915375523571079355180163257150821476859904.000000 0.000000
1105333959395197915375523571079355180163257150821476859904.000000 595633278069481203132109320169657172526204909432847990784.000000 0.000000
0.000000 0.000000 0.000000
4596027022395394068204172092123301765016001000738127872000.000000 3079248338768672368945913330075609943146187530328126521344.000000 0.000000
3079248338768672368945913330075609943146187530328126521344.000000 1070108082686463886645261161425162126647058957183936888832.000000 0.000000
0.000000 0.000000 0.000000
5564570517654827607228660474578404222346826733583226372096.000000 1930244925697877273743249787691735008097557117363793428480.000000 0.000000
1930244925697877273743249787691735008097557117363793428480.000000 417665389254146731292596491007862776162005804760099192832.000000 0.000000
0.000000 0.000000 0.000000
1358233918694407417405421137724367984988225369707590451200.000000 997856806431030395790661266128951429092060812391191937024.000000 0.000000
997856806431030395790661266128951429092060812391191937024.000000 367617624015547345559651239385877154451236052222819172352.000000 0.000000
0.000000 0.000000 0.000000
257691133826028636667251292180839375159224345749025193984.000000 -444411922059195738455355028567014605586641478525827153920.000000 0.000000
-444411922059195738455355028567014605586641478525827153920.000000 216971129208615026403049241903666567818799540699146485760.000000 0.000000
0.000000 0.000000 0.000000
11005601647031523386535908279338330228340249920349375823872.000000 -4993402782971701884323004602328291007322446337144346640384.000000 0.000000
-4993402782971701884323004602328291007322446337144346640384.000000 1344956549082401485748358037312914109131668740661837824000.000000 0.000000
0.000000 0.000000 0.000000
2825870344690021040783469574517793883969241244837374590976.000000 -1144790531079198450807253536697103669006605932593955209216.000000 0.000000
-1144790531079198450807253536697103669006605932593955209216.000000 278914038131660476842972277360604017981621699120610672640.000000 0.000000
0.000000 0.000000 0.000000
430934937852244093777920625742533640055734346823497678848.000000 312775210312056218184376493292936727604705984988623929344.000000 0.000000
312775210312056218184376493292936727604705984988623929344.000000 113741989062273059893972435686795750814726012561996644352.000000 0.000000
0.000000 0.000000 0.000000
756608945703610856428637651790389757695644197046255091712.000000 -1620304264000147984551521259288155936415419221928476409856.000000 0.000000
-1620304264000147984551521259288155936415419221928476409856.000000 817549159792591589361714484504461032576854360541831888896.000000 0.000000
0.000000 0.000000 0.000000
-4629683679023015614913531961033736066683777892914514886656.000000 -8173587800886768581784466706016483171466083782716580429824.000000 0.000000
-8173587800886768581784466706016483171466083782716580429824.000000 4717895102277940860447321269056556718724973903318628696064.000000 0.000000
0.000000 0.000000 0.000000
-2810750781663297583884523764087210086618968195782431211520.000000 -659887071360585128248482555755115146069136468284954116096.000000 0.000000
-659887071360585128248482555755115146069136468284954116096.000000 245141964408028721693440171725037659302288739889819156480.000000 0.000000
0.000000 0.000000 0.000000
-4574824933529789767525933576219529875050169842262171713536.000000 -820146968688866043251266114700584117470216651300648517632.000000 0.000000
-820146968688866043251266114700584117470216651300648517632.000000 250543260643903384620064792630742349144486634602637557760.000000 0.000000
0.000000 0.000000 0.000000
-1252349851697690592679147480516684465607572714204772171776.000000 -16377609422400194505374905004031524016665060854994856574976.000000 0.000000
-16377609422400194505374905004031524016665060854994856574976.000000 9197323911822040445678520544330985605870869794006899884032.000000 0.000000
0.000000 0.000000 0.000000
122759780592696657655260187518461519354785442243381559296.000000 1743894362523420452067581763641995643179458292094603362304.000000 0.000000
1743894362523420452067581763641995643179458292094603362304.000000 959628631711094257369110996716241289148473343571677675520.000000 0.000000
0.000000 0.000000 0.000000
1214468079642262385083677356245968529767584075036265283584.000000 -398630641750169607021313925920216642935925427920934273024.000000 0.000000
-398630641750169607021313925920216642935925427920934273024.000000 83519487910331544527958348075272200152872727049437970432.000000 0.000000
0.000000 0.000000 0.000000
40681287697856781878679491578818854262942994611163201798144.000000 20723248178529077872181747150898120007672802880118344122368.000000 0.000000
20723248178529077872181747150898120007672802880118344122368.000000 6017093822909593833390685345456399429615912479912573796352.000000 0.000000
0.000000 0.000000 0.000000
-7152283289510577061286521871440990611976210851637019803648.000000 -4053940265797699070678725601395430513796563975934142578688.000000 0.000000
-4053940265797699070678725601395430513796563975934142578688.000000 2137771161765865348127037643837496533720450720007624589312.000000 0.000000
0.000000 0.000000 0.000000
68272203775709109357895587532763298299439034024941584384.000000 165771486265843917723794733737707050015740318543180201984.000000 0.000000
165771486265843917723794733737707050015740318543180201984.000000 86552487255286503543257891149378134779145513378590490624.000000 0.000000
0.000000 0.000000 0.000000
-1775117656439365828627904544547944370268832614266540392448.000000 -1263539912422877428372800354382070050920924649079128981504.000000 0.000000
-1263539912422877428372800354382070050920924649079128981504.000000 695577341308045563482536440581379829802742713738508369920.000000 0.000000
0.000000 0.000000 0.000000
1553074459655890228719232867317009907168626946966319792128.000000 -598067117023724286164808047696810414869086129018638434304.000000 0.000000
-598067117023724286164808047696810414869086129018638434304.000000 139804738721132642955518682273389563027472848141747748864.000000 0.000000
0.000000 0.000000 0.000000
1493226990871868134495343385384264920089423405883859140608.000000 -532594614984679513335541916234536041957276124488713371648.000000 0.000000
-532594614984679513335541916234536041957276124488713371648.000000 119468288428779655832976597218369598983256835644100444160.000000 0.000000
0.000000 0.000000 0.000000
-641897207093185869593717908514040073998527172244427243520.000000 -3167885677532317479103236988427098625535580902448825368576.000000 0.000000
-3167885677532317479103236988427098625535580902448825368576.000000 1817964403745755489567459609970938096317351856635908194304.000000 0.000000
0.000000 0.000000 0.000000
2887024343370073355814210792733930365425938032606444519424.000000 1719905246988851524901998014262541051168350702499214131200.000000 0.000000
1719905246988851524901998014262541051168350702499214131200.000000 556036087894747721538893439431751385834372074499532128256.000000 0.000000
0.000000 0.000000 0.000000
1281473331792250218022874111065430462818880980574812504064.000000 -1240761250009982053716478837248789393952749601902936719360.000000 0.000000
-1240761250009982053716478837248789393952749601902936719360.000000 518069417091723761381609792311353458664776470218248552448.000000 0.000000
0.000000 0.000000 0.000000
-5346390101839789947207691450844794150927089395241817473024.000000 1152108535748112392058859872659783751942621613044743012352.000000 0.000000
1152108535748112392058859872659783751942621613044743012352.000000 399157095485189374721745460664405130966665201909948743680.000000 0.000000
0.000000 0.000000 0.000000
107931343001471417477762556079884619154480930000019128320.000000 -490299751393682680711138772860045330683279399106289598464.000000 0.000000
-490299751393682680711138772860045330683279399106289598464.000000 243271398114907650457037242888836898954287626410403037184.000000 0.000000
0.000000 0.000000 0.000000
2809497707067207448688993380093721014314115482731849711616.000000 -5315469616073169652679025268922582558333155524577238974464.000000 0.000000
-5315469616073169652679025268922582558333155524577238974464.000000 2635105976591303194673129223627824205023185398785237843968.000000 0.000000
0.000000 0.000000 0.000000
-363934888807197142904047674705081075395755364312839880704.000000 -2198631459982024900953131635394462116976064295147512266752.000000 0.000000
-2198631459982024900953131635394462116976064295147512266752.000000 1257607411169247862966440435051957470324960471001923059712.000000 0.000000
0.000000 0.000000 0.000000
5490804019192628050584310554438736252717641054993338335232.000000 775159884934252074235900240815433013313737635980506038272.000000 0.000000
775159884934252074235900240815433013313737635980506038272.000000 72020204634790719842642790980588835886155043002686373888.000000 0.000000
0.000000 0.000000 0.000000
4192492505557210749866859721150229605207570628870974472192.000000 -320675322137835476361249592247139053464739354092532400128.000000 0.000000
-320675322137835476361249592247139053464739354092532400128.000000 17065801673794121145854201063005232132438676081653841920.000000 0.000000
0.000000 0.000000 0.000000
51770375830106820566220971083828608205278955332081549312.000000 476938713346329471978007510841903564327557069473845346304.000000 0.000000
476938713346329471978007510841903564327557069473845346304.000000 262796389149561429761891086723201262959462835399482671104.000000 0.000000
0.000000 0.000000 0.000000
-238596514491223533540067858245410936573000053878102285090816.000000 -9723567968274107388779243030474311393012729668608353894400.000000 0.000000
-9723567968274107388779243030474311393012729668608353894400.000000 784455982968847087570757866384229724116174555111743291392.000000 0.000000
0.000000 0.000000 0.000000
-32324246079642034046529402847370590159466575608175132672.000000 2261974072635400235077899685642267756010638012332527058944.000000 0.000000
2261974072635400235077899685642267756010638012332527058944.000000 1274485676453484259084031315154471027945849604639584944128.000000 0.000000
0.000000 0.000000 0.000000
3321167295333419086848876798150287041902511200118478209024.000000 -7141566609280365306274852653130731333929836568117147336704.000000 0.000000
-7141566609280365306274852653130731333929836568117147336704.000000 3605071011276352306829237729351514193688766296106465230848.000000 0.000000
0.000000 0.000000 0.000000
3742339196212686043767497340371369730156245903064921276416.000000 3677995045413725980890837370147695358027054962783287246848.000000 0.000000
3677995045413725980890837370147695358027054962783287246848.000000 1540651312093626288148273849027350412223264431412883750912.000000 0.000000
0.000000 0.000000 0.000000
4521525133092361042221489739574266864869062388210475204608.000000 1154806913732597868055898680987428556300608682896979394560.000000 0.000000
1154806913732597868055898680987428556300608682896979394560.000000 196569891496930780296225034605877191817718832795077312512.000000 0.000000
0.000000 0.000000 0.000000
3881238795779003233139575258121086266074599900278838788096.000000 660535645343175944883306907462317044311008556938858332160.000000 0.000000
660535645343175944883306907462317044311008556938858332160.000000 73555259691253830705767007963046809034954032606508744704.000000 0.000000
0.000000 0.000000 0.000000
1905731464066230176227871963932801683246590654133426978816.000000 2931666697825115579713718524320825931850155002967703420928.000000 0.000000
2931666697825115579713718524320825931850155002967703420928.000000 1400015789163764752430876268642352481796729544442153795584.000000 0.000000
0.000000 0.000000 0.000000
1457173374531145441897181412868719468823177320624220536832.000000 -3050641009008945941249995709376458247035214009210708688896.000000 0.000000
-3050641009008945941249995709376458247035214009210708688896.000000 1534613699302994850383973658237762266516034546151863615488.000000 0.000000
0.000000 0.000000 0.000000
27313102098988504487603088415574919685327817088964755456.000000 -3763606036090254769499529878406098965279950699340234752.000000 0.000000
-3763606036090254769499529878406098965279950699340234752.000000 341628194036726551406801865014804734537932137933307904.000000 0.000000
0.000000 0.000000 0.000000
3478125695255657436078868671036159304506500077685550612480.000000 -2347165239266877375133616056385857170947215069761796833280.000000 0.000000
-2347165239266877375133616056385857170947215069761796833280.000000 822908896999077680808356686036381617296172264919796809728.000000 0.000000
0.000000 0.000000 0.000000
1016435813573369782208292613102791866129772376447436980224.000000 -349631621323832394255707732408058024566351787619218620416.000000 0.000000
-349631621323832394255707732408058024566351787619218620416.000000 83767731059237167732115886653583500277513299479203151872.000000 0.000000
0.000000 0.000000 0.000000
-5701079538164284369577221021157108767898216914906792329216.000000 10981683036255401028524720748810776723586646071477689909248.000000 0.000000
10981683036255401028524720748810776723586646071477689909248.000000 6337664011448636901472775445676066032209939377694009458688.000000 0.000000
0.000000 0.000000 0.000000
-1397888669803608698663212285252544056520816204175516893184.000000 12538374586685148061439965770258165439481092692543820267520.000000 0.000000
12538374586685148061439965770258165439481092692543820267520.000000 7082742833454314686493749299206209522601434454522874298368.000000 0.000000
0.000000 0.000000 0.000000
6488719212471896293221334248511705936407439634937323454464.000000 -2697834332852909393163720648926391274355626670038867509248.000000 0.000000
-2697834332852909393163720648926391274355626670038867509248.000000 671138367736295126634948427055604552424172388769970782208.000000 0.000000
0.000000 0.000000 0.000000
779868229800575602233472863946782741999086692710226067456.000000 202546265161427365407613376957205820265799162784166969344.000000 0.000000
202546265161427365407613376957205820265799162784166969344.000000 34561924747310175526518959032955977110353367030216785920.000000 0.000000
0.000000 0.000000 0.000000
4349374851716599566778066044114399289592775133949329408.000000 4959692244453681486445521905705944461683150900393148416.000000 0.000000
4959692244453681486445521905705944461683150900393148416.000000 2189698874869033584876010774865023521055274822029803520.000000 0.000000
0.000000 0.000000 0.000000
72819471864027173406701886387829917708434123259904.000000 -588318318717682606415147705214103882440975031730176.000000 0.000000
-588318318717682606415147705214103882440975031730176.000000 358439867683795476658414527452450686150542979235840.000000 0.000000
0.000000 0.000000 0.000000
24719810810811297196723528152232932596763543455248941056.000000 -33806996406786910352019268296278863266254381741017923584.000000 0.000000
-33806996406786910352019268296278863266254381741017923584.000000 15714811408467983949673761342848507236151429741942931456.000000 0.000000
0.000000 0.000000 0.000000
-786406933341758699992278933654361957532808882283647407751168.000000 -26962854412434881391199429724064785679865840271053513818112.000000 0.000000
-26962854412434881391199429724064785679865840271053513818112.000000 1835333359903119495889857424223787081162216426342338002944.000000 0.000000
0.000000 0.000000 0.000000
-8153767773052257220412046107855511060490624508918497280.000000 -9332971868973589383836158537369059848403399099507802112.000000 0.000000
-9332971868973589383836158537369059848403399099507802112.000000 5347031427459645767317972927248202761304455683174825984.000000 0.000000
0.000000 0.000000 0.000000
-207143295531363295217100581421568026691175197250351529984.000000 -279947241484690627085388921067030111147776461408512770048.000000 0.000000
-279947241484690627085388921067030111147776461408512770048.000000 161198084654556069520939559655726851894988611511115579392.000000 0.000000
0.000000 0.000000 0.000000
449744552085979037706735610773057425110621962922622976.000000 390654344427379946695319517459787270185186887049674752.000000 0.000000
390654344427379946695319517459787270185186887049674752.000000 155377783184952454149302198619822185979149850685472768.000000 0.000000
0.000000 0.000000 0.000000
80674823550298382282320289263666939916934544253341663232.000000 1011290997200436899829279675888352759275823660091528183808.000000 0.000000
1011290997200436899829279675888352759275823660091528183808.000000 565914644293462951498588130465413004408531506167556341760.000000 0.000000
0.000000 0.000000 0.000000
198230560770561761169442952580717561544168741653872377856.000000 -285887085528929434735242728696044322590649682839855955968.000000 0.000000
-285887085528929434735242728696044322590649682839855955968.000000 134599757800886284638215157164614302201953653305408225280.000000 0.000000
0.000000 0.000000 0.000000
1838651892111302408908894295012287868356674558519440048128.000000 -3098815069657107625839026997829806014947332126136694996992.000000 0.000000
-3098815069657107625839026997829806014947332126136694996992.000000 1506531655145067028875763503803247374772209689048643534848.000000 0.000000
0.000000 0.000000 0.000000
17368661447995930883355380568578915506383486978090575331328.000000 20843189406954227685769174919809912122733431813396949368832.000000 0.000000
20843189406954227685769174919809912122733431813396949368832.000000 9349274107930135864688329828889695740589012173301395488768.000000 0.000000
0.000000 0.000000 0.000000
-10530707928822812387708775140872072900024919347959317921792.000000 5582246053487927399914000277372054641448788538335921438720.000000 0.000000
5582246053487927399914000277372054641448788538335921438720.000000 2897084559111300542374927516792620386807223409368123834368.000000 0.000000
0.000000 0.000000 0.000000
-42742884664449957893097757991861544447450368307764530249728.000000 19530374930948347232069127875869815069070585560694440067072.000000 0.000000
19530374930948347232069127875869815069070585560694440067072.000000 9732537372545854872476991659773547125173449264685448691712.000000 0.000000
0.000000 0.000000 0.000000
-335226567365213081386860900461438761647025571070985895936.000000 2033533428923228963847931917891840531225767111756869533696.000000 0.000000
2033533428923228963847931917891840531225767111756869533696.000000 1152084644276326957836054931136780534142904824910139359232.000000 0.000000
0.000000 0.000000 0.000000
6684305187503673884323736466482740397204143872271875833856.000000 2414628043631241213308291125113460480751346595303360823296.000000 0.000000
2414628043631241213308291125113460480751346595303360823296.000000 535803950308365696986233261205505971832708852427463327744.000000 0.000000
0.000000 0.000000 0.000000
691903025990258871599376113289288954085830267466000891904.000000 969818540769326337067391373939487302156787647660953698304.000000 0.000000
969818540769326337067391373939487302156787647660953698304.000000 453397954195573309668735259021607924892375772876417007616.000000 0.000000
0.000000 0.000000 0.000000
-1155731543265393908705250033959188867640737964763918630912.000000 1736180828091036863159677394749508303154037806243640246272.000000 0.000000
1736180828091036863159677394749508303154037806243640246272.000000 1005743504634986249587634114815985623692998902307390226432.000000 0.000000
0.000000 0.000000 0.000000
-294634233903460949549647150259973546005692949979593703424.000000 57747727804858837145823551130050103686515672859816230912.000000 0.000000
57747727804858837145823551130050103686515672859816230912.000000 18800679267012154586203738993777799264481057028064673792.000000 0.000000
0.000000 0.000000 0.000000
2780974610183689371257059245647844699647334761994649600.000000 1400537242288743728305442171750329314553427222492872704.000000 0.000000
1400537242288743728305442171750329314553427222492872704.000000 403240705198513208856136678974299588294909314495152128.000000 0.000000
0.000000 0.000000 0.000000
-9113841418676390360706316073586170117602368091501996388909056.000000 -71924068814751616603981103773025861752603997586093978419200.000000 0.000000
-71924068814751616603981103773025861752603997586093978419200.000000 1136592392631979151483310929039652431069495309193938206720.000000 0.000000
0.000000 0.000000 0.000000
251968609561249193888114254429988816952987395708101328896.000000 -122360020961278502179740748145200852059198283037773135872.000000 0.000000
-122360020961278502179740748145200852059198283037773135872.000000 34675228727666681325419404764411045665410139179660083200.000000 0.000000
0.000000 0.000000 0.000000
608850415811667605596313431520814103624946919009559773184.000000 297555953513113996766075715937094870322385933356723339264.000000 0.000000
297555953513113996766075715937094870322385933356723339264.000000 86105429761964184633007714015127251602705121093823234048.000000 0.000000
0.000000 0.000000 0.000000
-696603280307501271267784091575716161519829844128155303936.000000 -1621038392860474302078197881514771694983013150231114022912.000000 0.000000
-1621038392860474302078197881514771694983013150231114022912.000000 933694345165365374414152119718292980473852119335718354944.000000 0.000000
0.000000 0.000000 0.000000
880864610920050662113944513465602451670499609770524147712.000000 427378998907807784554579409522438079895057358881558626304.000000 0.000000
427378998907807784554579409522438079895057358881558626304.000000 119751767088995492888194091994310541029887284890008813568.000000 0.000000
0.000000 0.000000 0.000000
-2437231367740475941443230875182701972196346290461367861248.000000 891838789414754542667335387426594407121627642892132548608.000000 0.000000
891838789414754542667335387426594407121627642892132548608.000000 421544505147411507477190987614615264536904078903342006272.000000 0.000000
0.000000 0.000000 0.000000
-85943432449723089442869508299504871647750802453743796224.000000 166585502880837781629828437082652718319098573882082197504.000000 0.000000
166585502880837781629828437082652718319098573882082197504.000000 96772840480781436475642919767374252313417016435697254400.000000 0.000000
0.000000 0.000000 0.000000
371166683582451887340815445710263619141742030472033075200.000000 -270657619579879208847674012921360045149087102346406658048.000000 0.000000
-270657619579879208847674012921360045149087102346406658048.000000 92459114048089831754954000550139782838268113398530048000.000000 0.000000
0.000000 0.000000 0.000000
1769980805675283509911191486779329805514333156144154935296.000000 -5951974255781601747485448511438209266377998759778316189696.000000 0.000000
-5951974255781601747485448511438209266377998759778316189696.000000 3156662884763753465756947454929142391324843652421896896512.000000 0.000000
0.000000 0.000000 0.000000
1812660843089250078780584173737052244276205995966555226112.000000 1341878587503991530614106852585822255871302349576938192896.000000 0.000000
1341878587503991530614106852585822255871302349576938192896.000000 495168650526421471897663043969562457181400933323950260224.000000 0.000000
0.000000 0.000000 0.000000
-3446541312773216603557825663696375550924306949081388810240.000000 -1130112791563204176099953736683869340159202523010427781120.000000 0.000000
-1130112791563204176099953736683869340159202523010427781120.000000 518697751522643769501281173365655168759982165783943839744.000000 0.000000
0.000000 0.000000 0.000000
5376636345006547160529040706938091525911477586752463437824.000000 -2129630916819639230520506720065988057198441259673069813760.000000 0.000000
-2129630916819639230520506720065988057198441259673069813760.000000 509473851198089864849701563819386059416833677968283795456.000000 0.000000
0.000000 0.000000 0.000000
15469418743341747319680992597888536853729010835981047169024.000000 -7916577760153911209494387011918316792484672377634242428928.000000 0.000000
-7916577760153911209494387011918316792484672377634242428928.000000 2306214013938276478858547983975154442908715932443853455360.000000 0.000000
0.000000 0.000000 0.000000
-6023585859758827938171879810426178789269823231403118034944.000000 1412082407331640367500508274188248814713392110285126369280.000000 0.000000
1412082407331640367500508274188248814713392110285126369280.000000 517206844869456576484541710771549693817048973255704051712.000000 0.000000
0.000000 0.000000 0.000000
17629604428396408802900086292331161574509042050975924224.000000 -11469943953752561354061573534073281138792559679459295232.000000 0.000000
-11469943953752561354061573534073281138792559679459295232.000000 3917006636237320897706918024404351760232684137452929024.000000 0.000000
0.000000 0.000000 0.000000
-631991368854806358743137050452523283929839755048299528192.000000 494651049998458475264171776940610940889174826698548445184.000000 0.000000
494651049998458475264171776940610940889174826698548445184.000000 275898085640927764820797696720860474404042307318824566784.000000 0.000000
0.000000 0.000000 0.000000
-166334922641269385066068607696809431100781154025361899520.000000 809325832690531939266385997101246448142120423178085859328.000000 0.000000
809325832690531939266385997101246448142120423178085859328.000000 523863386380292484006652976678082776832613180030343708672.000000 0.000000
0.000000 0.000000 0.000000
-14917117156441120382630121283705760431014432487052213210841088.000000 38305220011877926169733375162302560989044652290589453189120.000000 0.000000
38305220011877926169733375162302560989044652290589453189120.000000 196652276331247392689891899569550447665659471054747205632.000000 0.000000
0.000000 0.000000 0.000000
8095626854923428658266399703767036812562193315700183924736.000000 -210622547130577272615533927544533559527598427260881731584.000000 0.000000
-210622547130577272615533927544533559527598427260881731584.000000 4909965331387199983939291295178754393700453899583881216.000000 0.000000
0.000000 0.000000 0.000000
1470434735623875572020550683383072751586484361954450210816.000000 -1957839601272033695497995909496378024883790894881342226432.000000 0.000000
-1957839601272033695497995909496378024883790894881342226432.000000 903613922823506910123051020445814714542300148345509773312.000000 0.000000
0.000000 0.000000 0.000000
295419522506437812680994318942729377059676438343509344256.000000 170033676695609434208854755725069005614963766467672145920.000000 0.000000
170033676695609434208854755725069005614963766467672145920.000000 90412500369062530315267869633585065262053847471050719232.000000 0.000000
0.000000 0.000000 0.000000
-552995587986722574750522377161859177978588946764276957184.000000 1269871515252099087913836446836067726968746977548627345408.000000 0.000000
1269871515252099087913836446836067726968746977548627345408.000000 760257631940845788341857193503112179167408797790167367680.000000 0.000000
0.000000 0.000000 0.000000
2779315697690036558566248757120801132656437598805370601472.000000 -2522460372484129553119616598905502802364180884159064965120.000000 0.000000
-2522460372484129553119616598905502802364180884159064965120.000000 1083028656814518673211199567301415199983740300327129186304.000000 0.000000
0.000000 0.000000 0.000000
-7840746736758431048534522202395244657815909784487574110208.000000 1533263794586939797788408357642121309776332885033968730112.000000 0.000000
1533263794586939797788408357642121309776332885033968730112.000000 499074925567075500418838091626316573271250986119309819904.000000 0.000000
0.000000 0.000000 0.000000
3527337211544568696696521383600287781932778190158193229824.000000 3251604192654397011029036747988899726998185288254581899264.000000 0.000000
3251604192654397011029036747988899726998185288254581899264.000000 1327149620875017035640391427724388640755193962191430615040.000000 0.000000
0.000000 0.000000 0.000000
-248486019056279946411600859266052232775185592185390104576.000000 -3017253478156355788640589855666040124262364667704606982144.000000 0.000000
-3017253478156355788640589855666040124262364667704606982144.000000 1694266294107250898809613338344423924399695626403594633216.000000 0.000000
0.000000 0.000000 0.000000
113139815447357364757856768734562939128403314712430772224.000000 88518178007848793144767557757708162251580819445970370560.000000 0.000000
88518178007848793144767557757708162251580819445970370560.000000 97938353857712945937835368741486313256800347253744074752.000000 0.000000
0.000000 0.000000 0.000000
-68220707514415556336878330085860221092384466068815478784.000000 -56331283753817415337975638119907273308955795757574651904.000000 0.000000
-56331283753817415337975638119907273308955795757574651904.000000 31534230870170529260354737742887923822345317996216451072.000000 0.000000
0.000000 0.000000 0.000000
32564313158201505249284224700035116411284832249480440971264.000000 -1763563493744776017327492592658150563218031630983324762112.000000 0.000000
-1763563493744776017327492592658150563218031630983324762112.000000 63547182491851883142050482573975171533382777436068904960.000000 0.000000
0.000000 0.000000 0.000000
-786783398913673048276330256723212106944547317543858077696.000000 -1808506357343534372474327751666252486048115992662108012544.000000 0.000000
-1808506357343534372474327751666252486048115992662108012544.000000 1044820658209157626225031829808092144188051073734539214848.000000 0.000000
0.000000 0.000000 0.000000
-56988501183889164740456971879865434347821651202515402752.000000 -32180426046520187579663564044611151050879868687561523200.000000 0.000000
-32180426046520187579663564044611151050879868687561523200.000000 6422826174044810909749007252745631716837045937660493824.000000 0.000000
0.000000 0.000000 0.000000
-1295952010908471683681848364980641132737654890398704730112.000000 7731866226396107048535882989254439371787424076310125740032.000000 0.000000
7731866226396107048535882989254439371787424076310125740032.000000 4383316188817878140254716801245799357314531843633238245376.000000 0.000000
0.000000 0.000000 0.000000
-1299586445908453991296504439891418157135315591212312821760.000000 1025237273945706406951700124020519989777448671702803283968.000000 0.000000
1025237273945706406951700124020519989777448671702803283968.000000 571035955883943540584135253522836231536666467682811379712.000000 0.000000
0.000000 0.000000 0.000000
3507537666045027148859844526888337131739721471035948662784.000000 -3199772630516959818977981758268687790938366411898756268032.000000 0.000000
-3199772630516959818977981758268687790938366411898756268032.000000 1302660001974574189017393382822782685919299272449976172544.000000 0.000000
0.000000 0.000000 0.000000
131303396665678957936248982740593492596679781535136612352.000000 625438387532394569933919605453401986599900392515415572480.000000 0.000000
625438387532394569933919605453401986599900392515415572480.000000 335623863332721055958539479322340127498015087951844737024.000000 0.000000
0.000000 0.000000 0.000000
7076064080177398812069013176358730532905445512263499776.000000 -9703626686730221539141960515608472819256878239838109696.000000 0.000000
-9703626686730221539141960515608472819256878239838109696.000000 4513903046256953181341008981209884784890523815455490048.000000 0.000000
0.000000 0.000000 0.000000
242923846336076926078059851658775563456321302611183534080.000000 524809165960020208658241451197268617999823094595228532736.000000 0.000000
524809165960020208658241451197268617999823094595228532736.000000 265097717769563332981622856210515597615388409171934183424.000000 0.000000
0.000000 0.000000 0.000000
-1493267612129748270496921944707620752109455206365723099136.000000 -1228670295161940035250766079826026500140373603386627457024.000000 0.000000
-1228670295161940035250766079826026500140373603386627457024.000000 687554956963164649704362629395526307452778037605396643840.000000 0.000000
0.000000 0.000000 0.000000
-13961989450219132381787730172703924225037742088533647032320.000000 -20987980521017669521657841956337339933249002965465397460992.000000 0.000000
-20987980521017669521657841956337339933249002965465397460992.000000 12106059205570765697112225753044544010436073193999291121664.000000 0.000000
0.000000 0.000000 0.000000
12020085199558812686835024517578911252500596093627301625856.000000 -8783606730826510772366747350796725655222091815012261691392.000000 0.000000
-8783606730826510772366747350796725655222091815012261691392.000000 3206218081403996650632990224543391954435977979403274551296.000000 0.000000
0.000000 0.000000 0.000000
3468553936517149939585980641933694170063808652687517417472.000000 6133651972719897647661709800161964632748911311431340654592.000000 0.000000
6133651972719897647661709800161964632748911311431340654592.000000 3005770773942342052064895948698995165668581562049896644608.000000 0.000000
0.000000 0.000000 0.000000
4229190787855901290150508519079064778965961906784846217216.000000 -3812002763948322997607770422748022131684308296122427768832.000000 0.000000
-3812002763948322997607770422748022131684308296122427768832.000000 1541057099141733277330694091248062820814903710486129278976.000000 0.000000
0.000000 0.000000 0.000000
-1435307379625792451012946027149275188155330348588237586432.000000 -1815090268159029504699198161113471948705517311080072740864.000000 0.000000
-1815090268159029504699198161113471948705517311080072740864.000000 1064490202159744759988788472871236150634512355836691480576.000000 0.000000
0.000000 0.000000 0.000000
-102624726792953527663871643537576028255181240340511698452480.000000 -15106583870072758095993536752498804769239894160788976304128.000000 0.000000
-15106583870072758095993536752498804769239894160788976304128.000000 3981077037165740266533328983694270152953960242404856430592.000000 0.000000
0.000000 0.000000 0.000000
-18497692542772364621430831042668632196377516538574187528192.000000 2291038893946722881685563836215367327314044675140268064768.000000 0.000000
2291038893946722881685563836215367327314044675140268064768.000000 522390444436575295200328075307597416653928023620262559744.000000 0.000000
0.000000 0.000000 0.000000
1294639184141964832032774571811575074165703648522583146496.000000 1214855527674845370380731269932605875049261489736558575616.000000 0.000000
1214855527674845370380731269932605875049261489736558575616.000000 507915737224947457194663951160148833479047600970359898112.000000 0.000000
0.000000 0.000000 0.000000
1242852188546585918602277915006157822635851966656618168320.000000 594306902986929981394006428673290026532684430879634751488.000000 0.000000
594306902986929981394006428673290026532684430879634751488.000000 167661479249864298237823988928268589248912498040412045312.000000 0.000000
0.000000 0.000000 0.000000
-10729315794234167390553243656960939009473813272215282515968.000000 4231157015734253265026279975168675689996268210215286996992.000000 0.000000
4231157015734253265026279975168675689996268210215286996992.000000 2008726263167364653746532487121449265386930863248789995520.000000 0.000000
0.000000 0.000000 0.000000
551339382423078054592355057308491836158737545676187500544.000000 3171041818304689302472262837000531556000844009023912017920.000000 0.000000
3171041818304689302472262837000531556000844009023912017920.000000 1713723409812271566594753427542698377454727902954350706688.000000 0.000000
0.000000 0.000000 0.000000
-493635613946888066933708465488197456792429817031896858624.000000 -3091138084498724337816077308686249568589622778726033915904.000000 0.000000
-3091138084498724337816077308686249568589622778726033915904.000000 1745330686454482417932488895484118068898486589743198896128.000000 0.000000
0.000000 0.000000 0.000000
127888859396657063396143697674790037240246568446041522176.000000 -1250302654437482090897252292347813134725848041587422003200.000000 0.000000
-1250302654437482090897252292347813134725848041587422003200.000000 684451079665573588997075427002517745816011950793152266240.000000 0.000000
0.000000 0.000000 0.000000
527396130156756015391350605831601046009304957623625318400.000000 28104112981354041363865821006517144826109344764269690880.000000 0.000000
28104112981354041363865821006517144826109344764269690880.000000 996811468287162062350612112761587384581696872966520832.000000 0.000000
0.000000 0.000000 0.000000
-545944818019574095360168296344253514287143190724226318336.000000 409854973112200670578276273204061821801212377748138360832.000000 0.000000
409854973112200670578276273204061821801212377748138360832.000000 226058502474157043924014557389213500123217888548625580032.000000 0.000000
0.000000 0.000000 0.000000
24479367940792860756256001394636381940502960142614003712000.000000 14008292046655952635805527002931134391331981635610610761728.000000 0.000000
14008292046655952635805527002931134391331981635610610761728.000000 4410476643338344506372995044493597902211212178163555631104.000000 0.000000
0.000000 0.000000 0.000000
-5459525600777044986941472317147329662594690626109195681792.000000 -2310135442705691822463700252846766892151892604873076637696.000000 0.000000
-2310135442705691822463700252846766892151892604873076637696.000000 1122982088472472596892059319916241158418637040487936032768.000000 0.000000
0.000000 0.000000 0.000000
1663157982073681568577781584619892397238780102306693120000.000000 -152619581434717240720735673503195371508787687417744195584.000000 0.000000
-152619581434717240720735673503195371508787687417744195584.000000 9336602723512799711532889503737490080602735949067059200.000000 0.000000
0.000000 0.000000 0.000000
1516911295792974543835764058138630396261853466799193980928.000000 936905293156998178755358048798459050210480054440413888512.000000 0.000000
936905293156998178755358048798459050210480054440413888512.000000 310045763171081846582917250844799217982181987553934049280.000000 0.000000
0.000000 0.000000 0.000000
10969128735954692140479925868498211556674604349417062400.000000 9395334331859911998489655558813448146131705581025624064.000000 0.000000
9395334331859911998489655558813448146131705581025624064.000000 3712840274635598055476774269989621548136880557774602240.000000 0.000000
0.000000 0.000000 0.000000
3774257223617319042970059642344886781649878445189979176960.000000 803991773618576041683072769396183825276494945047030005760.000000 0.000000
803991773618576041683072769396183825276494945047030005760.000000 112993751797902787553223520938283504228957914310941605888.000000 0.000000
0.000000 0.000000 0.000000
10620743649604520186074833226053626370180530580383988711424.000000 -1238290294170654973768728397045690334248239783039429771264.000000 0.000000
-1238290294170654973768728397045690334248239783039429771264.000000 97063173159481619990050911795314224149510186327783505920.000000 0.000000
0.000000 0.000000 0.000000
1053257729094478667544502041812959982617887819352713986048.000000 727962570098509356118283390946698566447934181975825317888.000000 0.000000
727962570098509356118283390946698566447934181975825317888.000000 236006607917584700352915002245489542378713936025874333696.000000 0.000000
0.000000 0.000000 0.000000
1089542149030075384239113999708184635078186318553302433792.000000 -1888179628248755980911345999988670898184459692910646919168.000000 0.000000
-1888179628248755980911345999988670898184459692910646919168.000000 940619977102579923997686191828375741519250068059633745920.000000 0.000000
0.000000 0.000000 0.000000
-50214994072948856201894980967265577835467461566995783221248.000000 -1927611749333142168747636840981863337926417934324053573632.000000 0.000000
-1927611749333142168747636840981863337926417934324053573632.000000 147009538446197414886292020774320494803236350343730167808.000000 0.000000
0.000000 0.000000 0.000000
-31748058009554179904375386785393878738658707571463946240.000000 8738709904603475813968729391699369468126571719401930752.000000 0.000000
8738709904603475813968729391699369468126571719401930752.000000 3514023880072005842233916318017864373966100833371160576.000000 0.000000
0.000000 0.000000 0.000000
167785093850951115250363242534708260398699970817396047872.000000 388785981113792338054844270379055653677416265811849379840.000000 0.000000
388785981113792338054844270379055653677416265811849379840.000000 203429807937232703317318556402614930818303003469868433408.000000 0.000000
0.000000 0.000000 0.000000
-4840917825263696727068470579778975684665746332650322264064.000000 6935526130238206105809330872479740651796970127133448863744.000000 0.000000
6935526130238206105809330872479740651796970127133448863744.000000 4001797257363421948430893908823939828535398695598154579968.000000 0.000000
0.000000 0.000000 0.000000
-606659750255175613713273538931264187792083508003755524096.000000 -116211771481679212861973955716912001591810168432065773568.000000 0.000000
-116211771481679212861973955716912001591810168432065773568.000000 7213747634827404006018750052223700472992754532370874368.000000 0.000000
0.000000 0.000000 0.000000
-101092352162078689774345915890180836075468947698846309285888.000000 21052449259043245971656992880932003436409838937237092302848.000000 0.000000
21052449259043245971656992880932003436409838937237092302848.000000 7169017488609163337881871575423868411016768053969743249408.000000 0.000000
0.000000 0.000000 0.000000
-4215595386651490850726626830088850498202079860909762674688.000000 7491268343108844779917438175832860429966580853540407738368.000000 0.000000
7491268343108844779917438175832860429966580853540407738368.000000 4324002114119285501567323049507958174798580213637542051840.000000 0.000000
0.000000 0.000000 0.000000
-880476498041470202374379197021681156579700442000166496501760.000000 -25534171895001239151863282059588342575492219945758620647424.000000 0.000000
-25534171895001239151863282059588342575492219945758620647424.000000 1473070133488827989747715554529931166791171854212937023488.000000 0.000000
0.000000 0.000000 0.000000
-806541091876580137613101366658579516868802729657189269504.000000 -712620396699866989807287402331452339473915713669967118336.000000 0.000000
-712620396699866989807287402331452339473915713669967118336.000000 401558918486147403784122689422412736476575281547189420032.000000 0.000000
0.000000 0.000000 0.000000
-84101427026279005692835944068563335218256067205071816884224.000000 -13062701583442570033970593146944274848487458037830099402752.000000 0.000000
-13062701583442570033970593146944274848487458037830099402752.000000 3605190123423466112667080321332821661316457344855575625728.000000 0.000000
0.000000 0.000000 0.000000
-324602763039845017482048758693159259009531679309541287133184.000000 -33868881006476042940993413782907326478148061210392364318720.000000 0.000000
-33868881006476042940993413782907326478148061210392364318720.000000 6649870254157506829695434130061543859495844293302466641920.000000 0.000000
0.000000 0.000000 0.000000
2814291866057751377505716079968815444794950246851881730048.000000 11203439857075087081148547247474089087966463894209645510656.000000 0.000000
11203439857075087081148547247474089087966463894209645510656.000000 5956968163770159008900668485785248879049981376915623116800.000000 0.000000
0.000000 0.000000 0.000000
1085247948717317688784343072422730980050229230743400218624.000000 4214583332136265667198737499011525427121299142847190007808.000000 0.000000
4214583332136265667198737499011525427121299142847190007808.000000 2239298719158848146420514172343024753471320531666657607680.000000 0.000000
0.000000 0.000000 0.000000
302822359073033684084165285409941789706973494892969328640.000000 -651257393538414115577061443053077772724862253318065356800.000000 0.000000
-651257393538414115577061443053077772724862253318065356800.000000 329227804778565449723017150828889466210010006257900978176.000000 0.000000
0.000000 0.000000 0.000000
4511811867011484881617128616296556501175225936118808576.000000 -2763553977335834652747949244670208105933034871653924864.000000 0.000000
-2763553977335834652747949244670208105933034871653924864.000000 909384673503751458303170150151096098121934362197884928.000000 0.000000
0.000000 0.000000 0.000000
-851659062850133251571965754244334281184029875683601678336.000000 1071804584115799834085081645627557047111909326789875335168.000000 0.000000
1071804584115799834085081645627557047111909326789875335168.000000 616117578828832777876905580637896819587013396948624343040.000000 0.000000
0.000000 0.000000 0.000000
7068576387575276868131328403644745827871687924874804723712.000000 -18556295701706846511948355936474563819930629852882494554112.000000 0.000000
-18556295701706846511948355936474563819930629852882494554112.000000 9578509483645976036752402072557374376985513053969576886272.000000 0.000000
0.000000 0.000000 0.000000
1167778733921360853690975139634060328777247444836959649792.000000 92113708146960067037392993157544809938568064183513907200.000000 0.000000
92113708146960067037392993157544809938568064183513907200.000000 30996174380980637985796389696319610226552950015987286016.000000 0.000000
0.000000 0.000000 0.000000
11852954334442753335108615526783365996994859165997737181184.000000 -13745660027191302398055242581510061088724032156769198276608.000000 0.000000
-13745660027191302398055242581510061088724032156769198276608.000000 6101449875312896594214000254743258446709088047424207847424.000000 0.000000
0.000000 0.000000 0.000000
372498108776536041037606714742201657852716663157351776256.000000 -567327243087522427205870935564978020442450723349834235904.000000 0.000000
-567327243087522427205870935564978020442450723349834235904.000000 287583339709871047407963759640424856736400596023270965248.000000 0.000000
0.000000 0.000000 0.000000
1297402664612816893661401529972259939668670392291033088.000000 2001987910598279566388900959661144719184056961608974336.000000 0.000000
2001987910598279566388900959661144719184056961608974336.000000 956698170484037499214208344459562929691439309187448832.000000 0.000000
0.000000 0.000000 0.000000
3400417860803224652494275586570321444349677518509880377344.000000 417263232182253585346347594958105807651943643531494555648.000000 0.000000
417263232182253585346347594958105807651943643531494555648.000000 34861179233302508177428680214397902995214547838709006336.000000 0.000000
0.000000 0.000000 0.000000
55405332151814135641489590540016546400725681422538375168.000000 137324911993476909808080159511561634332615777135949250560.000000 0.000000
137324911993476909808080159511561634332615777135949250560.000000 70478390767840189525254530197816046436374156061779689472.000000 0.000000
0.000000 0.000000 0.000000
-1029709948086858071973753346480069888950515873678884864.000000 2118808543801578801850074577222259625075881562653851648.000000 0.000000
2118808543801578801850074577222259625075881562653851648.000000 1222223320632534245269489695993340206257406967961092096.000000 0.000000
0.000000 0.000000 0.000000
-333739232373353564946284952833830151311651518447183667920896.000000 -34110438300035228188159888917435193636617131526950878183424.000000 0.000000
-34110438300035228188159888917435193636617131526950878183424.000000 6575009028300500338131644487975840960090183032594052939776.000000 0.000000
0.000000 0.000000 0.000000
11652898226536085121198866709628826519972780731459558178816.000000 -1735055137115026729574098074466859030757750607373437763584.000000 0.000000
-1735055137115026729574098074466859030757750607373437763584.000000 169913620816050791370647384670303624688616032110259470336.000000 0.000000
0.000000 0.000000 0.000000
8635290671004139452949584487596754489168087562579869696.000000 -3151962783067958751057242321149106242924284613452890112.000000 0.000000
-3151962783067958751057242321149106242924284613452890112.000000 704750012535368688459758096744334455796969521343889408.000000 0.000000
0.000000 0.000000 0.000000
245624226844342048442358176336603221567049959559252672512.000000 -533778768239414939304293308456914234961567041296609050624.000000 0.000000
-533778768239414939304293308456914234961567041296609050624.000000 273407239377056503310312289097095812413594986182818660352.000000 0.000000
0.000000 0.000000 0.000000
-41929174618689540156455689462969756266998018926602350493696.000000 -13130063116363965022692667489213276727654432837588335198208.000000 0.000000
-13130063116363965022692667489213276727654432837588335198208.000000 5643082901981052199926792192205897657826202286081884291072.000000 0.000000
0.000000 0.000000 0.000000
2171287193994905080884054349314896201059271005561482641408.000000 -2612456844959292623807639189637371918087516630418792120320.000000 0.000000
-2612456844959292623807639189637371918087516630418792120320.000000 1171345389868705872720012404765833394890022863812849303552.000000 0.000000
0.000000 0.000000 0.000000
3873170287039947840779809199981239679564426311176621654016.000000 -2079132148108533207321794601512578667362191746652409167872.000000 0.000000
-2079132148108533207321794601512578667362191746652409167872.000000 632078198746589571197257639937242097796997703770512031744.000000 0.000000
0.000000 0.000000 0.000000
-14867921113826979078406843664347189126192722168018406211584.000000 29317711127089187070578888142285475441220690435337925689344.000000 0.000000
29317711127089187070578888142285475441220690435337925689344.000000 16913019840341427722948944071719385926985410108487830077440.000000 0.000000
0.000000 0.000000 0.000000
-78776792067540542040896032637482955935179396264455307264.000000 6437483314527750378133807248588176362347079382161424384.000000 0.000000
6437483314527750378133807248588176362347079382161424384.000000 3509280781906022645777852881652361965659960601470828544.000000 0.000000
0.000000 0.000000 0.000000
2217950420070689855618497924029469064275327521717479276544.000000 -82045264120912651452027773857675007248077002060611977216.000000 0.000000
-82045264120912651452027773857675007248077002060611977216.000000 2020289621070728823251806657814329402410086978681831424.000000 0.000000
0.000000 0.000000 0.000000
61127243763964607959478539076708322463544332590239449088.000000 431779999426255864761103762970403476829220624279437049856.000000 0.000000
431779999426255864761103762970403476829220624279437049856.000000 234617031958819135339579637643153337368876431808619610112.000000 0.000000
0.000000 0.000000 0.000000
1893669717779822422839351971343866513368707628229017468928.000000 1569350909708249590249016323339209595712769735155102253056.000000 0.000000
1569350909708249590249016323339209595712769735155102253056.000000 610718096805322812914023368568765708307992492122493157376.000000 0.000000
0.000000 0.000000 0.000000
352425074549566580309757084240460744018509248128033488896.000000 -1823178820318998323776298870744927946015181266667113021440.000000 0.000000
-1823178820318998323776298870744927946015181266667113021440.000000 989840505767736815430660223120297950153413401968979738624.000000 0.000000
0.000000 0.000000 0.000000
-84770792979415074453078495580430719669259827595818020372480.000000 -16862719087014780834260724178842886008265039332494427553792.000000 0.000000
-16862719087014780834260724178842886008265039332494427553792.000000 5637451748774393814999032465415956140417248019960362434560.000000 0.000000
0.000000 0.000000 0.000000
5351427841362313062118646875810910955265908379351586439168.000000 -247155092875079668905230474141271211521543476409039585280.000000 0.000000
-247155092875079668905230474141271211521543476409039585280.000000 7598217751226687955020787140503983335347957828369252352.000000 0.000000
0.000000 0.000000 0.000000
-168958066232666087163689276094543085407838076897519959277568.000000 -14810926231074968358921140665536302286596685352319376687104.000000 0.000000
-14810926231074968358921140665536302286596685352319376687104.000000 2496415522987049266505201948569913011383652636009460400128.000000 0.000000
0.000000 0.000000 0.000000
80585654729177373583051002502440406027532527154390630400.000000 74313389521439265209318690408737830373578062923542036480.000000 0.000000
74313389521439265209318690408737830373578062923542036480.000000 56524767649845953637034762582535015326942402030713438208.000000 0.000000
0.000000 0.000000 0.000000
653703372486292273959026679234992771534701724897969700864.000000 1418703776013343419877901801241711736664580320454621790208.000000 0.000000
1418703776013343419877901801241711736664580320454621790208.000000 717050249532350958576434194410893426677029273067692490752.000000 0.000000
0.000000 0.000000 0.000000
-17048608598856407766921203277454603246061117142356518240256.000000 2985943142266926083829318960140083222938233042174719557632.000000 0.000000
2985943142266926083829318960140083222938233042174719557632.000000 896655980545734552149726645607056817852830750677051375616.000000 0.000000
0.000000 0.000000 0.000000
276289160508879843043379100782487825408496128688216080384.000000 245486976651741273729014739306571537664565041566725439488.000000 0.000000
245486976651741273729014739306571537664565041566725439488.000000 98623127275355562231893624488281104082054192539996520448.000000 0.000000
0.000000 0.000000 0.000000
1401626076065472789391223887913271917421701046108535390208.000000 927836322376827009223720775830874916279311662877574692864.000000 0.000000
927836322376827009223720775830874916279311662877574692864.000000 320160342504797748293143818566913005869079755003546042368.000000 0.000000
0.000000 0.000000 0.000000
-64292877162547022584897252664711778012993789361437802496.000000 322626856335496288774248193940467478617090514825389277184.000000 0.000000
322626856335496288774248193940467478617090514825389277184.000000 189494498322016365285807826850716008793280948097674903552.000000 0.000000
0.000000 0.000000 0.000000
52555656891631881569588204208539281983916277419724505088.000000 20898345370531709713956088710200884808904947769744031744.000000 0.000000
20898345370531709713956088710200884808904947769744031744.000000 5015313143008902300510723987114706678225531411932119040.000000 0.000000
0.000000 0.000000 0.000000
24313271334920740285515033012700886832402616488357265408.000000 429486699385400918563888281158446578866581421667909632.000000 0.000000
429486699385400918563888281158446578866581421667909632.000000 5156582102915943473447628157791513315075528392179712.000000 0.000000
0.000000 0.000000 0.000000
216648578269610659438483973557744195737772314416010756096.000000 -2088652916018908889757893477631381410957696109113681903616.000000 0.000000
-2088652916018908889757893477631381410957696109113681903616.000000 1143642775960475372551992812867316781930817504376919162880.000000 0.000000
0.000000 0.000000 0.000000
-172071120206718753324359517792454670472013531913794879488.000000 1167825472020449247476086406904327788187773925318543278080.000000 0.000000
1167825472020449247476086406904327788187773925318543278080.000000 662235104119917309125149283143037334550160541244553428992.000000 0.000000
0.000000 0.000000 0.000000
1451797432036202959831784404029675723047142082181341380608.000000 -345325125721962725666096675545373431957421145772135546880.000000 0.000000
-345325125721962725666096675545373431957421145772135546880.000000 53021061335000839778587305211668606217789221657653542912.000000 0.000000
0.000000 0.000000 0.000000
4137641960841631231619835933134685889289910155708534358016.000000 -2047095672281739019048337788670153877272103091443188367360.000000 0.000000
-2047095672281739019048337788670153877272103091443188367360.000000 583932289615331114394323413592712403860253604644791517184.000000 0.000000
0.000000 0.000000 0.000000
-2238902309292318338328525482953384237503033211398739984384.000000 -9876299038740485238300003944780455603637085699574413131776.000000 0.000000
-9876299038740485238300003944780455603637085699574413131776.000000 5627897940627516682916438457028759194821874619905285816320.000000 0.000000
0.000000 0.000000 0.000000
2551738943046618322865965699390975171622627677254686081024.000000 -118290796036446036266829093275104079394690677327846703104.000000 0.000000
-118290796036446036266829093275104079394690677327846703104.000000 3650091529797456306025678821898615067022786549900115968.000000 0.000000
0.000000 0.000000 0.000000
560984792473186292208775664585931642909215126749970432.000000 -220845548087986483828475931038955435967531348832288768.000000 0.000000
-220845548087986483828475931038955435967531348832288768.000000 52399979121041576466058638665629471038831946597662720.000000 0.000000
0.000000 0.000000 0.000000
7451848161154042056436282259372433806857867739973359239168.000000 1539360550110780538063856188403206152674187047841518583808.000000 0.000000
1539360550110780538063856188403206152674187047841518583808.000000 207227747747622303520755927147521920758466266205236756480.000000 0.000000
0.000000 0.000000 0.000000
-162152768922621026406794357134151290549721650683707392000.000000 1268525211042981692099116422152330610869196388528618995712.000000 0.000000
1268525211042981692099116422152330610869196388528618995712.000000 716426311081501940368796287167588916823823487142352388096.000000 0.000000
0.000000 0.000000 0.000000
3072996725230960240696814491678122723350998128321267499008.000000 1584401751631000541031986682671235685868080616872693727232.000000 0.000000
1584401751631000541031986682671235685868080616872693727232.000000 464032049335010400802597212884963073472145186877459136512.000000 0.000000
0.000000 0.000000 0.000000
-28242519032245773993396914074451380261717251371885937033216.000000 9502054891754498972178854310783402499640227680917909405696.000000 0.000000
9502054891754498972178854310783402499640227680917909405696.000000 4220780784465862591223204910972866305566620660959388106752.000000 0.000000
0.000000 0.000000 0.000000
2549720413300274468635515211710351082082722469811102679040.000000 1560880590786800523852073444844006507201557143235040641024.000000 0.000000
1560880590786800523852073444844006507201557143235040641024.000000 513391506746469947137670577177046064354031486805915729920.000000 0.000000
0.000000 0.000000 0.000000
9532112151686234137927941011597654505432345939499267653632.000000 4262837277943952018011175796808077756915046233298268323840.000000 0.000000
4262837277943952018011175796808077756915046233298268323840.000000 1128722179353510187054800238788675297369471671295419613184.000000 0.000000
0.000000 0.000000 0.000000
-6659411899333972800089865955128481748585870327404373737472.000000 -9401885266470520329107473271295513950066656967423076335616.000000 0.000000
-9401885266470520329107473271295513950066656967423076335616.000000 5412155428417375158653214212959587133546293834406808256512.000000 0.000000
0.000000 0.000000 0.000000
-138711551926583614833889728049403439714551845923277766656.000000 696848896663921916878171335324782330077298622781794025472.000000 0.000000
696848896663921916878171335324782330077298622781794025472.000000 216444438309919826163726858495398094981160992744864219136.000000 0.000000
0.000000 0.000000 0.000000
15426348961454049941992356069805549220774160472749417431040.000000 -3876997749596101057979753309194212728064513217507784392704.000000 0.000000
-3876997749596101057979753309194212728064513217507784392704.000000 624561727680170986932624168263344579881585021522943148032.000000 0.000000
0.000000 0.000000 0.000000
-37280391209155413011150587642771534186267981922697216.000000 1612720442050221295007742356218480579699829744074752.000000 0.000000
1612720442050221295007742356218480579699829744074752.000000 138638640667315232165407876842901354268911195914240.000000 0.000000
0.000000 0.000000 0.000000
-9193107767540030815581098414394746261680797359663468249088.000000 -4613035427288891082737336863308617096671091777381720915968.000000 0.000000
-4613035427288891082737336863308617096671091777381720915968.000000 2360530279011655725088563174613842449609247329586243436544.000000 0.000000
0.000000 0.000000 0.000000
234154440919290338313122472454207632277077630724924768256.000000 108440166503554907705066363705728020497886276711243317248.000000 0.000000
108440166503554907705066363705728020497886276711243317248.000000 29343291679212407111527730661376832216808244465933221888.000000 0.000000
0.000000 0.000000 0.000000
1198908367103258532320290939626788885063212622250950787072.000000 605874543586755548261334590554541472308485010871294099456.000000 0.000000
605874543586755548261334590554541472308485010871294099456.000000 175160260154380723125124928224181848140988589257705652224.000000 0.000000
0.000000 0.000000 0.000000
4458309852475335690431511463901269295217422782102767665152.000000 10689594439616111219123771345092471080397743980673184563200.000000 0.000000
10689594439616111219123771345092471080397743980673184563200.000000 5466687612391665994790102252608294827733650139999857803264.000000 0.000000
0.000000 0.000000 0.000000
756080706730332388105033302461441224198394630872749834240.000000 -83850557963561156759583914971902768331787966395113799680.000000 0.000000
-83850557963561156759583914971902768331787966395113799680.000000 6147936196926308718947627539265073530396084573061513216.000000 0.000000
0.000000 0.000000 0.000000
-2313337435076911087679679559640775354068228014571891195904.000000 6782653937972267093185473131162474972861660486036810104832.000000 0.000000
6782653937972267093185473131162474972861660486036810104832.000000 3892979819149136775977931046457578130638488589452101812224.000000 0.000000
0.000000 0.000000 0.000000
5018329560653249836040976887423102975109370474196369408.000000 3338279081267564759762844335461890112193132933756747776.000000 0.000000
3338279081267564759762844335461890112193132933756747776.000000 1154711281041352634565294822835990998226134434475671552.000000 0.000000
0.000000 0.000000 0.000000
5855111981301249053572996241059854847875026466174670995456.000000 6252297297862294541067890763158880533231339776417860681728.000000 0.000000
6252297297862294541067890763158880533231339776417860681728.000000 2700450735932583850494606810012938641717602112480789659648.000000 0.000000
0.000000 0.000000 0.000000
-62919135552483829822747287910920718379553220279501062144.000000 -862288746669746654376900115867224339894181036248627412992.000000 0.000000
-862288746669746654376900115867224339894181036248627412992.000000 484057280311576297460272581977827188404731105484713492480.000000 0.000000
0.000000 0.000000 0.000000
-162011340631153373889491498224567313723602337613467470528512.000000 -31904780534584763486040439868528356015772418827797953249280.000000 0.000000
-31904780534584763486040439868528356015772418827797953249280.000000 10421190689527102429579316780163501919281547956893777920000.000000 0.000000
0.000000 0.000000 0.000000
539744842886708058276682994895909978415731907175976534016.000000 -376120805563588595809008385977922797486203439306244096000.000000 0.000000
-376120805563588595809008385977922797486203439306244096000.000000 140864574661861740075757643156010767336228569053648650240.000000 0.000000
0.000000 0.000000 0.000000
108068584939591651291488937147694572226323665406260150272.000000 290867255789004088949942440404046662291801576480853458944.000000 0.000000
290867255789004088949942440404046662291801576480853458944.000000 150496167073850423030954521388076955073403006625878376448.000000 0.000000
0.000000 0.000000 0.000000
-3201658362443357155888657380762129694660964379454991237120.000000 1242197342396843948858717893969234722956700391700590231552.000000 0.000000
1242197342396843948858717893969234722956700391700590231552.000000 588577310632327499994536324766177928411424231957572091904.000000 0.000000
0.000000 0.000000 0.000000
1515953484469420411471239774977647763029359449458150998016.000000 -3417310190288990465731372660389333705299783323924142489600.000000 0.000000
-3417310190288990465731372660389333705299783323924142489600.000000 1744350406676804422811116330566599224731218206891819663360.000000 0.000000
0.000000 0.000000 0.000000
1161810075130477856050936182668470173648687323532136284160.000000 1313365909645753018129181951549879926481776678349913980928.000000 0.000000
1313365909645753018129181951549879926481776678349913980928.000000 579307366851739497823662425233994044110582224397717733376.000000 0.000000
0.000000 0.000000 0.000000
-18087873635239850719848386964520849103075416030229854945280.000000 -923256543108310932121142586611950381503258974579758989312.000000 0.000000
-923256543108310932121142586611950381503258974579758989312.000000 109441892385332538810656353591991268333481983472406888448.000000 0.000000
0.000000 0.000000 0.000000
-7584469303364562496851622181517401597475071771597623787520.000000 -3725233175944161821577801133047245271014381291456560103424.000000 0.000000
-3725233175944161821577801133047245271014381291456560103424.000000 1896825238148291533235218141122726270021199879033705201664.000000 0.000000
0.000000 0.000000 0.000000
-201301617395851834661297122322783534450767855479953555456.000000 41092403673408257714677887418061855400376717044703297536.000000 0.000000
41092403673408257714677887418061855400376717044703297536.000000 13757680110097989247533577261230663575261536106569531392.000000 0.000000
0.000000 0.000000 0.000000
-2454453390659673456677219545490597014603322971326248910848.000000 -2519145406874039348271352663732975498096248818565870780416.000000 0.000000
-2519145406874039348271352663732975498096248818565870780416.000000 1441583278565073522930437532229059102303098062450802556928.000000 0.000000
0.000000 0.000000 0.000000
-1392533513072778646849672092000354882085812640835442835456.000000 -7040546160899029782504255859131199874162915385659944337408.000000 0.000000
-7040546160899029782504255859131199874162915385659944337408.000000 4002450506907601775292873004775018453657679867835769159680.000000 0.000000
0.000000 0.000000 0.000000
21468326676746149508178972875780483477109274439371578146816.000000 -15210499424547082050738294705046654901999251010584729092096.000000 0.000000
-15210499424547082050738294705046654901999251010584729092096.000000 5458166402262251855319499018921586261456845934328385896448.000000 0.000000
0.000000 0.000000 0.000000
-139314014141683844321594120145685508807456113279086100480.000000 578265414448116952164805637196051302200023953602332590080.000000 0.000000
578265414448116952164805637196051302200023953602332590080.000000 336679642356591392466321074177397622088091968083033325568.000000 0.000000
0.000000 0.000000 0.000000
9788629163746012924105669696504597941817523170388352172032.000000 -34433714313827637507892112929218452375115938268602395787264.000000 0.000000
-34433714313827637507892112929218452375115938268602395787264.000000 18186636575547026100091726861108924198766373640571317125120.000000 0.000000
0.000000 0.000000 0.000000
6341554180039727687884172239187629081100343659726729379840.000000 1704720103109796647027387003790496288226862879559127138304.000000 0.000000
1704720103109796647027387003790496288226862879559127138304.000000 295897799509561620460234234881944578256002308671065292800.000000 0.000000
0.000000 0.000000 0.000000
225618568703127394010555815174395659649380135339183570944.000000 -39516620320523289587304413107376003674493777739868274688.000000 0.000000
-39516620320523289587304413107376003674493777739868274688.000000 6106594462887251867213786664163672676976671645377757184.000000 0.000000
0.000000 0.000000 0.000000
1469442898631739432504928880096783652613479784245721300992.000000 8694816836005302282972764091515589469074141517531137966080.000000 0.000000
8694816836005302282972764091515589469074141517531137966080.000000 4733632051958690232712689617826523538685754073079699472384.000000 0.000000
0.000000 0.000000 0.000000
24202837810997485449949944220586467665397231170667675648.000000 1311527372552103659529580868543969704117927432151480926208.000000 0.000000
1311527372552103659529580868543969704117927432151480926208.000000 643344998364428676437928485337031352229981677971658768384.000000 0.000000
0.000000 0.000000 0.000000
1158726160370884151991409492599140074955129775942879150080.000000 -835210897111702978738847145262827438618978634490041073664.000000 0.000000
-835210897111702978738847145262827438618978634490041073664.000000 306164272419889447365517096721893413914873077714328223744.000000 0.000000
0.000000 0.000000 0.000000
1977110730464830685462525635906692243978611845257756672.000000 -688841591750703322507757167145246764000073958176063488.000000 0.000000
-688841591750703322507757167145246764000073958176063488.000000 148545883890445050047848084932962256859168581168922624.000000 0.000000
0.000000 0.000000 0.000000
6838236837674432869412496149673209551378073830844618768384.000000 20015031903256899055581276589446436635805782844461191004160.000000 0.000000
20015031903256899055581276589446436635805782844461191004160.000000 10423620672433398139645107800544885922532961000735341805568.000000 0.000000
0.000000 0.000000 0.000000
324618868669373502851996095375705476718983212505935904768.000000 -360954408312759455371411379006591748601450812440422907904.000000 0.000000
-360954408312759455371411379006591748601450812440422907904.000000 158255521245620391295496544177756206563642000140199264256.000000 0.000000
0.000000 0.000000 0.000000
-314978561008446271481258986050985492668510597648174022656.000000 113784717022827934642451444173587240712315699233705426944.000000 0.000000
113784717022827934642451444173587240712315699233705426944.000000 32868079643366566839166982816899630459719538910307549184.000000 0.000000
0.000000 0.000000 0.000000
-730331809521089498693554200423575495784656865700901552128.000000 -87295639493559768572518889459072169166076828804446158848.000000 0.000000
-87295639493559768572518889459072169166076828804446158848.000000 9421925663778888112617958778916185154632720412013756416.000000 0.000000
0.000000 0.000000 0.000000
-9180822072470469911253836466519781644837557455739561181184.000000 -2305979780816220218333109796513656745952431426003886145536.000000 0.000000
-2305979780816220218333109796513656745952431426003886145536.000000 879603909611939599340175819559973582153520627124772274176.000000 0.000000
0.000000 0.000000 0.000000
2025752227330482053296385856139836934595209337272855953408.000000 398918078623734001992279468080240335538839215519008030720.000000 0.000000
398918078623734001992279468080240335538839215519008030720.000000 51084584295711906810832567644615478365014999930626899968.000000 0.000000
0.000000 0.000000 0.000000
304941189112249538866660747392277423350805414923665932288.000000 -125460001374186473393314007293325064474170785791379243008.000000 0.000000
-125460001374186473393314007293325064474170785791379243008.000000 29493873315011694621461528291834891572220934285596557312.000000 0.000000
0.000000 0.000000 0.000000
-37737642620798773242532894493568670996191369890866776768512.000000 3845025921416670349290144298522939106189499623246781218816.000000 0.000000
3845025921416670349290144298522939106189499623246781218816.000000 739263138098536813588092729420006272139879631090266144768.000000 0.000000
0.000000 0.000000 0.000000
-2503039653385262410721840130832035755333931691502353776640.000000 15868564409245876902155949958922626517257114973996461326336.000000 0.000000
15868564409245876902155949958922626517257114973996461326336.000000 8988938497754657786145109245122289860356759189314607251456.000000 0.000000
0.000000 0.000000 0.000000
-4094658748890719633482088280254933901311017409216803504128.000000 809393948974586704166389571585259320368306274196483211264.000000 0.000000
809393948974586704166389571585259320368306274196483211264.000000 265070795409579884928724453708169284968427666111113199616.000000 0.000000
0.000000 0.000000 0.000000
20393276411882649123031003341023118722831823537711567863808.000000 13944075950883900168997739063717922852314130409622641573888.000000 0.000000
13944075950883900168997739063717922852314130409622641573888.000000 4903886833001236405373376434158532673999759058526338547712.000000 0.000000
0.000000 0.000000 0.000000
1162619689753886390859208420474817624063694819011965485056.000000 -1215086548553097987773348177331927462969079912829020012544.000000 0.000000
-1215086548553097987773348177331927462969079912829020012544.000000 520752466251860249483278469550470792442595998889116958720.000000 0.000000
0.000000 0.000000 0.000000
-151505427994026845233118143746821580612491324421473285701632.000000 13060725817685032900679476241339580138647787174131492978688.000000 0.000000
13060725817685032900679476241339580138647787174131492978688.000000 2157564853981996881684895257725920789027396748180925186048.000000 0.000000
0.000000 0.000000 0.000000
644268667909470373126322646127722408597396735918080.000000 -707897318870955307111090843112296222449389663158272.000000 0.000000
-707897318870955307111090843112296222449389663158272.000000 308804664092993531270566780719000306614995483885568.000000 0.000000
0.000000 0.000000 0.000000
883079599800386379179203296915670754418793432649144729600.000000 235828086041924692891589792284777950483427468731935096832.000000 0.000000
235828086041924692891589792284777950483427468731935096832.000000 40334932955810469778676983313862451653885209696037502976.000000 0.000000
0.000000 0.000000 0.000000
-7817224806363171793674923609426306186242075313330666340352.000000 -1614586857500550181756976593324356197888717429719129128960.000000 0.000000
-1614586857500550181756976593324356197888717429719129128960.000000 544870360713071376755849118987393160577461895447953014784.000000 0.000000
0.000000 0.000000 0.000000
2720871949450043240433002380867903701800372817380526522368.000000 -3919878274394426685085654082945677058848059504939671486464.000000 0.000000
-3919878274394426685085654082945677058848059504939671486464.000000 1849013372655345129985837423153577925698988937471003197440.000000 0.000000
0.000000 0.000000 0.000000
2145087003321843761190648189273382566257480797742472101888.000000 209510095164860766155612574822397900924761507485710286848.000000 0.000000
209510095164860766155612574822397900924761507485710286848.000000 13554535614935158035869320032687620167686781714235916288.000000 0.000000
0.000000 0.000000 0.000000
5895013577665112830682587670012092052070417172083750469632.000000 -1806417910824983726172425062512012773361241827853067091968.000000 0.000000
-1806417910824983726172425062512012773361241827853067091968.000000 348859089130025647649457324372456161517799208145941168128.000000 0.000000
0.000000 0.000000 0.000000
-163062945820596741953153923983994651327542085524984774524928.000000 21295085849022373510538001627625423017997646157098411622400.000000 0.000000
21295085849022373510538001627625423017997646157098411622400.000000 5082708538496206913243381407201300407236010632845105037312.000000 0.000000
0.000000 0.000000 0.000000
1674558017371548687534296529687308263198697415751321518080.000000 -1808838417266356909965525361134272210812240052893419307008.000000 0.000000
-1808838417266356909965525361134272210812240052893419307008.000000 796378006801728972483701659048930710990600027908299816960.000000 0.000000
0.000000 0.000000 0.000000
811837246592137073243738651052147126318406920917647097856.000000 -1753037075033660585943070019868994931361002622695239581696.000000 0.000000
-1753037075033660585943070019868994931361002622695239581696.000000 884730380165660991623945901001901221553151229820391129088.000000 0.000000
0.000000 0.000000 0.000000
3025993220097070799120461243300666691845210599319404544000.000000 5529133158596614640121648240193655970242060962458209615872.000000 0.000000
5529133158596614640121648240193655970242060962458209615872.000000 2729211246557859942880787444001687528209745694576485597184.000000 0.000000
0.000000 0.000000 0.000000
7588645361899103470557281191157245865939072334802712526848.000000 7091567073076901313465647767523079564825949304787444957184.000000 0.000000
7091567073076901313465647767523079564825949304787444957184.000000 2917326655716074873129301361886274167661254358018029518848.000000 0.000000
0.000000 0.000000 0.000000
-59359333480498803316949546151628294757905594472583133134848.000000 21635160973619162175386241068315857521484941274247967277056.000000 0.000000
21635160973619162175386241068315857521484941274247967277056.000000 9969133549868782243547895366422762071098265745449319137280.000000 0.000000
0.000000 0.000000 0.000000
6517369167824784318595048840866119887548242805868587909120.000000 4034451273983776330268696098953452400916237684833549025280.000000 0.000000
4034451273983776330268696098953452400916237684833549025280.000000 1350321200325849403212107504246046486932906432953904529408.000000 0.000000
0.000000 0.000000 0.000000
-76909415593587004941893132516388493426474265375411751878656.000000 16080979858934141946749127290776851387115662100047872393216.000000 0.000000
16080979858934141946749127290776851387115662100047872393216.000000 5471673806683577709654113276674989532903815920508276310016.000000 0.000000
0.000000 0.000000 0.000000
890664727496591694882390374974759560933853256823510925312.000000 344878283262479969472893957656070663373228022398323785728.000000 0.000000
344878283262479969472893957656070663373228022398323785728.000000 81001329919828121230928142247213140026310350355161939968.000000 0.000000
0.000000 0.000000 0.000000
4681426947280620869834830346367729218780731894827768086528.000000 1497470594758351024298580244337441806325410800482773893120.000000 0.000000
1497470594758351024298580244337441806325410800482773893120.000000 299943494852621516289044093142816894742334867460021288960.000000 0.000000
0.000000 0.000000 0.000000
10798150798532260311760992467716447844491819947311235072.000000 -11939773874754151812654976239933808822952325321169305600.000000 0.000000
-11939773874754151812654976239933808822952325321169305600.000000 5218772708118169683407032783965226699751107591235698688.000000 0.000000
0.000000 0.000000 0.000000
-22570102792823896184180398393589156709030741752090558726144.000000 18079656231397901040487673340677210611482702850326408462336.000000 0.000000
18079656231397901040487673340677210611482702850326408462336.000000 10144795222644847039816248360886989720026168709970149769216.000000 0.000000
0.000000 0.000000 0.000000
9177507924375396512541317976200195629996790645616803840.000000 -3300944531575755976357983567916627672293714399433064448.000000 0.000000
-3300944531575755976357983567916627672293714399433064448.000000 728945495442729967274926994635375492806669893489393664.000000 0.000000
0.000000 0.000000 0.000000
-4622189204775085828226650867336465671147708722963091030016.000000 4772857886712410372067140796860744232932823866685020700672.000000 0.000000
4772857886712410372067140796860744232932823866685020700672.000000 2720419587946230957893040187023706065737943756743194443776.000000 0.000000
0.000000 0.000000 0.000000
1434345867257767678804542140406125802372642730408759263232.000000 -5355089657630592695641442593000014743027373452780063686656.000000 0.000000
-5355089657630592695641442593000014743027373452780063686656.000000 2874017655505136407841118628934072272799412140591953215488.000000 0.000000
0.000000 0.000000 0.000000
9299916543597838180887647722634851942190923986061011976192.000000 -335499191173514174835807845479484524454591126294904176640.000000 0.000000
-335499191173514174835807845479484524454591126294904176640.000000 8063865565271975386132311378990991438553699108717068288.000000 0.000000
0.000000 0.000000 0.000000
-379468951778956371978626108661627646410727816444460933316608.000000 20322648457507418396142471802709489428114964186441132802048.000000 0.000000
20322648457507418396142471802709489428114964186441132802048.000000 2167670406889807119380032202013198844157779755227756363776.000000 0.000000
0.000000 0.000000 0.000000
32775791627293323171728042117456718329945767999929581568.000000 22879580841270809414492019887136087682561181823954583552.000000 0.000000
22879580841270809414492019887136087682561181823954583552.000000 8141985930658406889971342247009161107227835207553908736.000000 0.000000
0.000000 0.000000 0.000000
-1894325193258040307512707993654079810411960954274436874240.000000 -4585575505141391279060426914521570291456134242435403350016.000000 0.000000
-4585575505141391279060426914521570291456134242435403350016.000000 2649839556088263889747490847898958830407110686276616978432.000000 0.000000
0.000000 0.000000 0.000000
-3061033201708075490076072045222963890597427898793871802368.000000 -1317875544275016079562742870095953348575262764142608515072.000000 0.000000
-1317875544275016079562742870095953348575262764142608515072.000000 644380432070341024037301040440512523530358515784577187840.000000 0.000000
0.000000 0.000000 0.000000
677514266723835282068681660413242148490706669392139124736.000000 -332797075618668263297260513826168126261949453967179120640.000000 0.000000
-332797075618668263297260513826168126261949453967179120640.000000 99656942473819784434879670265978459383530744208504651776.000000 0.000000
0.000000 0.000000 0.000000
1772063558877432353297543042959897858984705113275261517824.000000 926223064142517964091517485176912817633725466779846705152.000000 0.000000
926223064142517964091517485176912817633725466779846705152.000000 271363084377521231295155170408865412985645829780125253632.000000 0.000000
0.000000 0.000000 0.000000
-596152504988785332658937860918270564657892320001071775744.000000 4645006361355537136373328250885077102046785635105380499456.000000 0.000000
4645006361355537136373328250885077102046785635105380499456.000000 2669200400030805723557509302955381131390322177413205721088.000000 0.000000
0.000000 0.000000 0.000000
11440612122038164653137055790791602750648225734655458934784.000000 -1147875541405694814270478593476214368420536657070476230656.000000 0.000000
-1147875541405694814270478593476214368420536657070476230656.000000 76259538325621164466999452065647664546909903956027113472.000000 0.000000
0.000000 0.000000 0.000000
132081133937670153433496550469763135651531825818118389760.000000 -190111671672841606481875845084463569320464028461583826944.000000 0.000000
-190111671672841606481875845084463569320464028461583826944.000000 89460010875543052498970866966747318104355162668570509312.000000 0.000000
0.000000 0.000000 0.000000
7088269969852084466318956105528044473372524617224293449728.000000 4012878378434304434398711774957293342632119841919657312256.000000 0.000000
4012878378434304434398711774957293342632119841919657312256.000000 1262716637572178981566445359533492118699239852960286507008.000000 0.000000
0.000000 0.000000 0.000000
-19742499888339214146749823383659524449281779769417094135808.000000 -3557249723272472839897359479267444471887661760784797532160.000000 0.000000
-3557249723272472839897359479267444471887661760784797532160.000000 1090111476735156600614310704655976905944560843904725811200.000000 0.000000
0.000000 0.000000 0.000000
11929593951777998238710001520235208492057150158654127734784.000000 -3736874586236508992911686526720439621571518168449039728640.000000 0.000000
-3736874586236508992911686526720439621571518168449039728640.000000 750500882094962413671996631800090236855867561916195930112.000000 0.000000
0.000000 0.000000 0.000000
-198485786410921264338657725201424407258504218192493150208.000000 695313173901046772172980251797530049897228408527679127552.000000 0.000000
695313173901046772172980251797530049897228408527679127552.000000 403885962043936121655825954206640069645210817424166748160.000000 0.000000
0.000000 0.000000 0.000000
-1086614450720827188998359317927623079938539990358847127552.000000 3147373728200863024132307247445460491884201876939073388544.000000 0.000000
3147373728200863024132307247445460491884201876939073388544.000000 1824915635057896042966993766609583612992180087549610426368.000000 0.000000
0.000000 0.000000 0.000000
1237540703218485071868354057532643397660926585732255973376.000000 1851450587265378330121534207941522504897796921300623556608.000000 0.000000
1851450587265378330121534207941522504897796921300623556608.000000 878889887234650988196493644517706981307613970791703511040.000000 0.000000
0.000000 0.000000 0.000000
25133301451047993612892069943213236861721505997959536312320.000000 -12804044499568216375118470836985307764922300820802219540480.000000 0.000000
-12804044499568216375118470836985307764922300820802219540480.000000 3717731845320878383477625923802165255765368252582034669568.000000 0.000000
0.000000 0.000000 0.000000
-4915094575075481632413227824429925488671969558769466081280.000000 2904379540947677720338469589944560628450362286876720627712.000000 0.000000
2904379540947677720338469589944560628450362286876720627712.000000 1577832259626607664459600569935696690656720955304983920640.000000 0.000000
0.000000 0.000000 0.000000
102885006784463331332776797898677878289644251848946745344.000000 -61769342953675305129077053801670914209162746760402042880.000000 0.000000
-61769342953675305129077053801670914209162746760402042880.000000 20132880571817097892787257637022153051702786745182453760.000000 0.000000
0.000000 0.000000 0.000000
2914982470524143930202770161987827587754611627152900096.000000 786507929370378304889666697274462615754671807231164416.000000 0.000000
786507929370378304889666697274462615754671807231164416.000000 134933561436454962990737504185836934363473873542840320.000000 0.000000
0.000000 0.000000 0.000000
1942134280868135039563811603610781751105318345589527674880.000000 -2882101316388649473673235717410599779974386688318813241344.000000 0.000000
-2882101316388649473673235717410599779974386688318813241344.000000 1365705804873278250203681935557948560743348119019800494080.000000 0.000000
0.000000 0.000000 0.000000
457395544129580438274061496675573109612208387608258019328.000000 -563222141688729545895273715677235211203590411238577799168.000000 0.000000
-563222141688729545895273715677235211203590411238577799168.000000 254552491749039341203511587340750248315965935159045259264.000000 0.000000
0.000000 0.000000 0.000000
-520086035467347757789065245008880894144277305252623941632.000000 1272160440981708147256294574791693089481112843956034469888.000000 0.000000
1272160440981708147256294574791693089481112843956034469888.000000 731939642006502248003951796489592323469910209423684403200.000000 0.000000
0.000000 0.000000 0.000000
-2003286869390772827127726831065916324521167559000084971520.000000 -9438147826428178032813025539153221114604514028809319612416.000000 0.000000
-9438147826428178032813025539153221114604514028809319612416.000000 5372771513179620298423478012156172219401732287340390383616.000000 0.000000
0.000000 0.000000 0.000000
-19420802858055743184386404544683561755854947289960544206848.000000 -10984634317686069399620729247391989233113272913974767124480.000000 0.000000
-10984634317686069399620729247391989233113272913974767124480.000000 5792197063773894053991439193384532241234056774535251755008.000000 0.000000
0.000000 0.000000 0.000000
3055253384250642781950836513919941136682235334202736246784.000000 2889832522907775208184674627956751805046065459864723783680.000000 0.000000
2889832522907775208184674627956751805046065459864723783680.000000 1211504283951877195373812156715562511130117787103845679104.000000 0.000000
0.000000 0.000000 0.000000
-20097393903465892839427899028440809897819338898487115776.000000 -32481335122895203950828949547658401644337437483162664960.000000 0.000000
-32481335122895203950828949547658401644337437483162664960.000000 18747558929917403079837164327015609630254320611546365952.000000 0.000000
0.000000 0.000000 0.000000
34485006557473040896172708225440836143788706831489384316928.000000 -7145526659236156114108527967122271285735310404398155300864.000000 0.000000
-7145526659236156114108527967122271285735310404398155300864.000000 959791499748029826177060172301100002326652054867198083072.000000 0.000000
0.000000 0.000000 0.000000
-148122969893402362662335197545499860390104556083767507156992.000000 -32303440120099541530953376917854169573538742012201387687936.000000 0.000000
-32303440120099541530953376917854169573538742012201387687936.000000 11300163728328056873939390142325416066443535162297919995904.000000 0.000000
0.000000 0.000000 0.000000
-12864520174950680501804428370846943851470607977997051887616.000000 -24052125763703214604488604772813464196064225761580548096.000000 0.000000
-24052125763703214604488604772813464196064225761580548096.000000 31770686353345233426303922441173589539846166949092392960.000000 0.000000
0.000000 0.000000 0.000000
-272513780852279979713611812602165159370589592354816.000000 135909273687938618220701340236497601888997452283904.000000 0.000000
135909273687938618220701340236497601888997452283904.000000 69418629151177732518118588822767439849037074792448.000000 0.000000
0.000000 0.000000 0.000000
4750316889648473906105254143508003534516976866780250112.000000 -4573367375394679470693489766492147586977507404377227264.000000 0.000000
-4573367375394679470693489766492147586977507404377227264.000000 1898618284811418023403125847151816160971352298846420992.000000 0.000000
0.000000 0.000000 0.000000
-6031624882563886943322456832384649568988789646259539410944.000000 25868905965526705673514690107213713760467666572162057109504.000000 0.000000
25868905965526705673514690107213713760467666572162057109504.000000 14748391985378028923233373229423946103587646178057607184384.000000 0.000000
0.000000 0.000000 0.000000
1271741218395670077357758735372543735966642208768.000000 -711460425561964740625032562687330097303012769792.000000 0.000000
-711460425561964740625032562687330097303012769792.000000 223532453312332035170799308214101820995490807808.000000 0.000000
0.000000 0.000000 0.000000
-10515570607559756147735116979905094953278114836234719199232.000000 -5980584361822949057066765705201978039112686391034558545920.000000 0.000000
-5980584361822949057066765705201978039112686391034558545920.000000 3185073271040930480744480931482985965558284602421201076224.000000 0.000000
0.000000 0.000000 0.000000
4919453812280702572609047798679114341005628912360289730560.000000 -4110132306881347068280458205459164202811298888297499066368.000000 0.000000
-4110132306881347068280458205459164202811298888297499066368.000000 1605728731294721991875045660721615266860091594378783490048.000000 0.000000
0.000000 0.000000 0.000000
614523736894161384783911989990122024990779427758245150720.000000 1032630970562309870536579335956829268328386408037060968448.000000 0.000000
1032630970562309870536579335956829268328386408037060968448.000000 517709010521203502752317922192533737830569322064245686272.000000 0.000000
0.000000 0.000000 0.000000
3562337516992325970608743146122941972069648992428011552768.000000 -124120311876465430615467329095519343346402312390080200704.000000 0.000000
-124120311876465430615467329095519343346402312390080200704.000000 4057596697145846871626193172846181497492092602787299328.000000 0.000000
0.000000 0.000000 0.000000
2577522469329646635189272254356935891460983572027437744128.000000 -1417020492743823755750974089260864988541003887842248622080.000000 0.000000
-1417020492743823755750974089260864988541003887842248622080.000000 425874186884035223613720212930080586669875076161094025216.000000 0.000000
0.000000 0.000000 0.000000
-54944535935521861818460493680670557656106239988099710976.000000 -743769945499885373173300463940149722166747233390430257152.000000 0.000000
-743769945499885373173300463940149722166747233390430257152.000000 417719174283523503407432899001547476884695803176186544128.000000 0.000000
0.000000 0.000000 0.000000
641942358390943007985651249808622053982601404226404876288.000000 492406768510682210096894633954080745056149303231049105408.000000 0.000000
492406768510682210096894633954080745056149303231049105408.000000 185303799661268799428425388214868735223402072591101329408.000000 0.000000
0.000000 0.000000 0.000000
25634812248003759361448690704955639285892776643051474911232.000000 -5740473537815673177526606929489187890225539691055807463424.000000 0.000000
-5740473537815673177526606929489187890225539691055807463424.000000 838241407916998808210116797424946013300561997214091575296.000000 0.000000
0.000000 0.000000 0.000000
218453708713488844123714411533102627291149838156994445312.000000 131736449124582729930345154818838037973251659609118081024.000000 0.000000
131736449124582729930345154818838037973251659609118081024.000000 42911966939156727077049756939707265954355114790105382912.000000 0.000000
0.000000 0.000000 0.000000
-103511321361201849682515518243048827259654380313378816.000000 -6573224796142867722470444079344292230604719879356416.000000 0.000000
-6573224796142867722470444079344292230604719879356416.000000 816509144153930027392287349237515881470545939660800.000000 0.000000
0.000000 0.000000 0.000000
-1809638899871679047969248932805902770325039028716026462208.000000 -1527881917153981209924962393955977083713452871189104951296.000000 0.000000
-1527881917153981209924962393955977083713452871189104951296.000000 857449973677265790632734535987182411866696613307021787136.000000 0.000000
0.000000 0.000000 0.000000
4834869391506856032020490568731173304256017812904296316928.000000 5070678172755377158906390643829681585934427753772757286912.000000 0.000000
5070678172755377158906390643829681585934427753772757286912.000000 2176481863128317372030808300894042808894726553388867125248.000000 0.000000
0.000000 0.000000 0.000000
4750127895643804860617387988449007219860781188876431523840.000000 7778085064600770632594349070706943119629996202064380690432.000000 0.000000
7778085064600770632594349070706943119629996202064380690432.000000 3787690886110658038895866681101198451911311319423766233088.000000 0.000000
0.000000 0.000000 0.000000
-1927085552683730164114476754951439618798744190045728538624.000000 11869474149138473326227034000550839725040240770391709057024.000000 0.000000
11869474149138473326227034000550839725040240770391709057024.000000 6726114588326569838513286457201606546651768466693997723648.000000 0.000000
0.000000 0.000000 0.000000
-9762693603149646293071295499346003620255373570800342794240.000000 4742566807764244493619466060984876658981411684021321072640.000000 0.000000
4742566807764244493619466060984876658981411684021321072640.000000 2421489729523057444502898052589127416352733085506878832640.000000 0.000000
0.000000 0.000000 0.000000
-7849951143934505543287181922221730308174058020638031872000.000000 9868264445188080394422828913919976623451909320539157561344.000000 0.000000
9868264445188080394422828913919976623451909320539157561344.000000 5698702965593339531209319962729132302233249826418618007552.000000 0.000000
0.000000 0.000000 0.000000
-379190712874486535741059890660939855371035041231955450488946688.000000 950797786697649871886325245717827163358774893883266743402496.000000 0.000000
950797786697649871886325245717827163358774893883266743402496.000000 4766430764375459579585544836291786452579174881938473222144.000000 0.000000
0.000000 0.000000 0.000000
2015187506391118357378676428495202062246635728829656596480.000000 663465616224150795290594893732515312815445031451334017024.000000 0.000000
663465616224150795290594893732515312815445031451334017024.000000 135832533680291914953868802432574137071378100459898142720.000000 0.000000
0.000000 0.000000 0.000000
-1189329983814752532206104929670663156514878008279487741952.000000 48559448000220894737231968415717533965722532733853368320.000000 0.000000
48559448000220894737231968415717533965722532733853368320.000000 23804278737849204428469432109991293157003453752913428480.000000 0.000000
0.000000 0.000000 0.000000
2066686262648654344390014557401976068472772977830347669504.000000 4636890961946227274149364658989128637107048360716718309376.000000 0.000000
4636890961946227274149364658989128637107048360716718309376.000000 2354810331631165782688768039225033835544842858116375642112.000000 0.000000
0.000000 0.000000 0.000000
-26751726196462685396700317280421714536612507336608646692864.000000 -343060945749626326862516905216066885318897710561891450880.000000 0.000000
-343060945749626326862516905216066885318897710561891450880.000000 68011153229747204736995361742334734293883437021598318592.000000 0.000000
0.000000 0.000000 0.000000
-6679246304649805996804764380562804619540211609566867095552.000000 -1547089282058158970862986042395455587222978412902067732480.000000 0.000000
-1547089282058158970862986042395455587222978412902067732480.000000 562441671180122062371057661356415797580360098608475799552.000000 0.000000
0.000000 0.000000 0.000000
9518307416864217777062374174205463552146161775694315520.000000 3551506781003156620459166819884556789223308131160817664.000000 0.000000
3551506781003156620459166819884556789223308131160817664.000000 808841830349800547302325133351739724758536465147756544.000000 0.000000
0.000000 0.000000 0.000000
7198046909006746672113545586512365188053510329868694323200.000000 2454624974312988807538163410088132094738623425637431377920.000000 0.000000
2454624974312988807538163410088132094738623425637431377920.000000 518527699052936356974406533182820404831406109741096632320.000000 0.000000
0.000000 0.000000 0.000000
5303440421053845126955282149110841758751998605296402432.000000 -667443361481590414770625159235784647578437850392166400.000000 0.000000
-667443361481590414770625159235784647578437850392166400.000000 55502093512766806865842616624905776158163121561665536.000000 0.000000
0.000000 0.000000 0.000000
-190198994125778669291054524117721402127344142504773550080.000000 1702658532853611042960860720723606668080807340157173760.000000 0.000000
1702658532853611042960860720723606668080807340157173760.000000 2039641457089462241226581323317615752572865667693281280.000000 0.000000
0.000000 0.000000 0.000000
304368456751343453921022782918129295404656837074062671872.000000 528034857683529569967549410497479619478805835031219535872.000000 0.000000
528034857683529569967549410497479619478805835031219535872.000000 258068201401175033622112925459560218477944292008425160704.000000 0.000000
0.000000 0.000000 0.000000
52412900530318324233129045226298240447969371939152068608.000000 512317871090491010606007366250293364505915818148215390208.000000 0.000000
512317871090491010606007366250293364505915818148215390208.000000 280457168277293609795143334256280131179421332767468683264.000000 0.000000
0.000000 0.000000 0.000000
-48651869155930118212604922833730573573696948193678327808.000000 -779873528412548677065831664298277717951551201445662425088.000000 0.000000
-779873528412548677065831664298277717951551201445662425088.000000 438477768478010007328852351921709624850432029438578262016.000000 0.000000
0.000000 0.000000 0.000000
3754874481785124646866664090095422041885361968580921393152.000000 -6286095943022281558528820861874027128502737186147228712960.000000 0.000000
-6286095943022281558528820861874027128502737186147228712960.000000 3053195137478726364155092831827558203014015371040111198208.000000 0.000000
0.000000 0.000000 0.000000
1184365850363930526064178915292662494732211596941393395712.000000 45347633909952082985262268038500147219411423511841865728.000000 0.000000
45347633909952082985262268038500147219411423511841865728.000000 1156270249680587080534892630901953345940650322653347840.000000 0.000000
0.000000 0.000000 0.000000
69653940603087759597725478165379339090097614904138661888.000000 -415156624869203666627228726971907426291208393932232720384.000000 0.000000
-415156624869203666627228726971907426291208393932232720384.000000 226937397209367210981318736832547668753137485522566905856.000000 0.000000
0.000000 0.000000 0.000000
14756521851978302444116857545768111843264012724623254749184.000000 -12988944652177440774272683522095520948146003492257243594752.000000 0.000000
-12988944652177440774272683522095520948146003492257243594752.000000 5196585364615373714202553353980607226195419551251094831104.000000 0.000000
0.000000 0.000000 0.000000
-215561762722530250628208048725626203815188795259701166080.000000 781840175957136784606721001942540568452275196168121614336.000000 0.000000
781840175957136784606721001942540568452275196168121614336.000000 457905866329725506117034616337117714350110199017791029248.000000 0.000000
0.000000 0.000000 0.000000
-577209403643607641586518316294626498911638200783130853376.000000 266813565730931245686429597425116447479167798834809012224.000000 0.000000
266813565730931245686429597425116447479167798834809012224.000000 26145621685277934938708509540877146624716343558675628032.000000 0.000000
0.000000 0.000000 0.000000
-378818470559005102722533293568660164270934040555594711040.000000 2926139759808770261923087087778895655918380216001931247616.000000 0.000000
2926139759808770261923087087778895655918380216001931247616.000000 1652787837416576430477684627004432354825383503289108135936.000000 0.000000
0.000000 0.000000 0.000000
12030193353772929551506564760057737950886592209814825205760.000000 -8673193857927015522308076115912868778183506998115786817536.000000 0.000000
-8673193857927015522308076115912868778183506998115786817536.000000 3142589325842854586143716749610721614651210957699141337088.000000 0.000000
0.000000 0.000000 0.000000
861934818950513009351085821338252044429933912636098871296.000000 -198563976200658020378913268227416286633642320451019472896.000000 0.000000
-198563976200658020378913268227416286633642320451019472896.000000 29451480050610827915244563860361181635652650737227268096.000000 0.000000
0.000000 0.000000 0.000000
-196644787602673891582001894396199424017602601042682314752.000000 -7772981822506960537653340005180630764800759414298509312.000000 0.000000
-7772981822506960537653340005180630764800759414298509312.000000 608626552881735831862803081686270739486798625927856128.000000 0.000000
0.000000 0.000000 0.000000
11555684048676210043493581438803486688225962662410711990272.000000 3220300834368979959450326981078314301161565246092564496384.000000 0.000000
3220300834368979959450326981078314301161565246092564496384.000000 569666053546561233964938525152731579265797832040335278080.000000 0.000000
0.000000 0.000000 0.000000
-1907512151991176788998682499281023131319767154614272524288.000000 -2751845176131488401797124359627478824648515252954893123584.000000 0.000000
-2751845176131488401797124359627478824648515252954893123584.000000 1591279002406777249612432441692182759284700630041032130560.000000 0.000000
0.000000 0.000000 0.000000
12312204677301793154769724325322246208042177291928731648.000000 -586483075235131004074211929983904074818296569970659688448.000000 0.000000
-586483075235131004074211929983904074818296569970659688448.000000 330978654573432753751616685149948347474020282067455049728.000000 0.000000
0.000000 0.000000 0.000000
7875576016992863449465827239420667581894954989535918817280.000000 8715383633740777667217017492146490880411542949723136589824.000000 0.000000
8715383633740777667217017492146490880411542949723136589824.000000 3810460791344298276272376127976775943274189893746087165952.000000 0.000000
0.000000 0.000000 0.000000
1039201256829951573177123455287558134098115787046730596352.000000 287783013699462144781330940097064076303917926507763204096.000000 0.000000
287783013699462144781330940097064076303917926507763204096.000000 50777765321539890594565285164041647601092509711678308352.000000 0.000000
0.000000 0.000000 0.000000
17527495767463454306215847731623075677826159755529038069760.000000 2904588420229445882283211016026590492762870509251256647680.000000 0.000000
2904588420229445882283211016026590492762870509251256647680.000000 315133570570424505382229750079754098985611092862145921024.000000 0.000000
0.000000 0.000000 0.000000
9822959350137408994519888780690328005531072454534285492224.000000 2876470028016012014107895721041417262728751538606490779648.000000 0.000000
2876470028016012014107895721041417262728751538606490779648.000000 533249813136033325920772589938759745862792038070867722240.000000 0.000000
0.000000 0.000000 0.000000
-3616981780770424828602506190572544889388653984328733163520.000000 -5666728270660771766688939014444472731664431289768551120896.000000 0.000000
-5666728270660771766688939014444472731664431289768551120896.000000 3285257979408531267102859363797423940641769624889351733248.000000 0.000000
0.000000 0.000000 0.000000
-7734044440723893020958960204471534905176086988486855737999360.000000 204126538888480882571241339965049741239490569917670648446976.000000 0.000000
204126538888480882571241339965049741239490569917670648446976.000000 10749040926279343675004306927124267904574870914551062200320.000000 0.000000
0.000000 0.000000 0.000000
-1113850579959968652809930956171217003913527019214657814528.000000 -592724381050101726642922651798982488913256992014348582912.000000 0.000000
-592724381050101726642922651798982488913256992014348582912.000000 117872112175507041288791347039414439836486648812024102912.000000 0.000000
0.000000 0.000000 0.000000
1344130604878905921521114912343075852935919782217390227456.000000 -2172314133624417841001713455815519176841351567040361529344.000000 0.000000
-2172314133624417841001713455815519176841351567040361529344.000000 1043612476505013621724009766018972227462418587127826612224.000000 0.000000
0.000000 0.000000 0.000000
958361080480051371236138055620164962134060206727142309888.000000 658748118009095423438832989876616843595730678593888452608.000000 0.000000
658748118009095423438832989876616843595730678593888452608.000000 232670955725506288005356386580279263745000949435011694592.000000 0.000000
0.000000 0.000000 0.000000
1173471650910797107702475561275750397700479523447378018304.000000 511077110939505526730683564669467166563813341249075675136.000000 0.000000
511077110939505526730683564669467166563813341249075675136.000000 131896442715790169139725502801914720944756984268143460352.000000 0.000000
0.000000 0.000000 0.000000
-2087439448931358223459432849582575479966452808268046663680.000000 -2099476351297770827271147973828783275550001261308050145280.000000 0.000000
-2099476351297770827271147973828783275550001261308050145280.000000 1325364527881289697409718098156117450565512127424046825472.000000 0.000000
0.000000 0.000000 0.000000
343575947236550144327668669051044407899872541482957144064.000000 421478193753729358882143149050796957326582450567088439296.000000 0.000000
421478193753729358882143149050796957326582450567088439296.000000 193641360428183290454635744177585884550397059660414713856.000000 0.000000
0.000000 0.000000 0.000000
4549137701207205882927212606404627078856134072401370546176.000000 -2220997215312609920256180398882298736977741281745338105856.000000 0.000000
-2220997215312609920256180398882298736977741281745338105856.000000 624961786587198158741914387677329553345894582302613176320.000000 0.000000
0.000000 0.000000 0.000000
10396407467477044174087895868461793612837481146464384057344.000000 -14861204300417474908999302212643677273522687189320409808896.000000 0.000000
-14861204300417474908999302212643677273522687189320409808896.000000 6982482815845776672532411558786560630034635704070475612160.000000 0.000000
0.000000 0.000000 0.000000
1861932431176384340053867436983986577689456992490734223360.000000 -2252962645427544465479338357284999100202815967108416929792.000000 0.000000
-2252962645427544465479338357284999100202815967108416929792.000000 973568048530044335760732400342563981612259356868865949696.000000 0.000000
0.000000 0.000000 0.000000
-757691793381834966890047665297687829348421131319002529792.000000 2332730667505096282134394809517982917189870869312645890048.000000 0.000000
2332730667505096282134394809517982917189870869312645890048.000000 1336470033809366000971423950405942312768847220582511542272.000000 0.000000
0.000000 0.000000 0.000000
61602498518291866403905723730196342089571692693562589184.000000 -224737344490746961949406408635064558323055960240559226880.000000 0.000000
-224737344490746961949406408635064558323055960240559226880.000000 115977847538922502832651940232798961920612486347894030336.000000 0.000000
0.000000 0.000000 0.000000
41024085442161727245961080236715213808513422202573665861632.000000 -45384732976669659786954966839841825218468122351577992265728.000000 0.000000
-45384732976669659786954966839841825218468122351577992265728.000000 19840450075877942343940825449543268931302923871444241743872.000000 0.000000
0.000000 0.000000 0.000000
697661801518383509562992907193797571231478261730311667712.000000 -2387879189761631447501642466581254520490780144081435623424.000000 0.000000
-2387879189761631447501642466581254520490780144081435623424.000000 1259031851595260294274038223525625592341378499626292740096.000000 0.000000
0.000000 0.000000 0.000000
3506370092645272639296489093570508072164907015621058756608.000000 2008002911437346657395857873104344615463502949799713308672.000000 0.000000
2008002911437346657395857873104344615463502949799713308672.000000 632349551332043812945613093901074613663775012499427950592.000000 0.000000
0.000000 0.000000 0.000000
-27018428038796117219232659919654758463624831395018116694016.000000 6646443001205554262751186011992491160298810562344808087552.000000 0.000000
6646443001205554262751186011992491160298810562344808087552.000000 2506864503129490757404632450055735829604906488872076050432.000000 0.000000
0.000000 0.000000 0.000000
367235339590604179569207965429709033073940378118652952576.000000 -523991854735666261580494020147076319666224706298425901056.000000 0.000000
-523991854735666261580494020147076319666224706298425901056.000000 283278622772505515504673127027951011498508210039028711424.000000 0.000000
0.000000 0.000000 0.000000
-5991888063746789773710128222586040442310457407012815765504.000000 2288750399286629643271485393214377590972914656231372619776.000000 0.000000
2288750399286629643271485393214377590972914656231372619776.000000 1085795315854467890519339739132145938803694620403596001280.000000 0.000000
0.000000 0.000000 0.000000
15072589527476748415520217820796476389658878291575046144.000000 30283597240542559726250791515813138771657687887148744704.000000 0.000000
30283597240542559726250791515813138771657687887148744704.000000 15459586451334786239257275507269961163818710537066250240.000000 0.000000
0.000000 0.000000 0.000000
-7227919305153610407030978862090585544520058623576015634432.000000 -7080471858817889681877135127087108368012791552051406438400.000000 0.000000
-7080471858817889681877135127087108368012791552051406438400.000000 4021819806717835117484559339579039740009354406659272736768.000000 0.000000
0.000000 0.000000 0.000000
6169635235062740602270141892245225516742380339448344739840.000000 1383286382886809305556354271209564783439612907819748032512.000000 0.000000
1383286382886809305556354271209564783439612907819748032512.000000 200129813797860298470945598694352075828556516300981010432.000000 0.000000
0.000000 0.000000 0.000000
37386642069891312823264481399205939211549011222012784279552.000000 -46729278951844366181353371202539378582044201908020665384960.000000 0.000000
-46729278951844366181353371202539378582044201908020665384960.000000 21211034509039156008638679819332420931399664484061410230272.000000 0.000000
0.000000 0.000000 0.000000
-13848672104657511989559981056046663172703289809653240692736.000000 8407247468134316546014332698730617892888826986051043065856.000000 0.000000
8407247468134316546014332698730617892888826986051043065856.000000 4497152103316207086497484302004487716278274218393960710144.000000 0.000000
0.000000 0.000000 0.000000
3983002512187561457203152794007941103991607711212658229248.000000 -5797796349575473021369559642464250671630875922576659447808.000000 0.000000
-5797796349575473021369559642464250671630875922576659447808.000000 2735483696948614645869643823923317781723624593091389816832.000000 0.000000
0.000000 0.000000 0.000000
-100994851733499320799618315620066026258871634254106906853376.000000 95558701889938699098464329297021751022446294096582725861376.000000 0.000000
95558701889938699098464329297021751022446294096582725861376.000000 54157382691251901875582207200209453005933088477916684091392.000000 0.000000
0.000000 0.000000 0.000000
11517760710275232584629227768822201579895665251061858304.000000 -3505068464947811264850621785174067912478855431442137088.000000 0.000000
-3505068464947811264850621785174067912478855431442137088.000000 670230232386756731281087512802930869071731923416514560.000000 0.000000
0.000000 0.000000 0.000000
1490369455138263532769539550894035412821384967415715069952.000000 -1086230293166731695436713996960697222534224512910362673152.000000 0.000000
-1086230293166731695436713996960697222534224512910362673152.000000 396079219200573210654187925587330876166323947852057804800.000000 0.000000
0.000000 0.000000 0.000000
-81002308735486269924634496626479736576513050707084791775232.000000 -27478893480193736403780358875241280168476299756519653638144.000000 0.000000
-27478893480193736403780358875241280168476299756519653638144.000000 12337250547827478893659516730039538253778985470256308289536.000000 0.000000
0.000000 0.000000 0.000000
1485421779002953514375610617372479428275197424156211675136.000000 -121579141129749984608125564743724502827124892254592827392.000000 0.000000
-121579141129749984608125564743724502827124892254592827392.000000 21883159194314774171074288797913566820791460201511256064.000000 0.000000
0.000000 0.000000 0.000000
1488948360981779991672573652867706972608898695657743712256.000000 -558311292580468737900103234315169907680861118859678056448.000000 0.000000
-558311292580468737900103234315169907680861118859678056448.000000 127666637355548374110141591615856085729236349533332439040.000000 0.000000
0.000000 0.000000 0.000000
-15242250004889908351190811732296305697382072946871414816768.000000 324571253627735776608505527803402094532518940738259517440.000000 0.000000
324571253627735776608505527803402094532518940738259517440.000000 68211930858871992162550497188749496483894118797690273792.000000 0.000000
0.000000 0.000000 0.000000
-2537775242092303904306441250328974497227818396522343563264.000000 3671812050068364998963803164789225768842161056802674835456.000000 0.000000
3671812050068364998963803164789225768842161056802674835456.000000 2115939347058790981763571407322815051016878920256605650944.000000 0.000000
0.000000 0.000000 0.000000
-136117407471300943147245979909035599557880741023285510144.000000 1047149442751378909689457452869852494202086219080303378432.000000 0.000000
1047149442751378909689457452869852494202086219080303378432.000000 592052372407430002624951816879711705871003398498722775040.000000 0.000000
0.000000 0.000000 0.000000
853905076997266398255394183865601604554206625636198383616.000000 2045949188991238778096837885814585522054465579896167989248.000000 0.000000
2045949188991238778096837885814585522054465579896167989248.000000 1046225234469398713123675204055304524067102462910807408640.000000 0.000000
0.000000 0.000000 0.000000
2150050450117794240155708693983225314769538463221789229056.000000 -1761280751664418038828142877762530155987146445606000525312.000000 0.000000
-1761280751664418038828142877762530155987146445606000525312.000000 681611110184546712625666969082077295638070967451032485888.000000 0.000000
0.000000 0.000000 0.000000
-259398558492455765326780183254169733431075460451621928960.000000 3635164796111727143520177393343555283641073149544924971008.000000 0.000000
3635164796111727143520177393343555283641073149544924971008.000000 2041827698955651048534787173624127209070555516781750910976.000000 0.000000
0.000000 0.000000 0.000000
17368700053900091999950517308758683539822105994356762607616.000000 15010775760254238678920936931358977497252602591725850984448.000000 0.000000
15010775760254238678920936931358977497252602591725850984448.000000 5953794658481837398979752730945560746116860318157312622592.000000 0.000000
0.000000 0.000000 0.000000
-17737405476076531572309137812527853995820549302417792958464.000000 11220208777757245294840465644979879489346291783377046470656.000000 0.000000
11220208777757245294840465644979879489346291783377046470656.000000 6050924908702393708584948987110833707568969833978527744000.000000 0.000000
0.000000 0.000000 0.000000
-1280294592081849334631992081389512577868642157417673523200.000000 -2897636667523445882375624612663652397852465424890251444224.000000 0.000000
-2897636667523445882375624612663652397852465424890251444224.000000 1672417579295963560894712334255168549825314965855569707008.000000 0.000000
0.000000 0.000000 0.000000
14319915016471699233927749303521629103163322195644791128064.000000 -17818517626999134146410722456621477245166829496352362201088.000000 0.000000
-17818517626999134146410722456621477245166829496352362201088.000000 8077410374788107341625818111852971423719559077879221321728.000000 0.000000
0.000000 0.000000 0.000000
-6334889975325135737261317539969796394921496929024551682048.000000 5240336339639788439952593397119617116632259188261482659840.000000 0.000000
5240336339639788439952593397119617116632259188261482659840.000000 2943631307793273085775288161067720418708088379052908347392.000000 0.000000
0.000000 0.000000 0.000000
3248997955019347690247613204293565105903748469370898087936.000000 -12867853136474908708408812905988711138205907600785937530880.000000 0.000000
-12867853136474908708408812905988711138205907600785937530880.000000 6844139223568607502078326758395489860759162455638289678336.000000 0.000000
0.000000 0.000000 0.000000
-11846585163522868686478478676726665916014980344419117432832.000000 -6286315767756240436738080705228629363740099637365769764864.000000 0.000000
-6286315767756240436738080705228629363740099637365769764864.000000 3264313891626320234058857725153277831461661360808760705024.000000 0.000000
0.000000 0.000000 0.000000
-483599372108094296032974914473453266303495594251231690752.000000 -427086678175065230485182538183101016886915146462468767744.000000 0.000000
-427086678175065230485182538183101016886915146462468767744.000000 240651457314220905337439109483366529120431938535990231040.000000 0.000000
0.000000 0.000000 0.000000
13007730709869974998563467326984612594297192062176175587328.000000 4777889387399383207826637319284755660800124343941783879680.000000 0.000000
4777889387399383207826637319284755660800124343941783879680.000000 1074384129079878021955397519869683463655881543494584500224.000000 0.000000
0.000000 0.000000 0.000000
1075526806953956983082273712279230421461880847803114061824.000000 -953571253545848223473945442582986004344454016240699047936.000000 0.000000
-953571253545848223473945442582986004344454016240699047936.000000 383862211467973909979772828098860476376957322919491403776.000000 0.000000
0.000000 0.000000 0.000000
-2242764268486457088207140124847319181987973325029113856000.000000 -1724537066792532371548577841813119544685998082879054151680.000000 0.000000
-1724537066792532371548577841813119544685998082879054151680.000000 957581271518717846806613262609951560230514512120233590784.000000 0.000000
0.000000 0.000000 0.000000
6111112944515221847505341485494320739006465781550622441472.000000 7216084084789497132185776541408108871370446647894227288064.000000 0.000000
7216084084789497132185776541408108871370446647894227288064.000000 3221020562370362097148673351374262746529916221677486735360.000000 0.000000
0.000000 0.000000 0.000000
2026194455234427384823424293667003277650391480198060048384.000000 2805672644340088060065566224857670405865217053465929318400.000000 0.000000
2805672644340088060065566224857670405865217053465929318400.000000 1309491154015685286328545246469285019755765013205481422848.000000 0.000000
0.000000 0.000000 0.000000
8053710476937150273514837486618715342275017311722714169344.000000 -2508781537205393319783630641118104349153943602725207932928.000000 0.000000
-2508781537205393319783630641118104349153943602725207932928.000000 489390107414353683069339138827201648588454504943874736128.000000 0.000000
0.000000 0.000000 0.000000
1318972815953759391604796913045252479920663552782174781440.000000 40033078473682958378794733663648883888424423285980135424.000000 0.000000
40033078473682958378794733663648883888424423285980135424.000000 809557484808863941591110993813591799833887785789423616.000000 0.000000
0.000000 0.000000 0.000000
19309806256527915029077377894203254479403382348351275008.000000 -49242863321396199168634046373315832516067222837121777664.000000 0.000000
-49242863321396199168634046373315832516067222837121777664.000000 29310811846792751296473920286487686225929611203458367488.000000 0.000000
0.000000 0.000000 0.000000
8635002874113062100675084100512499515949974851180380028928.000000 294815709477077674549485308739937842181636905860375511040.000000 0.000000
294815709477077674549485308739937842181636905860375511040.000000 6704412105872128502418559838598228240477353718472245248.000000 0.000000
0.000000 0.000000 0.000000
7718713500960967318107623648683025849003254585329069326336.000000 768925183988636665964053097741811346687986525564122955776.000000 0.000000
768925183988636665964053097741811346687986525564122955776.000000 68459691158622200405188851075000752839599969160122073088.000000 0.000000
0.000000 0.000000 0.000000
-8125165652248228576836316006173087603983835911501207568384.000000 939221012308804586220868736200962391327226869526592225280.000000 0.000000
939221012308804586220868736200962391327226869526592225280.000000 203100800226185945611353518412589613695240692158462689280.000000 0.000000
0.000000 0.000000 0.000000
1713035951747381497645473888062673052984523338908564455424.000000 -32256679904173687492629628737928756657265054197628272640.000000 0.000000
-32256679904173687492629628737928756657265054197628272640.000000 422953273572539422828206094479229547595137521763221504.000000 0.000000
0.000000 0.000000 0.000000
56563736889248336882215292106496643192949267681509376.000000 -102294653685578164746058541642171577355955677358456832.000000 0.000000
-102294653685578164746058541642171577355955677358456832.000000 40550782610507016066069742508986063113579977125134336.000000 0.000000
0.000000 0.000000 0.000000
7791713558201676341039092656554383406926140714654220943360.000000 -996379218760768756067071590797185070064119297897018687488.000000 0.000000
-996379218760768756067071590797185070064119297897018687488.000000 84036287931976782208669572596003002506341842826794369024.000000 0.000000
0.000000 0.000000 0.000000
3664011458172091089413381415892891293796192399915814486016.000000 -3479831505899095795792754598422214524663420619295375228928.000000 0.000000
-3479831505899095795792754598422214524663420619295375228928.000000 1437291979889471090042445058323754199229702656829127917568.000000 0.000000
0.000000 0.000000 0.000000
10472949981373509430764300308953657240023638943216699441152.000000 -13201110596125536807465089315975227614075338072156941582336.000000 0.000000
-13201110596125536807465089315975227614075338072156941582336.000000 6006092398545152445326798054277156273423874902264440160256.000000 0.000000
0.000000 0.000000 0.000000
-14750416125000031419182794668369781618376114189321109504.000000 95446470086900315231485530754543540875253691739321401344.000000 0.000000
95446470086900315231485530754543540875253691739321401344.000000 54050253107948891857102714955312270507791838924668665856.000000 0.000000
0.000000 0.000000 0.000000
6420277523993981591087442298519827498828893633571192832.000000 3796032439459986809113938914206633759856519707805876224.000000 0.000000
3796032439459986809113938914206633759856519707805876224.000000 1220861325173632168753141764776418752007520844771229696.000000 0.000000
0.000000 0.000000 0.000000
1593276639360235234066134643688645247757301324148002258944.000000 710885593057658618974851337368187176523114773971315195904.000000 0.000000
710885593057658618974851337368187176523114773971315195904.000000 186726507078907102720126929018798173931932459443331006464.000000 0.000000
0.000000 0.000000 0.000000
5147643793062275130026858287015483517522761604663345152.000000 -1957118408596533008427830719542762212450168565084979200.000000 0.000000
-1957118408596533008427830719542762212450168565084979200.000000 452704261629276687597890330604663391152902864470278144.000000 0.000000
0.000000 0.000000 0.000000
49235722563194971280015351607359823496803780436295117963264.000000 3626843886189871640500256366804140916507397049929877684224.000000 0.000000
3626843886189871640500256366804140916507397049929877684224.000000 177733462266682862601656810147078177728454247347451330560.000000 0.000000
0.000000 0.000000 0.000000
-2028405130993729817364555868060984367873796535106310835798016.000000 -142834051178362736803852037805125326493850421199037163110400.000000 0.000000
-142834051178362736803852037805125326493850421199037163110400.000000 19541175105665246363440039236386268162179766015559288750080.000000 0.000000
0.000000 0.000000 0.000000
11995430740993011112454332212994289892747468847418754203648.000000 9663985746039318298930095023093919302021563929376237551616.000000 0.000000
9663985746039318298930095023093919302021563929376237551616.000000 3709767765224309347289464889591721467424793468576378912768.000000 0.000000
0.000000 0.000000 0.000000
-18926297807845931980287448724043814574091166168902105300992.000000 5966972473377832789028797760947258204570283293248596213760.000000 0.000000
5966972473377832789028797760947258204570283293248596213760.000000 2582084308417031904123214465018267795847651263231322750976.000000 0.000000
0.000000 0.000000 0.000000
1239325567452230062337403358634138892358651965303930486784.000000 -3883931154556416870398114855518454917076201815956902641664.000000 0.000000
-3883931154556416870398114855518454917076201815956902641664.000000 2034957130538203588223567113825678296335525245510297321472.000000 0.000000
0.000000 0.000000 0.000000
232339481086051692800566124955494232343253132469572993024.000000 1504171453235964813749113779718431062566062940926790074368.000000 0.000000
1504171453235964813749113779718431062566062940926790074368.000000 821787072099161840805662562797542049120066426738476843008.000000 0.000000
0.000000 0.000000 0.000000
-16284098680444942229233120036761811488013962167388733440.000000 -7376360608040506207227297998586978443844141512164114432.000000 0.000000
-7376360608040506207227297998586978443844141512164114432.000000 3666115976540608493546610463427094610577399115717541888.000000 0.000000
0.000000 0.000000 0.000000
6404138724495119359058446598840820396950807536856176001024.000000 -7517124202314337103693835060139990636496781849502943281152.000000 0.000000
-7517124202314337103693835060139990636496781849502943281152.000000 3349266969901825037098159569068821580743742003805306224640.000000 0.000000
0.000000 0.000000 0.000000
5233232681430768036414419900830634926982865742676935835648.000000 2146270994287678190100703358801366380525868599074845884416.000000 0.000000
2146270994287678190100703358801366380525868599074845884416.000000 560301734165980289145664189769777852462764282194042028032.000000 0.000000
0.000000 0.000000 0.000000
32180772698300540310215948943243897229630220360919912808448.000000 9541941205033402905363926412644534728498338097157602541568.000000 0.000000
9541941205033402905363926412644534728498338097157602541568.000000 1785275331616385840499448052750959856232496967904548356096.000000 0.000000
0.000000 0.000000 0.000000
1623559551923338611376668360702815548838929934291967148032.000000 -528672600473657106752716433055033903844585430405003345920.000000 0.000000
-528672600473657106752716433055033903844585430405003345920.000000 107205726466393793848495336237557631977084839358090969088.000000 0.000000
0.000000 0.000000 0.000000
-1470631909164721698810067167676214143981960977016275599360.000000 7786655837050686482960445337029470624663106252949914910720.000000 0.000000
7786655837050686482960445337029470624663106252949914910720.000000 4422648606866539233334731957951828340408788952832138018816.000000 0.000000
0.000000 0.000000 0.000000
-758421911498576538211816882017771799834512615512619964432384.000000 -26311796815651742315118733914973584104231559311746549153792.000000 0.000000
-26311796815651742315118733914973584104231559311746549153792.000000 1812469002468903683875012584695890877956278555471255699456.000000 0.000000
0.000000 0.000000 0.000000
-2160149650381655251572524540384563827138599658682403623272448.000000 62012455665146322132883984016962757939812277576729452609536.000000 0.000000
62012455665146322132883984016962757939812277576729452609536.000000 3542322766120112058238452190685340283450913919015147536384.000000 0.000000
0.000000 0.000000 0.000000
-3008054813055780170733273935424135183992425976279412506624.000000 -1774362847886644527027272170417526876662286847749438570496.000000 0.000000
-1774362847886644527027272170417526876662286847749438570496.000000 943666161952610391137622957783991432982440590506131980288.000000 0.000000
0.000000 0.000000 0.000000
381241706868308707502941961945380549925404550984464596992.000000 -18377025158154138791754002709617682821471202945187971072.000000 0.000000
-18377025158154138791754002709617682821471202945187971072.000000 9631878793182486321688446922288671579058648283948777472.000000 0.000000
0.000000 0.000000 0.000000
-5229363756110864545053377279663670195255815293187982884864.000000 214499066187823416933304363493958291527705918738813419520.000000 0.000000
214499066187823416933304363493958291527705918738813419520.000000 46794939281265098716008445920515500823051816461848805376.000000 0.000000
0.000000 0.000000 0.000000
60444213055285075102004543679656473697380342956032.000000 -834607166418712363062577405403828949335729839800320.000000 0.000000
-834607166418712363062577405403828949335729839800320.000000 458981688826565912820228381611199843186786831433728.000000 0.000000
0.000000 0.000000 0.000000
-2882576240562774456395938431932916064999784820128515883008.000000 -40607689821098280848939568120300924680332003215713239040.000000 0.000000
-40607689821098280848939568120300924680332003215713239040.000000 15451746290151771847568582257049332472386583170589392896.000000 0.000000
0.000000 0.000000 0.000000
11607916430383219876940140380618072657313948576975018786816.000000 11828927558814892702563301714514918016916244396272758292480.000000 0.000000
11828927558814892702563301714514918016916244396272758292480.000000 4987501809817862522448794815316815019208461924491985944576.000000 0.000000
0.000000 0.000000 0.000000
390932245113293937636677067859112039543563701423993520128.000000 290453394453108548666433766823072018553944083466343677952.000000 0.000000
290453394453108548666433766823072018553944083466343677952.000000 106965905033552419296902319725725903442150893973512650752.000000 0.000000
0.000000 0.000000 0.000000
12023679575705924988136420612772064959609542802935906304.000000 -6554082389690635879925331365644794752413780848370778112.000000 0.000000
-6554082389690635879925331365644794752413780848370778112.000000 1996265541150585183947012616258652626241658130943442944.000000 0.000000
0.000000 0.000000 0.000000
-7343106985223318517160797535895591105893797883106539077632.000000 1578311883931905559022203408306707618139257339131962851328.000000 0.000000
1578311883931905559022203408306707618139257339131962851328.000000 586545845164876544978678350006183555261649909991631486976.000000 0.000000
0.000000 0.000000 0.000000
-35884238083985518684426444648196136171032640958749550313472.000000 -8305919722449153036966027190688222557120866793641799057408.000000 0.000000
-8305919722449153036966027190688222557120866793641799057408.000000 3179097789746212036902320251179904673732565397309998759936.000000 0.000000
0.000000 0.000000 0.000000
-668107761211430897629478855596553966670761261397572583424.000000 -759940745249591867442670944786684232918881563621902516224.000000 0.000000
-759940745249591867442670944786684232918881563621902516224.000000 435268007797286139716327004183252241170528889595462942720.000000 0.000000
0.000000 0.000000 0.000000
-2122835654992130699930067958750584244250434823407630548992.000000 1481342395072848349043198672484324072884220561212087205888.000000 0.000000
1481342395072848349043198672484324072884220561212087205888.000000 812285710707030976698528107917619708928276119931760672768.000000 0.000000
0.000000 0.000000 0.000000
-3231990833118317175797006872444362659196576643244248530944.000000 -6367846976613984260897411843011624910507070688156469690368.000000 0.000000
-6367846976613984260897411843011624910507070688156469690368.000000 3673929012427963672574494692460533012171062676726919200768.000000 0.000000
0.000000 0.000000 0.000000
-245935567667989223888156133786324096311704505482009903104.000000 -778038743309595195128607364042229543819690441299596410880.000000 0.000000
-778038743309595195128607364042229543819690441299596410880.000000 463937659628842066328053001791577598572513254342729400320.000000 0.000000
0.000000 0.000000 0.000000
2276750768833080213469627919706792434011649247841091584.000000 35210080200549685454898739367704403465358191448031232.000000 0.000000
35210080200549685454898739367704403465358191448031232.000000 553083404479171541483340432625706444084273722949632.000000 0.000000
0.000000 0.000000 0.000000
666975323909808822667299459725372014494625759929160433664.000000 1687274030595684392801300111685203317549508996866968125440.000000 0.000000
1687274030595684392801300111685203317549508996866968125440.000000 867770605557000385470174922663942250371154347171273244672.000000 0.000000
0.000000 0.000000 0.000000
1572285372181957977673648824587913940207435252866406678528.000000 160378328274365824821769468754406806740903472954702036992.000000 0.000000
160378328274365824821769468754406806740903472954702036992.000000 12758502825314396199658586883584051357871855023169732608.000000 0.000000
0.000000 0.000000 0.000000
2108032898193675356268798227724086690150034538627684368384.000000 79968657631157639678038689394995662689113947495479640064.000000 0.000000
79968657631157639678038689394995662689113947495479640064.000000 6012359100334335608140459689054491715493640813659815936.000000 0.000000
0.000000 0.000000 0.000000
-1554348150182265869904699378248400007067201548269396164608.000000 502838939035727915077318624456838091552606482052526637056.000000 0.000000
502838939035727915077318624456838091552606482052526637056.000000 219392975944293804683043933528456561973957266233920323584.000000 0.000000
0.000000 0.000000 0.000000
9853361796264667769296528597768679614750481409287923957760.000000 19435055883342049334098062391915268802089287846499910156288.000000 0.000000
19435055883342049334098062391915268802089287846499910156288.000000 9696132248581937931712097462623712261311071037632928546816.000000 0.000000
0.000000 0.000000 0.000000
18876647671921365613583704651161667386123727944608582205440.000000 -13788621743659372504242831830949992297410786602769950179328.000000 0.000000
-13788621743659372504242831830949992297410786602769950179328.000000 5028932612405040548942452312008916624751416941921578254336.000000 0.000000
0.000000 0.000000 0.000000
-2841671606311867342263531957251916716082800435870497243136.000000 -6108018568151146722030797685884370519318964531305404956672.000000 0.000000
-6108018568151146722030797685884370519318964531305404956672.000000 3520875247756532810092598741220723538485470126096680747008.000000 0.000000
0.000000 0.000000 0.000000
-1356730045287389272499967022861804837296191565815621877760.000000 -4219423444315118088410427977089124357609861006787161882624.000000 0.000000
-4219423444315118088410427977089124357609861006787161882624.000000 2454292546786467173982343839478628394091916190006718234624.000000 0.000000
0.000000 0.000000 0.000000
561212171484645469600230449744458266863795986816605093888.000000 376271356983334727509459177706614549384686980441091080192.000000 0.000000
376271356983334727509459177706614549384686980441091080192.000000 130801058065687262829882605858890176373534258281301671936.000000 0.000000
0.000000 0.000000 0.000000
-257630119397452519906183058647823358360690228800316768256.000000 609344191890218623811648714187975939224976087778794143744.000000 0.000000
609344191890218623811648714187975939224976087778794143744.000000 364601535484511148849729870115896894457132075104170147840.000000 0.000000
0.000000 0.000000 0.000000
-36081055650735694870907074830493483348456023382567157760.000000 -9053162811741772907966437809413718648179414084412768256.000000 0.000000
-9053162811741772907966437809413718648179414084412768256.000000 3322056727141964614723717686579476313442968024752586752.000000 0.000000
0.000000 0.000000 0.000000
768762603723467457895201796567289081992616463641002115072.000000 -365717500159145926114897862724756893850838238354244370432.000000 0.000000
-365717500159145926114897862724756893850838238354244370432.000000 100982716526552001955150365358381053088391601413102239744.000000 0.000000
0.000000 0.000000 0.000000
-3372803382583222365694158369465204377336623835545086197760.000000 -2796096274413682330052632449926736820449922825409200652288.000000 0.000000
-2796096274413682330052632449926736820449922825409200652288.000000 1608130654448564175629901396548892331583837101411046260736.000000 0.000000
0.000000 0.000000 0.000000
1862191572046635925779981708720959562955485511994589577216.000000 7899987819552096773988861488515992759302906320454978371584.000000 0.000000
7899987819552096773988861488515992759302906320454978371584.000000 4254572571124350575924093278727892803913935638659749380096.000000 0.000000
0.000000 0.000000 0.000000
-64225773774537783647170649625578912381711136088874075291648.000000 -13333817824510436347885630664874265734351856242942650875904.000000 0.000000
-13333817824510436347885630664874265734351856242942650875904.000000 4507368561679059216848041889820453262299185434845272604672.000000 0.000000
0.000000 0.000000 0.000000
-8939343769934533627783648523088590244515345408367433613312.000000 6043446608432605931972229173491660358401907463153726259200.000000 0.000000
6043446608432605931972229173491660358401907463153726259200.000000 3302625445760336117695159960769224247234063464255318917120.000000 0.000000
0.000000 0.000000 0.000000
4877002447753371817124813636400174554786900999808539951104.000000 3150032482785717709752973470038412747787160327790874591232.000000 0.000000
3150032482785717709752973470038412747787160327790874591232.000000 1065781887961191522962383149060662538390738580748955025408.000000 0.000000
0.000000 0.000000 0.000000
-6907729948017680836427270997247662885085336732605895147520.000000 5644716223690632181116593947385088941490562922539860885504.000000 0.000000
5644716223690632181116593947385088941490562922539860885504.000000 3156427870643234599779836567595737010303904660896018857984.000000 0.000000
0.000000 0.000000 0.000000
3080570191510924350508114779591007860956310524362854760448.000000 4971781111796548281678071871791684587743202382840151932928.000000 0.000000
4971781111796548281678071871791684587743202382840151932928.000000 2397479186203802140750026623995188618570557907731224723456.000000 0.000000
0.000000 0.000000 0.000000
237153756442438060046416139556281903733135992232783904768.000000 -1696074759020064376044611284026685542859105430776802443264.000000 0.000000
-1696074759020064376044611284026685542859105430776802443264.000000 922301728826565976610560182330390603015619226626303197184.000000 0.000000
0.000000 0.000000 0.000000
-221431397323016639007428227210178005799934253776859299840.000000 312807785517198523985967086213055461565519069456009003008.000000 0.000000
312807785517198523985967086213055461565519069456009003008.000000 177422207581399010101222122771468277638513085672583069696.000000 0.000000
0.000000 0.000000 0.000000
-3581684800742139868276053497473200113234914566260253523968.000000 -1814104987225880450093506732150406997543206074195829063680.000000 0.000000
-1814104987225880450093506732150406997543206074195829063680.000000 938782679009523672107011376735014704959290481981926670336.000000 0.000000
0.000000 0.000000 0.000000
-31319808411462338998465080069146298360801991297638426738688.000000 -5026126740605604120625836698481152460273761772358143574016.000000 0.000000
-5026126740605604120625836698481152460273761772358143574016.000000 1420298725006214020546731207047053260756972584035080470528.000000 0.000000
0.000000 0.000000 0.000000
2814003637677937645688258088803765645457221464183707533312.000000 -3474423465361006241365767828742321269156572227833325158400.000000 0.000000
-3474423465361006241365767828742321269156572227833325158400.000000 1679466254410048721155974044157090378915478933324053872640.000000 0.000000
0.000000 0.000000 0.000000
-4761482000250056970989597433410633139028741817899021238272.000000 10460067222755363639319090782241458126178340311725506560000.000000 0.000000
10460067222755363639319090782241458126178340311725506560000.000000 6028822288880250032073982279822160227105218366920382742528.000000 0.000000
0.000000 0.000000 0.000000
4106055978930681804727482256559013620191291590669106151424.000000 494074308219009014159203430677435072666331363978097197056.000000 0.000000
494074308219009014159203430677435072666331363978097197056.000000 39607668111718202381800003226688720054348651169941815296.000000 0.000000
0.000000 0.000000 0.000000
641481688993522708935130247486755156935053057251245817856.000000 -598499906742125796491915218254404860360211826738896830464.000000 0.000000
-598499906742125796491915218254404860360211826738896830464.000000 245511018115861091407747942343199287099711279883903565824.000000 0.000000
0.000000 0.000000 0.000000
2288785152175445503197703577050002917305451461872243965952.000000 950873007480109406807819245736371072406939303254543040512.000000 0.000000
950873007480109406807819245736371072406939303254543040512.000000 236449515004424897445568388072207156430860796493945634816.000000 0.000000
0.000000 0.000000 0.000000
-76754295932883836040091575330024312066084611309340459008.000000 7911076462641802957355043343331477072837834355844841472.000000 0.000000
7911076462641802957355043343331477072837834355844841472.000000 1536145215396981005440918092949950743249064132668817408.000000 0.000000
0.000000 0.000000 0.000000
6349763418874647253304553729241393044514219540564028686336.000000 176936358308497646507141457789045829395337438126632075264.000000 0.000000
176936358308497646507141457789045829395337438126632075264.000000 8463588208498538460486988697654422619657226192003530752.000000 0.000000
0.000000 0.000000 0.000000
26444290504798705549548367003139572008357541933261783040.000000 8410724899531256770527090059501841225886692267954012160.000000 0.000000
8410724899531256770527090059501841225886692267954012160.000000 1670920112602415200543770677169557840302205452622495744.000000 0.000000
0.000000 0.000000 0.000000
8720023079667877405612399359862367874504613857546433724416.000000 -4323352424712967635286532168785594210788109360360614526976.000000 0.000000
-4323352424712967635286532168785594210788109360360614526976.000000 1222908320533910513337590983106171042634320132236019499008.000000 0.000000
0.000000 0.000000 0.000000
-21539606588609900996653013274088433320983996087073243136.000000 8176071952282765603581439656967585990077899099745550336.000000 0.000000
8176071952282765603581439656967585990077899099745550336.000000 3830085162794151427591263735596841751684981351300202496.000000 0.000000
0.000000 0.000000 0.000000
1577387795152583867394753480983385818250817360783000731648.000000 4961669539377368878294476229877516345222368222498235875328.000000 0.000000
4961669539377368878294476229877516345222368222498235875328.000000 2621676578597936782839236204774522477974815632872079097856.000000 0.000000
0.000000 0.000000 0.000000
1692586474677927194899318961890401672600911907015123533824.000000 61875161300801242480493878783514437272333086365054926848.000000 0.000000
61875161300801242480493878783514437272333086365054926848.000000 1506368085230144016525870628584493563146273259840864256.000000 0.000000
0.000000 0.000000 0.000000
731267194106035884306255840054662512155874053938661556224.000000 284346219200983205076988601933624950341653310497609482240.000000 0.000000
284346219200983205076988601933624950341653310497609482240.000000 66403394117620166298848016244303896342619791133335617536.000000 0.000000
0.000000 0.000000 0.000000
-4840581971030238479260364256550665601836185515580681355264.000000 -3180944209190974636702226685119393278798443124623040053248.000000 0.000000
-3180944209190974636702226685119393278798443124623040053248.000000 1734043548695909464501957123469569033459973603676001402880.000000 0.000000
0.000000 0.000000 0.000000
2996784604384624950125443597562889716130560488197062656.000000 -680005293770843085362022230450628799811577430360981504.000000 0.000000
-680005293770843085362022230450628799811577430360981504.000000 99446358752161804508137293636036644865149856026460160.000000 0.000000
0.000000 0.000000 0.000000
-62198464760648575310025952853322036335702776252043624448.000000 18988339211160127370744142080723471629905733438314381312.000000 0.000000
18988339211160127370744142080723471629905733438314381312.000000 8057704200917931840912697070285023723734621356711477248.000000 0.000000
0.000000 0.000000 0.000000
-244377043056605553499951053837819316500950804040726205169664.000000 -18288364292628424895270783155385839795828107284047925870592.000000 0.000000
-18288364292628424895270783155385839795828107284047925870592.000000 2649272386812848463897147785434819161614212554924473974784.000000 0.000000
0.000000 0.000000 0.000000
-2989560781237945621154861835233085743320280357869736427520.000000 -4223499623853972819005230061754590648192228270422167126016.000000 0.000000
-4223499623853972819005230061754590648192228270422167126016.000000 2464852782102036304551790826225978935173869414013225402368.000000 0.000000
0.000000 0.000000 0.000000
-141779604302947413859144295661216497649081323967734217703424.000000 -35888032738950360229624309063485436751094374998606671249408.000000 0.000000
-35888032738950360229624309063485436751094374998606671249408.000000 13765491349078606904236461161223976844004004817781903065088.000000 0.000000
0.000000 0.000000 0.000000
376095995125367886805529227698899361501241922402876653568.000000 9570749235856737602740220532853499316996279416704204800.000000 0.000000
9570749235856737602740220532853499316996279416704204800.000000 162282557149060397861635877353026276927285665659355136.000000 0.000000
0.000000 0.000000 0.000000
4633964238939161297326928250832096481389296596880008937472.000000 -1616440000659437020753667329251401413599522070455836999680.000000 0.000000
-1616440000659437020753667329251401413599522070455836999680.000000 367125653174186212923953014524974276367820810306940043264.000000 0.000000
0.000000 0.000000 0.000000
2789165205497368399821283701224155983293797957493587968.000000 -42765950385689071522493584263483072492873684474625261568.000000 0.000000
-42765950385689071522493584263483072492873684474625261568.000000 23553695750686578985015209786203407793711833819255930880.000000 0.000000
0.000000 0.000000 0.000000
65449195742218828643942727158675097508351642682192297984.000000 -40857714457363111441204858600134704664987708462595047424.000000 0.000000
-40857714457363111441204858600134704664987708462595047424.000000 13603596984111097204783898648503764007579203986297716736.000000 0.000000
0.000000 0.000000 0.000000
561138021315237891893045057248183480095876459452107325440.000000 -93438477461897921686703984062535992655439919001999769600.000000 0.000000
-93438477461897921686703984062535992655439919001999769600.000000 14544243107831250894204611719923630718796458103284957184.000000 0.000000
0.000000 0.000000 0.000000
21823005893914402193005926900343270421572836746418628591616.000000 20413961093158332962583860697880122028085965607915980062720.000000 0.000000
20413961093158332962583860697880122028085965607915980062720.000000 8383170153977173517514755070892211462773273784099960520704.000000 0.000000
0.000000 0.000000 0.000000
1360851581449197746952016476150903553269030942702607269888.000000 9559454344085858417150815390292774819137149679074663202816.000000 0.000000
9559454344085858417150815390292774819137149679074663202816.000000 5196544353296439687080470438161215165357784874733801570304.000000 0.000000
0.000000 0.000000 0.000000
275788349371012495524881822199385924921796568619000266752.000000 -1466278254230776759020428347906351001084893430084555243520.000000 0.000000
-1466278254230776759020428347906351001084893430084555243520.000000 801000184440965205875758047834904880409775660863905071104.000000 0.000000
0.000000 0.000000 0.000000
5743086254223259104533552678184403713452224868350164992.000000 3291361997276051684499267942516141996188524360394342400.000000 0.000000
3291361997276051684499267942516141996188524360394342400.000000 1037019276775040393163191785707663309297613576589017088.000000 0.000000
0.000000 0.000000 0.000000
-7254475588342094178540412001091249810492619681581926187008.000000 -8957938863189882590972295784893856243418040729367014801408.000000 0.000000
-8957938863189882590972295784893856243418040729367014801408.000000 5157237600028307216508574146037595263939182153763817259008.000000 0.000000
0.000000 0.000000 0.000000
11678313369743559045362991960684060108235016140726806249472.000000 9577531248571974329880062342567161122957871478300150333440.000000 0.000000
9577531248571974329880062342567161122957871478300150333440.000000 3708528369810077508035245232170321784882407371920929456128.000000 0.000000
0.000000 0.000000 0.000000
-1563821496808874109587248489368169924722933448406632235008.000000 12829571298482154903989016609287432397803947770388835991552.000000 0.000000
12829571298482154903989016609287432397803947770388835991552.000000 7241348904372713240085944240007373551454887969786997768192.000000 0.000000
0.000000 0.000000 0.000000
-487393355072375297301101414188803368845053518043735392256.000000 -19992113727945436593225802988475953232581028015975170048.000000 0.000000
-19992113727945436593225802988475953232581028015975170048.000000 1623371063858922548960690380587148527662583697066950656.000000 0.000000
0.000000 0.000000 0.000000
1577352816919265872939321349550018857102729184987685322752.000000 -1875933087222604239477311211998516352577596662147750821888.000000 0.000000
-1875933087222604239477311211998516352577596662147750821888.000000 839178564325843265516095648617858254481740088418521579520.000000 0.000000
0.000000 0.000000 0.000000
-370913451981287261055934190048600204402249514997187084288.000000 1063911476651949664551369118740343255848776522974321704960.000000 0.000000
1063911476651949664551369118740343255848776522974321704960.000000 612649954669446456733459814933874093609522881439968788480.000000 0.000000
0.000000 0.000000 0.000000
-800239222791239858968401525106126315916147597305184256.000000 6817135518087679301347999268828483717547146860851888128.000000 0.000000
6817135518087679301347999268828483717547146860851888128.000000 3845879755591515620493828041851252325211367147460100096.000000 0.000000
0.000000 0.000000 0.000000
-539428843391911723132320504472155324133312829346266742784.000000 -974532899579564904732355880566398634014241782814218387456.000000 0.000000
-974532899579564904732355880566398634014241782814218387456.000000 562488799097176119587521408691369148264280020921494798336.000000 0.000000
0.000000 0.000000 0.000000
7165884205573051279239926849302354457946006289174077898752.000000 -4458157949019848102178845450526716165309301438762010542080.000000 0.000000
-4458157949019848102178845450526716165309301438762010542080.000000 1481311140586077720987044648084637239376825618640865853440.000000 0.000000
0.000000 0.000000 0.000000
4828414300817605065256232085787110242886474889511267467264.000000 -1102902460253501805793927892425718670008513450431312035840.000000 0.000000
-1102902460253501805793927892425718670008513450431312035840.000000 172811430235759218479377959975146536483303912795950546944.000000 0.000000
0.000000 0.000000 0.000000
19826812177302716617703479217322522223018014606071169024.000000 2947599036979404735880829699594476542706624423608188928.000000 0.000000
2947599036979404735880829699594476542706624423608188928.000000 288334772858794487753352611367262064010183241969434624.000000 0.000000
0.000000 0.000000 0.000000
7458181265140968257914735630047622145218388800046532395008.000000 -3563004734799082101705766398455523254831447282554188595200.000000 0.000000
-3563004734799082101705766398455523254831447282554188595200.000000 986928851236818790302163827907631590001675028433714806784.000000 0.000000
0.000000 0.000000 0.000000
12769939063563225615937647103464824709049724979222132293632.000000 -3256979608052746028587304733825654131698533033644193218560.000000 0.000000
-3256979608052746028587304733825654131698533033644193218560.000000 531383888071325533213402260455438580228627456598648815616.000000 0.000000
0.000000 0.000000 0.000000
-800202453086475287763869240824340660510838273798200885248.000000 2512385494531155358632880287498248921620722577994894278656.000000 0.000000
2512385494531155358632880287498248921620722577994894278656.000000 1428535590657914443836549636130253313107239376930981543936.000000 0.000000
0.000000 0.000000 0.000000
-8430057862329826985516818770078721958602681626804558495744.000000 -2574638503374862194054379837405466633699898841096834252800.000000 0.000000
-2574638503374862194054379837405466633699898841096834252800.000000 1092737838070449633611514348039558045224133983833214156800.000000 0.000000
0.000000 0.000000 0.000000
6771375997778262712081598247897848963877266992454942326784.000000 -4245397330076294380414875039986254469487796137277060546560.000000 0.000000
-4245397330076294380414875039986254469487796137277060546560.000000 1417319891497580512595347191537428273006312437465053396992.000000 0.000000
0.000000 0.000000 0.000000
7247825042571626600119664854126437927217953092715642093568.000000 -22829283734155642321487929613264345020949248245934063616.000000 0.000000
-22829283734155642321487929613264345020949248245934063616.000000 13526523176308741395372701156085946594703365043709280256.000000 0.000000
0.000000 0.000000 0.000000
-69371842922621143098101005285807380145753890512574754062336.000000 19243250485609500072007989634269688355275903459678664785920.000000 0.000000
19243250485609500072007989634269688355275903459678664785920.000000 7770235322744774016931300874718312241430511424505728991232.000000 0.000000
0.000000 0.000000 0.000000
420703849086623424724844493786771207066367163965363978240.000000 -280930171014971443259483255853735776834460062980251844608.000000 0.000000
-280930171014971443259483255853735776834460062980251844608.000000 97461101005219164626804892451195940406213557566744559616.000000 0.000000
0.000000 0.000000 0.000000
3221984933257159658248594957085078004232539700863751421952.000000 -3120858018439886082389776568472642536657753565746438340608.000000 0.000000
-3120858018439886082389776568472642536657753565746438340608.000000 1307172459921768281613234484966840505632831298710666215424.000000 0.000000
0.000000 0.000000 0.000000
260764540717177905318778988563603876697376386229207040.000000 261842968724184848501104424279873867416925142115155968.000000 0.000000
261842968724184848501104424279873867416925142115155968.000000 110471401445694015120877773272872733841755429945737216.000000 0.000000
0.000000 0.000000 0.000000
48291092195230792734782322620771455989818759053312.000000 35393866965382285853649094732350053921038299824128.000000 0.000000
35393866965382285853649094732350053921038299824128.000000 15228171131270251002182947361862030280212715929600.000000 0.000000
0.000000 0.000000 0.000000
7420656735467441955038794840053701339254738858508994740224.000000 -4276269584989046188743360610078025743696186517681610948608.000000 0.000000
-4276269584989046188743360610078025743696186517681610948608.000000 1353437894404805602527496974449050168681881330526537646080.000000 0.000000
0.000000 0.000000 0.000000
9359904896678458417504002455587844926962783323588009132032.000000 -176959091190852094773796090600100141864440713235543359488.000000 0.000000
-176959091190852094773796090600100141864440713235543359488.000000 13088567674277469308328209327596687491451956007343751168.000000 0.000000
0.000000 0.000000 0.000000
12686420170702360608699516684316531329837131634100211286016.000000 -3437816529491851923839884576516435470045417849674442735616.000000 0.000000
-3437816529491851923839884576516435470045417849674442735616.000000 592397237608368018237987763466323923601311132753063837696.000000 0.000000
0.000000 0.000000 0.000000
389970776547079884452416699402839246171535829741252640768.000000 -219402307146233997308563780532915440677392119304772648960.000000 0.000000
-219402307146233997308563780532915440677392119304772648960.000000 68276931117782931461478476777184141990457753148399288320.000000 0.000000
0.000000 0.000000 0.000000
5541149413625614769979428233121224566336439308115561676800.000000 -2631590764193446887190761545646047083492255458834530697216.000000 0.000000
-2631590764193446887190761545646047083492255458834530697216.000000 735698327087633674464144626022707501641084248966559694848.000000 0.000000
0.000000 0.000000 0.000000
-1975246219934258541851427577229180668222947485431824908288.000000 -2923651390063543433190739177164232108996481984099187163136.000000 0.000000
-2923651390063543433190739177164232108996481984099187163136.000000 1686896356436057805692262567712664275453152415384411832320.000000 0.000000
0.000000 0.000000 0.000000
3219141029033941392772977752259041727287819649053150412800.000000 17165640486549889318674854844583983585143550202813490397184.000000 0.000000
17165640486549889318674854844583983585143550202813490397184.000000 9252406919084366212898786918333967048407810739865410076672.000000 0.000000
0.000000 0.000000 0.000000
-452760572010465992468117122319583382929872106518198014181376.000000 16524381765241016356340575380222357552207091909774293336064.000000 0.000000
16524381765241016356340575380222357552207091909774293336064.000000 1196285484276692826566920632047327856461457262172396584960.000000 0.000000
0.000000 0.000000 0.000000
8872179481134110133159614606205996861571409000253246930944.000000 -14545648796250031379515443270089978505358035708171377442816.000000 0.000000
-14545648796250031379515443270089978505358035708171377442816.000000 7033107965932512189291496777328388977494485174825240231936.000000 0.000000
0.000000 0.000000 0.000000
7582304397527963237846561185204555263531760216413686464512.000000 18376240163795932855889299214199858264498172108897337212928.000000 0.000000
18376240163795932855889299214199858264498172108897337212928.000000 9408668357530407795989845031748238291874413579276507938816.000000 0.000000
0.000000 0.000000 0.000000
8652039064482502862917651720310440976340505335841639366656.000000 -1814688105080009364513959929338286190279624730261569142784.000000 0.000000
-1814688105080009364513959929338286190279624730261569142784.000000 246490047398014105287695538167449231425214943321948946432.000000 0.000000
0.000000 0.000000 0.000000
1930947564053858639759391704964446034738330790348516753408.000000 5039490625238860434455110291404724310332402253284436344832.000000 0.000000
5039490625238860434455110291404724310332402253284436344832.000000 2599317362388232940857529998460090716423341364622521270272.000000 0.000000
0.000000 0.000000 0.000000
-3907832588757975442613729225366578637661016260129396359168.000000 2466548094733505899961620695128397194200880879238547243008.000000 0.000000
2466548094733505899961620695128397194200880879238547243008.000000 1363830094884201191086035169303727998682358060587748950016.000000 0.000000
0.000000 0.000000 0.000000
10849236864921221694159041010863156103640993193733520359424.000000 -3906380644047049489799116113268701188182814907597812924416.000000 0.000000
-3906380644047049489799116113268701188182814907597812924416.000000 869541919428306312487972493509083834063444061413835800576.000000 0.000000
0.000000 0.000000 0.000000
1050384615599596195107112832359606112611803714247788068864.000000 150925076908476154410218338724262013796114226578592890880.000000 0.000000
150925076908476154410218338724262013796114226578592890880.000000 15051416369368264119884814382978811901157018338578137088.000000 0.000000
0.000000 0.000000 0.000000
-67122446297137627335734410791875475746918392004364730368.000000 -262595703139459002982154810833704179414042547666074730496.000000 0.000000
-262595703139459002982154810833704179414042547666074730496.000000 154590113325486505789654480704528792240563310852061528064.000000 0.000000
0.000000 0.000000 0.000000
20034201801793030928869064481718441867579849756926541824.000000 551011388908490132812671819897848382200778561383563264.000000 0.000000
551011388908490132812671819897848382200778561383563264.000000 10184623061776436703358829750285604130973978678263808.000000 0.000000
0.000000 0.000000 0.000000
-11187100636460287388237641335240113469370063091583072337920.000000 -8061266601572072947795703451660707259137633920184894881792.000000 0.000000
-8061266601572072947795703451660707259137633920184894881792.000000 4437313049761872285165943857221520856937748269023463735296.000000 0.000000
0.000000 0.000000 0.000000
-641969464832398641529279551077847346683526525648311330799616.000000 52157549078030982150504450944276448428043331966332242493440.000000 0.000000
52157549078030982150504450944276448428043331966332242493440.000000 8159894735813697053329557273579579691722954518367511248896.000000 0.000000
0.000000 0.000000 0.000000
-67203302625649367967005483508121653725082607366523368505344.000000 12744595261763014006604730771801304262613838310316152193024.000000 0.000000
12744595261763014006604730771801304262613838310316152193024.000000 4071287042973298554100306779300474508692980079758587985920.000000 0.000000
0.000000 0.000000 0.000000
972832795439148714383937923561281634543916123506673188864.000000 -1839413593391599102595604261476473980737531801243259764736.000000 0.000000
-1839413593391599102595604261476473980737531801243259764736.000000 899311062373789625813122404202130594722949206977474985984.000000 0.000000
0.000000 0.000000 0.000000
590146289508715025863699126802156756963295912893513465856.000000 894678644287045752245731733374636470053668987513855803392.000000 0.000000
894678644287045752245731733374636470053668987513855803392.000000 426005777282123756544127888870668208762247630816188301312.000000 0.000000
0.000000 0.000000 0.000000
-2685209942027957076269193187101823223884973307304504983552.000000 -3570324881990241662454158815918923469233368412822635020288.000000 0.000000
-3570324881990241662454158815918923469233368412822635020288.000000 2055284370020183005055710487650250853734136509416150663168.000000 0.000000
0.000000 0.000000 0.000000
-110711144747291862616764851564851503774072919030952764637184.000000 -10014527134261362347920202024401443407707441102954283663360.000000 0.000000
-10014527134261362347920202024401443407707441102954283663360.000000 1728569367980346589375224878061699690483221100001883062272.000000 0.000000
0.000000 0.000000 0.000000
-1554488609773811698970145310509318629989629952592369942528.000000 1391203907978761774764614151396396342428335827792389210112.000000 0.000000
1391203907978761774764614151396396342428335827792389210112.000000 794881643061050535034246669365260634545623731968740950016.000000 0.000000
0.000000 0.000000 0.000000
1834919876254406919465381785481398304483945634367098847232.000000 -334571043729629591680354488021366894565940119167603572736.000000 0.000000
-334571043729629591680354488021366894565940119167603572736.000000 39783298990408010565429127563291566385322827605035974656.000000 0.000000
0.000000 0.000000 0.000000
2568801896274425001742575984012004602042529474134914629632.000000 844207342590214693633008903206813125561387567256273158144.000000 0.000000
844207342590214693633008903206813125561387567256273158144.000000 172570278876245330684390215167849181363238714785713356800.000000 0.000000
0.000000 0.000000 0.000000
1305932106825522848240043847199815272468423234743722573824.000000 -259999382787997121597265214925655280775027126773095596032.000000 0.000000
-259999382787997121597265214925655280775027126773095596032.000000 39200552014964598147677976401768097571183936543781814272.000000 0.000000
0.000000 0.000000 0.000000
167305446295670704921666065391245948319559396221595418624.000000 269053955053336671324757400799389425931307955219259719680.000000 0.000000
269053955053336671324757400799389425931307955219259719680.000000 143203326140628641060663753122461610854644026933182988288.000000 0.000000
0.000000 0.000000 0.000000
561373816687488490980111272670684464484439865024005013504.000000 543665263789431771466551388054551549893544743678121082880.000000 0.000000
543665263789431771466551388054551549893544743678121082880.000000 245452078784755827886656489524950897419583783711853772800.000000 0.000000
0.000000 0.000000 0.000000
-511865689393998324750356972206997902771620737083770929152.000000 -50781409675425421131845460872554438383228562474300080128.000000 0.000000
-50781409675425421131845460872554438383228562474300080128.000000 8867546651190293141261137353609887710436853567190990848.000000 0.000000
0.000000 0.000000 0.000000
-329494554167138501573430622427072273299259591187834114932736.000000 29189985941490446653469127141680341058596200396778387800064.000000 0.000000
29189985941490446653469127141680341058596200396778387800064.000000 4944192850753065909536203299525241835377211520637835673600.000000 0.000000
0.000000 0.000000 0.000000
-365461380491808545550709388719490702069820981669963759616.000000 543623258221217978736715919594432293923462890684128690176.000000 0.000000
543623258221217978736715919594432293923462890684128690176.000000 332165284187494433666770099213610198352969845389307936768.000000 0.000000
0.000000 0.000000 0.000000
6197984175128249701416367012037806783114080398506897440768.000000 8101643457111318771375391330083504263869977679281451433984.000000 0.000000
8101643457111318771375391330083504263869977679281451433984.000000 3704578876276959303592226351608982549948450280460183928832.000000 0.000000
0.000000 0.000000 0.000000
-17093287616497672794460700139640261621638384289715876528128.000000 6397654288822696441542645879979753806146740229479136755712.000000 0.000000
6397654288822696441542645879979753806146740229479136755712.000000 2992900002528071438983578997396964053036915682547769278464.000000 0.000000
0.000000 0.000000 0.000000
3574438262266032997719778585769441213187103584659703857152.000000 1733454696157387687758804028971445799117762985576313651200.000000 0.000000
1733454696157387687758804028971445799117762985576313651200.000000 485603531674500649431924059670293900074742537077712224256.000000 0.000000
0.000000 0.000000 0.000000
680716305488896256052485768918356866765883080442661306368.000000 8873514888538302095778136755431520880649044351941085233152.000000 0.000000
8873514888538302095778136755431520880649044351941085233152.000000 4878115331276673332084000747698661035425833913906699960320.000000 0.000000
0.000000 0.000000 0.000000
4411857426867106210206867372593742879623251754538237952.000000 1407539028321768318182521465550657411020577224215494656.000000 0.000000
1407539028321768318182521465550657411020577224215494656.000000 280381566517647056651385404303296206784810019383672832.000000 0.000000
0.000000 0.000000 0.000000
-2306725789361268477299704475769239904520170193640564457472.000000 -2795808978911407938944428344602318153923762248650286170112.000000 0.000000
-2795808978911407938944428344602318153923762248650286170112.000000 1608758409853295132416405624273422943679039365982990630912.000000 0.000000
0.000000 0.000000 0.000000
13591710982800421251639137778957583306605826937609445703680.000000 -211641808776081333678481913532882783241122015332611915776.000000 0.000000
-211641808776081333678481913532882783241122015332611915776.000000 4987065659903722894492266273159053701393216207316844544.000000 0.000000
0.000000 0.000000 0.000000
-756672347760369291448549073803892933454748152215243849728.000000 -54689959393117733640933130783310834899956488851085590528.000000 0.000000
-54689959393117733640933130783310834899956488851085590528.000000 7102298498927194559860758970639587014514847874226847744.000000 0.000000
0.000000 0.000000 0.000000
-2568847000082146342897766493710578981112837967079433830400.000000 -871570791517905654777840610422686478061013492120344854528.000000 0.000000
-871570791517905654777840610422686478061013492120344854528.000000 393188285729078028461248573567866912986027663242068754432.000000 0.000000
0.000000 0.000000 0.000000
3224883204094305707734842773689509636754556309225865216.000000 -222164187128420266933882961258879714675892924400281845760.000000 0.000000
-222164187128420266933882961258879714675892924400281845760.000000 124826670749169482934249277151340870673151296280824119296.000000 0.000000
0.000000 0.000000 0.000000
12334513598041725637779352450349750848671237937341399040.000000 8082303974342548908288713024690852596956792370319327232.000000 0.000000
8082303974342548908288713024690852596956792370319327232.000000 2771974299234596713569060265018985488463635194906148864.000000 0.000000
0.000000 0.000000 0.000000
15053470356682709223504245253146692796076665657822713741312.000000 1033609807811786220259077891499579988066079989872696754176.000000 0.000000
1033609807811786220259077891499579988066079989872696754176.000000 49569994039581651354740480214588518528767488384477167616.000000 0.000000
0.000000 0.000000 0.000000
1539964520020381353659563851532191586700618568288230703104.000000 -9765594742675976868465914818819676012581615366296112726016.000000 0.000000
-9765594742675976868465914818819676012581615366296112726016.000000 5315655683992130257019322570933690911692440611625273131008.000000 0.000000
0.000000 0.000000 0.000000
1621756483947134256734599100164741111096195929909994979328.000000 5472390594366917600859990835344995455747018075131994963968.000000 0.000000
5472390594366917600859990835344995455747018075131994963968.000000 2882623115602151933659597213300591839226537649133437583360.000000 0.000000
0.000000 0.000000 0.000000
4689771142064348618815744443286243554421376970182306562048.000000 -10086958986629383400355494920893780521300589090807729881088.000000 0.000000
-10086958986629383400355494920893780521300589090807729881088.000000 5092377710599460798697696466768022782500070833161909567488.000000 0.000000
0.000000 0.000000 0.000000
-255514572770439345814039042042529624466361290102721455587328.000000 -16918299008892286638815419564266042127784881876484231266304.000000 0.000000
-16918299008892286638815419564266042127784881876484231266304.000000 2183053940244402829596840607447688785900590638612552351744.000000 0.000000
0.000000 0.000000 0.000000
7747244060535037787835431371551624922744330315202436268032.000000 -3594904801730609207266791575895885545060960370687832227840.000000 0.000000
-3594904801730609207266791575895885545060960370687832227840.000000 974202948455057855496366259544396873706615294383664136192.000000 0.000000
0.000000 0.000000 0.000000
68004852894346646739499152634455436799975853221549703168.000000 -1309951694203011967700551575613876010221485123529372336128.000000 0.000000
-1309951694203011967700551575613876010221485123529372336128.000000 722968080294469810181324137604367559672211518163032997888.000000 0.000000
0.000000 0.000000 0.000000
4406952170170706448272519936132346522459095740076783566848.000000 -4480035935129448234006414229847030799376277118834479988736.000000 0.000000
-4480035935129448234006414229847030799376277118834479988736.000000 1900896772713920811494548038027494831756573431191312531456.000000 0.000000
0.000000 0.000000 0.000000
-19009398813527860190600081393443762174346583414843375616.000000 -63885388116013944440028450316724993544112941978502561792.000000 0.000000
-63885388116013944440028450316724993544112941978502561792.000000 31948101979931993410764299654745007239293242133396324352.000000 0.000000
0.000000 0.000000 0.000000
-7738415158796201345796325579765422102253397677015302144.000000 10975346444359000554255751303191372488480885532023324672.000000 0.000000
10975346444359000554255751303191372488480885532023324672.000000 6325877335747063428992777996149757444720096608245514240.000000 0.000000
0.000000 0.000000 0.000000
4766564484512824432425102098329082401681552275386732118016.000000 -12016343987904926596449015931955414882199737417792550338560.000000 0.000000
-12016343987904926596449015931955414882199737417792550338560.000000 6177095414394836214067860210496591971424806419652153442304.000000 0.000000
0.000000 0.000000 0.000000
-9226696007094245640518289941842593214737789515210965385216.000000 11328887996010797697244012690165387580881726312488271609856.000000 0.000000
11328887996010797697244012690165387580881726312488271609856.000000 6653537341090711224786053358764877316699544875746275098624.000000 0.000000
0.000000 0.000000 0.000000
7438251295354496936116897737799164367245631133311567921152.000000 -2136101889397434587584426784604163632010983712665028788224.000000 0.000000
-2136101889397434587584426784604163632010983712665028788224.000000 387722439899706426926945398196565155411384521983898157056.000000 0.000000
0.000000 0.000000 0.000000
1456090799660995073409375006185406171974245087983423193088.000000 -839477942268734333650450609030485593764714196798527242240.000000 0.000000
-839477942268734333650450609030485593764714196798527242240.000000 267224028798034998713773412937728685164772872029409902592.000000 0.000000
0.000000 0.000000 0.000000
2556541579484270204775907149724843284732339417950359388160.000000 -361894855012390692584063917110104931337732967598248689664.000000 0.000000
-361894855012390692584063917110104931337732967598248689664.000000 34427996280654564723363942791416447331855766989041565696.000000 0.000000
0.000000 0.000000 0.000000
12221175482795454328303241314140296144783082902593745190912.000000 -11577876099911567610880411758143005285505688104066539847680.000000 0.000000
-11577876099911567610880411758143005285505688104066539847680.000000 4779185596563581181382669646869245851135587846975003820032.000000 0.000000
0.000000 0.000000 0.000000
1666607799864095670632950267466456747976454656439141531648.000000 -2645048704725878961932077807952704897186552441903928836096.000000 0.000000
-2645048704725878961932077807952704897186552441903928836096.000000 1271253085325407692576491680203671569865185129852078915584.000000 0.000000
0.000000 0.000000 0.000000
-23914797294446370183890897814094398461118782381756514304.000000 20104897062538524916327522028091746067825118134482763776.000000 0.000000
20104897062538524916327522028091746067825118134482763776.000000 11275626458732751219486760008529793633699274335149096960.000000 0.000000
0.000000 0.000000 0.000000
861029456593422144351539842021286203028092421119577948160.000000 1362983860892216409228451253262520827031877288391350419456.000000 0.000000
1362983860892216409228451253262520827031877288391350419456.000000 654728106324476030916998140325519620711949898228705525760.000000 0.000000
0.000000 0.000000 0.000000
1700601804792909143535826425295396712786197578083022667776.000000 -1325600871135038856046549812060943393049649201051848409088.000000 0.000000
-1325600871135038856046549812060943393049649201051848409088.000000 512283558345189010083270653804181068823333563605738061824.000000 0.000000
0.000000 0.000000 0.000000
13838641098774955671385918349205045770924581845163300618240.000000 -4978806802141216781866713803845515954416524018836316356608.000000 0.000000
-4978806802141216781866713803845515954416524018836316356608.000000 1099756600046946317330428707924237933284137000195768451072.000000 0.000000
0.000000 0.000000 0.000000
1250899922495735523707703026176994514899795866472476049408.000000 -1541124382838961392341437758643522473492866945820731113472.000000 0.000000
-1541124382838961392341437758643522473492866945820731113472.000000 703484761355847397387081368809349927685960846462467178496.000000 0.000000
0.000000 0.000000 0.000000
-33716660929567962370213601009584602455634949025459863552.000000 67413770715836387367833038761151430834610250280553414656.000000 0.000000
67413770715836387367833038761151430834610250280553414656.000000 38071229732303011561152367934498382414451469824020185088.000000 0.000000
0.000000 0.000000 0.000000
3963132312706058541272069597898855068337562104625404837888.000000 1399432813477671011890247031525976772032535298156733136896.000000 0.000000
1399432813477671011890247031525976772032535298156733136896.000000 308709498713325316805429006760361292266877948119912284160.000000 0.000000
0.000000 0.000000 0.000000
7595001502593350514541991898812668117927504224537584599040.000000 16404671932741941156400243395275829561164121545983498649600.000000 0.000000
16404671932741941156400243395275829561164121545983498649600.000000 8285979474049541627489489981345794786069781672653739786240.000000 0.000000
0.000000 0.000000 0.000000
3938976115312538489862820792954176846673792075369013051392.000000 2822005352016957140470763809711969523904680079046284935168.000000 0.000000
2822005352016957140470763809711969523904680079046284935168.000000 1018934087754992437518350778903958913877542225616301981696.000000 0.000000
0.000000 0.000000 0.000000
-2983387707254146540217250171653556137041843484932941283328.000000 -39692392927895306011130607972782894196287019185872153083904.000000 0.000000
-39692392927895306011130607972782894196287019185872153083904.000000 22287105117688492696658775689954619913764339029739076321280.000000 0.000000
0.000000 0.000000 0.000000
4642672877812594371542014909654541535729405457475099951104.000000 -11291206658466692443778584378977051608959349031669323530240.000000 0.000000
-11291206658466692443778584378977051608959349031669323530240.000000 5783298814387778223586123783654887373701698678513427546112.000000 0.000000
0.000000 0.000000 0.000000
16809481980089711806736159877075217083344645642535875641344.000000 -3461221546448068210998650491469263063043966302903185965056.000000 0.000000
-3461221546448068210998650491469263063043966302903185965056.000000 463990298739672191131914293463958670743792769672801157120.000000 0.000000
0.000000 0.000000 0.000000
-86651588264043247357868509389430011763865429868502056960.000000 -24463599820145423130232985517133410846640696355564027904.000000 0.000000
-24463599820145423130232985517133410846640696355564027904.000000 2651651592796048079481119312352489552752146299096137728.000000 0.000000
0.000000 0.000000 0.000000
357799027154504900859356636351279906151796418838660120576.000000 -184267846632307399515748082605893585888035410726470287360.000000 0.000000
-184267846632307399515748082605893585888035410726470287360.000000 54102172767111794947919229930257631434381618786938650624.000000 0.000000
0.000000 0.000000 0.000000
2233857227900193865255073004917287266640556139297829289984.000000 871347620966984505353489027601751509954271995674016874496.000000 0.000000
871347620966984505353489027601751509954271995674016874496.000000 205860889037684695774993438006118519767526525529768329216.000000 0.000000
0.000000 0.000000 0.000000
-26647310846629685089559633578555361206663218740480366870528.000000 -14597728054920633069579620712866696713736355157533723197440.000000 0.000000
-14597728054920633069579620712866696713736355157533723197440.000000 7647041417704812239124582656653948923612102483856100163584.000000 0.000000
0.000000 0.000000 0.000000
2605746366600449465886013515553809896604261590799338176512.000000 3739548354974168514429442216118775256297416368031778471936.000000 0.000000
3739548354974168514429442216118775256297416368031778471936.000000 1758643079269416361670378451241158605461053945381587517440.000000 0.000000
0.000000 0.000000 0.000000
-5548432272263520055972294362525283890931605705747331022848.000000 -1321244106139592766008695346120979005002663364155899117568.000000 0.000000
-1321244106139592766008695346120979005002663364155899117568.000000 488134211645077503564424112190299264529178670821149769728.000000 0.000000
0.000000 0.000000 0.000000
8159735020300496380328733177101164928666152354913548500992.000000 -4387336739660550175272934973545135879383188877981933109248.000000 0.000000
-4387336739660550175272934973545135879383188877981933109248.000000 1270695054504991717095784012000619208113770337976660787200.000000 0.000000
0.000000 0.000000 0.000000
6619862049080443247187728670494987472016886893069205504.000000 -11087830807878723735431328512229663789624775563175526400.000000 0.000000
-11087830807878723735431328512229663789624775563175526400.000000 5384682710544384218217736908134293051626556437819293696.000000 0.000000
0.000000 0.000000 0.000000
2527013330299330776387300873889766665204412935411551174656.000000 1632685549408223939383923084002702528024414147104200458240.000000 0.000000
1632685549408223939383923084002702528024414147104200458240.000000 551226824891384896434886311587810491798435257771490279424.000000 0.000000
0.000000 0.000000 0.000000
-119742527904085201882827324851145891967913062211753345024.000000 -792745263401126372495000212295864027823242851841919156224.000000 0.000000
-792745263401126372495000212295864027823242851841919156224.000000 448754002806747354031131086875291632560769171578691780608.000000 0.000000
0.000000 0.000000 0.000000
-3390358247987181696910213720205195944028718856198296698880.000000 648604244056565205010794650925987402430192714000310992896.000000 0.000000
648604244056565205010794650925987402430192714000310992896.000000 207609416013637524565984766459491084481397258920589787136.000000 0.000000
0.000000 0.000000 0.000000
1067319963657267096587051559212335758220052597498418561024.000000 -940639590068743914920253481712997604247592019334549995520.000000 0.000000
-940639590068743914920253481712997604247592019334549995520.000000 376539722719742669076668683136819888589409922560313786368.000000 0.000000
0.000000 0.000000 0.000000
1566044080766794381152986298913885795408388633703699447808.000000 -2319567541627748575592685812248699432073128200587190468608.000000 0.000000
-2319567541627748575592685812248699432073128200587190468608.000000 1107740926559582287421748887674297156102948941349936693248.000000 0.000000
0.000000 0.000000 0.000000
-241316333933464986486493637915282609128530113579309858816.000000 14527594558896777065227572441794247343450653098191618048.000000 0.000000
14527594558896777065227572441794247343450653098191618048.000000 5158429407073502257007770919539017988453099537128488960.000000 0.000000
0.000000 0.000000 0.000000
1217117795936932673708400575027824547118761487212063227904.000000 -1922434449085984925089460903035640148593158563589406064640.000000 0.000000
-1922434449085984925089460903035640148593158563589406064640.000000 931559008854189534201897536096226723436585055102286430208.000000 0.000000
0.000000 0.000000 0.000000
-2091765379767971518889322531076134189513417901736556756992.000000 139449267741020087030764095334814965936658110560595869696.000000 0.000000
139449267741020087030764095334814965936658110560595869696.000000 61070992240443618279771035056811171292055969766762872832.000000 0.000000
0.000000 0.000000 0.000000
492653018868919449949717994106796367237930368860849963008.000000 92840765077471166957574343920804046578808282380559712256.000000 0.000000
92840765077471166957574343920804046578808282380559712256.000000 12373860499994046832727959043137486867387223366141214720.000000 0.000000
0.000000 0.000000 0.000000
12083702250736021562677918476532584222904249971346231001088.000000 3615857775378753257226991744314331387037034798261100085248.000000 0.000000
3615857775378753257226991744314331387037034798261100085248.000000 683020769234861269197062882200698975246233217375003475968.000000 0.000000
0.000000 0.000000 0.000000
5682825418179080462499994857221652831651152969388101992448.000000 -11680048701628771281958267931515195536804161776914203148288.000000 0.000000
-11680048701628771281958267931515195536804161776914203148288.000000 5861203202062791373244293628728710129581784765947380236288.000000 0.000000
0.000000 0.000000 0.000000
-9654464753251810440157850096112029258283124293805996507136.000000 -1195976285005332249034848987830898311076149778073060900864.000000 0.000000
-1195976285005332249034848987830898311076149778073060900864.000000 273232848517481728684923632234751366126262096960260407296.000000 0.000000
0.000000 0.000000 0.000000
1389973498137670547267018024785826973668451928764753903616.000000 553266387442359729102191386821204867487276412691040698368.000000 0.000000
553266387442359729102191386821204867487276412691040698368.000000 133188760120046832680600167032878262789796015015102251008.000000 0.000000
0.000000 0.000000 0.000000
-106320095531173494112220399494030525570774857873530814464.000000 -137948272599178092090217111203129790640486050705753243648.000000 0.000000
-137948272599178092090217111203129790640486050705753243648.000000 83382995309016238640687799449445770978695774992670392320.000000 0.000000
0.000000 0.000000 0.000000
1061177237980878270548520059104939956103220913754890829824.000000 940461411615023652221145959561571522922681239816353349632.000000 0.000000
940461411615023652221145959561571522922681239816353349632.000000 377399544375088307270274872135880029354754781964142641152.000000 0.000000
0.000000 0.000000 0.000000
-3822472622680493626206996525720878104632371025390075904.000000 2621692413482790009715226776894002496151448509508222976.000000 0.000000
2621692413482790009715226776894002496151448509508222976.000000 1434039046341947629313247140977461986305414073522585600.000000 0.000000
0.000000 0.000000 0.000000
-167496066395138863720931731806391182784206321900975030272.000000 -8761018467770974447362105042622547301248292222616469504.000000 0.000000
-8761018467770974447362105042622547301248292222616469504.000000 901566563976430917630428544996466087241166057845555200.000000 0.000000
0.000000 0.000000 0.000000
1316459917343879916416928843683988114027022415430579912704.000000 1286268599260608181515765742584953759547057761078938173440.000000 0.000000
1286268599260608181515765742584953759547057761078938173440.000000 537546787631173329231367921059495957262169448929938112512.000000 0.000000
0.000000 0.000000 0.000000
1911041468432621424082238112925930657559460278279073693696.000000 775638977252452387807445777544973571655919281979479031808.000000 0.000000
775638977252452387807445777544973571655919281979479031808.000000 202076447892048899804301795812725829164125443312798662656.000000 0.000000
0.000000 0.000000 0.000000
33488326177296504938902217450567591693485830545679719596032.000000 27495141726227010247300267195145580593535891969151091081216.000000 0.000000
27495141726227010247300267195145580593535891969151091081216.000000 10652121957949033674061496363197600245512438371070632787968.000000 0.000000
0.000000 0.000000 0.000000
4556816032024955342366565288992155976492546699154631426048.000000 1142068096427094091824742585087047366156258155460623859712.000000 0.000000
1142068096427094091824742585087047366156258155460623859712.000000 183354055926283564252278999854178174814320723284658749440.000000 0.000000
0.000000 0.000000 0.000000
-2396545093473808091848948129106976552053949466112860094464.000000 12126735887963309707521441188738154045227218777601499725824.000000 0.000000
12126735887963309707521441188738154045227218777601499725824.000000 6894027112844526607814125677636879516348744412228438982656.000000 0.000000
0.000000 0.000000 0.000000
-14011715202563338375311231408209143746875180932978236719104.000000 7058292480025440746087301241832417927629056189816171921408.000000 0.000000
7058292480025440746087301241832417927629056189816171921408.000000 3614117213142745880912091547079797443942771929555348226048.000000 0.000000
0.000000 0.000000 0.000000
525249252576105106618975294937967876863264229158763364352.000000 1358369076899985510992985946724104778461187933204482359296.000000 0.000000
1358369076899985510992985946724104778461187933204482359296.000000 700084049648938541172497429495608200490803149476051550208.000000 0.000000
0.000000 0.000000 0.000000
-2488266935975213898778788391573471830890291000243587645440.000000 -137672788341074734012894516269333806253533405566784765952.000000 0.000000
-137672788341074734012894516269333806253533405566784765952.000000 10644440522104547358613178282882280628104393540019159040.000000 0.000000
0.000000 0.000000 0.000000
-8146683199125667608679004310127942500084539570725165465600.000000 -315482070972227311557415081367939054492219269466202046464.000000 0.000000
-315482070972227311557415081367939054492219269466202046464.000000 21290675714685423476174789248090253104850508426520821760.000000 0.000000
0.000000 0.000000 0.000000
2335537367711946039158998267572271728126094333227015602176.000000 -4097853101443335153412010709705000990673467849206390587392.000000 0.000000
-4097853101443335153412010709705000990673467849206390587392.000000 2006156718323418882528101776869849198782180771076153278464.000000 0.000000
0.000000 0.000000 0.000000
1646410892509764855701400944031916215976880212400159064064.000000 -1863392977309018877651026088009534184839605267348781531136.000000 0.000000
-1863392977309018877651026088009534184839605267348781531136.000000 818502119420027855986697085829563567149801326521975046144.000000 0.000000
0.000000 0.000000 0.000000
3546030952376692358742655096330538346337325438246234095616.000000 29418906003126933552953487589158810262668926878078134648832.000000 0.000000
29418906003126933552953487589158810262668926878078134648832.000000 16053508829294033521305908490529013587880348502751902171136.000000 0.000000
0.000000 0.000000 0.000000
48056019732974161969282326631394976930079540586754342912.000000 -5586334238555044641684703098140363447905686872339251200.000000 0.000000
-5586334238555044641684703098140363447905686872339251200.000000 429452715144727575316065348786408911628405729910587392.000000 0.000000
0.000000 0.000000 0.000000
30319172448628339126549631923582289422767701426070873964544.000000 8462582071403875704144727369629733224549874063910855770112.000000 0.000000
8462582071403875704144727369629733224549874063910855770112.000000 1500522931071924565489338951805699960060033681399983636480.000000 0.000000
0.000000 0.000000 0.000000
8946695764358652353004566315799355253167618803536429580288.000000 -2833179404780912091678156946505926615054991735807289589760.000000 0.000000
-2833179404780912091678156946505926615054991735807289589760.000000 569517082898412810540382256186907825406084117398797942784.000000 0.000000
0.000000 0.000000 0.000000
4139227673541342542912654999757659609503214871854855487488.000000 -3467284870383770633788606107195241064427009742163104759808.000000 0.000000
-3467284870383770633788606107195241064427009742163104759808.000000 1356520930060263046362846024216101580499656612667755331584.000000 0.000000
0.000000 0.000000 0.000000
-2011635892600542250790941850974542787339991340765903186821120.000000 -24534456195728555205600297571480549661910750776875376705536.000000 0.000000
-24534456195728555205600297571480549661910750776875376705536.000000 597701092889985983018381256990877168676638646261568765952.000000 0.000000
0.000000 0.000000 0.000000
-2671460194870023320590739748067803819561302701895749468160.000000 9141098644605593093859508222401632408272425237818399260672.000000 0.000000
9141098644605593093859508222401632408272425237818399260672.000000 5268529583215441009953139173593631840835694734299128397824.000000 0.000000
0.000000 0.000000 0.000000
-295808674574186381375339934911827546914472063237268514537472.000000 -16629645611713261525707092404198352894239656593681421434880.000000 0.000000
-16629645611713261525707092404198352894239656593681421434880.000000 1847292051841366377814498875451262865591917431055206842368.000000 0.000000
0.000000 0.000000 0.000000
-152950512893459438028517220751535933188636366417671430864896.000000 10038190676733037137536378555525853267295974687701618130944.000000 0.000000
10038190676733037137536378555525853267295974687701618130944.000000 1287087857501308709751287683896234868856841413786695892992.000000 0.000000
0.000000 0.000000 0.000000
-40246069625128194128723013061720140561503355475001683738624.000000 -9743367877211777899081257670080825743116461712201977167872.000000 0.000000
-9743367877211777899081257670080825743116461712201977167872.000000 3651075266815509017328739393849139439589314915355980726272.000000 0.000000
0.000000 0.000000 0.000000
941636545790555639633312514220143728047499253777533239296.000000 1011707657152618999323207322990898339265248957467820294144.000000 0.000000
1011707657152618999323207322990898339265248957467820294144.000000 472151747458973177198917810591258664942253290904256249856.000000 0.000000
0.000000 0.000000 0.000000
3457449667297121215045323654244659976101476815991163846656.000000 824275308008744172609019356414908304467015304549201084416.000000 0.000000
824275308008744172609019356414908304467015304549201084416.000000 126218772495646576698290273784645167094112483290441056256.000000 0.000000
0.000000 0.000000 0.000000
10285220008080358271943556279704773638219139003241054863360.000000 -4298297095546355651300177635277449845296096575884965707776.000000 0.000000
-4298297095546355651300177635277449845296096575884965707776.000000 1073519287562422389757910983553831445386817449937462099968.000000 0.000000
0.000000 0.000000 0.000000
1216614012138560260199240515121423728769735867018885726208.000000 1975640221295909893388924479044407662377914852327271956480.000000 0.000000
1975640221295909893388924479044407662377914852327271956480.000000 953831519875895596520066146542712204680755800541260414976.000000 0.000000
0.000000 0.000000 0.000000
880181633306479722840490483160129635571686282243778543616.000000 131264654449843121753891182939739083874140958735470690304.000000 0.000000
131264654449843121753891182939739083874140958735470690304.000000 12858736664964635408192313027419525040952328669370515456.000000 0.000000
0.000000 0.000000 0.000000
-409346740741803482544937744281610597371501023433471530369024.000000 28131005604286141103610568234195335817479524418759881129984.000000 0.000000
28131005604286141103610568234195335817479524418759881129984.000000 3770974802664600909484615803303789514302680033386098065408.000000 0.000000
0.000000 0.000000 0.000000
3077211351315514889572763171730645124202537042689763835904.000000 13170275631978736634947524814095300521465773359544871682048.000000 0.000000
13170275631978736634947524814095300521465773359544871682048.000000 7033181423796312764867410619745331946499340098209295892480.000000 0.000000
0.000000 0.000000 0.000000
5616191352064552163296463599161457244097080702647314415616.000000 1133969370002591648890265417849607041288821654287537930240.000000 0.000000
1133969370002591648890265417849607041288821654287537930240.000000 148587348109592949219432367257955682024335491264090734592.000000 0.000000
0.000000 0.000000 0.000000
352820815984843026480158975185385716207874331201704558592.000000 -259842704042545165469317306897045115164242244011208736768.000000 0.000000
-259842704042545165469317306897045115164242244011208736768.000000 98099693880737558276066916128790998953553020333217284096.000000 0.000000
0.000000 0.000000 0.000000
-5542000414284333631528241559269365534620690328298778001408.000000 1931042456089228840105067000429634467434630578412239978496.000000 0.000000
1931042456089228840105067000429634467434630578412239978496.000000 869322690103704377595644507642338615769229653598772658176.000000 0.000000
0.000000 0.000000 0.000000
-1953654217912990976196283448984162525828768661343710478336.000000 -2745012418807251982449554971151796338203661668815191670784.000000 0.000000
-2745012418807251982449554971151796338203661668815191670784.000000 1574638589777877580492108214512482476733158127008368033792.000000 0.000000
0.000000 0.000000 0.000000
5935139706342386554070140945357128654181836360208326066176.000000 -3833983340311490264756791320925733328104925376544549896192.000000 0.000000
-3833983340311490264756791320925733328104925376544549896192.000000 1303672280489499495142932630673327679572318211706531610624.000000 0.000000
0.000000 0.000000 0.000000
3366573688190096084379348664401871276308561475243788468224.000000 3684830543686731392069007455029526296241795735261749968896.000000 0.000000
3684830543686731392069007455029526296241795735261749968896.000000 1605024674541920643465952568568742130340389700495648751616.000000 0.000000
0.000000 0.000000 0.000000
319667416577704437493481308619119637728301125548254429184.000000 400172550205919397004060829230450949114267685342047895552.000000 0.000000
400172550205919397004060829230450949114267685342047895552.000000 165942525682950885548814638037696629146609077952811368448.000000 0.000000
0.000000 0.000000 0.000000
-3947387748042639756520901088804889635195293382290605867008.000000 899245492213917407221309043528845334817696024707544907776.000000 0.000000
899245492213917407221309043528845334817696024707544907776.000000 323524576522765578417671072439066067989717321711116877824.000000 0.000000
0.000000 0.000000 0.000000
1927109194972449470712017035775617123789885272813616496640.000000 1403566381756208937352179221201268199277441887666735939584.000000 0.000000
1403566381756208937352179221201268199277441887666735939584.000000 511378188121306869114396701134570739939444137088545456128.000000 0.000000
0.000000 0.000000 0.000000
2171691289680688238553469306249463194172064812304126967808.000000 -1440752181699253470091115759784763603284357376634379042816.000000 0.000000
-1440752181699253470091115759784763603284357376634379042816.000000 497802848842373680797076482798941684504558049941778333696.000000 0.000000
0.000000 0.000000 0.000000
-1330652141928650855565769557194452579165026804372355416064.000000 -1673901922536055723222956936926727371200154399531037884416.000000 0.000000
-1673901922536055723222956936926727371200154399531037884416.000000 962216174351870357747775834005085416996403515052905201664.000000 0.000000
0.000000 0.000000 0.000000
-157295430578187723297004887937491420304812938745132089344.000000 59612264033968055025644373772685198190174064325324439552.000000 0.000000
59612264033968055025644373772685198190174064325324439552.000000 27834100815577940467181180520577843226908434700347375616.000000 0.000000
0.000000 0.000000 0.000000
455337942746667876179269800503299190066217003887183790080.000000 741799828532432495983013458999421047331370105935073640448.000000 0.000000
741799828532432495983013458999421047331370105935073640448.000000 358372046055245983039879776029176860619726295897959563264.000000 0.000000
0.000000 0.000000 0.000000
891897131926306790350675647658049912369436210161805950976.000000 -1080472860343587578996205867717851838191127362078144200704.000000 0.000000
-1080472860343587578996205867717851838191127362078144200704.000000 486009279207778364354157931570712382864943026640819060736.000000 0.000000
0.000000 0.000000 0.000000
-418871349253670890432350161861944817839960277870597636096.000000 3247195838151463475056243663579589527353065922641256251392.000000 0.000000
3247195838151463475056243663579589527353065922641256251392.000000 1879372479279680539058384709422959216636561479083847843840.000000 0.000000
0.000000 0.000000 0.000000
4788112140130389080659833484918489428839171182392936235008.000000 6628396777734209552099449543922714401650475203638042034176.000000 0.000000
6628396777734209552099449543922714401650475203638042034176.000000 3090598836814639965853186675254630816407911892853867937792.000000 0.000000
0.000000 0.000000 0.000000
4937058674389949508086069957587170850765535247686973784064.000000 -600266361680888251088541696385927524318812013249263828992.000000 0.000000
-600266361680888251088541696385927524318812013249263828992.000000 50967081860243908164000481967668905691803541859966386176.000000 0.000000
0.000000 0.000000 0.000000
474702740104324747808174488076303623940669971055794716672.000000 -1074599628598151097651721172453247828082663446065495146496.000000 0.000000
-1074599628598151097651721172453247828082663446065495146496.000000 559748272193456834027519022370949049719593136532391723008.000000 0.000000
0.000000 0.000000 0.000000
-1668285500787703550405753623699377255868335871907332096.000000 17745119778848516012385696749941920924061514532447584256.000000 0.000000
17745119778848516012385696749941920924061514532447584256.000000 9985677246688313509495432522042130451614388292415389696.000000 0.000000
0.000000 0.000000 0.000000
-3595290082153482135172575792648478633107135049009014505472.000000 -2007820741358460877451610124180252716806183437278904320.000000 0.000000
-2007820741358460877451610124180252716806183437278904320.000000 27937141606389801064302882776890296325709951383596171264.000000 0.000000
0.000000 0.000000 0.000000
12659918720974171893419473908231911392004906038925555924992.000000 11836120337877301295875045265224785019034519716126731010048.000000 0.000000
11836120337877301295875045265224785019034519716126731010048.000000 4859510446247854065148683406581747971415497534171586232320.000000 0.000000
0.000000 0.000000 0.000000
11526130651314395795274231061652635896363522431515321434112.000000 -794265392428450893867927593793040895462467814377104867328.000000 0.000000
-794265392428450893867927593793040895462467814377104867328.000000 36372505921851978911631709672536730815597228387729408000.000000 0.000000
0.000000 0.000000 0.000000
2122248483165126640283483199145500523743842088552746713088.000000 -366575881046855046383283393990448643118995899379246694400.000000 0.000000
-366575881046855046383283393990448643118995899379246694400.000000 42133799390387459623284131600331229788917130801971200000.000000 0.000000
0.000000 0.000000 0.000000
3956964790375346409280676200538631913578611971196977152.000000 -2357065615311330410960162850068962193811060570372177920.000000 0.000000
-2357065615311330410960162850068962193811060570372177920.000000 761739301760097432908838801618334553605386450304499712.000000 0.000000
0.000000 0.000000 0.000000
-4590293350069610994494185713522867024342659068099985145856.000000 1941265001655796604281024236851429892748234782558339989504.000000 0.000000
1941265001655796604281024236851429892748234782558339989504.000000 1177229877389903108776928881687101041659805321615485435904.000000 0.000000
0.000000 0.000000 0.000000
8996182676073234858900189783652745901118306572446940004352.000000 -93395063019706833616803148369884496661568612009223651328.000000 0.000000
-93395063019706833616803148369884496661568612009223651328.000000 1202526624227273384085681134682822015790135692056592384.000000 0.000000
0.000000 0.000000 0.000000
2601406388074809733569551192136601026519237666236455190528.000000 5393269772214095761160362738328844413625952840915380862976.000000 0.000000
5393269772214095761160362738328844413625952840915380862976.000000 2709620889411722552393044856594395929612812361999467937792.000000 0.000000
0.000000 0.000000 0.000000
5399026455263868309570175737470469721726386297712930717696.000000 -1953232339741415804908025836057975951453495879468991905792.000000 0.000000
-1953232339741415804908025836057975951453495879468991905792.000000 433442412550639505443626868979408177042433701463071916032.000000 0.000000
0.000000 0.000000 0.000000
626335029696600123069292583682925737582118445280860831744.000000 688012414453068441773312494926637590992743857205656158208.000000 0.000000
688012414453068441773312494926637590992743857205656158208.000000 309626896547188981076870490530588801956171991642036764672.000000 0.000000
0.000000 0.000000 0.000000
-396624230836669965130243072824742371317342469270544580608.000000 -66308188072592878793390459229433772256202670159381397504.000000 0.000000
-66308188072592878793390459229433772256202670159381397504.000000 19230323986957728900469075941763661019446233978202226688.000000 0.000000
0.000000 0.000000 0.000000
-153950184180021187553715056267174355149295134024088688787456.000000 34902854472977635302474870269728157301849392178043813888000.000000 0.000000
34902854472977635302474870269728157301849392178043813888000.000000 12517875225848093060994964796302281872912235789336329584640.000000 0.000000
0.000000 0.000000 0.000000
42066388212041446026750366529629564539395557668767175540736.000000 -7835601923842830780265546102469236891163161950433306476544.000000 0.000000
-7835601923842830780265546102469236891163161950433306476544.000000 951943468874002118047170776762932812837185196176038690816.000000 0.000000
0.000000 0.000000 0.000000
-927786038951631247655318813846328989007902935592334262272.000000 -498966703060162336961706846836619813913374794542596751360.000000 0.000000
-498966703060162336961706846836619813913374794542596751360.000000 259991512793010949693133906890199761053293693971160104960.000000 0.000000
0.000000 0.000000 0.000000
4469671568111464761714004653071124396555066312251295137792.000000 -17260282644379727955576272653013888687318627639523050258432.000000 0.000000
-17260282644379727955576272653013888687318627639523050258432.000000 9167841258330013791248632698167107603347955352427384799232.000000 0.000000
0.000000 0.000000 0.000000
391247942231405159356692490825725327491180006853094408192.000000 -3343266696997872935459664333170062807494301004218316619776.000000 0.000000
-3343266696997872935459664333170062807494301004218316619776.000000 1835016102315609715473658563457918909951528751007612796928.000000 0.000000
0.000000 0.000000 0.000000
27864197559524195180717201390526990041251066605706086973440.000000 12198546182171950216366656142237392605991548857766622789632.000000 0.000000
12198546182171950216366656142237392605991548857766622789632.000000 3164830251327720625702419129561322072411601833935100706816.000000 0.000000
0.000000 0.000000 0.000000
12732097793337820268640163378575774858512461098904444731392.000000 -758275689737764503191579591157652571458444481797015207936.000000 0.000000
-758275689737764503191579591157652571458444481797015207936.000000 37178850815687354867870710971246136868028176669054337024.000000 0.000000
0.000000 0.000000 0.000000
-6627691190037746614228738306970687502284900500165424578560.000000 3247959643431896277187006392615583863278919698895205302272.000000 0.000000
3247959643431896277187006392615583863278919698895205302272.000000 1651437792775097052923797297585775387755703058396457467904.000000 0.000000
0.000000 0.000000 0.000000
6462837959526459884945625757480168112733032292357616173056.000000 9299406342856560355516653081204282954110852356540605661184.000000 0.000000
9299406342856560355516653081204282954110852356540605661184.000000 4375988971041115786991171248324229151848749573345764179968.000000 0.000000
0.000000 0.000000 0.000000
-781233382402853548077003147343322926435958917141167603712.000000 659616421174919058025943952095675107377438797553586929664.000000 0.000000
659616421174919058025943952095675107377438797553586929664.000000 370098457169247589791669542686459434596959901138921979904.000000 0.000000
0.000000 0.000000 0.000000
-6199754212454058249980083411025598867708499347503298117632.000000 -2572531740861599064969083162583010832187781191647319031808.000000 0.000000
-2572531740861599064969083162583010832187781191647319031808.000000 1269021678703806810011757215250181745054538706592502644736.000000 0.000000
0.000000 0.000000 0.000000
982112477601473963569524935833672286469331246304737624064.000000 53357636171735648003106929813081654952920191622734413824.000000 0.000000
53357636171735648003106929813081654952920191622734413824.000000 10214626136844953894590340194880854275183930034297503744.000000 0.000000
0.000000 0.000000 0.000000
1117942945481831813575722781146011142790570991354011189248.000000 565624630981507621661031282964665166898966837747756564480.000000 0.000000
565624630981507621661031282964665166898966837747756564480.000000 199486132115339893167972281568165731303873932551214071808.000000 0.000000
0.000000 0.000000 0.000000
691140016311984545335625226829581913775408545815152558080.000000 617206372617807230088073043314096216229216491450375602176.000000 0.000000
617206372617807230088073043314096216229216491450375602176.000000 248509982681547609340220428388905105916481703379757694976.000000 0.000000
0.000000 0.000000 0.000000
1844517780234156443786590598518690379011733028735637520384.000000 -750049932695213084088353693667916922146868027634887950336.000000 0.000000
-750049932695213084088353693667916922146868027634887950336.000000 183580979527645177906429755848057825334100602612690714624.000000 0.000000
0.000000 0.000000 0.000000
-254388684009053619160950387567035102190438037415765475328.000000 174281444745683623162357829464747004142440806671829696512.000000 0.000000
174281444745683623162357829464747004142440806671829696512.000000 98347705790326681613765129801909353584859253215940575232.000000 0.000000
0.000000 0.000000 0.000000
21094475362794784188983611311414517252888668457736888909824.000000 1968456773945831766190882538119842439781116735251216859136.000000 0.000000
1968456773945831766190882538119842439781116735251216859136.000000 121739407782571277992854370955229865200822350984406630400.000000 0.000000
0.000000 0.000000 0.000000
306943862701664498559903992778477053785640377942659825664.000000 -1947128844869272625647584964613987934412355969192069955584.000000 0.000000
-1947128844869272625647584964613987934412355969192069955584.000000 1070670345910988566644176625965323963592420621237830549504.000000 0.000000
0.000000 0.000000 0.000000
9557223014798382237107292803065727403013372671465432809472.000000 2833861135038728444198433464392203153118276319774160977920.000000 0.000000
2833861135038728444198433464392203153118276319774160977920.000000 529425696703906044637928685281243652818752603307091427328.000000 0.000000
0.000000 0.000000 0.000000
2624087085946284097434654855293431164511306920230912.000000 -5486068104923599971540147287826509353906396765093888.000000 0.000000
-5486068104923599971540147287826509353906396765093888.000000 2778705576135703997254890802853704878785383341490176.000000 0.000000
0.000000 0.000000 0.000000
-12921003814540230247884369010814930785035863947254660333568.000000 11177275199935170832224371764939427362861395067316987756544.000000 0.000000
11177275199935170832224371764939427362861395067316987756544.000000 6286122241810862969604658695397024175520291169569064615936.000000 0.000000
0.000000 0.000000 0.000000
3725057381571862879193529039883533996018283218569812508672.000000 4642020667165838127641218508308459313534373353543513931776.000000 0.000000
4642020667165838127641218508308459313534373353543513931776.000000 2105247624122995592367414270933705545842970463387198160896.000000 0.000000
0.000000 0.000000 0.000000
-2006397160748747539868961423993642749674738056584086159360.000000 806091890825426255004418698872448288362683055399625555968.000000 0.000000
806091890825426255004418698872448288362683055399625555968.000000 384480302836191086003742412981115512909359711869162487808.000000 0.000000
0.000000 0.000000 0.000000
-4699550611876578257298350678474747549251008709405966336.000000 -8470058991278835197900471615176171241268716312199168.000000 0.000000
-8470058991278835197900471615176171241268716312199168.000000 122354438233552556850139151639545063066773703622656.000000 0.000000
0.000000 0.000000 0.000000
17659911511352979770239775752685447780139309986803139739648.000000 15871443643981704650238464500621588581373957669238786228224.000000 0.000000
15871443643981704650238464500621588581373957669238786228224.000000 6304641079500528873916055095714910468916326722134844899328.000000 0.000000
0.000000 0.000000 0.000000
7591535428469137206544411376213303584862742752694393372672.000000 8188083092795353115039952479607007185356238301373153673216.000000 0.000000
8188083092795353115039952479607007185356238301373153673216.000000 3548796289526816674870700210469901438091965079612796436480.000000 0.000000
0.000000 0.000000 0.000000
-1192709720491612750478012465529642586278719465289013547499520.000000 88338452948025449586511977258344483766683620482188222398464.000000 0.000000
88338452948025449586511977258344483766683620482188222398464.000000 12673052116616659052312217008713764541468343699981339721728.000000 0.000000
0.000000 0.000000 0.000000
-4179764604657873792876967619124827433811804724970869751808.000000 -3092978889901837932630393801683783158743829633729004830720.000000 0.000000
-3092978889901837932630393801683783158743829633729004830720.000000 1723182176544983262125149563943972799322267816907608424448.000000 0.000000
0.000000 0.000000 0.000000
-4779194981595398913901396248511830216702803052704418496512.000000 -15888932731825999603710481086783280064184580298987813208064.000000 0.000000
-15888932731825999603710481086783280064184580298987813208064.000000 9126713225656295164098216247670412334985094990307497345024.000000 0.000000
0.000000 0.000000 0.000000
841337254061783995811018467231402516738837817895189217280.000000 711791587981036097813625514820342088230670620696319623168.000000 0.000000
711791587981036097813625514820342088230670620696319623168.000000 279695474274557945998328182379205081392646768599637164032.000000 0.000000
0.000000 0.000000 0.000000
-21887927311752996308504402385889730375021637744013502054400.000000 3442086036316700732235041525110594975988802956645426528256.000000 0.000000
3442086036316700732235041525110594975988802956645426528256.000000 951272513631594727245367035995442758384906025572835000320.000000 0.000000
0.000000 0.000000 0.000000
2483445976592968053595819571344482492724316524345556992.000000 -619470316539481961059315156906231392249423284553121792.000000 0.000000
-619470316539481961059315156906231392249423284553121792.000000 98902967298880977598139641401917369670496408783814656.000000 0.000000
0.000000 0.000000 0.000000
85217842339670565314107725102122310073280428178369675264.000000 -1445613371592966449210527050159694751888278339574210494464.000000 0.000000
-1445613371592966449210527050159694751888278339574210494464.000000 806081905422515746478431607419881515164431603666056642560.000000 0.000000
0.000000 0.000000 0.000000
9890194392754641683692834558282593264181825737046664151040.000000 22249119697639182117829956374249170891115324443555667116032.000000 0.000000
22249119697639182117829956374249170891115324443555667116032.000000 11295252266819518081425704929906786145835575681380192878592.000000 0.000000
0.000000 0.000000 0.000000
1080886481988465235182636387247339981457691550780240166912.000000 -1989837958362669028869736676290241743651756715271893549056.000000 0.000000
-1989837958362669028869736676290241743651756715271893549056.000000 982278499007532401767669181406375019155375922656598556672.000000 0.000000
0.000000 0.000000 0.000000
9302998985788861064062106282338012544433389994628765188096.000000 2919321925792077695211329274552085430278699465381880266752.000000 0.000000
2919321925792077695211329274552085430278699465381880266752.000000 573257086965754965758459042757873856724671105174033399808.000000 0.000000
0.000000 0.000000 0.000000
-112634187082928871508309643191011190874993249356500200062976.000000 -25346464940373144250300834612694318076892598416516573036544.000000 0.000000
-25346464940373144250300834612694318076892598416516573036544.000000 9110058107277770528387633144265089368061543519839036899328.000000 0.000000
0.000000 0.000000 0.000000
7527441481840821639777866569697964766652679543469392265216.000000 -16037661172312852807988314440857435891229209217057641463808.000000 0.000000
-16037661172312852807988314440857435891229209217057641463808.000000 8086532573409926739080232320443776415106519292483997794304.000000 0.000000
0.000000 0.000000 0.000000
652672539839576482265260346234781859395647022907328036864.000000 3316114502631350083386007699294100416126215127978785898496.000000 0.000000
3316114502631350083386007699294100416126215127978785898496.000000 1783945188979718977467692740072297353485852867125833629696.000000 0.000000
0.000000 0.000000 0.000000
-19261436932955789061940451142689758117960693252564990296064.000000 -9107515036382055943821084584010582923614973697380262608896.000000 0.000000
-9107515036382055943821084584010582923614973697380262608896.000000 4587192202501860786681896889622434348344995764723735592960.000000 0.000000
0.000000 0.000000 0.000000
3840500561444293558346272200659790052424437134931582255104.000000 601399900215293802440921335860046012875286878365002235904.000000 0.000000
601399900215293802440921335860046012875286878365002235904.000000 62123974854383515779447622618437512110236055901264936960.000000 0.000000
0.000000 0.000000 0.000000
-52529443465965833518626715852236924036753473497240805834752.000000 521315838137705437200198345068753717756259361275481423872.000000 0.000000
521315838137705437200198345068753717756259361275481423872.000000 19095295559803560263988211021993808652582419090561302528.000000 0.000000
0.000000 0.000000 0.000000
-146691824110743002365761192249973147534637669295682807136256.000000 8618086898389320939624616068726406662821127127502380072960.000000 0.000000
8618086898389320939624616068726406662821127127502380072960.000000 996641309144503429016793761643803127510998613577896558592.000000 0.000000
0.000000 0.000000 0.000000
163175615323575133061517671233368303635549877477218189312.000000 468019998035528500614088276608809967996549224367646572544.000000 0.000000
468019998035528500614088276608809967996549224367646572544.000000 244079043512195286657876429790090047563795946634435624960.000000 0.000000
0.000000 0.000000 0.000000
-93026611153082554882679847353050210320338682737463520133120.000000 3867042579491865778258006025013798364891454272368529113088.000000 0.000000
3867042579491865778258006025013798364891454272368529113088.000000 327098470983250096127471135515731318689660321331977125888.000000 0.000000
0.000000 0.000000 0.000000
53146220438355145848032203971118954668814863231411552256.000000 38594893652014684952391677214096262378559998801643307008.000000 0.000000
38594893652014684952391677214096262378559998801643307008.000000 14039375855124213072273347214989935099631258996588937216.000000 0.000000
0.000000 0.000000 0.000000
-147628522184533802564148744871477407925226532293206245113856.000000 -21341084518384865139017576104384166571098693501797831540736.000000 0.000000
-21341084518384865139017576104384166571098693501797831540736.000000 5525061676899224018157950716696926465217346020791556243456.000000 0.000000
0.000000 0.000000 0.000000
1417865534092490015401881540365775916452257865686170206208.000000 -1478881836194236038595687347283222496784055603948823773184.000000 0.000000
-1478881836194236038595687347283222496784055603948823773184.000000 638418509414180658590743562222411633617397515530889330688.000000 0.000000
0.000000 0.000000 0.000000
7717425913547989176141317905720318305766716770436819976192.000000 2463092169074890301934755006346694661508455675244551602176.000000 0.000000
2463092169074890301934755006346694661508455675244551602176.000000 490844183832589315019125129641349599606420883895113220096.000000 0.000000
0.000000 0.000000 0.000000
6278731117485954599608848859094517841369687080535326720.000000 -2169741165775457231127753194244584904759599409886396416.000000 0.000000
-2169741165775457231127753194244584904759599409886396416.000000 463127023761458941727973507342613738548337072618340352.000000 0.000000
0.000000 0.000000 0.000000
-18909024114892912656231791106971388899281737597960847360.000000 -3580872784605611607060111647349097506229735262672086106112.000000 0.000000
-3580872784605611607060111647349097506229735262672086106112.000000 1993042774263986524371954153004885907860526516022710108160.000000 0.000000
0.000000 0.000000 0.000000
-181355636435895621146833409389256377097703202967469772767232.000000 13727459587623917925042505572290563841561522389437342810112.000000 0.000000
13727459587623917925042505572290563841561522389437342810112.000000 2014111322923911859466854381598549866296402528380406202368.000000 0.000000
0.000000 0.000000 0.000000
-426904452699447807170671387005978260701862792968441692160.000000 -10020916053259983087626870998387400877697531029832958214144.000000 0.000000
-10020916053259983087626870998387400877697531029832958214144.000000 5604210392573086753295395940245761895489859924613740363776.000000 0.000000
0.000000 0.000000 0.000000
-1488807575052293063650431197062825173462793593730969370624.000000 1018482779381136545857164473791261038855020280348768468992.000000 0.000000
1018482779381136545857164473791261038855020280348768468992.000000 586653234475252757600702660835295714722242551838790385664.000000 0.000000
0.000000 0.000000 0.000000
4516354987475433025302632771008265961655040583095908564992.000000 -5034174593254756840501205402213330020803129420058317553664.000000 0.000000
-5034174593254756840501205402213330020803129420058317553664.000000 2214510364816505291704803386572326876379196070606401437696.000000 0.000000
0.000000 0.000000 0.000000
15076052241863336707685335263560794866327348461466288128.000000 -6767005088458481701251661083793441426207923570514853888.000000 0.000000
-6767005088458481701251661083793441426207923570514853888.000000 1787769757876689463436132656104912881149687474063147008.000000 0.000000
0.000000 0.000000 0.000000
1679499656465095179105682448567721644178092263891676430336.000000 1424868933483133350580615597160891233726358547160079794176.000000 0.000000
1424868933483133350580615597160891233726358547160079794176.000000 561597831361209158316536839362899667390158493225676963840.000000 0.000000
0.000000 0.000000 0.000000
7631389950944923864329794512431657532122107912353828831232.000000 12524443239101802363425301228617776583117755037625448660992.000000 0.000000
12524443239101802363425301228617776583117755037625448660992.000000 6058568075136214449042053904935509217230543905920011730944.000000 0.000000
0.000000 0.000000 0.000000
-27696969009414004903521341916501840330944190613519597568.000000 11060477777672926876470090864313930170278362606066466816.000000 0.000000
11060477777672926876470090864313930170278362606066466816.000000 5267855318719990425840740724638069129589850790789382144.000000 0.000000
0.000000 0.000000 0.000000
70675943993632157007082356874202822423610439473284775936.000000 -5323669006241641421081403375394457703822186348954186153984.000000 0.000000
-5323669006241641421081403375394457703822186348954186153984.000000 3006584499656487250219481263841407651440534307711156748288.000000 0.000000
0.000000 0.000000 0.000000
176301216141182155343757914120825071809665847956030357504.000000 143547262284436032398111051937619267982260718510060601344.000000 0.000000
143547262284436032398111051937619267982260718510060601344.000000 55387931091379913286120949322054751556194115674055901184.000000 0.000000
0.000000 0.000000 0.000000
-431676110846987446398185251522019833308620428463275245568.000000 -46365133690937476441840588127167453013631666232282316800.000000 0.000000
-46365133690937476441840588127167453013631666232282316800.000000 9337502243599534569824221122329818714872837728181944320.000000 0.000000
0.000000 0.000000 0.000000
16561756199394131703665292972308435257254461040793594363904.000000 26077052538850223702954450889072278531313816707415509303296.000000 0.000000
26077052538850223702954450889072278531313816707415509303296.000000 12512946633989550022244635080975823479051438273924408803328.000000 0.000000
0.000000 0.000000 0.000000
23210791214589865673937314815764875561853001147576475451392.000000 -24076151544033618371861121704589875902852460640771938189312.000000 0.000000
-24076151544033618371861121704589875902852460640771938189312.000000 10292110773822019901036280303799315925293748710231284645888.000000 0.000000
0.000000 0.000000 0.000000
1994617314203018426887977484395952361055055600363467964416.000000 3399351417891021647762407952202524939577965466538246930432.000000 0.000000
3399351417891021647762407952202524939577965466538246930432.000000 1661540584992297334800262661921501509096843764087562174464.000000 0.000000
0.000000 0.000000 0.000000
2862082926521103635718107198912318483866855847811090481152.000000 8150741440695685910725844873487332169910494056327017398272.000000 0.000000
8150741440695685910725844873487332169910494056327017398272.000000 4242583194600987715476057029868764603303619648019125764096.000000 0.000000
0.000000 0.000000 0.000000
2834234277227146817999862160891109454059237343339877498880.000000 -2236557613035622228170158723820318671500298290730064936960.000000 0.000000
-2236557613035622228170158723820318671500298290730064936960.000000 849753434633587097247445730026163232519780041567825297408.000000 0.000000
0.000000 0.000000 0.000000
29892513478435857208922450984386204165764623544605499981824.000000 26429638035977685247130432281104593059378985070403484909568.000000 0.000000
26429638035977685247130432281104593059378985070403484909568.000000 10594992632763647092185222019468281630314909484021939437568.000000 0.000000
0.000000 0.000000 0.000000
-20666719606399957010227017865212423587847237054098342674432.000000 7065662771216186498309553729535044171766942645586592006144.000000 0.000000
7065662771216186498309553729535044171766942645586592006144.000000 3162647041318189670422293462229348069506253756830800936960.000000 0.000000
0.000000 0.000000 0.000000
-1634129782540325625399579579103980753871073215050044932096.000000 7502084840266666201268501328016021091576938012269778829312.000000 0.000000
7502084840266666201268501328016021091576938012269778829312.000000 4246520667688965046772284148724129055970610871075348676608.000000 0.000000
0.000000 0.000000 0.000000
42079999257307317933924974829881471267370475119100605497344.000000 16595983602167751210955173348460824837339119727987379929088.000000 0.000000
16595983602167751210955173348460824837339119727987379929088.000000 3957309260997544863667550959064898090999028297456496410624.000000 0.000000
0.000000 0.000000 0.000000
4480755511445310166804676141403322370780381746242022014976.000000 -1241555227808797606317330943765134654135935045349998067712.000000 0.000000
-1241555227808797606317330943765134654135935045349998067712.000000 218175425309119299826957977772294918089929882185244868608.000000 0.000000
0.000000 0.000000 0.000000
12176425077723297160612367789296560138100077381837003948032.000000 4393377098234713486054321256276305097359091601576281767936.000000 0.000000
4393377098234713486054321256276305097359091601576281767936.000000 974340310289220389310073212036300044684076615319670489088.000000 0.000000
0.000000 0.000000 0.000000
2249950046590732827201392875397629956353026220061112664064.000000 434530976242942626487288899415250189581736566231060709376.000000 0.000000
434530976242942626487288899415250189581736566231060709376.000000 54583900786174393647510001851281691155529956970477912064.000000 0.000000
0.000000 0.000000 0.000000
965741987966982932902957854725899629580686115733453668352.000000 143013593628580489978110887117067158104607667424948387840.000000 0.000000
143013593628580489978110887117067158104607667424948387840.000000 14726456067439221582897716653637545388560292145866473472.000000 0.000000
0.000000 0.000000 0.000000
-4755282994864377476988180214888903981972133235044552540160.000000 2485641838616138430968644921276029443568883223391543230464.000000 0.000000
2485641838616138430968644921276029443568883223391543230464.000000 1292884604562174553049467320215193613299269462203098464256.000000 0.000000
0.000000 0.000000 0.000000
649158227457900691795107819372613570349738908332754731008.000000 -95866587487425153066450988078345849242726181133784973312.000000 0.000000
-95866587487425153066450988078345849242726181133784973312.000000 10187470469267484522848574448778670875742168533797175296.000000 0.000000
0.000000 0.000000 0.000000
-8025111156677423002674251086960339950873125913186791325696.000000 4593367760498259348193336755928491598498164994599460798464.000000 0.000000
4593367760498259348193336755928491598498164994599460798464.000000 2427410444728105599646007286203739032279997074920502722560.000000 0.000000
0.000000 0.000000 0.000000
-1708698466722637838224097832314539426166622895449571328.000000 -268539822708208302655730389870349007582148284330803200.000000 0.000000
-268539822708208302655730389870349007582148284330803200.000000 74505013846347513565769748612699291309917327484518400.000000 0.000000
0.000000 0.000000 0.000000
2042095487457062120787505365684812645195628020425031680.000000 -4422757570814390472183190029607312168965448287951781888.000000 0.000000
-4422757570814390472183190029607312168965448287951781888.000000 2234810234269215383025650942644677125117494818959785984.000000 0.000000
0.000000 0.000000 0.000000
-4433258128258197866737871684424664711646012312225767751680.000000 -1713642608994442933307944471568639793587790773492278886400.000000 0.000000
-1713642608994442933307944471568639793587790773492278886400.000000 805446186656562568396226958184366076975572583139673899008.000000 0.000000
0.000000 0.000000 0.000000
5243011900277228814133056204539285222706679180433991663616.000000 8733949532721463905644256387140320600512923071590550208512.000000 0.000000
8733949532721463905644256387140320600512923071590550208512.000000 4238712837563914494871435834897766280393029317126292242432.000000 0.000000
0.000000 0.000000 0.000000
7632846026032013598487361174897095052144427063954766823424.000000 2725928548708123032987749245723261998199915992749193560064.000000 0.000000
2725928548708123032987749245723261998199915992749193560064.000000 598351694754053996798724563849997564061244240558609661952.000000 0.000000
0.000000 0.000000 0.000000
-10263636186020967796143869822110743567055575751848592670720.000000 6520396019429595164803615405496794072535686167902805819392.000000 0.000000
6520396019429595164803615405496794072535686167902805819392.000000 3517773364444003353102073569195736707506632904712017412096.000000 0.000000
0.000000 0.000000 0.000000
8198099370811749695517583202574127219967415440837953191936.000000 261441429796403688552762357374957736813529207420349317120.000000 0.000000
261441429796403688552762357374957736813529207420349317120.000000 6755436144071375288064649708169340562508168580537778176.000000 0.000000
0.000000 0.000000 0.000000
-81252469025930196841831612885228769990620439179566570799104.000000 803980225924302363825537416218652542860565170720910344192.000000 0.000000
803980225924302363825537416218652542860565170720910344192.000000 50180919639195760526034249561621461911330905073360306176.000000 0.000000
0.000000 0.000000 0.000000
-267792769666647977718919851018335270629195403755520.000000 -27662401094663984576653518132247493570233475530752.000000 0.000000
-27662401094663984576653518132247493570233475530752.000000 11026418837790528581758049548609563662541035405312.000000 0.000000
0.000000 0.000000 0.000000
810258659827205426721616339975488974710464600439986847744.000000 113638850085914714225908740181025243742434592453841387520.000000 0.000000
113638850085914714225908740181025243742434592453841387520.000000 11698651095137141360470128551037308807119217502613143552.000000 0.000000
0.000000 0.000000 0.000000
1137539057879762505433518872948645802394374331642071220224.000000 -608958796548330788600244854389393413343896356240310140928.000000 0.000000
-608958796548330788600244854389393413343896356240310140928.000000 183146854913616500735006116553759933265979573020481552384.000000 0.000000
0.000000 0.000000 0.000000
6122876271057851353067693776192586760661626569067738431488.000000 -247967390516855525502427431677658920326145323927930404864.000000 0.000000
-247967390516855525502427431677658920326145323927930404864.000000 7383823315881160574104526774429247154960461235935510528.000000 0.000000
0.000000 0.000000 0.000000
-5537092428158808428008805888780298951867790078070919004160.000000 3825295608488292067803142273937656862939462571007567462400.000000 0.000000
3825295608488292067803142273937656862939462571007567462400.000000 2094559116583969966109125947562752036496457962112291962880.000000 0.000000
0.000000 0.000000 0.000000
2318399032886983622482093064335894724332891912336834560.000000 -13408800778318601551038626637872653045326035419261829120.000000 0.000000
-13408800778318601551038626637872653045326035419261829120.000000 7247736210783246599883930328104745059417822417467211776.000000 0.000000
0.000000 0.000000 0.000000
-144058934228492996794940249774992150214278691178887633698816.000000 20150361906549727188391051000459314973936879054029022298112.000000 0.000000
20150361906549727188391051000459314973936879054029022298112.000000 5078737748754685855657033309428580648819543695950344093696.000000 0.000000
0.000000 0.000000 0.000000
6295563383637412526916497037338539336732355687989903360.000000 4814651752682917113594850080180640420442479671027695616.000000 0.000000
4814651752682917113594850080180640420442479671027695616.000000 1800263443190534314020002255972001894415701916042395648.000000 0.000000
0.000000 0.000000 0.000000
-3752177533774213463719772229377790047961369296410760970240.000000 4855971464393595794804538078688173504347314382281751134208.000000 0.000000
4855971464393595794804538078688173504347314382281751134208.000000 2806979552854160831453042461022329221668088380380720136192.000000 0.000000
0.000000 0.000000 0.000000
18676552358073734813639826188277877163399375277950544904192.000000 -7835636649287545378256257437733965679334417705277868474368.000000 0.000000
-7835636649287545378256257437733965679334417705277868474368.000000 1963686957900281677540575266050898390558590086344559558656.000000 0.000000
0.000000 0.000000 0.000000
-60041799889210886858574197599961916251743450377551330934784.000000 -12779453662160708848783430391738864309585294291471939141632.000000 0.000000
-12779453662160708848783430391738864309585294291471939141632.000000 4398101499273269842912489551630131488352670681216759889920.000000 0.000000
0.000000 0.000000 0.000000
-11570820647376435220395256059984532015235767093950414848000.000000 62213343455856333505372264922636459796338525043681132544.000000 0.000000
62213343455856333505372264922636459796338525043681132544.000000 2668290176601190061139083744135387804244549132135432192.000000 0.000000
0.000000 0.000000 0.000000
468984037848440777822955947111966587966091864823662903296.000000 980042695723160934657694667350569967334084598893780140032.000000 0.000000
980042695723160934657694667350569967334084598893780140032.000000 492371775758528343005117945285909610938178238071837818880.000000 0.000000
0.000000 0.000000 0.000000
-4639467736740067035502685368517266370124370961716987559936.000000 11108352109217168836645242879464647214610695126055345192960.000000 0.000000
11108352109217168836645242879464647214610695126055345192960.000000 6404800801816035768133233754164249343995032561067887689728.000000 0.000000
0.000000 0.000000 0.000000
310060919281009553270862663632102715689241429745537646592.000000 -226534695164230975031863930111425244577937174715168718848.000000 0.000000
-226534695164230975031863930111425244577937174715168718848.000000 82716389773929215384680549834836061592317308670689935360.000000 0.000000
0.000000 0.000000 0.000000
1184757170972055980986465618889198565861429309249974960128.000000 -36229325797748148746425039758149295920723944618541973504.000000 0.000000
-36229325797748148746425039758149295920723944618541973504.000000 2541387798633044693307016282583027720651010559178702848.000000 0.000000
0.000000 0.000000 0.000000
124900128420845479908812667273594468555361478919048921088.000000 107083002914752228615492230115845403929435871397155962880.000000 0.000000
107083002914752228615492230115845403929435871397155962880.000000 42336079916160456533521527966104795877705378287111372800.000000 0.000000
0.000000 0.000000 0.000000
-1639234657259229726035111976735825097407671791861779922944.000000 -3517485988129551291255464120109571624604528616051547570176.000000 0.000000
-3517485988129551291255464120109571624604528616051547570176.000000 2105157063984709756855259205153487584988756101895211188224.000000 0.000000
0.000000 0.000000 0.000000
-281716789661506473320171314217834220283932333165282066432.000000 -1926617334732916965711575382753227202450093215790177189888.000000 0.000000
-1926617334732916965711575382753227202450093215790177189888.000000 1107993635527857584850643850186586928947074374175566069760.000000 0.000000
0.000000 0.000000 0.000000
-5913247636038949925501138710014072332677611959851627315200.000000 2732851285184424750537116955006048104505824462506167369728.000000 0.000000
2732851285184424750537116955006048104505824462506167369728.000000 1364733735301668014106512789935737308432659858290875826176.000000 0.000000
0.000000 0.000000 0.000000
-263106004187765737440448056973510383758183637562068828160.000000 -2750126880888018747616061894589499041363621184284917760000.000000 0.000000
-2750126880888018747616061894589499041363621184284917760000.000000 1547793413229079999734099067042004644587419147068778741760.000000 0.000000
0.000000 0.000000 0.000000
-465629994020836573975118297673671262500215776769250164736.000000 -539152828132201773782132847560979182402041278599637499904.000000 0.000000
-539152828132201773782132847560979182402041278599637499904.000000 309261219481126309217472777120687974607046878180864425984.000000 0.000000
0.000000 0.000000 0.000000
5908829348419117318663344274577823487319861443067641856.000000 4166007915722218939463848891696400153537634462347558912.000000 0.000000
4166007915722218939463848891696400153537634462347558912.000000 1490784987960110167550425153383531163592397575784759296.000000 0.000000
0.000000 0.000000 0.000000
58373696795964619762505563941079176279162110831755264.000000 -645666291576878080375148801814368213281526494269538304.000000 0.000000
-645666291576878080375148801814368213281526494269538304.000000 354456596919308687648003346656059402926744317565337600.000000 0.000000
0.000000 0.000000 0.000000
1396152080826966527496646550037766784592327322121996861440.000000 430827285485015371323215030149945478972534479469521403904.000000 0.000000
430827285485015371323215030149945478972534479469521403904.000000 83376521490507900714680977788766646842200783036161720320.000000 0.000000
0.000000 0.000000 0.000000
5477591417243206173338174055179649596579243256223033720832.000000 -3665740125901177516856391709052078024584626701071428878336.000000 0.000000
-3665740125901177516856391709052078024584626701071428878336.000000 1273474180671353125868469281700465927138333300768901169152.000000 0.000000
0.000000 0.000000 0.000000
5834893603267681967936550368469941234372330217209507872768.000000 1187257098591334450464299596542166638134159450905558122496.000000 0.000000
1187257098591334450464299596542166638134159450905558122496.000000 158195212197773906092621390940616933028114153386897571840.000000 0.000000
0.000000 0.000000 0.000000
-20348009981786013048173479688804021777893538298797760708608.000000 2027805578058156291923866250696608836010275484926811832320.000000 0.000000
2027805578058156291923866250696608836010275484926811832320.000000 383255549267350822977380335014854298695621838086325927936.000000 0.000000
0.000000 0.000000 0.000000
13583377335042458590948496743320000526827901283361080999936.000000 -6295709037619619036160838098458861157625337456013160218624.000000 0.000000
-6295709037619619036160838098458861157625337456013160218624.000000 1705856450064616678356617275284808398716111709648814342144.000000 0.000000
0.000000 0.000000 0.000000
-975074473651194594153031650439974248531608426386689097728.000000 2003188067556589428384902935127787508957411392414585716736.000000 0.000000
2003188067556589428384902935127787508957411392414585716736.000000 1155278973068092748746224871683163072240932358098662719488.000000 0.000000
0.000000 0.000000 0.000000
-700115402645543584848423465532050190259507254615391338496.000000 -328446833596485685959888699670047355994478000894094868480.000000 0.000000
-328446833596485685959888699670047355994478000894094868480.000000 164982646011610541856729942838652730256680760514631958528.000000 0.000000
0.000000 0.000000 0.000000
1022340322712468714580219121244765625638304566382293942272.000000 1337113418547180046923476182066172672524824858774959292416.000000 0.000000
1337113418547180046923476182066172672524824858774959292416.000000 614485711918972179205925932371746745022446467401056780288.000000 0.000000
0.000000 0.000000 0.000000
-5232643668650757340362190243487756058010908516714794713088.000000 2471603256781161207702959802053848214206111836358607634432.000000 0.000000
2471603256781161207702959802053848214206111836358607634432.000000 1248726396254038370400917507324076891426134147004664643584.000000 0.000000
0.000000 0.000000 0.000000
366536196372895126636884829182220406686998781424041984.000000 -875654859694149059569180005619357619360929840050995200.000000 0.000000
-875654859694149059569180005619357619360929840050995200.000000 445412712322143607723022048842453879791029564997632000.000000 0.000000
0.000000 0.000000 0.000000
-232673865721474785656975779728444273287746638491996716531712.000000 29776224448364987060325885871264203555784108099267601629184.000000 0.000000
29776224448364987060325885871264203555784108099267601629184.000000 6972828565648195452798157407340559261042536985631137988608.000000 0.000000
0.000000 0.000000 0.000000
1146738403573848811977031263337504638410201579741517971456.000000 248131547594324052752986291358599969426082660291518136320.000000 0.000000
248131547594324052752986291358599969426082660291518136320.000000 34707171910837617297603177639136913662861505728559972352.000000 0.000000
0.000000 0.000000 0.000000
2418672732643263130003846460673689372998113801956210245632.000000 -2405313456804993972893322959655386196776341739080387657728.000000 0.000000
-2405313456804993972893322959655386196776341739080387657728.000000 1020654253111162833672088558119107325547940185538432073728.000000 0.000000
0.000000 0.000000 0.000000
5233588404875545367632615882669572725771711360224198656.000000 8730320991736491892060435300925453775801652123692695552.000000 0.000000
8730320991736491892060435300925453775801652123692695552.000000 4236578140068623484994331745210701014869327460865933312.000000 0.000000
0.000000 0.000000 0.000000
644610688715215043922886453789701207297479717935277670400.000000 -870741588976521599032575682800464559614152440681913647104.000000 0.000000
-870741588976521599032575682800464559614152440681913647104.000000 405150279948356530976461043938155235924751290278734725120.000000 0.000000
0.000000 0.000000 0.000000
-369444858723119381526507743203690990844600021789026358919168.000000 21052407271715963388337657882154863170214174944310539059200.000000 0.000000
21052407271715963388337657882154863170214174944310539059200.000000 2352930971281851378360251271561687506383597052042374283264.000000 0.000000
0.000000 0.000000 0.000000
-30674646515399668216040441936756453336783228255589432819712.000000 4176949982660609788764999072384715460966598864219402141696.000000 0.000000
4176949982660609788764999072384715460966598864219402141696.000000 1030006318179535523783756341950633748738900894033469505536.000000 0.000000
0.000000 0.000000 0.000000
35892252921718508293652355582111613476902748557410304.000000 65975388962962305452491235426718643944658010147651584.000000 0.000000
65975388962962305452491235426718643944658010147651584.000000 32567069253765707833028492095703031306158784089423872.000000 0.000000
0.000000 0.000000 0.000000
1887220120312235159173664258818355762324077452001728790528.000000 -801949840268011196081113235839208434920417876786267815936.000000 0.000000
-801949840268011196081113235839208434920417876786267815936.000000 202998733465369557699661853285563383654103085888177176576.000000 0.000000
0.000000 0.000000 0.000000
15464329136945991337493335064399817119845958492404959936512.000000 -2584026649417007852335559572240678640367510429751444504576.000000 0.000000
-2584026649417007852335559572240678640367510429751444504576.000000 282561738972633855205582472953066283957995162171703558144.000000 0.000000
0.000000 0.000000 0.000000
1995058901066876919647356608811765573096988056886494363648.000000 -2181131240204176398074348969670971176835444924384664354816.000000 0.000000
-2181131240204176398074348969670971176835444924384664354816.000000 949719167758418967367888438726788300297907834430980882432.000000 0.000000
0.000000 0.000000 0.000000
18425546743616050119875514189330875908464292145330651136.000000 -14262045378070042997254514595622403638043312281897402368.000000 0.000000
-14262045378070042997254514595622403638043312281897402368.000000 5366083572817141750920553828262865510668916477036331008.000000 0.000000
0.000000 0.000000 0.000000
-37296535822141861339396702737159609369028057211942731776.000000 -8226085247173706672229555682084762887885540655148040192.000000 0.000000
-8226085247173706672229555682084762887885540655148040192.000000 2899064719191407850336339145887035601298914758379962368.000000 0.000000
0.000000 0.000000 0.000000
2209655579829832571626153197241625274190473964861463199744.000000 -3588145256444493659410965449682667242892944097753008439296.000000 0.000000
-3588145256444493659410965449682667242892944097753008439296.000000 1732315881216308116002408844758737492537044160851904299008.000000 0.000000
0.000000 0.000000 0.000000
-9483067509110169284977426841130939523917237113462015918080.000000 59344938405535320257348915690230427606557143555834380288.000000 0.000000
59344938405535320257348915690230427606557143555834380288.000000 8659451532679923794458535119367007897858260703373164544.000000 0.000000
0.000000 0.000000 0.000000
6245887679514947970068098465914017038925824979718547439616.000000 -6046315718098591314005471499281405773931561212801976369152.000000 0.000000
-6046315718098591314005471499281405773931561212801976369152.000000 2517633124482446617365523799190334001836115928604068544512.000000 0.000000
0.000000 0.000000 0.000000
5898055157969910368255508580025203629413301656635607875584.000000 192362184877796569561916892489323487757325955303938719744.000000 0.000000
192362184877796569561916892489323487757325955303938719744.000000 5956797332363210734357198574405340768321326495454724096.000000 0.000000
0.000000 0.000000 0.000000
10973459374695815508926272547240457122634501400884607451136.000000 -18802464725730936909912527070781527272667266587093695987712.000000 0.000000
-18802464725730936909912527070781527272667266587093695987712.000000 9169080976298916702777528401716457365259930111467715559424.000000 0.000000
0.000000 0.000000 0.000000
-1068212247562804830980172857388360478027529292757378007040.000000 -14347736170221716658693834399921468245734357397359558656.000000 0.000000
-14347736170221716658693834399921468245734357397359558656.000000 145233106004229101389745603252629513205776055236091183104.000000 0.000000
0.000000 0.000000 0.000000
2627493852736951372696736341175813741672773822097609719808.000000 646249396728210656595721025667728129908409126526675582976.000000 0.000000
646249396728210656595721025667728129908409126526675582976.000000 101992306228803250206292467705156380826969831359547179008.000000 0.000000
0.000000 0.000000 0.000000
30319052617483616483223758875698284134624891911881847996416.000000 6128807926834891317192548522098392033512428151415607656448.000000 0.000000
6128807926834891317192548522098392033512428151415607656448.000000 815043855690397117960722505885553209463468590820896014336.000000 0.000000
0.000000 0.000000 0.000000
-7520338210389955347974557021392215607905577000112872226816.000000 5786241301286584943482948099698619263763903718709348270080.000000 0.000000
5786241301286584943482948099698619263763903718709348270080.000000 3212923038582482708920438061359662322822492208395641159680.000000 0.000000
0.000000 0.000000 0.000000
78518818121501699024091350876683261846559837617976770560.000000 -204590485575423138241431418739174527025038205175963058176.000000 0.000000
-204590485575423138241431418739174527025038205175963058176.000000 105467483532170550878953793893121907505669224411221196800.000000 0.000000
0.000000 0.000000 0.000000
1634432669671645246030330709214125593613183484295781548032.000000 710096659856140335808479900616946404275325658669625901056.000000 0.000000
710096659856140335808479900616946404275325658669625901056.000000 174740161785986761929521055337917893968998556499968000000.000000 0.000000
0.000000 0.000000 0.000000
2290303960334660036745803486823029627461510610445691518976.000000 -83493484166314616291651246184195179194959346987551424512.000000 0.000000
-83493484166314616291651246184195179194959346987551424512.000000 2174846856831368519876334962662392659302279822159380480.000000 0.000000
0.000000 0.000000 0.000000
-1382824198938675405369538551137646507686485705642475520000.000000 803033650377943063031892542207023928249899679953312546816.000000 0.000000
803033650377943063031892542207023928249899679953312546816.000000 422143243388021789801561993888712162796064266333777297408.000000 0.000000
0.000000 0.000000 0.000000
17694561856502650590211492830016328364719298013744894836736.000000 -16985533520088435392860067014487715443543177438963974537216.000000 0.000000
-16985533520088435392860067014487715443543177438963974537216.000000 7097596498532927900039441708142874508145994355456964820992.000000 0.000000
0.000000 0.000000 0.000000
265465926272737468312440942781157368208844859670811115520.000000 86683792576763037117766375503700712976164709516829523968.000000 0.000000
86683792576763037117766375503700712976164709516829523968.000000 20684197653625016110939110833759299644584313495027187712.000000 0.000000
0.000000 0.000000 0.000000
10833106483263719616106289844241451764577835689728054132736.000000 11173936791657578289668266560226976161029622446084107272192.000000 0.000000
11173936791657578289668266560226976161029622446084107272192.000000 4766703519138908465890508371891349943227233818229207990272.000000 0.000000
0.000000 0.000000 0.000000
13933966394532903916483662940815638727234058031746707881984.000000 11867914539734244928302711842134226587019370509232290922496.000000 0.000000
11867914539734244928302711842134226587019370509232290922496.000000 4682306144578313850702894230609196477671129560230110691328.000000 0.000000
0.000000 0.000000 0.000000
-35230606713991781666432560805306861666042382170735421423616.000000 5056269732486948564963801759291851008606695769184793526272.000000 0.000000
5056269732486948564963801759291851008606695769184793526272.000000 1310568247524462118018819722577220866900478065219020521472.000000 0.000000
0.000000 0.000000 0.000000
-6498199175249956327820048086259098082276733278625577566208.000000 -4547267658100873342141882842768272340819278349641728393216.000000 0.000000
-4547267658100873342141882842768272340819278349641728393216.000000 2493143646044552519955485243266709306538273128624336928768.000000 0.000000
0.000000 0.000000 0.000000
-6758911158583284672722131759661149847235939001717495955456.000000 7147436857521864000507062430082816659877268998442335600640.000000 0.000000
7147436857521864000507062430082816659877268998442335600640.000000 4083785251728263637062046847713884538151469139391756107776.000000 0.000000
0.000000 0.000000 0.000000
-3048611080345914545294479968877002965490404451398214221824.000000 1254940937036577936283778159545175577531537994012896002048.000000 0.000000
1254940937036577936283778159545175577531537994012896002048.000000 603903728461031127602399927068540184205932629444960190464.000000 0.000000
0.000000 0.000000 0.000000
24342531388119331870895513545620304701207092417850970734592.000000 -9597828054838209892948156138807842385431026106546358583296.000000 0.000000
-9597828054838209892948156138807842385431026106546358583296.000000 2287521327063378348474169610116785817577435438412757729280.000000 0.000000
0.000000 0.000000 0.000000
-87177423329388683646962134943360662407739356408259725492224.000000 -41123897573995235461163967032123150642876113292342836854784.000000 0.000000
-41123897573995235461163967032123150642876113292342836854784.000000 20690213121127047275460223056146363571645695819474395987968.000000 0.000000
0.000000 0.000000 0.000000
-699289275742600269665570556812656356379841426193234526208.000000 3333217700292740501312489907066193810081723187489641857024.000000 0.000000
3333217700292740501312489907066193810081723187489641857024.000000 1909224877168545989184175324579034280070245020486720290816.000000 0.000000
0.000000 0.000000 0.000000
-165725012346152042491564966982042688808045761594564542464.000000 580575598745468241952955194257135132474649084654813970432.000000 0.000000
580575598745468241952955194257135132474649084654813970432.000000 332197266687575568373806057172608400380061825440810008576.000000 0.000000
0.000000 0.000000 0.000000
313596201510386661196255362198598399403659465786270941184.000000 -84902320105134789954528285132582191516640389745378066432.000000 0.000000
-84902320105134789954528285132582191516640389745378066432.000000 15288599417467927161604835500205042661291204780448808960.000000 0.000000
0.000000 0.000000 0.000000
4913609300576518511634639563537744492293746456770117632.000000 -3814389899079405048152613890029907983718066955527127040.000000 0.000000
-3814389899079405048152613890029907983718066955527127040.000000 1437495393652571358626172183180430457462758709521285120.000000 0.000000
0.000000 0.000000 0.000000
-10860970278847469642099088452390887728061365357976131469312.000000 2473309061597351080847491854056074921025579662547068387328.000000 0.000000
2473309061597351080847491854056074921025579662547068387328.000000 889637068674752185923161857734079400025819091807194054656.000000 0.000000
0.000000 0.000000 0.000000
4895278759581151392154056089901076208281730628636901376.000000 3632994116148426508189705705332868762066640527710748672.000000 0.000000
3632994116148426508189705705332868762066640527710748672.000000 1336977144268415918654450637152483943416944782146011136.000000 0.000000
0.000000 0.000000 0.000000
728343468005766365740704057306850228060986262429875830784.000000 -1515687635728925927340642155934469631667822662279254507520.000000 0.000000
-1515687635728925927340642155934469631667822662279254507520.000000 767413554514733548720714485812001229225030727282578161664.000000 0.000000
0.000000 0.000000 0.000000
-159844612822467511503722361283865440193925094682004100743168.000000 38494094782696240932527123777351074489087337475367283720192.000000 0.000000
38494094782696240932527123777351074489087337475367283720192.000000 14333742205354422333457247343251729955128513389527434264576.000000 0.000000
0.000000 0.000000 0.000000
-110699273380183506907250562399880496973546657099839822626816.000000 -5163669078718281416567865865086335471522531175683204317184.000000 0.000000
-5163669078718281416567865865086335471522531175683204317184.000000 475415104336231555519312604539067971894168096487692566528.000000 0.000000
0.000000 0.000000 0.000000
-27076246465061405804202584876573222031529944032322363850752.000000 22867081780366821786174358853909369937718800827887839608832.000000 0.000000
22867081780366821786174358853909369937718800827887839608832.000000 12837676249578094549773882617861666084177523934843451211776.000000 0.000000
0.000000 0.000000 0.000000
-287846799615363534216482153776857185438136280266863280128.000000 -2285323514269085421762612839205199388278300987756701024256.000000 0.000000
-2285323514269085421762612839205199388278300987756701024256.000000 1290373917648572371027474323644310074509197436410304397312.000000 0.000000
0.000000 0.000000 0.000000
-247229326021163791054603466044315199165872100400481435648.000000 -1302441353804721787820152286776150043826035074259537100800.000000 0.000000
-1302441353804721787820152286776150043826035074259537100800.000000 739940192440642172982011357454035690353120053451737268224.000000 0.000000
0.000000 0.000000 0.000000
-628458204343401323611600114490027135335327242676544208896.000000 2767541424763987742374579647702486186872338474898544394240.000000 0.000000
2767541424763987742374579647702486186872338474898544394240.000000 1577001197766185464205022088128170337748580944723614629888.000000 0.000000
0.000000 0.000000 0.000000
2718192254420659223868251043024598217395728108009176432640.000000 563977703470229848117546155746413733074994782258855936000.000000 0.000000
563977703470229848117546155746413733074994782258855936000.000000 75973045290228797029523626561283706722019852687725559808.000000 0.000000
0.000000 0.000000 0.000000
-26050646570577884289877870384285276493911994091508342980608.000000 -18038251654008294121458414346862462401914234969819870920704.000000 0.000000
-18038251654008294121458414346862462401914234969819870920704.000000 9872197495040909813328840747270230010878868688991904858112.000000 0.000000
0.000000 0.000000 0.000000
-51383490729664180715432417869523031189366532120642131591168.000000 8065570510842234761480061099637488931203984231066436108288.000000 0.000000
8065570510842234761480061099637488931203984231066436108288.000000 2242131008738470334532032233264475313656922311347283165184.000000 0.000000
0.000000 0.000000 0.000000
3353734027280667268130574540354123592546368826992234594304.000000 -3956981192569387541235701503675636318439553865066609639424.000000 0.000000
-3956981192569387541235701503675636318439553865066609639424.000000 1769485877796138416115008179891263951180478089893660065792.000000 0.000000
0.000000 0.000000 0.000000
1024185717792660319310851368540490372672371630221008306176.000000 1763991877546791385373274021035905385844325608287673253888.000000 0.000000
1763991877546791385373274021035905385844325608287673253888.000000 861496423043155691877092468394550752861494396632204050432.000000 0.000000
0.000000 0.000000 0.000000
2466170221445226917493135735141395443563962364215294951424.000000 5171106134780656454018148672501770867281779429413402705920.000000 0.000000
5171106134780656454018148672501770867281779429413402705920.000000 2611080685903678801419134557458396859266073221138044944384.000000 0.000000
0.000000 0.000000 0.000000
-3256004334499446557653846343917748770055176565668395876352.000000 -3964356222919153932433155404485042357668396087093026095104.000000 0.000000
-3964356222919153932433155404485042357668396087093026095104.000000 2271723569580388577772321590461797751127725497089630666752.000000 0.000000
0.000000 0.000000 0.000000
3130589722973278575965733467333078754099103865739497439232.000000 -5035495914587307326664096045225970460925393621825322221568.000000 0.000000
-5035495914587307326664096045225970460925393621825322221568.000000 2426597004134034353654037570204216878063326905401534840832.000000 0.000000
0.000000 0.000000 0.000000
-2899197670910249947588812687538582580631345509488893362176.000000 -11800051719375574738383433157302039751928015932716564348928.000000 0.000000
-11800051719375574738383433157302039751928015932716564348928.000000 6733702614460659935415749160100344577797687869318264520704.000000 0.000000
0.000000 0.000000 0.000000
15453748473922074809294448594386636629385193444274601984.000000 -8951706053904657846178577174009230030851648849394532352.000000 0.000000
-8951706053904657846178577174009230030851648849394532352.000000 2840519982198910528580811972317233473573082735218524160.000000 0.000000
0.000000 0.000000 0.000000
-2005049503271881274972195051762134130940256604181422407680.000000 -2602795027708647167646563299884463553332570434358929784832.000000 0.000000
-2602795027708647167646563299884463553332570434358929784832.000000 1497471224073858707446286961212942397018369519225789218816.000000 0.000000
0.000000 0.000000 0.000000
-162898058726495180262538379740805006573938237161578912808960.000000 -7772558980110501475489789708858883499294224043627214012416.000000 0.000000
-7772558980110501475489789708858883499294224043627214012416.000000 732417410109779665251400976168109711922186357737728770048.000000 0.000000
0.000000 0.000000 0.000000
2754927521493336640977267435534105269201220820395943264256.000000 -7497977451514192401000155077659795592127080382605121552384.000000 0.000000
-7497977451514192401000155077659795592127080382605121552384.000000 3882166943787250510114808869655635506067775926188770328576.000000 0.000000
0.000000 0.000000 0.000000
1319435353701533728238606483218594843740652141632964001792.000000 2358884391643962385024425716336037791473642144061139714048.000000 0.000000
2358884391643962385024425716336037791473642144061139714048.000000 1158847095191191077335613121825283063602510509586847367168.000000 0.000000
0.000000 0.000000 0.000000
1828061456659923518636574491145341931246110424265924804608.000000 943029989575014147139523061817592534125431387017359392768.000000 0.000000
943029989575014147139523061817592534125431387017359392768.000000 280323872462775436639434684134894641348462012403751583744.000000 0.000000
0.000000 0.000000 0.000000
-34453897646745149172216791278254264743703314704530841534464.000000 -23027957597885181208761455951641369280013959577767663108096.000000 0.000000
-23027957597885181208761455951641369280013959577767663108096.000000 12583147668869744118942368119940278604790714496653513981952.000000 0.000000
0.000000 0.000000 0.000000
7474730035413903068815631347973698718733466891265282932736.000000 1420046915845918176272280521601295155245931335575819780096.000000 0.000000
1420046915845918176272280521601295155245931335575819780096.000000 175627522289762805551236561211919341660627748041131032576.000000 0.000000
0.000000 0.000000 0.000000
521622096301005583166961044189887874488331402707667517440.000000 2407283183148015156648069835372233762497366605995756748800.000000 0.000000
2407283183148015156648069835372233762497366605995756748800.000000 1290037184487112981513766219136422859172809224503991205888.000000 0.000000
0.000000 0.000000 0.000000
2972824862615304459177162130161731359272325597217893122048.000000 1259350290384202572866700171479202187432841890435677814784.000000 0.000000
1259350290384202572866700171479202187432841890435677814784.000000 310540859309585711812099094408765083463375485006371618816.000000 0.000000
0.000000 0.000000 0.000000
1561814225809544037662918985164211182733375612966980812800.000000 -2251382014399458656601654463519693500548981375090294784000.000000 0.000000
-2251382014399458656601654463519693500548981375090294784000.000000 1059869425697138384690019227452399982329457135830242951168.000000 0.000000
0.000000 0.000000 0.000000
-6951460154337717652275971787604559887496257490773960818688.000000 10151924141025530316660782260705967375120002344044399165440.000000 0.000000
10151924141025530316660782260705967375120002344044399165440.000000 5854486114040484278336240306355278354541572727731455524864.000000 0.000000
0.000000 0.000000 0.000000
825634509296978017850274914141912677724924723222154313728.000000 -186621899629739071413716436059066745283911756853708587008.000000 0.000000
-186621899629739071413716436059066745283911756853708587008.000000 27193352424246190210740698017335270579565819953732911104.000000 0.000000
0.000000 0.000000 0.000000
805298238212556979902610810662956808159007747282206457856.000000 -4562773713927745377039964052591136195821529773398959325184.000000 0.000000
-4562773713927745377039964052591136195821529773398959325184.000000 2464821651496395870727616026766320892030120901116346499072.000000 0.000000
0.000000 0.000000 0.000000
-6461052402590358470560540133357158114943937400428438749184.000000 -3646961938126692111315523391760760286674283473090455273472.000000 0.000000
-3646961938126692111315523391760760286674283473090455273472.000000 1921349531467240201905609763498821638035913034146024259584.000000 0.000000
0.000000 0.000000 0.000000
-58899724548773564483014291434948568481412397085808893362176.000000 -6931793851058469714005958136355313611432299254516180582400.000000 0.000000
-6931793851058469714005958136355313611432299254516180582400.000000 1515592241930487896165752443029222301651864536620975783936.000000 0.000000
0.000000 0.000000 0.000000
150432299341743379588571251417463870040488297805838811136.000000 375117349836841121020128404112147476923616312360494432256.000000 0.000000
375117349836841121020128404112147476923616312360494432256.000000 192639923331809098281245018757581787202788515792910548992.000000 0.000000
0.000000 0.000000 0.000000
3743928061010497788864279923534530576069974468435118129152.000000 1406999337142165313297936918377590908441789751400090042368.000000 0.000000
1406999337142165313297936918377590908441789751400090042368.000000 322356826565611998395953755109567481793826566336151552000.000000 0.000000
0.000000 0.000000 0.000000
-3312846282126683849723782375760865100091314488616626946048.000000 923532275356154322960966053323567168752623991568952459264.000000 0.000000
923532275356154322960966053323567168752623991568952459264.000000 373650511736805460828203125434297245140636531891703382016.000000 0.000000
0.000000 0.000000 0.000000
-1100509691276251140862572290175389987267220547130519191552.000000 787856576203031222155366785924578442317202290632690761728.000000 0.000000
787856576203031222155366785924578442317202290632690761728.000000 432059851764166271321935320361535554822950241431504027648.000000 0.000000
0.000000 0.000000 0.000000
1789721632649731155178001516709634887636423276876160565248.000000 1946951221225013754053513885412109983220582730674959548416.000000 0.000000
1946951221225013754053513885412109983220582730674959548416.000000 846320364361523699578793867618066316292201873195080351744.000000 0.000000
0.000000 0.000000 0.000000
-2052695315702077245911254269008314746208751912628544077824.000000 1009318074031177559430292683575153832504889846476394463232.000000 0.000000
1009318074031177559430292683575153832504889846476394463232.000000 517275251728964933878149689686074210664081073755738079232.000000 0.000000
0.000000 0.000000 0.000000
1654361829929779593401229706160473482030870352235727945728.000000 -2040172749413463869442738876592107332796580975437284376576.000000 0.000000
-2040172749413463869442738876592107332796580975437284376576.000000 922471965645420769736923883643558576196963253302989946880.000000 0.000000
0.000000 0.000000 0.000000
4616612210817526019677437982212760420524670801369112772608.000000 -1667260304270820648066874555925805046146597623680661979136.000000 0.000000
-1667260304270820648066874555925805046146597623680661979136.000000 369417117802563248390889406469845014336046748851427606528.000000 0.000000
0.000000 0.000000 0.000000
761989189840151271154323722247663380263206404867978428416.000000 -313388942953196454814146533404790821792585207259752038400.000000 0.000000
-313388942953196454814146533404790821792585207259752038400.000000 80002538706241865148966465940353314266880949984329465856.000000 0.000000
0.000000 0.000000 0.000000
-420627599129004843682777302891183882224768568906006801678336.000000 -17879997419854384593801321974275316235107432696498360418304.000000 0.000000
-17879997419854384593801321974275316235107432696498360418304.000000 1503382979256943673156908881030476888304228373462194847744.000000 0.000000
0.000000 0.000000 0.000000
34134542862672633869997671775679775801845911968785891328.000000 -10483698977195973841768895422394345032729494886979469312.000000 0.000000
-10483698977195973841768895422394345032729494886979469312.000000 2103315127796453845219510711034198364732448752887922688.000000 0.000000
0.000000 0.000000 0.000000
-32901022232666335333961241758980546460691474067607282253824.000000 10807697039085268060411759836350305237974554564635473739776.000000 0.000000
10807697039085268060411759836350305237974554564635473739776.000000 4751506708146326192262534217299891313962977315174834241536.000000 0.000000
0.000000 0.000000 0.000000
-15223381397301490406274887792361067224241352416756831879168.000000 -4354395888804774723660228726551766416173751521650170396672.000000 0.000000
-4354395888804774723660228726551766416173751521650170396672.000000 1789003812025980719399107564469191554875985483664591945728.000000 0.000000
0.000000 0.000000 0.000000
3161133453728180482005080790174744956592898443173833998336.000000 31130951160660135652888787387103572112477747525923333210112.000000 0.000000
31130951160660135652888787387103572112477747525923333210112.000000 17043687952343460604358258058356319283347622431789827489792.000000 0.000000
0.000000 0.000000 0.000000
-12863088592827256171348670063631434927622024106730625957888.000000 10647612453091531147325786119312507916911300164949477687296.000000 0.000000
10647612453091531147325786119312507916911300164949477687296.000000 6009163054664241030849991504864282269266800771169391738880.000000 0.000000
0.000000 0.000000 0.000000
784434012430737504557050366362779407364067715710976.000000 685129597332171359563833623002454609391670754541568.000000 0.000000
685129597332171359563833623002454609391670754541568.000000 273199812592079142374128292194907415565187525115904.000000 0.000000
0.000000 0.000000 0.000000
19587777463476111707140105640179773825955386918196563935232.000000 21554987969025797602390585089466785784175744266033071915008.000000 0.000000
21554987969025797602390585089466785784175744266033071915008.000000 9406301388086909917676037753560006209765952703274074243072.000000 0.000000
0.000000 0.000000 0.000000
17637518165937998375387787041313381347038210245374509056.000000 8246161326084310105672529011291899025970329996434079744.000000 0.000000
8246161326084310105672529011291899025970329996434079744.000000 2247427519820776021072509489831021501358721819478065152.000000 0.000000
0.000000 0.000000 0.000000
99341761333489795366400261032695643513666125303008722944.000000 2021960634543617313524513063795170385871401245107059425280.000000 0.000000
2021960634543617313524513063795170385871401245107059425280.000000 1135684082187505797384967512743484743427648807788177522688.000000 0.000000
0.000000 0.000000 0.000000
1085243244801297320988770156611746175166811082061305085952.000000 -5100441750243800854382944566096833055875520808656251650048.000000 0.000000
-5100441750243800854382944566096833055875520808656251650048.000000 2738171322643131401790506456734314007407685141949617012736.000000 0.000000
0.000000 0.000000 0.000000
591656148617591353270953944726331673687094854131222839296.000000 1327641056786343582458033680816797830590322882956929007616.000000 0.000000
1327641056786343582458033680816797830590322882956929007616.000000 673806121017559425865713559615856212153302863729844551680.000000 0.000000
0.000000 0.000000 0.000000
4410629552742188284360841872217205094625408711072180862976.000000 9348238891889796288762694876176841840470426080631939137536.000000 0.000000
9348238891889796288762694876176841840470426080631939137536.000000 4710373785768738687769074003334740598331742205471715491840.000000 0.000000
0.000000 0.000000 0.000000
6715336147873183697559231092014126274795084628722647564288.000000 -2838998878417847055359943242504259470064004674325823094784.000000 0.000000
-2838998878417847055359943242504259470064004674325823094784.000000 717353459718417830315722720226870976905670687208859762688.000000 0.000000
0.000000 0.000000 0.000000
-133722110663541536356475741328943468037300993747773531619328.000000 4605031246595862476513412407337749360263360458586729742336.000000 0.000000
4605031246595862476513412407337749360263360458586729742336.000000 316060093027279898143475525417029539296223859082774183936.000000 0.000000
0.000000 0.000000 0.000000
1209098910966456697315201106302549304434937608512223576064.000000 326600596502306080672370634756867687977859911696783507456.000000 0.000000
326600596502306080672370634756867687977859911696783507456.000000 58836839641963772053905185505673844940448299680821936128.000000 0.000000
0.000000 0.000000 0.000000
15215383433040114086857708245973439953795447082427221016576.000000 8870374944956236393108667722790950961162759720519109443584.000000 0.000000
8870374944956236393108667722790950961162759720519109443584.000000 2826716769503204129795921888183826836986804889682962284544.000000 0.000000
0.000000 0.000000 0.000000
-87436483903929894182382878459613959471291598233873086939136.000000 14638898702694310205025422232297140414722402657516233162752.000000 0.000000
14638898702694310205025422232297140414722402657516233162752.000000 4256693162215496305068806798224941361063664512459104845824.000000 0.000000
0.000000 0.000000 0.000000
-4197203038598192813901898651168329256802215242999267328.000000 16959833472867393363507964644118620548957094496568344576.000000 0.000000
16959833472867393363507964644118620548957094496568344576.000000 9679382059486005566617955860425868312212536915107250176.000000 0.000000
0.000000 0.000000 0.000000
-191572944619178612619331469560597253390837142421241856.000000 5296076556681212467073924040833706528084890546878808064.000000 0.000000
5296076556681212467073924040833706528084890546878808064.000000 2959573288439005305298704010655855795499193090827091968.000000 0.000000
0.000000 0.000000 0.000000
-291498409647002691552295633555315533313880126285296959488.000000 511510743942838636582139863268958232215882388101165744128.000000 0.000000
511510743942838636582139863268958232215882388101165744128.000000 304129895927802265811601970362482269902758063014447939584.000000 0.000000
0.000000 0.000000 0.000000
3236222741277209677480295882599253565431950383093532065792.000000 250079793147558613871140181507893343900349278254899658752.000000 0.000000
250079793147558613871140181507893343900349278254899658752.000000 12830815292872866354156799036201519861411113057944338432.000000 0.000000
0.000000 0.000000 0.000000
-141146631914051285009421126642127780451115577022905376047104.000000 14228584458586615338836905248820959324948810397781686484992.000000 0.000000
14228584458586615338836905248820959324948810397781686484992.000000 2709083389245318140557603422964302702415244685292347588608.000000 0.000000
0.000000 0.000000 0.000000
2248038495719667550198678004188241997612241295471200436224.000000 -1453716890870471120949293014531087255871404483940827791360.000000 0.000000
-1453716890870471120949293014531087255871404483940827791360.000000 502262930979233465596846630757077058701257358706317721600.000000 0.000000
0.000000 0.000000 0.000000
31427154797040987394787088840953703116920521689863840333824.000000 -9465394155462249906997088445179000424052041499150007664640.000000 0.000000
-9465394155462249906997088445179000424052041499150007664640.000000 1793062016802313819517914797578700665688813458394330431488.000000 0.000000
0.000000 0.000000 0.000000
10752219415727423430583424404793257056897117365528290131968.000000 -5147878175238436281005127266151034124119008600365473988608.000000 0.000000
-5147878175238436281005127266151034124119008600365473988608.000000 1428251574881597103497935326233804933657924662524521742336.000000 0.000000
0.000000 0.000000 0.000000
-21109663185498386916736053094145511597061814723649306886144.000000 4195045379520373189253040425122188335911485366711953129472.000000 0.000000
4195045379520373189253040425122188335911485366711953129472.000000 1374094510626882392708310603174660926115161589069301940224.000000 0.000000
0.000000 0.000000 0.000000
-2063311091031491942751966090152451902331982214042998286581760.000000 -48628317970755092341121391055033917301889915990783006081024.000000 0.000000
-48628317970755092341121391055033917301889915990783006081024.000000 2283777236817297261855641898992896867483428549522721079296.000000 0.000000
0.000000 0.000000 0.000000
1470284532697431561115755825938482393899126442389625896960.000000 4253958411703184622740163533210915225221915461480806875136.000000 0.000000
4253958411703184622740163533210915225221915461480806875136.000000 2200283005087005902938659857209303083527861052269024772096.000000 0.000000
0.000000 0.000000 0.000000
5414185835364035495159015589652043177807501431007545917440.000000 353787697015578824918266327164621804132681820898188066816.000000 0.000000
353787697015578824918266327164621804132681820898188066816.000000 24462333943134509479182854224904215639984441113844908032.000000 0.000000
0.000000 0.000000 0.000000
-560147329921070858327358997866404708883652490317748181663744.000000 -23267806161709073822250726137109897421428936860137680797696.000000 0.000000
-23267806161709073822250726137109897421428936860137680797696.000000 1912661200957102203236020340431513382181014263797825667072.000000 0.000000
0.000000 0.000000 0.000000
-1219052031298264329300709958953581451967409224157350592512.000000 -600573971163462096011868465731631067200664856141670383616.000000 0.000000
-600573971163462096011868465731631067200664856141670383616.000000 79398691060725589188664630005921022795844500056788959232.000000 0.000000
0.000000 0.000000 0.000000
2141938970619937055101805613207477676798763749683977256960.000000 -841019159010533314076129746255660012733253387525285740544.000000 0.000000
-841019159010533314076129746255660012733253387525285740544.000000 207276826517546233432103506738974684956798998831458942976.000000 0.000000
0.000000 0.000000 0.000000
451604855081156787124270890230463194861972303794021597184.000000 -2879603732476571950928022211415701020245307926197244526592.000000 0.000000
-2879603732476571950928022211415701020245307926197244526592.000000 1562111187254252113302472846684641976849554145225809592320.000000 0.000000
0.000000 0.000000 0.000000
-90047427571278058106717797175677623935060126064250454016.000000 78252900804027839016436964196456497887380684840340815872.000000 0.000000
78252900804027839016436964196456497887380684840340815872.000000 51880853220106876136279614148514550052099560601028657152.000000 0.000000
0.000000 0.000000 0.000000
3058658740427622886155918474861486152742421771072202342400.000000 -2735741832426139380566554843620357682167376032300552683520.000000 0.000000
-2735741832426139380566554843620357682167376032300552683520.000000 1105663427915981413612746737106335511154412176680962490368.000000 0.000000
0.000000 0.000000 0.000000
4952036203836889653936662279598524654157598079901277093888.000000 -5957582766699434919149744056529300950267042309096588967936.000000 0.000000
-5957582766699434919149744056529300950267042309096588967936.000000 2707878161004378966776611125706303796424804369970268995584.000000 0.000000
0.000000 0.000000 0.000000
2085044734314140408941556471462861042446860356745917628416.000000 1580284694642346424345986162486475890938977707704021155840.000000 0.000000
1580284694642346424345986162486475890938977707704021155840.000000 588140243588010918439453855148808992635539432400815652864.000000 0.000000
0.000000 0.000000 0.000000
-376833943432936837408447379445011049879868609880872095580160.000000 -27096408426101470000598427065439670368589059972116072366080.000000 0.000000
-27096408426101470000598427065439670368589059972116072366080.000000 3781586231712748473998228035618558281818961940690073812992.000000 0.000000
0.000000 0.000000 0.000000
11898811561477776471935274244289719175342561050723614720.000000 -9518965705133788360518849105854673056410312693946253312.000000 0.000000
-9518965705133788360518849105854673056410312693946253312.000000 3641347949508377874340006209869852922418507298925182976.000000 0.000000
0.000000 0.000000 0.000000
-17255761424787360239297234371169578146606074100999354580992.000000 -10581518073574156156475410857835511157137027451096848662528.000000 0.000000
-10581518073574156156475410857835511157137027451096848662528.000000 5668463379750556352953013469436576275227166163169896824832.000000 0.000000
0.000000 0.000000 0.000000
1333169679053594300739548126827999756199729066434428403712.000000 -1115211253179456176343487545867331266658219914374208815104.000000 0.000000
-1115211253179456176343487545867331266658219914374208815104.000000 437173512288283161574130764048071791376364085550707113984.000000 0.000000
0.000000 0.000000 0.000000
2588118015385393585600605039178393702650796946683523497984.000000 2301374798228680720296515471743286128893298777479326990336.000000 0.000000
2301374798228680720296515471743286128893298777479326990336.000000 925079816390613745023943217949022116962065010488936235008.000000 0.000000
0.000000 0.000000 0.000000
-33273667409507112728237129195014261447734731786027301601280.000000 -13521995041771791123569298619745039408635390333729806221312.000000 0.000000
-13521995041771791123569298619745039408635390333729806221312.000000 6483572918743878939028935560246816878316679505271450501120.000000 0.000000
0.000000 0.000000 0.000000
-10187220122574866502658176329990392529061332653790308859904.000000 9726120670621883062178150986512230637577590376393150038016.000000 0.000000
9726120670621883062178150986512230637577590376393150038016.000000 5515113830273166925167070488925931755097233470183987740672.000000 0.000000
0.000000 0.000000 0.000000
6712959598309100915722477744635991605339696359714311897088.000000 -253192524702876655277635991846351008125374480011554193408.000000 0.000000
-253192524702876655277635991846351008125374480011554193408.000000 6804479930894909324405637855077766870682366869690646528.000000 0.000000
0.000000 0.000000 0.000000
4118573779805927096304635034964126519082564060548977131520.000000 -2524274665109597310270706318484202198403209106281612705792.000000 0.000000
-2524274665109597310270706318484202198403209106281612705792.000000 830803789766890818404700330021078236977801116268133089280.000000 0.000000
0.000000 0.000000 0.000000
2865714426337294435670446861211839534780684548502626238464.000000 -2186258855264758483721983936836869368744123308546944139264.000000 0.000000
-2186258855264758483721983936836869368744123308546944139264.000000 816438654374999704153944164216432545228502087430150553600.000000 0.000000
0.000000 0.000000 0.000000
-5009755327374941103476811945185721275211754598629204033536.000000 4535673302221532551437551348327272689546181859482678591488.000000 0.000000
4535673302221532551437551348327272689546181859482678591488.000000 2561181263995277088463338742778290467527820006779831451648.000000 0.000000
0.000000 0.000000 0.000000
-34672500671113831749259757939893919382328628817925505024.000000 -2917550912311068441072318004014599503022871688806095912960.000000 0.000000
-2917550912311068441072318004014599503022871688806095912960.000000 1633215141764151249473848433323113081489741625088832176128.000000 0.000000
0.000000 0.000000 0.000000
-2293047946967362395095289090876364835038025022453954142797824.000000 -103160003123079491899791680187663623310955587622507158437888.000000 0.000000
-103160003123079491899791680187663623310955587622507158437888.000000 9168354893844920686320006686842207594348063832414472896512.000000 0.000000
0.000000 0.000000 0.000000
-17033354007437019988803281781365075224837617879590320996352.000000 7849217597110759983633642216360749010302989253312707035136.000000 0.000000
7849217597110759983633642216360749010302989253312707035136.000000 3921704046773701295959052265883828831677902931023882092544.000000 0.000000
0.000000 0.000000 0.000000
650038943322253345082359199970811274132073179386046578688.000000 -615590113732051886637379374062722095464332113170407620608.000000 0.000000
-615590113732051886637379374062722095464332113170407620608.000000 254235351746638933121797737065787344612714354970479034368.000000 0.000000
0.000000 0.000000 0.000000
-49943825865397142490321673781106616004053285270165066350592.000000 7492411229664525624374273060457823836279439106932876509184.000000 0.000000
7492411229664525624374273060457823836279439106932876509184.000000 2007282093744898095464465606652065028898764130380045877248.000000 0.000000
0.000000 0.000000 0.000000
315783972177469576490707682824355830320491630172307456.000000 233174339972117222904621172013565401972237625618071552.000000 0.000000
233174339972117222904621172013565401972237625618071552.000000 85589791200170163630686596004066519747666524361457664.000000 0.000000
0.000000 0.000000 0.000000
15275813874564453404722996637895843978902728731817848864768.000000 5710565125271930683160636490025650578227624139897138315264.000000 0.000000
5710565125271930683160636490025650578227624139897138315264.000000 1302721144754070648405920069020462924376645171384319737856.000000 0.000000
0.000000 0.000000 0.000000
-5211096647333587343299290672765275073013728616406002434048.000000 2662265976156685002625630420852344549070832956509893165056.000000 0.000000
2662265976156685002625630420852344549070832956509893165056.000000 1369325457449158046226238049498129082949319711762629525504.000000 0.000000
0.000000 0.000000 0.000000
659354883288428290747412926668366113643450185854379622400.000000 156860933471489184034001852724002398168485068897643397120.000000 0.000000
156860933471489184034001852724002398168485068897643397120.000000 23971865822474026005719981806704183756014566025509994496.000000 0.000000
0.000000 0.000000 0.000000
12076539391499367587498572904795374680352193237978061996032.000000 -12554387932846684903782584547721083594219913922748948152320.000000 0.000000
-12554387932846684903782584547721083594219913922748948152320.000000 5370821643079638547788416895004813378664183232828658417664.000000 0.000000
0.000000 0.000000 0.000000
9247337145309531302669974889386105552387765713232682024960.000000 16917181967906484663713211754350998009767883593809177608192.000000 0.000000
16917181967906484663713211754350998009767883593809177608192.000000 8287815183636541299362308188644899672779070118082297987072.000000 0.000000
0.000000 0.000000 0.000000
-505177826559208861120910993161429204487284380832200916992.000000 120445744461989413169796584535648257638981833432120688640.000000 0.000000
120445744461989413169796584535648257638981833432120688640.000000 27196048967432356155496891467766991775108909546183065600.000000 0.000000
0.000000 0.000000 0.000000
-360463930088019941240300485088879187424176575014718406656.000000 550797808815072756406539288844505668507076602275471294464.000000 0.000000
550797808815072756406539288844505668507076602275471294464.000000 320985422739190695592453902309698826863692635090288902144.000000 0.000000
0.000000 0.000000 0.000000
1862052855040742301247536404373832516024459833068436324352.000000 7978293324912601151689084645598733394573787171858681954304.000000 0.000000
7978293324912601151689084645598733394573787171858681954304.000000 4260764113678047228147932885200761558264102047942036160512.000000 0.000000
0.000000 0.000000 0.000000
-1252596572466631398386757673981887694516333543685405802496.000000 -33138145836193253711897540288224816912407086926889297641472.000000 0.000000
-33138145836193253711897540288224816912407086926889297641472.000000 18519363909185524981170412089011013413727584132320175587328.000000 0.000000
0.000000 0.000000 0.000000
-21077029669210498372809512779124286465529855565176504320.000000 -1708192469868848730426125231761362935436106379269286920192.000000 0.000000
-1708192469868848730426125231761362935436106379269286920192.000000 956142588185615919887723809141543412803088376550463111168.000000 0.000000
0.000000 0.000000 0.000000
4514156943863266413531385281149662824143236500507154448384.000000 2679861413139255964001991590964162315271024803856441671680.000000 0.000000
2679861413139255964001991590964162315271024803856441671680.000000 865572077782648081288340453556114826237502797703351894016.000000 0.000000
0.000000 0.000000 0.000000
3056546409849033379407097882819524250734177494850928115712.000000 823091387515253170318983537050243362145293677726107959296.000000 0.000000
823091387515253170318983537050243362145293677726107959296.000000 143528975259462499171170104656513147891748091053241008128.000000 0.000000
0.000000 0.000000 0.000000
2770682242309818979902224037262736328757437621283955146752.000000 3958437400626323564369949729988160374244688555872408829952.000000 0.000000
3958437400626323564369949729988160374244688555872408829952.000000 1859626932317418963071292748657769170317560349852595912704.000000 0.000000
0.000000 0.000000 0.000000
655839640036724587206300505721925764835688820018323128320.000000 -802762496511002462285936317885392048994041121152906035200.000000 0.000000
-802762496511002462285936317885392048994041121152906035200.000000 362187788901648796225482835130115045250351118208624230400.000000 0.000000
0.000000 0.000000 0.000000
3094004125624637292978164752360403232216619968128102694912.000000 -4910779558990017582861446691653531717111806876755859341312.000000 0.000000
-4910779558990017582861446691653531717111806876755859341312.000000 2405739159328342883020317123270167603775577369075179847680.000000 0.000000
0.000000 0.000000 0.000000
20192116577930708708654486705380435717819200636578693120.000000 -291383979100984744642147234622480302487268727556189192192.000000 0.000000
-291383979100984744642147234622480302487268727556189192192.000000 162491892897007938766014911616673829919530503399291224064.000000 0.000000
0.000000 0.000000 0.000000
5894477339131227773598055662244494918984643265459468107776.000000 -7930856977905183256713978975294751343685787513316301602816.000000 0.000000
-7930856977905183256713978975294751343685787513316301602816.000000 3671592474144152721243821308649835818343069592446333616128.000000 0.000000
0.000000 0.000000 0.000000
633582652111012469182359409060549196355992671367941062656.000000 -590942627057958878869994172879123993383157074994525110272.000000 0.000000
-590942627057958878869994172879123993383157074994525110272.000000 239509596496409587304583581250718889583563992145818812416.000000 0.000000
0.000000 0.000000 0.000000
-411804814941590018320507642406942944390577861981921869824.000000 1707757564707861558247059363847815436535651185349745442816.000000 0.000000
1707757564707861558247059363847815436535651185349745442816.000000 985270750446272326141803928262249746919706617272252497920.000000 0.000000
0.000000 0.000000 0.000000
726987441505221611996777097653272939856915253053756538880.000000 1142668085973682035604250251421267801546925537029118754816.000000 0.000000
1142668085973682035604250251421267801546925537029118754816.000000 548112313178242970125448001666791281697190715521432027136.000000 0.000000
0.000000 0.000000 0.000000
-161925367710669060828980267463160571951810298829751965450240.000000 -47887182663176116137566486175661837505084787672025720160256.000000 0.000000
-47887182663176116137566486175661837505084787672025720160256.000000 19987509996748527209402107490447646009793732457674433363968.000000 0.000000
0.000000 0.000000 0.000000
1153889241469232253443267783459133960583170787255332634624.000000 1386467890572550576514830956459401795867525992436639727616.000000 0.000000
1386467890572550576514830956459401795867525992436639727616.000000 622641849575961824363628319463201649279304129015476912128.000000 0.000000
0.000000 0.000000 0.000000
3923339090630912558149495087252265073969347767131772551168.000000 -1344282970050657023534169724382203937101581278379587403776.000000 0.000000
-1344282970050657023534169724382203937101581278379587403776.000000 292742750357918491511484719281870038199860900339979911168.000000 0.000000
0.000000 0.000000 0.000000
1247682041347830066118775232549495024315193292341651701760.000000 -1347497741401902019034909872420094387529654417680693723136.000000 0.000000
-1347497741401902019034909872420094387529654417680693723136.000000 584266809550663796542910028149072727570499573822999494656.000000 0.000000
0.000000 0.000000 0.000000
4736002409825606183041689151642621827164651297222260948992.000000 -2190133061033106242597547411186754699817602768184667013120.000000 0.000000
-2190133061033106242597547411186754699817602768184667013120.000000 592135247239706212085843116535002902850858583103868239872.000000 0.000000
0.000000 0.000000 0.000000
426454606542994051416728097689090162265181817062060720128.000000 323237463508853238170961568003669510187409107346283036672.000000 0.000000
323237463508853238170961568003669510187409107346283036672.000000 120301862702921874115360299793612775377962937789087481856.000000 0.000000
0.000000 0.000000 0.000000
-69752245714874811178371558929005545106042767942307832397824.000000 -8153079731898854612943461818417671906333566220485011701760.000000 0.000000
-8153079731898854612943461818417671906333566220485011701760.000000 1808849474002790033088364820167427992235094647828293615616.000000 0.000000
0.000000 0.000000 0.000000
-1089617812340057374884488214296635178468888969449387851776.000000 -840954814624274539446569430295783231274474803320315707392.000000 0.000000
-840954814624274539446569430295783231274474803320315707392.000000 467248178450869914039742236095867601970545972388982423552.000000 0.000000
0.000000 0.000000 0.000000
-647095915325530123364881579517396680737365684533986328576.000000 -368234108654787110159369246024839895956798565819183267840.000000 0.000000
-368234108654787110159369246024839895956798565819183267840.000000 193930820892225035169416925105383293826671066743505420288.000000 0.000000
0.000000 0.000000 0.000000
-5450936579664190038695043365461739634791283790666960732160.000000 63123906880132965946016567954354387798543944034740600832.000000 0.000000
63123906880132965946016567954354387798543944034740600832.000000 5985594503154483398656686115116864742377641256398356480.000000 0.000000
0.000000 0.000000 0.000000
26487086941856941104335544499649057569893144718173659987968.000000 2229548762453020407139962261057123109045159986468877238272.000000 0.000000
2229548762453020407139962261057123109045159986468877238272.000000 124512467728461796180071320501098398497181185876516929536.000000 0.000000
0.000000 0.000000 0.000000
-229521324654384303679097224961934628006111612714569368076288.000000 51660362965801067001377789035194107762037190987013548933120.000000 0.000000
51660362965801067001377789035194107762037190987013548933120.000000 18444703804312355944484563866796658371743119212348562210816.000000 0.000000
0.000000 0.000000 0.000000
797199848606862928721017364683858364761135810444852723712.000000 1279280515244308687257234487892812171622028919409764990976.000000 0.000000
1279280515244308687257234487892812171622028919409764990976.000000 617070463912160345805624244668504280071000076457871409152.000000 0.000000
0.000000 0.000000 0.000000
4164032934438477075488146238161744272215983322371031302144.000000 3867848636310466312703239010277322837760808575895278190592.000000 0.000000
3867848636310466312703239010277322837760808575895278190592.000000 1578531007855423806757714725778940797203840604422228934656.000000 0.000000
0.000000 0.000000 0.000000
-4880397932439930479153894143093723382266652773448360656896.000000 -768222766406243119626190915662843139765933083384757616640.000000 0.000000
-768222766406243119626190915662843139765933083384757616640.000000 212632991705395961740380060600668754535341218541397344256.000000 0.000000
0.000000 0.000000 0.000000
1207820073493174831246684470168420337312246695310959575040.000000 -123275533569885494989663312745631816412830004826511245312.000000 0.000000
-123275533569885494989663312745631816412830004826511245312.000000 22664003892295622449236346783793772526857282511280537600.000000 0.000000
0.000000 0.000000 0.000000
-63646522703515596697891868085654620276674138268755820544.000000 207072259297151929937467503697632618392026720543652708352.000000 0.000000
207072259297151929937467503697632618392026720543652708352.000000 118614478576504631946818730504210868904494513380785127424.000000 0.000000
0.000000 0.000000 0.000000
1900086307122271134345229558250250854632075614251311431680.000000 504240864339943837455199876147700014981660410350256783360.000000 0.000000
504240864339943837455199876147700014981660410350256783360.000000 87111561270184982656763671357015943601106443399633829888.000000 0.000000
0.000000 0.000000 0.000000
3935806198854039903889292196339899391686878082535042056192.000000 8374390184856813585651214619334393485069302591636606287872.000000 0.000000
8374390184856813585651214619334393485069302591636606287872.000000 4221850115338251009748355365595484454452613527440109600768.000000 0.000000
0.000000 0.000000 0.000000
-24931298385155498243990283641530262606776616602565766807552.000000 -4881717953199231047650346496206218686084210494855622688768.000000 0.000000
-4881717953199231047650346496206218686084210494855622688768.000000 1588240082024676571602293955830312653984034953717606252544.000000 0.000000
0.000000 0.000000 0.000000
-96672970740932802579190435065958088052091189670697133670400.000000 14858498583206594527194492133846664199022428387958140698624.000000 0.000000
14858498583206594527194492133846664199022428387958140698624.000000 4042809365643742657148576047839242041323230657898004611072.000000 0.000000
0.000000 0.000000 0.000000
-1536586783153545688503712125997073856600558583481725091840.000000 2516893592839693835807350602260508198796433622628617420800.000000 0.000000
2516893592839693835807350602260508198796433622628617420800.000000 1454986462471611085877164202924931372604876250316420415488.000000 0.000000
0.000000 0.000000 0.000000
2020518311933088616610826158152786923435122847984612540416.000000 -377935440416666142654545882302608761987551704922791608320.000000 0.000000
-377935440416666142654545882302608761987551704922791608320.000000 46114141222539854940178416840708916626087424684579618816.000000 0.000000
0.000000 0.000000 0.000000
275841520054497054690292091833672314181568494263588618240.000000 1848355418380162634026837016999652032189164199727320793088.000000 0.000000
1848355418380162634026837016999652032189164199727320793088.000000 1038577182198101839466204491048888482144357349877392343040.000000 0.000000
0.000000 0.000000 0.000000
1028768327443394394664173479406674667334602579955941376.000000 564495818756262367348802189118524678403938903929126912.000000 0.000000
564495818756262367348802189118524678403938903929126912.000000 172867558411006455441979368476390820533245792365838336.000000 0.000000
0.000000 0.000000 0.000000
129099726940512077685883359544514622059357453418496.000000 279410881916949606754630166114082347998116302553088.000000 0.000000
279410881916949606754630166114082347998116302553088.000000 141199250315305481253417865486010779260555286806528.000000 0.000000
0.000000 0.000000 0.000000
8658940274296588056079155643261387038247816839947679170560.000000 -12499072581978097307779377199582208764056812893835693654016.000000 0.000000
-12499072581978097307779377199582208764056812893835693654016.000000 5885961834944647530414990095881599180554070288477045391360.000000 0.000000
0.000000 0.000000 0.000000
2308680529829705389592378082147286724574177159727921758208.000000 3855435408587911244097276116686137455430265445404167372800.000000 0.000000
3855435408587911244097276116686137455430265445404167372800.000000 1871317585999324655189149575492899549875990990699527929856.000000 0.000000
0.000000 0.000000 0.000000
-1595345545107045760079494873598819579712909679019669061632.000000 1601147433810549169854696445123148311440049196484045832192.000000 0.000000
1601147433810549169854696445123148311440049196484045832192.000000 924653784222869775288596304214292080724137376467925336064.000000 0.000000
0.000000 0.000000 0.000000
1360955123649887480715369094587807570646620753727462572032.000000 1223431254919441321194975163208288924685432295447058186240.000000 0.000000
1223431254919441321194975163208288924685432295447058186240.000000 494021028125211315136280224339152220513914321208296341504.000000 0.000000
0.000000 0.000000 0.000000
-8871329010172207373225347627157913500012697138128251518976.000000 23248636718707612290695785477439716143606244082299973926912.000000 0.000000
23248636718707612290695785477439716143606244082299973926912.000000 13378367991198349626970812119382258860307931990294664314880.000000 0.000000
0.000000 0.000000 0.000000
-90005519727951062529115658499582357072519608230356189184.000000 71101389756774300960092415244012968855505472174417772544.000000 0.000000
71101389756774300960092415244012968855505472174417772544.000000 158218512215351366576893903403693711313881311875497459712.000000 0.000000
0.000000 0.000000 0.000000
-18674791057728109827583524381415917569876979378421852274688.000000 -9971837630519213216576911316169111815283030312965388632064.000000 0.000000
-9971837630519213216576911316169111815283030312965388632064.000000 5198408613666413485071221623702493623164166102229463334912.000000 0.000000
0.000000 0.000000 0.000000
5773288241180820584781384143597471319218768969351452164096.000000 -5196944038695355561826575321611294785918313122706176868352.000000 0.000000
-5196944038695355561826575321611294785918313122706176868352.000000 2102308701019614520867403204734250555056328049672184659968.000000 0.000000
0.000000 0.000000 0.000000
39498517446021270183775452136829706689626461062098740838400.000000 364559255278023538667366254828481384205478383712265568256.000000 0.000000
364559255278023538667366254828481384205478383712265568256.000000 6933823319183794717663121200774853556056022356752072704.000000 0.000000
0.000000 0.000000 0.000000
-27025360553519502560339702155079685066117173040920752291840.000000 10152851681566521141669859233965430632466213557793338687488.000000 0.000000
10152851681566521141669859233965430632466213557793338687488.000000 4701056141848548980859187829205792605448496254114160705536.000000 0.000000
0.000000 0.000000 0.000000
305462542660522362713087641143361069480410275287480139776.000000 272029668547196468410728154517468967696205739239751548928.000000 0.000000
272029668547196468410728154517468967696205739239751548928.000000 109396119288855178324350640006216952049919494429224206336.000000 0.000000
0.000000 0.000000 0.000000
-18032208342727421092483862862393491350581265062408941993984.000000 -44619283027034762153597626473858662934681491598766969454592.000000 0.000000
-44619283027034762153597626473858662934681491598766969454592.000000 25676772245287512575914730133561115933829239869489348083712.000000 0.000000
0.000000 0.000000 0.000000
4677521147931490773899807008945173648214490067744325632.000000 282070143385698361479142712109239104830604622400847872.000000 0.000000
282070143385698361479142712109239104830604622400847872.000000 11365270082850054541888349196472833056629875294601216.000000 0.000000
0.000000 0.000000 0.000000
-2180969974283363454441013393896648927300082091311572713472.000000 -1867789015958277989048853286951891464212616293581122961408.000000 0.000000
-1867789015958277989048853286951891464212616293581122961408.000000 1054234781662585647453522325287568402655274350702122500096.000000 0.000000
0.000000 0.000000 0.000000
7357561053390893288665632670966860316437376977064882601984.000000 -1796360178779308416392889034222556608146035113283685449728.000000 0.000000
-1796360178779308416392889034222556608146035113283685449728.000000 281721418853439150728022546948216793831936319782175899648.000000 0.000000
0.000000 0.000000 0.000000
16910887239726785429895733570951087456438282179226774798336.000000 598360863316252380828250724001883406857803295384141824000.000000 0.000000
598360863316252380828250724001883406857803295384141824000.000000 19501314303511982732413860334309144733459150770662277120.000000 0.000000
0.000000 0.000000 0.000000
13838753817588631719022898595388052893384239079252557824.000000 518713422574772505202646146967007551810646836273741824.000000 0.000000
518713422574772505202646146967007551810646836273741824.000000 12950320443836252402949708701428754372681759931236352.000000 0.000000
0.000000 0.000000 0.000000
39405960749410446027455120183288223322373101161405218816.000000 -616255746887247779643239080564712597170999098667241046016.000000 0.000000
-616255746887247779643239080564712597170999098667241046016.000000 340405823514937312700700484996728651209670300177394565120.000000 0.000000
0.000000 0.000000 0.000000
245982452271710432566057465736208693247735870970805616640.000000 101084478718073747186106300471734156356241024416797949952.000000 0.000000
101084478718073747186106300471734156356241024416797949952.000000 24912536489648035188554586846760000448002280129032093696.000000 0.000000
0.000000 0.000000 0.000000
5921844000196626931042842936967674787334208703936992378880.000000 -1509366760712982753275230238328123006558014933690698694656.000000 0.000000
-1509366760712982753275230238328123006558014933690698694656.000000 247870240482076825681366831225469427150869947962158481408.000000 0.000000
0.000000 0.000000 0.000000
403457018721206893681150317846887259818669533475821846528.000000 -515880197160871986042439166833827314912015850315223924736.000000 0.000000
-515880197160871986042439166833827314912015850315223924736.000000 235639203760595801723727848697088825624207062093652819968.000000 0.000000
0.000000 0.000000 0.000000
1411438290096785784282722743055185605496357800641300529152.000000 -996524451237528706762376023947958237243786150120423161856.000000 0.000000
-996524451237528706762376023947958237243786150120423161856.000000 356895565145613688003961443606265344252708917837809319936.000000 0.000000
0.000000 0.000000 0.000000
42485528154825559792807933948239385267021630087582342709248.000000 13313037208994831037954862857623527151220397422337134166016.000000 0.000000
13313037208994831037954862857623527151220397422337134166016.000000 2611237540515939515400252999305860685288450501928474902528.000000 0.000000
0.000000 0.000000 0.000000
-434701954392573167547246522044514678715111678118627115008.000000 -568180051587340229157798873734738042072315512587491999744.000000 0.000000
-568180051587340229157798873734738042072315512587491999744.000000 326941681611869767792816285773449724602027338899635830784.000000 0.000000
0.000000 0.000000 0.000000
-551263337588126898185542791710285393187182680569314017280.000000 13361221140064203542379769965639994749148432469565940695040.000000 0.000000
13361221140064203542379769965639994749148432469565940695040.000000 7470386583777526336951338638829935165915618849976750178304.000000 0.000000
0.000000 0.000000 0.000000
1847454241342836958254989350526466513294839250290762317824.000000 861856139032068737385052742425641330360786209778796855296.000000 0.000000
861856139032068737385052742425641330360786209778796855296.000000 234852798822205716358403116243411394716340868853218148352.000000 0.000000
0.000000 0.000000 0.000000
14569360262049110950997678750847993411245767240381177528320.000000 18557392852985375281915913725744439523186910736441933824000.000000 0.000000
18557392852985375281915913725744439523186910736441933824000.000000 8467527277462310940378587099779354439187953036203162337280.000000 0.000000
0.000000 0.000000 0.000000
-1566315868346566672587932105577603350061249666643723812864.000000 59814343403427650861962238961839241232333760399591604224.000000 0.000000
59814343403427650861962238961839241232333760399591604224.000000 2322799658962546997287614461903318179835679806482022400.000000 0.000000
0.000000 0.000000 0.000000
12827678698979270508269725980075977435372652134764904448.000000 -376711676376437862767859115086441158221168755518782570496.000000 0.000000
-376711676376437862767859115086441158221168755518782570496.000000 207735214410423544634733171113181088661949897216301727744.000000 0.000000
0.000000 0.000000 0.000000
13235759449178823934339699628106051704598441000372713553920.000000 -4124045877332523573575234502924920301105918310926608498688.000000 0.000000
-4124045877332523573575234502924920301105918310926608498688.000000 804675235039803963204895244750917448040743336431755198464.000000 0.000000
0.000000 0.000000 0.000000
-14177493792466884948745328765243429116976099413446243647488.000000 -2838322940806960478366696328910918167081841923823723610112.000000 0.000000
-2838322940806960478366696328910918167081841923823723610112.000000 935755705472152057285326029074385493152612492536228872192.000000 0.000000
0.000000 0.000000 0.000000
62869834094610397060551511020235031034177682097565597696.000000 -599786011887506169783389909931471956214257598860621774848.000000 0.000000
-599786011887506169783389909931471956214257598860621774848.000000 334950495537978663471400026556124071558253342649026084864.000000 0.000000
0.000000 0.000000 0.000000
3614791256482674170471073640705947698514262831766769238016.000000 -2767442713198990734678871951123784882429306698448603447296.000000 0.000000
-2767442713198990734678871951123784882429306698448603447296.000000 1051096979081039719193873327027356815236531218803027083264.000000 0.000000
0.000000 0.000000 0.000000
2130531924252687915138358850869725256420178250375939227648.000000 2164897085571867053972933910514958710406552123480270176256.000000 0.000000
2164897085571867053972933910514958710406552123480270176256.000000 918428167397417542145127221121452980215929317179277705216.000000 0.000000
0.000000 0.000000 0.000000
-1816141144057683312498879677106492693946863358965785271730176.000000 -2173175595208310768858805991977628420621429423412762116096.000000 0.000000
-2173175595208310768858805991977628420621429423412762116096.000000 20717031765861963672339397098219219877207912878455128064.000000 0.000000
0.000000 0.000000 0.000000
140989280787857831261075751156114930765628430763744559104.000000 92757646492219740929309964842701039346393520481161445376.000000 0.000000
92757646492219740929309964842701039346393520481161445376.000000 34025433533975447054927528305690366544077617900185190400.000000 0.000000
0.000000 0.000000 0.000000
528506087304473326412923313123288672401761098851864805376.000000 -593884560513217272302906650250912241232679996089054527488.000000 0.000000
-593884560513217272302906650250912241232679996089054527488.000000 263309594565508070422005852880130510358687199552581140480.000000 0.000000
0.000000 0.000000 0.000000
9797484523069321583011489878243539533516304001867112775680.000000 -1209887664585406736634634883045863848925217560664064655360.000000 0.000000
-1209887664585406736634634883045863848925217560664064655360.000000 100678102631208379249430645849052763592727025113045663744.000000 0.000000
0.000000 0.000000 0.000000
1351119383425210701212666533596627072597264350200478040064.000000 -2784072593489847344902318036115607175283763787403643322368.000000 0.000000
-2784072593489847344902318036115607175283763787403643322368.000000 1397577757453602699009945671970440157681466002245018451968.000000 0.000000
0.000000 0.000000 0.000000
-31646545703879692341981943559288675072783361528907123654656.000000 -6071735211162780519163641145800956972877606014661894864896.000000 0.000000
-6071735211162780519163641145800956972877606014661894864896.000000 1947996210313940555382854056309546118105569330197405106176.000000 0.000000
0.000000 0.000000 0.000000
1232144317428528185578991245833923445388226132479173459968.000000 -1278934081307261399108865601836647254115399808297056862208.000000 0.000000
-1278934081307261399108865601836647254115399808297056862208.000000 547028211185312552319654799932237007081787708179839188992.000000 0.000000
0.000000 0.000000 0.000000
2144104122065446562666429024086486626493117568848494592.000000 4648649768090454681281500834549832267750732760346525696.000000 0.000000
4648649768090454681281500834549832267750732760346525696.000000 2350523420646578143071785084697224141141160724246036480.000000 0.000000
0.000000 0.000000 0.000000
23136605159069093104609530641627329766719841827326837915648.000000 -14779320908225840688817202318226628661621475121685533294592.000000 0.000000
-14779320908225840688817202318226628661621475121685533294592.000000 4991506197671231789507469071826119174897952566919588478976.000000 0.000000
0.000000 0.000000 0.000000
431940681563983847788323389789293066290223744532137115648.000000 -1195694835351548036575153952922776707707687486890818142208.000000 0.000000
-1195694835351548036575153952922776707707687486890818142208.000000 620284317540823138364950957831662524729325193362761842688.000000 0.000000
0.000000 0.000000 0.000000
-15741680819605479947740584038529364257410710741425586176.000000 -1021942784933190247737606322748973181227486969065105260544.000000 0.000000
-1021942784933190247737606322748973181227486969065105260544.000000 569331032898176325346771621013098433792827191158772858880.000000 0.000000
0.000000 0.000000 0.000000
-1346064092842255669140854291121297114027296800605504274432.000000 -2186987694292661178764317008415627526633862770308518248448.000000 0.000000
-2186987694292661178764317008415627526633862770308518248448.000000 1262183040718898977648726464468084497668194651839402082304.000000 0.000000
0.000000 0.000000 0.000000
5598839600788260718306359572674623458768125427712.000000 4968343878039298567607714906219708974946104377344.000000 0.000000
4968343878039298567607714906219708974946104377344.000000 2017999212934644510783389562137127453076985217024.000000 0.000000
0.000000 0.000000 0.000000
2414740709454394297711500892856997014454167481769525248000.000000 -1178716429704919622638879740583680744929429869187236364288.000000 0.000000
-1178716429704919622638879740583680744929429869187236364288.000000 336184872823662439133836749406241163225663479381200207872.000000 0.000000
0.000000 0.000000 0.000000
28128806524992816648781783575352005540661519483854873690112.000000 4385336037029961556603941125064510231202687463314664980480.000000 0.000000
4385336037029961556603941125064510231202687463314664980480.000000 473949005868250837837149901519725401095860831682054586368.000000 0.000000
0.000000 0.000000 0.000000
190753058743354913010439121355925612825698216197346033664.000000 -1928697345759263472708055660829135580874929787147225399296.000000 0.000000
-1928697345759263472708055660829135580874929787147225399296.000000 1056452257781437580930062691289919781477435335081809936384.000000 0.000000
0.000000 0.000000 0.000000
4433661609625001455298190377119334674055999491901524803584.000000 340635143092296785144106644718711037692334153732022337536.000000 0.000000
340635143092296785144106644718711037692334153732022337536.000000 17376586896310319198072526260606522818015250350600093696.000000 0.000000
0.000000 0.000000 0.000000
2922831036403751675422242201571188658651026555349694939136.000000 789909831935589922978090249734449780956247579592054800384.000000 0.000000
789909831935589922978090249734449780956247579592054800384.000000 135803494527856106591446613949780006910672338896101048320.000000 0.000000
0.000000 0.000000 0.000000
1209460237193934421522759906857327449774462406824734752768.000000 258778597001607787188345036039127440273026228294292340736.000000 0.000000
258778597001607787188345036039127440273026228294292340736.000000 38116598060701038646778835681187143506243263594449862656.000000 0.000000
0.000000 0.000000 0.000000
10358278051910434238877719855338219564298084992231145472.000000 3281347219166354965782314831535115467923033292372180992.000000 0.000000
3281347219166354965782314831535115467923033292372180992.000000 649619770392382981574368757630317808202250313875324928.000000 0.000000
0.000000 0.000000 0.000000
-715519510738205601934259652362053909914779581306942521344.000000 -522896292767505553467030261650341035195177641764158701568.000000 0.000000
-522896292767505553467030261650341035195177641764158701568.000000 320593362302871454754889760954119324402231707502653734912.000000 0.000000
0.000000 0.000000 0.000000
-67361321113053400865288617411759640046899021079303709781917696.000000 866766444082108094324060433121781369259910028631813847515136.000000 0.000000
866766444082108094324060433121781369259910028631813847515136.000000 22285156456490562860722363998698233085951562631157987147776.000000 0.000000
0.000000 0.000000 0.000000
-123107764127797112273445375573718692355354852665484902400.000000 -1210370807918243046458540307139639661743026814699570200576.000000 0.000000
-1210370807918243046458540307139639661743026814699570200576.000000 682459718931158668377311357598225117609974566074269564928.000000 0.000000
0.000000 0.000000 0.000000
-2618671939671345724239330914794996858537727823230730764288.000000 -2948199106316260493358854521128769299138984281502948261888.000000 0.000000
-2948199106316260493358854521128769299138984281502948261888.000000 1688991054178526885031859021313390875724772747674747142144.000000 0.000000
0.000000 0.000000 0.000000
704099806438154790622940841179545851008234611598520483840.000000 2597514691054284139928694770598051712826304036084362772480.000000 0.000000
2597514691054284139928694770598051712826304036084362772480.000000 1376049316419917080128018453852324974306982564005177982976.000000 0.000000
0.000000 0.000000 0.000000
62537395572211512918008577865500119825059106972546105344.000000 24474715267017383260787162163351056263519675187378257920.000000 0.000000
24474715267017383260787162163351056263519675187378257920.000000 5797691225773013481508353718989767306284165653396979712.000000 0.000000
0.000000 0.000000 0.000000
-2298191447188699899456037178470302209744809871533412450304.000000 1279883462723704972079642352154348657338369648345567199232.000000 0.000000
1279883462723704972079642352154348657338369648345567199232.000000 674849865684894347380684269137884842457199203154132992000.000000 0.000000
0.000000 0.000000 0.000000
2829883253343298502256415231460473169901158038298658078720.000000 3050494988650499420019723264078587386188141015976355299328.000000 0.000000
3050494988650499420019723264078587386188141015976355299328.000000 1321867135229101237540350132931392809631338483343050145792.000000 0.000000
0.000000 0.000000 0.000000
-2135641679031627679907533861004128472651259248020551630848.000000 1224273553191757771420950757150497854999657788639690096640.000000 0.000000
1224273553191757771420950757150497854999657788639690096640.000000 645185017226177353558798704006459800560881281045331181568.000000 0.000000
0.000000 0.000000 0.000000
1916868255137751594108808761438622086887536602166715219968.000000 1060799551143105555748678373880984760685255801451445223424.000000 0.000000
1060799551143105555748678373880984760685255801451445223424.000000 326438189629112199938733412925964642428427340339457556480.000000 0.000000
0.000000 0.000000 0.000000
85202439864627303781476687090884090708717503980173787136.000000 143118855100203549677899280283079222072382398138467483648.000000 0.000000
143118855100203549677899280283079222072382398138467483648.000000 69541035978216129770345905920831594659935624969723052032.000000 0.000000
0.000000 0.000000 0.000000
2623964532684352991250560281918799325968297691990424813568.000000 417847951927697846016472062085198384917072735427534782464.000000 0.000000
417847951927697846016472062085198384917072735427534782464.000000 77444967248737893190481859410156945617845095693820100608.000000 0.000000
0.000000 0.000000 0.000000
-449549381569552110327273233495599188291890312372211941376.000000 1219008169350902644688096291808715409758878915484702474240.000000 0.000000
1219008169350902644688096291808715409758878915484702474240.000000 706214475295094953555623228626211888096866896005692391424.000000 0.000000
0.000000 0.000000 0.000000
7155287691873747853445457306867535561387418239660720128.000000 -8608221463947736902663484849067969040758084270446084096.000000 0.000000
-8608221463947736902663484849067969040758084270446084096.000000 3864129359990715308928882448391110056719221437925163008.000000 0.000000
0.000000 0.000000 0.000000
-5804786935138705052232122024689052772599086174794495819776.000000 -7528037306941679208733966280867153558946828374015628804096.000000 0.000000
-7528037306941679208733966280867153558946828374015628804096.000000 4330972595214495018883060872190663727174066809517037846528.000000 0.000000
0.000000 0.000000 0.000000
122614654417834147631854909954179781561047198136979685376.000000 64295028058127508995089884267559341280731562225541578752.000000 0.000000
64295028058127508995089884267559341280731562225541578752.000000 15395940842662772281000533367214985563522922597071192064.000000 0.000000
0.000000 0.000000 0.000000
-455379888525578371589128538781947208794948881356947456.000000 11956687285073767822699627019716334653489835218902712320.000000 0.000000
11956687285073767822699627019716334653489835218902712320.000000 6683297368651394080896799596706625190870213242484948992.000000 0.000000
0.000000 0.000000 0.000000
18373538300306002303178439062190644287168213312706969600.000000 5134573723359738963047132821204424915534210543365652480.000000 0.000000
5134573723359738963047132821204424915534210543365652480.000000 909240897097729622079637809866784698480276045352140800.000000 0.000000
0.000000 0.000000 0.000000
1754394969190372895277259270679165892308766418657293107200.000000 1692806233319807280851253847926968469108271962830208499712.000000 0.000000
1692806233319807280851253847926968469108271962830208499712.000000 703965327298365253494779670388727444384439321215857852416.000000 0.000000
0.000000 0.000000 0.000000
30111018980823250281262112794389781411531684966487520444416.000000 11589429068734442248140044615537971961514399459399604109312.000000 0.000000
11589429068734442248140044615537971961514399459399604109312.000000 2714564626364401558005558965987751029996695057999924822016.000000 0.000000
0.000000 0.000000 0.000000
780326879444123902850635267648627644624833751870345314304.000000 -1200609880000514816708164403296338181409169205483332960256.000000 0.000000
-1200609880000514816708164403296338181409169205483332960256.000000 573372134626882940508344863954803307670030778970906034176.000000 0.000000
0.000000 0.000000 0.000000
-469884828657604447703914255562691993394429156307043876864.000000 1181991873919610428034253425169414240717381952668667215872.000000 0.000000
1181991873919610428034253425169414240717381952668667215872.000000 678987612667421978538700634705872120655767351727176548352.000000 0.000000
0.000000 0.000000 0.000000
-1077456121569788766103995614088073842802687878153388425216.000000 -8209993030557854080763456778518632831009951121641773727744.000000 0.000000
-8209993030557854080763456778518632831009951121641773727744.000000 4666093993388626427535424696204419348717607740776460058624.000000 0.000000
0.000000 0.000000 0.000000
40030930964328757118801613071305282474013032848136601600.000000 -2132963176526385783636508293385299300802215453656449286144.000000 0.000000
-2132963176526385783636508293385299300802215453656449286144.000000 1183030093078874450489830000409430238578374540922265272320.000000 0.000000
0.000000 0.000000 0.000000
15755583640099321550622284243494786793530260055038827167744.000000 -3862477062600873645379513750444275795999071057088299925504.000000 0.000000
-3862477062600873645379513750444275795999071057088299925504.000000 611810088953840667463876225747180747239842637732781228032.000000 0.000000
0.000000 0.000000 0.000000
-3984548817359262662720476332354801475092298023911779467264.000000 -3787992032755588856024682904197180523725670872171046502400.000000 0.000000
-3787992032755588856024682904197180523725670872171046502400.000000 2141435869880666974776155067476401542651108152235807211520.000000 0.000000
0.000000 0.000000 0.000000
-646501156951902289918377961595191303761623277898649567232.000000 -1266528596213768112154889092738712279678916143356856762368.000000 0.000000
-1266528596213768112154889092738712279678916143356856762368.000000 732453115734494871505546277777634322214947602791695122432.000000 0.000000
0.000000 0.000000 0.000000
-19650495512705521906172102476681601621176889555831226368.000000 785171676339364403525434782224641489233063027750731776.000000 0.000000
785171676339364403525434782224641489233063027750731776.000000 1782691422187557356589719601429436649809810853564776448.000000 0.000000
0.000000 0.000000 0.000000
-3893341905486961287110290599417061700268281497220359913472.000000 -3977797329877918626499559157514439416030758384780005343232.000000 0.000000
-3977797329877918626499559157514439416030758384780005343232.000000 2265818710527349520149994541571872539645276966207656820736.000000 0.000000
0.000000 0.000000 0.000000
-868286534422802686722112279067034387973697372677577113600.000000 37275123590852033540826137685732350446422132383740329984.000000 0.000000
37275123590852033540826137685732350446422132383740329984.000000 3164597448636466394106018736208165039814546451968557056.000000 0.000000
0.000000 0.000000 0.000000
1789244655433785092320496632853810726016382989731689922560.000000 -733492452653564965066504651043754730944821031901144809472.000000 0.000000
-733492452653564965066504651043754730944821031901144809472.000000 181213687398226715916998254836683509880620426903515299840.000000 0.000000
0.000000 0.000000 0.000000
444958738443242909226099589241545232496176475930624.000000 584074810999785697456287587786145489683465241624576.000000 0.000000
584074810999785697456287587786145489683465241624576.000000 267839976980691774337659046948646264017638867861504.000000 0.000000
0.000000 0.000000 0.000000
-1789780781859345866081399392624748945805795556620068978688.000000 1464591005026872187589013917594085100900181085143575822336.000000 0.000000
1464591005026872187589013917594085100900181085143575822336.000000 822192721878162227540075793518633706877239469495673683968.000000 0.000000
0.000000 0.000000 0.000000
-9626768203741446859317337846111518308987117271109546803200.000000 -17342577181083172672001054040776697180601304865690269777920.000000 0.000000
-17342577181083172672001054040776697180601304865690269777920.000000 10009976582708173493287727548220430986012740958368655474688.000000 0.000000
0.000000 0.000000 0.000000
-10719127400861201240436793948538800268017852270663440531456.000000 -1636573969555720369194053378351694143091843614946914992128.000000 0.000000
-1636573969555720369194053378351694143091843614946914992128.000000 442250722574286706386140204188858288728576660960285032448.000000 0.000000
0.000000 0.000000 0.000000
-4864363651121850110011425678595127232918335727433370566656.000000 -9048456685039080635901107980708426327986621733913994723328.000000 0.000000
-9048456685039080635901107980708426327986621733913994723328.000000 5226421165690436864515215742909253410289634736664255397888.000000 0.000000
0.000000 0.000000 0.000000
5917712377153115913585647061268390970764671618181572329472.000000 4876517415855517144212580809214293509148022744120129748992.000000 0.000000
4876517415855517144212580809214293509148022744120129748992.000000 1892523197178773305391761939769017429723968551447072604160.000000 0.000000
0.000000 0.000000 0.000000
-7785577349593232510479646399802298370517200927508836384768.000000 -6806786328374216230614379180374795636207001238417944084480.000000 0.000000
-6806786328374216230614379180374795636207001238417944084480.000000 3831915903767563380585539570454918066384053135197545168896.000000 0.000000
0.000000 0.000000 0.000000
863552971259050202380298674180258713195924651477093580800.000000 1524127841922305376150841640952505482183052375145477832704.000000 0.000000
1524127841922305376150841640952505482183052375145477832704.000000 747122753577619126467021409606250622402410661689847447552.000000 0.000000
0.000000 0.000000 0.000000
2460205407684967639889990496783763531758194368921695420416.000000 -1003022350127226140114529420070137271379185092487140081664.000000 0.000000
-1003022350127226140114529420070137271379185092487140081664.000000 252409181865125000775800203604188263953186234488338776064.000000 0.000000
0.000000 0.000000 0.000000
170980521431191728587338767895558096020370798363608612864.000000 -338455825754715606147025705468554064134878984384205029376.000000 0.000000
-338455825754715606147025705468554064134878984384205029376.000000 168944027570200311199367709730388999488722771125326577664.000000 0.000000
0.000000 0.000000 0.000000
3744620563094296135821243434349669277816549547783005143040.000000 223568352825767468720053338270466053230170965787136753664.000000 0.000000
223568352825767468720053338270466053230170965787136753664.000000 8896708531818417087455024365434869457084509837015908352.000000 0.000000
0.000000 0.000000 0.000000
3426772141744554780708371792772209266892569976156394094592.000000 2800755324874142095773639909266425876404285259570655264768.000000 0.000000
2800755324874142095773639909266425876404285259570655264768.000000 1086931881550770250650585610669087056910996690281577840640.000000 0.000000
0.000000 0.000000 0.000000
-7584863898862321417642259868427554421398862321089322680320.000000 -58845068714158174258843363378365385796784419974515368394752.000000 0.000000
-58845068714158174258843363378365385796784419974515368394752.000000 33238375321774669748883399894123705101216328937443036233728.000000 0.000000
0.000000 0.000000 0.000000
-290316565024936742931687514211777080738937455117890224128.000000 258563370011891740713958511545882300747759738299663515648.000000 0.000000
258563370011891740713958511545882300747759738299663515648.000000 125386177336644579452146629006422220205726490142783307776.000000 0.000000
0.000000 0.000000 0.000000
894184882259417154921744859028796186241910309783995416576.000000 925528866477379302785407919662618676879010189844389298176.000000 0.000000
925528866477379302785407919662618676879010189844389298176.000000 393314762832265337747767052114166346000430666199362174976.000000 0.000000
0.000000 0.000000 0.000000
5911111002398289339724457573253043142303847136964965826560.000000 -1245307097808594346274136754565058737729683340014475280384.000000 0.000000
-1245307097808594346274136754565058737729683340014475280384.000000 175301126716027412780474968114513527189480771024922345472.000000 0.000000
0.000000 0.000000 0.000000
198907437727348267658395929180491641197588808914652102656.000000 -49036136152362741516246311506237324418042405872373596160.000000 0.000000
-49036136152362741516246311506237324418042405872373596160.000000 7744845744714523972808904277295792885149417067593596928.000000 0.000000
0.000000 0.000000 0.000000
-187880065305575513572544890468401482404771802714793312256.000000 -2339519223022777287407332676031695042422390829561482838016.000000 0.000000
-2339519223022777287407332676031695042422390829561482838016.000000 1314451496018215610303362043905934782469364128263574650880.000000 0.000000
0.000000 0.000000 0.000000
11744605024417389882643606363192537618122894500595180240896.000000 -2402317500186346460127251481408451406814629670921934209024.000000 0.000000
-2402317500186346460127251481408451406814629670921934209024.000000 318672805359817661244623853266006153759937354143547523072.000000 0.000000
0.000000 0.000000 0.000000
-48181135152399896217645110965578848211662637132414976.000000 -735268937492866586472465835239477553953192104943419392.000000 0.000000
-735268937492866586472465835239477553953192104943419392.000000 412264461593379826327797158668655821107815623516225536.000000 0.000000
0.000000 0.000000 0.000000
-20305581853134217052537143604972862978058961342760015101952.000000 4604410698716695853525505410641405748186116159747531997184.000000 0.000000
4604410698716695853525505410641405748186116159747531997184.000000 1647411767161042773351291479777704972770726188838081789952.000000 0.000000
0.000000 0.000000 0.000000
25571756850050000726749487903065035543241654570172333162496.000000 -14207330799344880088380876417809265178460260881791186894848.000000 0.000000
-14207330799344880088380876417809265178460260881791186894848.000000 4383740934358612563221350930848677688618925511042930835456.000000 0.000000
0.000000 0.000000 0.000000
1133476992005952956986586483876581503277246018614802251776.000000 1670808733971286133574654313167222369360518360382503387136.000000 0.000000
1670808733971286133574654313167222369360518360382503387136.000000 790962587076976320452725584499488371310584631268491657216.000000 0.000000
0.000000 0.000000 0.000000
-78474351541762528374944135276551688806574596882706441699328.000000 11210467719624968528743349531365179528717402782745579487232.000000 0.000000
11210467719624968528743349531365179528717402782745579487232.000000 2874399119803113608219016901567473040320044400256976158720.000000 0.000000
0.000000 0.000000 0.000000
6927414759542828506755207544289712961660662160348078407680.000000 -6583298094163336299094161996247498176304264513421272154112.000000 0.000000
-6583298094163336299094161996247498176304264513421272154112.000000 2731645891045578499632169606562373795933033465518403616768.000000 0.000000
0.000000 0.000000 0.000000
2051238342455805028014038771813863165868557574418202624.000000 -556967677666155721048563350779322607547010519004086272.000000 0.000000
-556967677666155721048563350779322607547010519004086272.000000 96346721503508072560214743608135100865556602995867648.000000 0.000000
0.000000 0.000000 0.000000
59969694213180003452842673814772196943435449496292556800.000000 -1335458184656098720459765538982296326060633664677293850624.000000 0.000000
-1335458184656098720459765538982296326060633664677293850624.000000 743898475873655068178006039286570369688317791608825184256.000000 0.000000
0.000000 0.000000 0.000000
-14202272133473934596343986803527993987712693304320858259456.000000 6702339414419341946268374988624728675801264547466521346048.000000 0.000000
6702339414419341946268374988624728675801264547466521346048.000000 3388431420216012495123952202125479985100737269726644797440.000000 0.000000
0.000000 0.000000 0.000000
1155905720192085713977648784435873288272463848116148240384.000000 636802281636730050437186473917148609421529037607870136320.000000 0.000000
636802281636730050437186473917148609421529037607870136320.000000 193088553970120653781638846637094164044014575343944859648.000000 0.000000
0.000000 0.000000 0.000000
318316092546904247998521129522725833342015914016505856000.000000 203886161083556170808724179691384165146235846994690048000.000000 0.000000
203886161083556170808724179691384165146235846994690048000.000000 74279624105686478715342676935231156769331232576093814784.000000 0.000000
0.000000 0.000000 0.000000
-3472872425742201880887903700044031286880838248863839027200.000000 1998323979803504010489892090852449865823352250117704908800.000000 0.000000
1998323979803504010489892090852449865823352250117704908800.000000 1062565108399383209761697941315835953992626447715217178624.000000 0.000000
0.000000 0.000000 0.000000
-2732194629294436437735248943089187851208715689169235476480.000000 -1054709530683913107011572984337011548474915415423159631872.000000 0.000000
-1054709530683913107011572984337011548474915415423159631872.000000 495984599787331122646403495909646103394897849014709911552.000000 0.000000
0.000000 0.000000 0.000000
933466637028331565320446099945883962269862199296.000000 -1412793330327104512031507025228489672649779183616.000000 0.000000
-1412793330327104512031507025228489672649779183616.000000 635930344503470505291659074547529368779077189632.000000 0.000000
0.000000 0.000000 0.000000
-8208849690110140113416451306076364686222150755027035095040.000000 -52847206461851102971422317889240494142393627835510902751232.000000 0.000000
-52847206461851102971422317889240494142393627835510902751232.000000 29928445305238010127549489405146807241790841185763604824064.000000 0.000000
0.000000 0.000000 0.000000
14722302335616110627230083155019024783057968214601006841856.000000 -12760704213083224737147939448173720272697748975042045149184.000000 0.000000
-12760704213083224737147939448173720272697748975042045149184.000000 5070183959064806809286269649676454593582777529793838579712.000000 0.000000
0.000000 0.000000 0.000000
-94238105364828528196283910851200071421124545609728.000000 106632572400903303501875912098281558035816157020160.000000 0.000000
106632572400903303501875912098281558035816157020160.000000 62466162091504509281030868098987609004918140043264.000000 0.000000
0.000000 0.000000 0.000000
3576656191833244902586294655708737508697666535165505044480.000000 -9932721926359018965448718714643710863754710978207818973184.000000 0.000000
-9932721926359018965448718714643710863754710978207818973184.000000 5153840010937199233783543564371072143403494124733016834048.000000 0.000000
0.000000 0.000000 0.000000
276742180179971366012925772700622921160209661091563700224.000000 -36380650573493695058288016230655076272743483872947208192.000000 0.000000
-36380650573493695058288016230655076272743483872947208192.000000 3314042523966116069945789688821075624595683693111017472.000000 0.000000
0.000000 0.000000 0.000000
-5884527511526375912375508892546180722974329509273518735360.000000 4107462903676770204519994591753425869787841503885317373952.000000 0.000000
4107462903676770204519994591753425869787841503885317373952.000000 2262765239875306104690893826319263693441336374721838579712.000000 0.000000
0.000000 0.000000 0.000000
3560305428058520900210360897972542274085476525294993014784.000000 -7481399627695967326787789072735419950790403490671226781696.000000 0.000000
-7481399627695967326787789072735419950790403490671226781696.000000 3765520250650084640974352384406785224094541148437908291584.000000 0.000000
0.000000 0.000000 0.000000
-1354867553463169510457512130782079279392888004469432778752.000000 639520704071154590879078634882944931679106387297261584384.000000 0.000000
639520704071154590879078634882944931679106387297261584384.000000 325393807326140190350833227570358160449027455010692136960.000000 0.000000
0.000000 0.000000 0.000000
-3046903347524372325687981963025690580442612675526789169152.000000 3291466346804963649993541282298630106481121668759275175936.000000 0.000000
3291466346804963649993541282298630106481121668759275175936.000000 1883356509645697598688365966871307417542892015036294758400.000000 0.000000
0.000000 0.000000 0.000000
676539782524749385470047436472949267071577408466052972544.000000 638618615347750495477288445476850327936203422172746612736.000000 0.000000
638618615347750495477288445476850327936203422172746612736.000000 263069631291261346567301112744847745569611878169923551232.000000 0.000000
0.000000 0.000000 0.000000
-1305448409875700176918383954407820385621474904747750195200.000000 -1515268774762783776287372020454132389385106982303233474560.000000 0.000000
-1515268774762783776287372020454132389385106982303233474560.000000 868621742266982502624381657593424981116142591959596269568.000000 0.000000
0.000000 0.000000 0.000000
165182048706120822791086530625591575117487942815807700992.000000 2093200998987541267607849309977360272900787651878798229504.000000 0.000000
2093200998987541267607849309977360272900787651878798229504.000000 1200287709032868278179183765160362780135466969127417020416.000000 0.000000
0.000000 0.000000 0.000000
-95087822308550260836666865746507659591198000987233302085632.000000 22388542167373690472725209194852630480353818503702672048128.000000 0.000000
22388542167373690472725209194852630480353818503702672048128.000000 8219180915042341375290858227117673821812975849765699846144.000000 0.000000
0.000000 0.000000 0.000000
154702735320670924617560660938510478925953196835263741952.000000 -378230966750925538786107642089837178023201739942299435008.000000 0.000000
-378230966750925538786107642089837178023201739942299435008.000000 196312265009402719478592170537836688803750853057710129152.000000 0.000000
0.000000 0.000000 0.000000
-4340887245746512969221695891331877157308174676035631054848.000000 33094223629869192986963133392678664599236635730655659950080.000000 0.000000
33094223629869192986963133392678664599236635730655659950080.000000 18701154111592014707888397037909970565980059269766129385472.000000 0.000000
0.000000 0.000000 0.000000
13592455009623216005214960755343256730121768400721018880.000000 7667033059863034266554585085261415575395327931318272.000000 0.000000
7667033059863034266554585085261415575395327931318272.000000 14870385738834212493635274669336416834953320333312.000000 0.000000
0.000000 0.000000 0.000000
627729685002095426525552403195864677709530384226431533056.000000 161299579121858132833629724388420314628657694095320285184.000000 0.000000
161299579121858132833629724388420314628657694095320285184.000000 26465203497318116899757786905304633798620035767748001792.000000 0.000000
0.000000 0.000000 0.000000
4059159642592686058461440421518452062501418079901397811200.000000 2053731736878749918998477361173996052421993901710903345152.000000 0.000000
2053731736878749918998477361173996052421993901710903345152.000000 593482708126429936232514348838442602817849558201419169792.000000 0.000000
0.000000 0.000000 0.000000
116017612941439928293914746383303983528195188232296595456.000000 -418609343707876730117862107338606936814222332768511066112.000000 0.000000
-418609343707876730117862107338606936814222332768511066112.000000 221463392404609415054450333093149326503430008485116379136.000000 0.000000
0.000000 0.000000 0.000000
-5953830692904706077969335473136743648670598832466476138496.000000 -8021192339216554176077238688843344117441342678800059596800.000000 0.000000
-8021192339216554176077238688843344117441342678800059596800.000000 4656058834313609017496717081263635003763355548635008860160.000000 0.000000
0.000000 0.000000 0.000000
-190935870112597078482997545155652037755716885658894073856.000000 -164958341956702054479265504515107158434352170266425032704.000000 0.000000
-164958341956702054479265504515107158434352170266425032704.000000 92985313707663435824795104924909807631927647633393319936.000000 0.000000
0.000000 0.000000 0.000000
15089904437700266001310061324032341771596601266771228360704.000000 15729191927235295147264400573301553900440596311020903858176.000000 0.000000
15729191927235295147264400573301553900440596311020903858176.000000 6736231913875772463593396578246880704944748277129329770496.000000 0.000000
0.000000 0.000000 0.000000
104816821199368569064382644594227010130860374777489522688.000000 68946905862682571120839226001461983886727003369650520064.000000 0.000000
68946905862682571120839226001461983886727003369650520064.000000 23701106958232927128245376035495025908818960831469322240.000000 0.000000
0.000000 0.000000 0.000000
-288585886677349182332636762516281786116392144802515255296.000000 -1372481970038473388430188194683250713245422904801172127744.000000 0.000000
-1372481970038473388430188194683250713245422904801172127744.000000 780981199965136116996423429980289119196949321342578065408.000000 0.000000
0.000000 0.000000 0.000000
226347167559427400099180738310966783464575493429994192896.000000 300024413657131871849571772725430440329020970017960755200.000000 0.000000
300024413657131871849571772725430440329020970017960755200.000000 138099455226092901518664006008891037236998958559556272128.000000 0.000000
0.000000 0.000000 0.000000
65269803482921981163430452577164240043219221432045142016.000000 -1428827611314941518668221786255922644920958139166961434624.000000 0.000000
-1428827611314941518668221786255922644920958139166961434624.000000 823006735230794428102171894988954180362311962380786991104.000000 0.000000
0.000000 0.000000 0.000000
2348906189159207996587931862407720341791043792831258820608.000000 -557266989964512992809231025659376622156752275406711685120.000000 0.000000
-557266989964512992809231025659376622156752275406711685120.000000 84984997998013548071486158931889262304450897022904434688.000000 0.000000
0.000000 0.000000 0.000000
-33023381187229999829476838630420999348241647521309988487168.000000 -6605471624388732643609207417685097532627646369416775467008.000000 0.000000
-6605471624388732643609207417685097532627646369416775467008.000000 2180610386374096254854564521293273988432604401455297724416.000000 0.000000
0.000000 0.000000 0.000000
-1567153089578177752504938945044476855478864256312121753600.000000 -376283653642590199227127984419349971317657450049118928896.000000 0.000000
-376283653642590199227127984419349971317657450049118928896.000000 31405817677996760806072399868773206313251636205425000448.000000 0.000000
0.000000 0.000000 0.000000
318210844435845145933897174381669444461553763091094700032.000000 101920947696027274575349335063985999491899612566401318912.000000 0.000000
101920947696027274575349335063985999491899612566401318912.000000 24268488074328745024755937324930735206922106639394799616.000000 0.000000
0.000000 0.000000 0.000000
-1394179266754271229869331089210544946960048330137099304960.000000 119343019387921373840751786045565354939585775486483038208.000000 0.000000
119343019387921373840751786045565354939585775486483038208.000000 7226557847774388840032860793241202095857247593626075136.000000 0.000000
0.000000 0.000000 0.000000
36472236225816629273484952989704704665833380846136195022848.000000 18078944950141542477208960818611775034480332712896972718080.000000 0.000000
18078944950141542477208960818611775034480332712896972718080.000000 5149945402646013719660292623890381112450523773260772933632.000000 0.000000
0.000000 0.000000 0.000000
1693491709213931757872557899535935910714597515305418752.000000 62509969361216864267159523935224457169634744030199808.000000 0.000000
62509969361216864267159523935224457169634744030199808.000000 1603202032720504964140272694301459958193666664693760.000000 0.000000
0.000000 0.000000 0.000000
10777664631784921453860485558927825969147895883988876656640.000000 -12164874978136511308520444822536075996429115154004218740736.000000 0.000000
-12164874978136511308520444822536075996429115154004218740736.000000 5365677272280019339278300292121700680428030044936507228160.000000 0.000000
0.000000 0.000000 0.000000
-2908610624926498000418122397675981584840723483890766839808.000000 4753403139084926018394802685420153380998109778779461124096.000000 0.000000
4753403139084926018394802685420153380998109778779461124096.000000 2799639948830327007243028713596456599146696846587394523136.000000 0.000000
0.000000 0.000000 0.000000
1767604501311368920779885633304658077931036668217643761664.000000 11271090178899926092117311240672001392236515109670622330880.000000 0.000000
11271090178899926092117311240672001392236515109670622330880.000000 6110719585153278959127756505988937436377089694367953715200.000000 0.000000
0.000000 0.000000 0.000000
-784686597595339886343869872859380909760663539505319378944.000000 -2416439337081332968171020967947614068340163217314679881728.000000 0.000000
-2416439337081332968171020967947614068340163217314679881728.000000 1393412311604332824498830278238395759041656835458329477120.000000 0.000000
0.000000 0.000000 0.000000
-566265007857890954761830912814394435677507556323817947136.000000 539428034207554509490407704542089346800495738318810513408.000000 0.000000
539428034207554509490407704542089346800495738318810513408.000000 306511173317092514760717057372433546983935329299098238976.000000 0.000000
0.000000 0.000000 0.000000
-345818508499456363390021135926011348999957082215643348992.000000 1309549414254988783902148611505740133588977440295210713088.000000 0.000000
1309549414254988783902148611505740133588977440295210713088.000000 753549894812102404800884635815656778751560726987726127104.000000 0.000000
0.000000 0.000000 0.000000
58992766793402821987593526788500856909315496430226089443328.000000 -10145948800670969584088496201985872557404679809782152953856.000000 0.000000
-10145948800670969584088496201985872557404679809782152953856.000000 1140694510909673751873386390893019630450863633570763636736.000000 0.000000
0.000000 0.000000 0.000000
874913596819074106467359587728798932066799900249643024384.000000 458062619599731107882998989732742174465627333722355269632.000000 0.000000
458062619599731107882998989732742174465627333722355269632.000000 135626503094712772677924398624355441433269376715719704576.000000 0.000000
0.000000 0.000000 0.000000
1456824183323008681887100010763763361084553077719040.000000 -721675104433815898604310464419483970041419428528128.000000 0.000000
-721675104433815898604310464419483970041419428528128.000000 204768092556603425965632229162286406332051525468160.000000 0.000000
0.000000 0.000000 0.000000
616714457454626560520128175830388540354879802743155851264.000000 -461373619316242849087220317711761593035892374573091389440.000000 0.000000
-461373619316242849087220317711761593035892374573091389440.000000 170576668380798700086940834023189036199030731763886325760.000000 0.000000
0.000000 0.000000 0.000000
3065110961978925420634044434002166578458170853993043984384.000000 8351873757192599975770711602497396236731247266437665914880.000000 0.000000
8351873757192599975770711602497396236731247266437665914880.000000 4409130817805003330827550535114703093545645735768378834944.000000 0.000000
0.000000 0.000000 0.000000
-718554015296572386345584815615069639265957583200134277103616.000000 36936256021719438686715154481539475308981244114135351820288.000000 0.000000
36936256021719438686715154481539475308981244114135351820288.000000 3738324620179134177628949229823176023573913601329325932544.000000 0.000000
0.000000 0.000000 0.000000
860679344354957865318702421775066617396564685560035147776.000000 -289047379836476151458636274956296046634190168921571590144.000000 0.000000
-289047379836476151458636274956296046634190168921571590144.000000 60226151608810533780144390641132971714972707865044713472.000000 0.000000
0.000000 0.000000 0.000000
9385934910687214253589772550304712597321929801261383680.000000 649505353478710349799331593428869435868956995333652480.000000 0.000000
649505353478710349799331593428869435868956995333652480.000000 29872912924044319631073117306155799575262525315350528.000000 0.000000
0.000000 0.000000 0.000000
42518133711086534968057588094249199424103016985795160440832.000000 -42548818320293314418730713640057371755428791668208706781184.000000 0.000000
-42548818320293314418730713640057371755428791668208706781184.000000 17947043678624239425819450366703143416239467786755742105600.000000 0.000000
0.000000 0.000000 0.000000
-471320246501034232150459885073196596457040563411510886400.000000 -1735913465223168353835360328584876957499380142029087440896.000000 0.000000
-1735913465223168353835360328584876957499380142029087440896.000000 993379856257270902860457812124944881101211311621105778688.000000 0.000000
0.000000 0.000000 0.000000
-220925347285109348983089335383622727998827329387109464145920.000000 -55097172289801084717842617131005371749464369550026992517120.000000 0.000000
-55097172289801084717842617131005371749464369550026992517120.000000 20950316440828609396816405593286326176293965276934228148224.000000 0.000000
0.000000 0.000000 0.000000
179056951786935034890336124158675410827666195598519828480.000000 1179295316653171842561439177075204382670030554522728792064.000000 0.000000
1179295316653171842561439177075204382670030554522728792064.000000 644020368120152514571738648526648693741075726933252112384.000000 0.000000
0.000000 0.000000 0.000000
268296878508737788127402856040891660933179946757529796608.000000 198226836333263403553572363579281869911359185002942169088.000000 0.000000
198226836333263403553572363579281869911359185002942169088.000000 72791700347456925267639637228943325508023944830387224576.000000 0.000000
0.000000 0.000000 0.000000
-21501459389689503900687593282812693573128495582531532357632.000000 -3411062925038971028865562262021484316794134280636827959296.000000 0.000000
-3411062925038971028865562262021484316794134280636827959296.000000 950201279413450901811997938228266675579385875091809107968.000000 0.000000
0.000000 0.000000 0.000000
-300842210420284142498599239596823093661320821320078852096.000000 611785625014219337248164275501955947415495931527339966464.000000 0.000000
611785625014219337248164275501955947415495931527339966464.000000 359912552448502916377652815811328910559647221082069401600.000000 0.000000
0.000000 0.000000 0.000000
975880264301718702596458897691432133279350725602403418112.000000 -2084291863834922688150452003866358845694201291689666019328.000000 0.000000
-2084291863834922688150452003866358845694201291689666019328.000000 1051303304684316891758633904218778628496880318146639036416.000000 0.000000
0.000000 0.000000 0.000000
174631056054286219328210504381120552422415703112626995200.000000 93092188109634791037465693514874717204064779906645491712.000000 0.000000
93092188109634791037465693514874717204064779906645491712.000000 28865476306782389742124494247669440131905837574962282496.000000 0.000000
0.000000 0.000000 0.000000
345190345457147191782908323120458992424842238682464256.000000 -121711154720997840519159758276486917477770274352922624.000000 0.000000
-121711154720997840519159758276486917477770274352922624.000000 26449368771672447396616871101135538889027778760409088.000000 0.000000
0.000000 0.000000 0.000000
3352879071056025938483505354744843000569217723467300864.000000 7874007400651308682845686619868553391005350056389771264.000000 0.000000
7874007400651308682845686619868553391005350056389771264.000000 4017517902296418197076738246166237820525482079888080896.000000 0.000000
0.000000 0.000000 0.000000
3265785628445788890457191995526742039380279961827640606720.000000 -2414579766070902446588384538406510055472272885829662146560.000000 0.000000
-2414579766070902446588384538406510055472272885829662146560.000000 886904260778694910100956692156867222801719569438656692224.000000 0.000000
0.000000 0.000000 0.000000
-213664961360110059042783757752956102934634510570777214976.000000 12400354940560444070189484413315695755972658426724483072.000000 0.000000
12400354940560444070189484413315695755972658426724483072.000000 2886823433121139504611881487630861988514145365674426368.000000 0.000000
0.000000 0.000000 0.000000
15700768718896599389818439515678852942039104192304381952.000000 -3015154641487317552577793683984494681498956022594289008640.000000 0.000000
-3015154641487317552577793683984494681498956022594289008640.000000 1678022654775462940242631602720450949569814348393695150080.000000 0.000000
0.000000 0.000000 0.000000
1258316090842301023585797744241376194672559165567613796352.000000 2359927976863691395980808471585387769201207861417101754368.000000 0.000000
2359927976863691395980808471585387769201207861417101754368.000000 1168425084894312687333712995821516075272442499840276955136.000000 0.000000
0.000000 0.000000 0.000000
-16058251591015471921654824589322789498470100148730298630144.000000 5693903809595976425232183556033677919959094185815621763072.000000 0.000000
5693903809595976425232183556033677919959094185815621763072.000000 2603106666858602820449145865139171835002640733987800088576.000000 0.000000
0.000000 0.000000 0.000000
526911364408336958863529868518862126733089752007114227712.000000 877287809093094854679213342627437666426334705369984532480.000000 0.000000
877287809093094854679213342627437666426334705369984532480.000000 437694590770025539046036033221292332804518673236069711872.000000 0.000000
0.000000 0.000000 0.000000
7381426691000944711476423605230516780148383426302107975680.000000 8329186650404502043444457252839232158811841961019322662912.000000 0.000000
8329186650404502043444457252839232158811841961019322662912.000000 3665053592978043243898382658190663794786303765852341665792.000000 0.000000
0.000000 0.000000 0.000000
659681376127602121754687536724075650162734959882582097920.000000 4043769290526808833485422186688601376381119063863276339200.000000 0.000000
4043769290526808833485422186688601376381119063863276339200.000000 2195528785644768675730799407810300619143807642158957068288.000000 0.000000
0.000000 0.000000 0.000000
-416243722897298773397890744288533000683254956462209761280.000000 86842863571508121097235061941364325694946209417173925888.000000 0.000000
86842863571508121097235061941364325694946209417173925888.000000 29505861635467539393363352213734949943714165106728239104.000000 0.000000
0.000000 0.000000 0.000000
2738163005540512192646358949550331125702359342288933486592.000000 -1269264430306465191474496379064439779258782936731008106496.000000 0.000000
-1269264430306465191474496379064439779258782936731008106496.000000 343688227661010297291889202181316846128102368532590755840.000000 0.000000
0.000000 0.000000 0.000000
-176306575709389672351402274445974795023052479342574189936640.000000 38231941267137123176337440976868048712565614087996887269376.000000 0.000000
38231941267137123176337440976868048712565614087996887269376.000000 13328156258789349652035492041947987463406781772355369697280.000000 0.000000
0.000000 0.000000 0.000000
1719529900604544757832446967227260153275562389907502530560.000000 -335012897756752121153296203748004244370971452276163477504.000000 0.000000
-335012897756752121153296203748004244370971452276163477504.000000 43234227432086951728790217395485410483370984622295875584.000000 0.000000
0.000000 0.000000 0.000000
5356550654066993794873574619352720989551780245805455114240.000000 818699178651680444581003948263221347531299551556476600320.000000 0.000000
818699178651680444581003948263221347531299551556476600320.000000 82146802598749933594724795312360128900479315284909359104.000000 0.000000
0.000000 0.000000 0.000000
10811327589616223595545847039523312638998541330396632580096.000000 327628014663748633995051923520682444918980495604598177792.000000 0.000000
327628014663748633995051923520682444918980495604598177792.000000 20312243226166076711726472736012333758635097412062937088.000000 0.000000
0.000000 0.000000 0.000000
4731458713219778999745547950403784301136050246111725617152.000000 2923346938735545429392419985727483747807872142857453174784.000000 0.000000
2923346938735545429392419985727483747807872142857453174784.000000 968134132352345888968768370870092066956303633042450153472.000000 0.000000
0.000000 0.000000 0.000000
-32003923611882574618893975970695058056900207659753196748800.000000 7028968394235208218153765656289546332533584299232895959040.000000 0.000000
7028968394235208218153765656289546332533584299232895959040.000000 2470444129721587770962269190069891390909590016279363715072.000000 0.000000
0.000000 0.000000 0.000000
8883941204108126271073231658803168363032012868463011823616.000000 -12051264165711646285755465841055120890562412385936345137152.000000 0.000000
-12051264165711646285755465841055120890562412385936345137152.000000 5590933263949095934291631090637555141770105894776957042688.000000 0.000000
0.000000 0.000000 0.000000
1241565159002086603838943220666020646435689144620861620224.000000 -1076026466574081930970057988777589879173689008617496248320.000000 0.000000
-1076026466574081930970057988777589879173689008617496248320.000000 427584846365626381306566049411508936670166520433578344448.000000 0.000000
0.000000 0.000000 0.000000
-147991318654954732115054472663781195117994924714791662518272.000000 11796187934080988036525795091795997659746821719340234047488.000000 0.000000
11796187934080988036525795091795997659746821719340234047488.000000 1814452909907151396504650190620092328500716140444298248192.000000 0.000000
0.000000 0.000000 0.000000
115944411160548988673479892076359584353459315019664588800.000000 -480564383406367869271549727277180905360259637312596475904.000000 0.000000
-480564383406367869271549727277180905360259637312596475904.000000 256221049335663957085495295184984780827212016080962715648.000000 0.000000
0.000000 0.000000 0.000000
557876669167338053438104839488084800117025217101468532736.000000 -232669939308205384931895774794013352686502274671677800448.000000 0.000000
-232669939308205384931895774794013352686502274671677800448.000000 59091468484231253036552961373480900931896231776669925376.000000 0.000000
0.000000 0.000000 0.000000
-11251764575185747726324334938729795614054302035331340304384.000000 -3179639016648000283421482935928807480326642350241326563328.000000 0.000000
-3179639016648000283421482935928807480326642350241326563328.000000 1293714645083708110099771390988208070704001092412537569280.000000 0.000000
0.000000 0.000000 0.000000
-4440313191443683901676827122421061332571934578507855691776.000000 56856248936192301349477608919900296969126236962066268160.000000 0.000000
56856248936192301349477608919900296969126236962066268160.000000 48862411602482915660165993018676326508717393870543912960.000000 0.000000
0.000000 0.000000 0.000000
415261077816438027427277376739201499358620151624266416128.000000 -711457859368753001828461597763758411884428382143204294656.000000 0.000000
-711457859368753001828461597763758411884428382143204294656.000000 347852972162830976414907851004066949173397611844674256896.000000 0.000000
0.000000 0.000000 0.000000
2670249862795050195067630497378163378242238694846380376064.000000 2752133929600757446628634974695339675421584926485797404672.000000 0.000000
2752133929600757446628634974695339675421584926485797404672.000000 1173519482192250317013750336240272169915828235292198830080.000000 0.000000
0.000000 0.000000 0.000000
2257813399487148166962513704073191064846947055346462490624.000000 -269884867235717688547178800811865433834301630120711946240.000000 0.000000
-269884867235717688547178800811865433834301630120711946240.000000 22226639085354048308257459529780728799654219772684402688.000000 0.000000
0.000000 0.000000 0.000000
-8090090229299918922882738925162082129563186256359454670848.000000 794324922249151538981267560781476817758054991806655889408.000000 0.000000
794324922249151538981267560781476817758054991806655889408.000000 147690881390641138506181209691428502590485866844017131520.000000 0.000000
0.000000 0.000000 0.000000
5977119539417058082075430640085754495046209337003343872.000000 -26957071365110660859448425196489817437058487667895828480.000000 0.000000
-26957071365110660859448425196489817437058487667895828480.000000 14431125721602913355729532492449385970663153841188372480.000000 0.000000
0.000000 0.000000 0.000000
-2326710326911541660339570405745640368707606910677937029120.000000 -797325695390772336845074492395411007678455445646997454848.000000 0.000000
-797325695390772336845074492395411007678455445646997454848.000000 357147574798729871854913196323018829646033284916955840512.000000 0.000000
0.000000 0.000000 0.000000
26657221062920945725004140919300964031426422777337457147904.000000 13854510963184733573544854276813310205088007594552055562240.000000 0.000000
13854510963184733573544854276813310205088007594552055562240.000000 4100049243914702398928822530493050606604623515397556011008.000000 0.000000
0.000000 0.000000 0.000000
3696154869156248147322015838257023084608896966070487744512.000000 -7579849991730684487869233232310462093508000506670705803264.000000 0.000000
-7579849991730684487869233232310462093508000506670705803264.000000 3815965784768199677309374591185533894054920435412909424640.000000 0.000000
0.000000 0.000000 0.000000
12805830764398182795241540516986188114836853088306218401792.000000 1867181668904738554763292574751447429371245770682203635712.000000 0.000000
1867181668904738554763292574751447429371245770682203635712.000000 178989898352863745650369319044673212369888636926114660352.000000 0.000000
0.000000 0.000000 0.000000
13095741075451519869970577029969473803597173174822764544.000000 7232959797850788744826564701561702767765969032710193152.000000 0.000000
7232959797850788744826564701561702767765969032710193152.000000 2222789095831346100173736531496677371744945685831614464.000000 0.000000
0.000000 0.000000 0.000000
126872509693149917542930243448239860943917466606238695424.000000 13099605960374182368015214940346278067108697601227096064.000000 0.000000
13099605960374182368015214940346278067108697601227096064.000000 1114301846113785839833370948662485307304228938336698368.000000 0.000000
0.000000 0.000000 0.000000
773330678245063817235781401500085406404543206233296863232.000000 2965928072349404487884854283021044904341580907247904489472.000000 0.000000
2965928072349404487884854283021044904341580907247904489472.000000 1575317798353893492837953927238215866879143504750806302720.000000 0.000000
0.000000 0.000000 0.000000
-1441224826423668420573358622220267412512386568622266384384.000000 1233096622550132408852995241376280575187413591557729681408.000000 0.000000
1233096622550132408852995241376280575187413591557729681408.000000 703085187700342353084176128392975058781785114019301949440.000000 0.000000
0.000000 0.000000 0.000000
338618209509394960128633619920787611803090354211198599168.000000 -221309567354249791647773287075155904808507542011975303168.000000 0.000000
-221309567354249791647773287075155904808507542011975303168.000000 76397579392408060512220305169427859674685942218880974848.000000 0.000000
0.000000 0.000000 0.000000
5823767960268045828517182355228614283846829275988623360.000000 10438447600393158619274071199679380561738877988306419712.000000 0.000000
10438447600393158619274071199679380561738877988306419712.000000 5130093402413034040089541507867172421178435555184082944.000000 0.000000
0.000000 0.000000 0.000000
3090941635613888578855564085932376097605742366558794022912.000000 -2630841297390440881410937171734106494674343378534023561216.000000 0.000000
-2630841297390440881410937171734106494674343378534023561216.000000 1036659178284301403980107295823076417870037736261729386496.000000 0.000000
0.000000 0.000000 0.000000
-345022934794606004151090601740607919567148968855222616064.000000 306667129979423910215557308290342785693613762170943700992.000000 0.000000
306667129979423910215557308290342785693613762170943700992.000000 172261649246830194396289032108051199047368272457255354368.000000 0.000000
0.000000 0.000000 0.000000
-327687199642215401110306351358087521100244739433382939721728.000000 -48968846859070276486954114982959808799994377554750055907328.000000 0.000000
-48968846859070276486954114982959808799994377554750055907328.000000 13017769646410301674135832679788334671864959815680182452224.000000 0.000000
0.000000 0.000000 0.000000
-499178938370900710783095245820566857615910236972833046528.000000 -3838558257921856208922333163445412327235260515256408997888.000000 0.000000
-3838558257921856208922333163445412327235260515256408997888.000000 2201998365205973716609993114626678878817140881056413515776.000000 0.000000
0.000000 0.000000 0.000000
-2461005064033688645770264464169442082317432989026405027151872.000000 -32646056054638701916196754768987553077628851798453340078080.000000 0.000000
-32646056054638701916196754768987553077628851798453340078080.000000 866588865773112731617955634804635598136095668650851172352.000000 0.000000
0.000000 0.000000 0.000000
170918343364140940166114544928122213046419117829307498496.000000 16107523637045321510006818032044357224751160286116839424.000000 0.000000
16107523637045321510006818032044357224751160286116839424.000000 1005943764858268190262255162760025898632246714792148992.000000 0.000000
0.000000 0.000000 0.000000
218814025246502583760989739182633338734141099147536629760.000000 33000155974293555031820050619882812152682758806205104128.000000 0.000000
33000155974293555031820050619882812152682758806205104128.000000 4925011489116227377781289361818580040222898965507473408.000000 0.000000
0.000000 0.000000 0.000000
2511551280862339963202730979177293026614143531860598194176.000000 897144915707432644806938468145188690479457709395290357760.000000 0.000000
897144915707432644806938468145188690479457709395290357760.000000 196962239243054485058891727389331189706338794173829742592.000000 0.000000
0.000000 0.000000 0.000000
-78878185250694400894662021155046207157613612005047054368768.000000 4271864677192571508839365514782518181442149552288648134656.000000 0.000000
4271864677192571508839365514782518181442149552288648134656.000000 454621640491380546551911407852887305408046041432095457280.000000 0.000000
0.000000 0.000000 0.000000
860745336079418458284841935329931534089919870308498538496.000000 2845320588178897634492445310558422761964059870634197385216.000000 0.000000
2845320588178897634492445310558422761964059870634197385216.000000 1510200338827892025216174895074413715379113962906392199168.000000 0.000000
0.000000 0.000000 0.000000
-4896294145005183223230100893328852320972430632232320761856.000000 -1427897213667502740219760854275032931376125340574671699968.000000 0.000000
-1427897213667502740219760854275032931376125340574671699968.000000 592123954912313763402232432850140446042331881684949008384.000000 0.000000
0.000000 0.000000 0.000000
-5721858081867264802175009974488986735214429950647698718720.000000 2209463588034211551801746258471969892427268819144046280704.000000 0.000000
2209463588034211551801746258471969892427268819144046280704.000000 1029984922189995317873723291660639046231241615026803441664.000000 0.000000
0.000000 0.000000 0.000000
3096051326345920230000009607452164986278777311016343568384.000000 1532005022878106634491245738249621565280534903133516595200.000000 0.000000
1532005022878106634491245738249621565280534903133516595200.000000 435536668238239232749499727846752479867672120991944802304.000000 0.000000
0.000000 0.000000 0.000000
-22024381616023659877912173958817944560489511951849641476096.000000 9126579852666240161403922282962639922199677214439749189632.000000 0.000000
9126579852666240161403922282962639922199677214439749189632.000000 4399198428250834235463266066666676020002836597481498738688.000000 0.000000
0.000000 0.000000 0.000000
1084577030830313464729464674893361593126704698172591046656.000000 -587008839163202541032093694222216792801418584334276755456.000000 0.000000
-587008839163202541032093694222216792801418584334276755456.000000 207209654643840717274271612082827693625898411364492247040.000000 0.000000
0.000000 0.000000 0.000000
461415983380438798441825795167992121133795371704236638208.000000 -374129882497875359472536682988090534895944316192567590912.000000 0.000000
-374129882497875359472536682988090534895944316192567590912.000000 145501891055771833015625114121649744282506806318260551680.000000 0.000000
0.000000 0.000000 0.000000
-145004080105859434819447493563061475399914971267772448768.000000 69737422664846815898996559082039227829470754833755537408.000000 0.000000
69737422664846815898996559082039227829470754833755537408.000000 58124107188586751732995802776287937322701020895721291776.000000 0.000000
0.000000 0.000000 0.000000
-444385853783517046182138125307101890132838042839503863808.000000 -973707388054682887064295379853188642111142831628952272896.000000 0.000000
-973707388054682887064295379853188642111142831628952272896.000000 561024894436953541499381932506372227241423872003904897024.000000 0.000000
0.000000 0.000000 0.000000
444696746818112488807053910983669333943540471304625848320.000000 -457824208001341427897817175116449540303017041326526955520.000000 0.000000
-457824208001341427897817175116449540303017041326526955520.000000 199128599024544489680279220643860768190216915593751166976.000000 0.000000
0.000000 0.000000 0.000000
2873688976941072250388866356308073419397087794538911629312.000000 -3279126971117852959315737740278300696765116719171893198848.000000 0.000000
-3279126971117852959315737740278300696765116719171893198848.000000 1450033794059138049121766724363017644836980656549673304064.000000 0.000000
0.000000 0.000000 0.000000
1779723722745107412512091642919280864265260823575344971776.000000 -3388811722533163540686489470511434640564534793715989872640.000000 0.000000
-3388811722533163540686489470511434640564534793715989872640.000000 1681766281826975264262774772438932948971557524411602960384.000000 0.000000
0.000000 0.000000 0.000000
-426993973975272749904927596693315613941968575166697963520.000000 4537359142442809126901834117007282168504457827929064210432.000000 0.000000
4537359142442809126901834117007282168504457827929064210432.000000 2553273538895621842622214402956934211705335501307005370368.000000 0.000000
0.000000 0.000000 0.000000
153751700728082314953151598041309734300977857158191251456.000000 -2577978813780942260436955290733544378557583465385126002688.000000 0.000000
-2577978813780942260436955290733544378557583465385126002688.000000 1420978877902987244483940797533232482996370970968605065216.000000 0.000000
0.000000 0.000000 0.000000
171369491969199473146577485638114395508520770076890103808.000000 17032848471022641220822276145457371870658856052095713280.000000 0.000000
17032848471022641220822276145457371870658856052095713280.000000 1157061523277748432782709673781729160324231544029839360.000000 0.000000
0.000000 0.000000 0.000000
1651302127129669254283587580507958539767168038270981373952.000000 3632039687167864954855110010659564707337884142418566053888.000000 0.000000
3632039687167864954855110010659564707337884142418566053888.000000 1865234694055856211004315995969125716465356177084233285632.000000 0.000000
0.000000 0.000000 0.000000
-14980020343822690135905003918325593125857108819778014806016.000000 -3172792409916971659070289333985694498262285500070783614976.000000 0.000000
-3172792409916971659070289333985694498262285500070783614976.000000 1119841062255772058110392827568425218940988979123987677184.000000 0.000000
0.000000 0.000000 0.000000
71664490215846205752126262013236113786045108285243129856.000000 14582847754929218384173236235861355469781829347302178816.000000 0.000000
14582847754929218384173236235861355469781829347302178816.000000 1925038421625235164709822240776417340590462006462513152.000000 0.000000
0.000000 0.000000 0.000000
-2098998600417719049038940943217938252264598174087937785856.000000 1509496988051697025858658002341533195638652957085585637376.000000 0.000000
1509496988051697025858658002341533195638652957085585637376.000000 843409661078524645903217895644659960267715588902449315840.000000 0.000000
0.000000 0.000000 0.000000
688275901272568076186537056424370343833139882223351103488.000000 1258402163651498735683878815216863226139479229918273863680.000000 0.000000
1258402163651498735683878815216863226139479229918273863680.000000 623010138681870998719838462827181663969106803639097229312.000000 0.000000
0.000000 0.000000 0.000000
-1121563917601480693435766046238672424999349125845178384384.000000 -919121171446535275996794593864503271969775901905805901824.000000 0.000000
-919121171446535275996794593864503271969775901905805901824.000000 514113069514038942726643561989611193847278229375328190464.000000 0.000000
0.000000 0.000000 0.000000
1702065788148888355494186026162992198875326596870140067840.000000 583402915539659594654111295454536380604980380334565621760.000000 0.000000
583402915539659594654111295454536380604980380334565621760.000000 123657338572928285382928876307597306429516690229515255808.000000 0.000000
0.000000 0.000000 0.000000
1357227018411600096319039606507960237097390544373055225856.000000 608411388128211728313498946392237524482909608194286288896.000000 0.000000
608411388128211728313498946392237524482909608194286288896.000000 160592896811349542499727819732006442763081735700784087040.000000 0.000000
0.000000 0.000000 0.000000
1280293717787306951269180075600044054703976790024838447104.000000 -805880383256581288315894890687103506829361345786441367552.000000 0.000000
-805880383256581288315894890687103506829361345786441367552.000000 275161854781296952846971962085809121415362844335164882944.000000 0.000000
0.000000 0.000000 0.000000
101860321674866484836001260513669848734286127246501478400.000000 -118723485828895862153991309611943181438350176870601850880.000000 0.000000
-118723485828895862153991309611943181438350176870601850880.000000 52781714841726241930878232874325070867105105210293354496.000000 0.000000
0.000000 0.000000 0.000000
-16872009784711742011610045265487248894181745139080132296704.000000 -1691955894959407310754675768051306665649454592131904569344.000000 0.000000
-1691955894959407310754675768051306665649454592131904569344.000000 320746393525814339624600012696373433507202136178761400320.000000 0.000000
0.000000 0.000000 0.000000
-2027835040322112804133722540050086589077876915881165979648.000000 403450703253961481170084559372404701803355721949138386944.000000 0.000000
403450703253961481170084559372404701803355721949138386944.000000 133893340732054225284732508364597812971255604037715755008.000000 0.000000
0.000000 0.000000 0.000000
4999819914806657613931681502878277774178905454629233885184.000000 16587786797505773963066915776675207435075619615448829526016.000000 0.000000
16587786797505773963066915776675207435075619615448829526016.000000 8739254290759561144761123173688788941003699083526270877696.000000 0.000000
0.000000 0.000000 0.000000
-1031252143970599149398378063826331594457030462631268092739584.000000 -29810021588873627649840144866064948840989955256188108013568.000000 0.000000
-29810021588873627649840144866064948840989955256188108013568.000000 1725202657983471030401576247731726396688439748253722869760.000000 0.000000
0.000000 0.000000 0.000000
374109997088415794076743367579395852087839054268102344704.000000 -549224869831293570804463586338261593205979303732238614528.000000 0.000000
-549224869831293570804463586338261593205979303732238614528.000000 260374258048304976889298156009410005941112157991503659008.000000 0.000000
0.000000 0.000000 0.000000
5485406776133198360892684217766211825770747198234775519232.000000 12725237667440866258634209803714077309785054529578063626240.000000 0.000000
12725237667440866258634209803714077309785054529578063626240.000000 6481206831335881458580270243720882817143021013875097075712.000000 0.000000
0.000000 0.000000 0.000000
-9132898325878370085131952508711940731327160646448351019008.000000 4212251915473789529901628662962639885024969472385419837440.000000 0.000000
4212251915473789529901628662962639885024969472385419837440.000000 2302900861472804445823555917419714166518382190262986211328.000000 0.000000
0.000000 0.000000 0.000000
-22335214988862067053629512799597475917918520533126070927360.000000 -16558772644814998417367289262245775988976124380357507153920.000000 0.000000
-16558772644814998417367289262245775988976124380357507153920.000000 9146547387187796848254853922030823675673203869292821479424.000000 0.000000
0.000000 0.000000 0.000000
2535882707759150063575989714171605230573578482132967227392.000000 -809660485633185047778350661927631269970980437222739673088.000000 0.000000
-809660485633185047778350661927631269970980437222739673088.000000 161392877982240567094245102973875473071044755181289865216.000000 0.000000
0.000000 0.000000 0.000000
2045160219901781627261901149391377027667354201875678232576.000000 -9347698548539644812481114735744764878321834956868384980992.000000 0.000000
-9347698548539644812481114735744764878321834956868384980992.000000 5007173322397299060738476493911816697033277837896440610816.000000 0.000000
0.000000 0.000000 0.000000
-4233568965082797679706655593914810337986424771489229176832.000000 -2380438419979133144589186619632249181359090253612800016384.000000 0.000000
-2380438419979133144589186619632249181359090253612800016384.000000 1249840147954560323475112938924543391416786252091740913664.000000 0.000000
0.000000 0.000000 0.000000
5089834296408214802591506751452283504867602210083888431104.000000 -555667326440154663850043001146833662225007196573085466624.000000 0.000000
-555667326440154663850043001146833662225007196573085466624.000000 40173134958827137337933016815494093063399571109701484544.000000 0.000000
0.000000 0.000000 0.000000
78113139948433189502093065222358140477504223863868751872.000000 44873875726940158373024592972142350015929527055570436096.000000 0.000000
44873875726940158373024592972142350015929527055570436096.000000 14345146435335318869241282575495789274873469439454478336.000000 0.000000
0.000000 0.000000 0.000000
5277609161658313452231405979503687119924567660405916172288.000000 5798765142202753558723716216619109029812232062367183142912.000000 0.000000
5798765142202753558723716216619109029812232062367183142912.000000 2552859929969557639466399114702878829756343186350520926208.000000 0.000000
0.000000 0.000000 0.000000
-37616688810977899350333353835859732165531833379595929780224.000000 8283079962887984676583995796538257546780028840593607098368.000000 0.000000
8283079962887984676583995796538257546780028840593607098368.000000 2916031905423965068085270963334769198943632220140089638912.000000 0.000000
0.000000 0.000000 0.000000
1036154957403435191506685606510344042599958740195333898240.000000 311286852266624280743029750448875909094253450402079965184.000000 0.000000
311286852266624280743029750448875909094253450402079965184.000000 66683970840778043548977270396280104054738888992793559040.000000 0.000000
0.000000 0.000000 0.000000
-8151279489130704991756052871666516136605452735025153835008.000000 -7443849003954016181228850980018739963366666294018357329920.000000 0.000000
-7443849003954016181228850980018739963366666294018357329920.000000 4195637244408983259472170471576023746359803049698993897472.000000 0.000000
0.000000 0.000000 0.000000
17858787493683698064627527742925869410314082436214301917184.000000 -240191394330959987447033496495045188653861898706669797376.000000 0.000000
-240191394330959987447033496495045188653861898706669797376.000000 2153141192550686861636265785867309489883250127204777984.000000 0.000000
0.000000 0.000000 0.000000
-4745744659105528297612127220037862041758625585175463985152.000000 -5018160823456954941462064585877256257707016221920487014400.000000 0.000000
-5018160823456954941462064585877256257707016221920487014400.000000 2863776621295493650561400289379288004698468164832455557120.000000 0.000000
0.000000 0.000000 0.000000
-7981079304396037139512687025023944280580240018562854420480.000000 16091323122978583490159891900804574983801075639497068118016.000000 0.000000
16091323122978583490159891900804574983801075639497068118016.000000 9228036073244477848393055396286103429434762997436235382784.000000 0.000000
0.000000 0.000000 0.000000
1616476559927808282742564030226323934465728907284731396096.000000 -1921602165538108203065664640959549832919541041201546264576.000000 0.000000
-1921602165538108203065664640959549832919541041201546264576.000000 859524255152403745532290706828085327949348038619424620544.000000 0.000000
0.000000 0.000000 0.000000
13219735652364033486347356164818925067254101977580049530880.000000 23485136468325491787140395115710962511681887969254796427264.000000 0.000000
23485136468325491787140395115710962511681887969254796427264.000000 11525187562951739765987082843863058340666966941198098366464.000000 0.000000
0.000000 0.000000 0.000000
6823025524129171610698716680892159246157789971672784175104.000000 -4998699852311481239326331699251047127154031277811930497024.000000 0.000000
-4998699852311481239326331699251047127154031277811930497024.000000 1827127469537230064213415835566848916552101579736725061632.000000 0.000000
0.000000 0.000000 0.000000
204131922043621633167255947010352854584277068710875758592.000000 444912409296777331252154838856678360101980100044664078336.000000 0.000000
444912409296777331252154838856678360101980100044664078336.000000 240786607633478672914779103636602072761120038503638368256.000000 0.000000
0.000000 0.000000 0.000000
230004509691209430061866554846285925637345517808094543872.000000 -175974301789996722582771428627537364638856789111666114560.000000 0.000000
-175974301789996722582771428627537364638856789111666114560.000000 65813558300180283090930721016747796630546320099014344704.000000 0.000000
0.000000 0.000000 0.000000
-458427771871337992068662027561701646330454799477050957627392.000000 -28964476874026585869033380402579377172462558605658510327808.000000 0.000000
-28964476874026585869033380402579377172462558605658510327808.000000 3584919312730963182652014109291247176749209046619141439488.000000 0.000000
0.000000 0.000000 0.000000
36347613485439307799358324917242615284977580900352.000000 -52490844369514846227938570257989258325483258380288.000000 0.000000
-52490844369514846227938570257989258325483258380288.000000 25349289710046751407052697273527262127058627592192.000000 0.000000
0.000000 0.000000 0.000000
8921581247352914190164810334713109263154059268428622987264.000000 1611434129356551387861311903986201101386386287185568464896.000000 0.000000
1611434129356551387861311903986201101386386287185568464896.000000 190113569737366179011937027760127088042900635605125824512.000000 0.000000
0.000000 0.000000 0.000000
752405682457359130982315356063415191378255439046660587520.000000 441282627616796962934860613672275373336335912754015633408.000000 0.000000
441282627616796962934860613672275373336335912754015633408.000000 141174597958926646696231188284157178397738825593602965504.000000 0.000000
0.000000 0.000000 0.000000
868049319470434964743725378818990591782095614850967273472.000000 -378720650915940101406726298182609826693903668506909474816.000000 0.000000
-378720650915940101406726298182609826693903668506909474816.000000 97870417287975655913965173615480180763050575323379793920.000000 0.000000
0.000000 0.000000 0.000000
-41773888770685857476549793047860322596733857856717859061760.000000 -13117471746467423382466272350296542290558500050983427506176.000000 0.000000
-13117471746467423382466272350296542290558500050983427506176.000000 5651439477469108523095656030423880274499893492870589448192.000000 0.000000
0.000000 0.000000 0.000000
-3892655024923010035542985010087616564673642947428980097024.000000 2972270442065538229073405298177257719044168506923382996992.000000 0.000000
2972270442065538229073405298177257719044168506923382996992.000000 1653742705559114640597225838657771208990754933028723621888.000000 0.000000
0.000000 0.000000 0.000000
308503234920567055517428235510814859448699661219981688832.000000 694835632969686890045431945795636472854783056789974810624.000000 0.000000
694835632969686890045431945795636472854783056789974810624.000000 352801231661783216915105859845824179589883434599626833920.000000 0.000000
0.000000 0.000000 0.000000
-9785647756069573001692175020826393441658510062531551166464.000000 5261539228361988513028983490661916716143441434879962644480.000000 0.000000
5261539228361988513028983490661916716143441434879962644480.000000 2804345859344687897680675060639781750219747331857098735616.000000 0.000000
0.000000 0.000000 0.000000
33704259743757725404443205780940450515885044001465713033216.000000 40729193652370967027800512066160588140352919527075272982528.000000 0.000000
40729193652370967027800512066160588140352919527075272982528.000000 18307148980143652607011917400087878941081045367076801216512.000000 0.000000
0.000000 0.000000 0.000000
2394578637297774315037107685491890648996652418792033353728.000000 5274040682757050397094610649652547632715622890722050441216.000000 0.000000
5274040682757050397094610649652547632715622890722050441216.000000 2670553029964262829925407743365091797195762572597202518016.000000 0.000000
0.000000 0.000000 0.000000
-483555750702483156291566610434230756682826396058272137216.000000 -270348217345949953800125419596450702125402433783773265920.000000 0.000000
-270348217345949953800125419596450702125402433783773265920.000000 75745572368109932691519354099279948705711716732512501760.000000 0.000000
0.000000 0.000000 0.000000
-1513161401878674416167721232475900955540994900333114163200.000000 -24219957276365770442119031077808536393826916239199436800.000000 0.000000
-24219957276365770442119031077808536393826916239199436800.000000 4281229759731250303184356016433990899752189422636892160.000000 0.000000
0.000000 0.000000 0.000000
1792410747804725684076042231350542673517691820261957959680.000000 -404435158053201557072129528928191178868922473786764165120.000000 0.000000
-404435158053201557072129528928191178868922473786764165120.000000 58847077082077892790326062800290615555159574104227446784.000000 0.000000
0.000000 0.000000 0.000000
-9032525406516900954913920748097830596999542245378897215488.000000 3103576804645920140337664798937298810275105281754718535680.000000 0.000000
3103576804645920140337664798937298810275105281754718535680.000000 1391364038884458420908941368353783827630468446527602819072.000000 0.000000
0.000000 0.000000 0.000000
-403278314082374189629555512068078572220026736738530492416.000000 1185495243333491814614431867950247708607830522646597992448.000000 0.000000
1185495243333491814614431867950247708607830522646597992448.000000 680410821649829320124423735533721646748220079200480002048.000000 0.000000
0.000000 0.000000 0.000000
3752430286905480824943208876772952590441726044362399285248.000000 -1750283429695167197321695069419767199030630849898805723136.000000 0.000000
-1750283429695167197321695069419767199030630849898805723136.000000 479201766878467779704163867032290880845186728758687563776.000000 0.000000
0.000000 0.000000 0.000000
-446060748665329252307607847483902955959019635884819480576.000000 813351979676520539575843540841513978891470527244183535616.000000 0.000000
813351979676520539575843540841513978891470527244183535616.000000 470626745220677616093221983349172304499369430659121545216.000000 0.000000
0.000000 0.000000 0.000000
102995932567700051708449209214215739893843829110949806080.000000 -416763366674958392615147561818547954873069540923469201408.000000 0.000000
-416763366674958392615147561818547954873069540923469201408.000000 221311217640129875197759069741403158129240071079741882368.000000 0.000000
0.000000 0.000000 0.000000
-325074987883692086418745042949879120191798902784.000000 513144517772159931908457421419782643878056689664.000000 0.000000
513144517772159931908457421419782643878056689664.000000 435743370416513307891782011029231841181217849344.000000 0.000000
0.000000 0.000000 0.000000
26397729242953392166264697929904801353648822403928686592.000000 -35818677769199811397161971753708079071681600084775010304.000000 0.000000
-35818677769199811397161971753708079071681600084775010304.000000 16618027872506325252317690161476319032125228683137908736.000000 0.000000
0.000000 0.000000 0.000000
2392884375148471680788458016144281371275333469100597837824.000000 1304135693425007752525965086946846673786672403771574714368.000000 0.000000
1304135693425007752525965086946846673786672403771574714368.000000 396252475676871427624661067121277070843764187808393068544.000000 0.000000
0.000000 0.000000 0.000000
42774775940724383400890594390262042552017680567351491166208.000000 8748840535379561428727304090457986993020843541814518480896.000000 0.000000
8748840535379561428727304090457986993020843541814518480896.000000 1166241642115595107041901310424562827519080224879208824832.000000 0.000000
0.000000 0.000000 0.000000
216171711914793041511640781453950766835493826155511808.000000 -4189677216822045943637251833038531484469900995343679488.000000 0.000000
-4189677216822045943637251833038531484469900995343679488.000000 2312400228575915297779163174577102555420182814205673472.000000 0.000000
0.000000 0.000000 0.000000
-4921708059582605714043775084053885778930294692303555526656.000000 1447020652775436612392047499591017146607596031892204290048.000000 0.000000
1447020652775436612392047499591017146607596031892204290048.000000 602573121616193094468959523506713385073848310272385613824.000000 0.000000
0.000000 0.000000 0.000000
576870357712544104644585057178410828794566926471916421120.000000 854848023591629330918382906039156480050352621625070845952.000000 0.000000
854848023591629330918382906039156480050352621625070845952.000000 405563825862494822122507446869341246415981643771800453120.000000 0.000000
0.000000 0.000000 0.000000
81252815935820515061337134560905263703719113583287599104.000000 -1658422407525463428179279856432137700189197825240249401344.000000 0.000000
-1658422407525463428179279856432137700189197825240249401344.000000 915696134808538195740101091875410796575790513140115963904.000000 0.000000
0.000000 0.000000 0.000000
-27232989030226260712010490685757918293268091849534961876992.000000 -7741929462085533816604006168690537196640700475807142772736.000000 0.000000
-7741929462085533816604006168690537196640700475807142772736.000000 3169555378555469854873158114172755572982116152357991481344.000000 0.000000
0.000000 0.000000 0.000000
1603653318948829341728247096141617514595432198668365594624.000000 1900552267546780611029416128633480413038367579130143178752.000000 0.000000
1900552267546780611029416128633480413038367579130143178752.000000 861635341081451343602239393205046395840043741498650394624.000000 0.000000
0.000000 0.000000 0.000000
16714276461366342743104258995975554089564197796266591125504.000000 16084595577616754127824228865343975969398252339760308682752.000000 0.000000
16084595577616754127824228865343975969398252339760308682752.000000 6681803934489118989277356732327804521305488182761190588416.000000 0.000000
0.000000 0.000000 0.000000
-756354622031750782901573296735529493893130358990147944448.000000 169580679412007629408559063167995697566419584911117647872.000000 0.000000
169580679412007629408559063167995697566419584911117647872.000000 64262953812265793923213618972934618332220378537403613184.000000 0.000000
0.000000 0.000000 0.000000
27426455814508254162066660226930210457112058174365499392.000000 24584964076010824174898116624277830949251329455867035648.000000 0.000000
24584964076010824174898116624277830949251329455867035648.000000 7310317550101767821569451211933292660695447885360136192.000000 0.000000
0.000000 0.000000 0.000000
1628625753387095770076324858972318685094478221185690632192.000000 -2730733397642289535399060696850979254191925573304404934656.000000 0.000000
-2730733397642289535399060696850979254191925573304404934656.000000 1326164177704740603098398706976910586296118851982338293760.000000 0.000000
0.000000 0.000000 0.000000
-1707686415222985002381531301063860549174694730049528004608.000000 2429379712645854625314562282531728061348998542842965000192.000000 0.000000
2429379712645854625314562282531728061348998542842965000192.000000 1400186047592635226049752808424281556425546127973636112384.000000 0.000000
0.000000 0.000000 0.000000
12791430146093084765752337127084764504087137244732735881216.000000 8073377047610449219622712843540796362861681967751264993280.000000 0.000000
8073377047610449219622712843540796362861681967751264993280.000000 2706462533640969514316776088331142530074523308459422646272.000000 0.000000
0.000000 0.000000 0.000000
12792844141921105524588224870867204728570786353212857253888.000000 -4324854243342621052252425087718176148166974619156939276288.000000 0.000000
-4324854243342621052252425087718176148166974619156939276288.000000 905917471979560942628596320107153947681129090700919439360.000000 0.000000
0.000000 0.000000 0.000000
-39379972422231850806467425304199503591900623074981052416.000000 -3745028069971180891741785554630371894026709694167384064.000000 0.000000
-3745028069971180891741785554630371894026709694167384064.000000 676592170046135917694205221261928035370854064001646592.000000 0.000000
0.000000 0.000000 0.000000
-730525341240083641102724776907808787502490282552343920640.000000 -1065251928555224672504324438210715527111074768081951653888.000000 0.000000
-1065251928555224672504324438210715527111074768081951653888.000000 621230697720337955259303325997772857661379306240954335232.000000 0.000000
0.000000 0.000000 0.000000
-1029398591600647546290780863835048401301654697970231148544.000000 604751892363831299307195793699031367071014398655408898048.000000 0.000000
604751892363831299307195793699031367071014398655408898048.000000 321393745898328383805950418499614987588419857763564257280.000000 0.000000
0.000000 0.000000 0.000000
19468977580219737303596490936865102924815401408633493258240.000000 9963949543068901242361260256827106015579814046481415929856.000000 0.000000
9963949543068901242361260256827106015579814046481415929856.000000 2902849545057572285554948262815968171325090532051881295872.000000 0.000000
0.000000 0.000000 0.000000
-24797779424829665260065610424112716077579573827450521518080.000000 1288787831710535815303843950840052045160259041820474867712.000000 0.000000
1288787831710535815303843950840052045160259041820474867712.000000 132010893706195706333770609905650061798754135255625498624.000000 0.000000
0.000000 0.000000 0.000000
5647125598957992749217700150177697734081864540574711808.000000 -5740665519672983928630580107166099468437587677161717760.000000 0.000000
-5740665519672983928630580107166099468437587677161717760.000000 2436272272093503932747019171677281325233774110590369792.000000 0.000000
0.000000 0.000000 0.000000
632897282183007141321903264307377280459681339949809926144.000000 -8416343199954686594537556968787893293169673146018939535360.000000 0.000000
-8416343199954686594537556968787893293169673146018939535360.000000 4628002141709416046806000208703157391899400788701391880192.000000 0.000000
0.000000 0.000000 0.000000
10063728942156020452230737485319820939757770781807651848192.000000 20591080109879149322719293877363364798262957929961801908224.000000 0.000000
20591080109879149322719293877363364798262957929961801908224.000000 10325324163268600604006716546388008944909265985883879768064.000000 0.000000
0.000000 0.000000 0.000000
-25197188994333859217980874313731984793493836512288105824256.000000 4491883002155747297356404770485702867742414058522641694720.000000 0.000000
4491883002155747297356404770485702867742414058522641694720.000000 1364282984694870296527673802766784632202890248926472962048.000000 0.000000
0.000000 0.000000 0.000000
-4345075831676804849325983400579993704664187637334603202560.000000 115990989448630658530564167973827868594583202004666941440.000000 0.000000
115990989448630658530564167973827868594583202004666941440.000000 9098985619886440619285162279530028146658824616528576512.000000 0.000000
0.000000 0.000000 0.000000
1509969589116525610060818337859127478410279617337388695552.000000 -2120799897265790634533428896639955986066314549577933389824.000000 0.000000
-2120799897265790634533428896639955986066314549577933389824.000000 992314249553215866169853722925909133644641489034460266496.000000 0.000000
0.000000 0.000000 0.000000
1294334245547434647516770487589516150098067012740181917696.000000 -1319483519443123039588660236380741070998105475395266543616.000000 0.000000
-1319483519443123039588660236380741070998105475395266543616.000000 560445094898502605616614179267932549486555197498512637952.000000 0.000000
0.000000 0.000000 0.000000
3097097424565389068877901650104850535188608037650366988288.000000 10732283868710469999268815548149769307177983591992166187008.000000 0.000000
10732283868710469999268815548149769307177983591992166187008.000000 5663288586250653220667680207668311924299497936613590171648.000000 0.000000
0.000000 0.000000 0.000000
-54012281928766241704088143477883362784855698458546811174912.000000 25612784421999067438387867019672115724896875929835724079104.000000 0.000000
25612784421999067438387867019672115724896875929835724079104.000000 12959415433493211715786880137140320573223923048711037386752.000000 0.000000
0.000000 0.000000 0.000000
-12468999424490433742341808080620750996815362861327294922752.000000 1400798358200794627782235643439636944999270827917179879424.000000 0.000000
1400798358200794627782235643439636944999270827917179879424.000000 293331499569082971951848384100528921924975183642692157440.000000 0.000000
0.000000 0.000000 0.000000
-118004049206956613995968151453168111133098012092441559040.000000 -326538947418213411466199729757421963618811888866682732544.000000 0.000000
-326538947418213411466199729757421963618811888866682732544.000000 187543131465107341937376170762193731759206565904805527552.000000 0.000000
0.000000 0.000000 0.000000
11732149084786768363414928482888578458763711837112369152.000000 -2460545441367983283606327912641074279119009986847440896.000000 0.000000
-2460545441367983283606327912641074279119009986847440896.000000 334194869695643057256747376846255429428716626872631296.000000 0.000000
0.000000 0.000000 0.000000
84908978095574206713642008069669228836260235404881428480.000000 -46063343287093642806320029962223082943660975335409713152.000000 0.000000
-46063343287093642806320029962223082943660975335409713152.000000 13982444621658760722027591588583042349236936612518035456.000000 0.000000
0.000000 0.000000 0.000000
-1455179381478585910648133853299292061119223555930894368768.000000 -877136817533190472385515450090184159798683922548427587584.000000 0.000000
-877136817533190472385515450090184159798683922548427587584.000000 479627544170211823094778303298190276752362444829612834816.000000 0.000000
0.000000 0.000000 0.000000
-16124260456981091438670187852788403998662150868052087930880.000000 13792545650793071408181868186490328302953601266097080762368.000000 0.000000
13792545650793071408181868186490328302953601266097080762368.000000 7743993249983833921059744957079516301929384760562577047552.000000 0.000000
0.000000 0.000000 0.000000
6707771596196791866281506079803860594763283169853311025152.000000 17284191869912703750584582856189933630241440206421680455680.000000 0.000000
17284191869912703750584582856189933630241440206421680455680.000000 8921762003620313563695895735987220287994438418299627765760.000000 0.000000
0.000000 0.000000 0.000000
-295994708516774269788543967947770149882586449834707779584.000000 513035857576400254731039917260037050209849964466058297344.000000 0.000000
513035857576400254731039917260037050209849964466058297344.000000 297581676250557349100631447063745362311426486268747317248.000000 0.000000
0.000000 0.000000 0.000000
-1247376990699334361598847748320243673231971718255471493120.000000 928596478441265165276198464345769820532345872160540065792.000000 0.000000
928596478441265165276198464345769820532345872160540065792.000000 513480305363556945817370281211123689332527336715605508096.000000 0.000000
0.000000 0.000000 0.000000
779673723861960605575725292164711341637735097693663920128.000000 561375436332745310960520345767483282973393647580085223424.000000 0.000000
561375436332745310960520345767483282973393647580085223424.000000 207017019604204830114703088798491577148594099588010344448.000000 0.000000
0.000000 0.000000 0.000000
186963729712413725352434824309962964000251956356423090176.000000 -493223425393461559267729740374208670911672229288495546368.000000 0.000000
-493223425393461559267729740374208670911672229288495546368.000000 257691230656468935063869320600902331484857083923854786560.000000 0.000000
0.000000 0.000000 0.000000
624481553690256006626994540839644766835272957594955677696.000000 241026808299988824998898382891874702021559245046584180736.000000 0.000000
241026808299988824998898382891874702021559245046584180736.000000 56611891382494081501703645497088170590979339574042427392.000000 0.000000
0.000000 0.000000 0.000000
247945595084255733008280253454840222048536843753151791104.000000 -121513763457686266431205422256010212068860458160671948800.000000 0.000000
-121513763457686266431205422256010212068860458160671948800.000000 34319810242671494900501850396552716140248463382503489536.000000 0.000000
0.000000 0.000000 0.000000
142549958659642360112335945177886071433793931977177432064.000000 -85830964333202381306126656733593962213068325099610832896.000000 0.000000
-85830964333202381306126656733593962213068325099610832896.000000 27930970571710323417071465905657034164864339983097397248.000000 0.000000
0.000000 0.000000 0.000000
3512764203087593751651224696357409434563119376243875643392.000000 1505553720229733214182809394615209520368579783480238407680.000000 0.000000
1505553720229733214182809394615209520368579783480238407680.000000 383677610029151707777862246243209555879289769161763323904.000000 0.000000
0.000000 0.000000 0.000000
-13186153463048627180599735839493702611101212999680.000000 326022253993304054656554108331193215119217924243456.000000 0.000000
326022253993304054656554108331193215119217924243456.000000 181936258762095615268364487772299772462581233483776.000000 0.000000
0.000000 0.000000 0.000000
50656848470822089710067769902562116383105449910599680000.000000 36550085610838762080838090612482266210086618345385230336.000000 0.000000
36550085610838762080838090612482266210086618345385230336.000000 13724870595507616315490289822241591330742392525338705920.000000 0.000000
0.000000 0.000000 0.000000
424316374079456487874972372055962259125444410012174647296.000000 77549461713043903940213903915497986007075282575173877760.000000 0.000000
77549461713043903940213903915497986007075282575173877760.000000 9883753285894172048691063523458560336567704420154867712.000000 0.000000
0.000000 0.000000 0.000000
3669659405115307490396442663707429741879469740279319232512.000000 3423181889992839041339568128465314491765841830675048562688.000000 0.000000
3423181889992839041339568128465314491765841830675048562688.000000 1404136996726298061164842173806748380935768247582261772288.000000 0.000000
0.000000 0.000000 0.000000
-781169913953465170594016698961961692086993482050166587392.000000 -10231111837264771491233547399341809922441137445852388786176.000000 0.000000
-10231111837264771491233547399341809922441137445852388786176.000000 5771407317901938717008622969460251656083002985518834122752.000000 0.000000
0.000000 0.000000 0.000000
388941674558534682605726841029771103238896793652727644160.000000 -317130328194606835096697145962274567851470673354566926336.000000 0.000000
-317130328194606835096697145962274567851470673354566926336.000000 122458277748943832490285977263799962459813687361886224384.000000 0.000000
0.000000 0.000000 0.000000
-36601141387122222280670156322559338021304784356498059821056.000000 -6854624848077166278522774403743586073246007480639167660032.000000 0.000000
-6854624848077166278522774403743586073246007480639167660032.000000 2157916764394477054357688987999112167772917471184638967808.000000 0.000000
0.000000 0.000000 0.000000
6546872435920858269439938755224266051653354702105946882048.000000 -4098840257511839972253932797331783693061483316160805994496.000000 0.000000
-4098840257511839972253932797331783693061483316160805994496.000000 1367222705563162334046262003642901510480153078425869877248.000000 0.000000
0.000000 0.000000 0.000000
1194115502655883091138854641894038816956738552298137976832.000000 142474194276834824632077446050877559251639530072399937536.000000 0.000000
142474194276834824632077446050877559251639530072399937536.000000 11483508835910332820044882193610013463124242455632805888.000000 0.000000
0.000000 0.000000 0.000000
95551856958690780657221347728444794570792634337896431616.000000 151650298730473340832480076468271233538554457506151661568.000000 0.000000
151650298730473340832480076468271233538554457506151661568.000000 72886012314725099417063174679071167551752895595024482304.000000 0.000000
0.000000 0.000000 0.000000
40227113531391180112007263666612716314772347286445883392.000000 -73285208723103222357564490765866381143775599448251432960.000000 0.000000
-73285208723103222357564490765866381143775599448251432960.000000 40064666429862526250159898016357614220621327757406633984.000000 0.000000
0.000000 0.000000 0.000000
-48416798448307967295050164666903255400795898330614153084928.000000 -5372757175226780551911306318969208316637660191574447882240.000000 0.000000
-5372757175226780551911306318969208316637660191574447882240.000000 1113420804220923227386529376140133316964638461265298063360.000000 0.000000
0.000000 0.000000 0.000000
17228074841982816566567985004105201322312165003746082816.000000 -19362200668050365928069546929256263537676387017971204096.000000 0.000000
-19362200668050365928069546929256263537676387017971204096.000000 8509380417396289809662834791088169588855073472054820864.000000 0.000000
0.000000 0.000000 0.000000
1806256898486758760679695323925995642322947354608902602752.000000 -1147383433919060111040163286934319433062966210601928359936.000000 0.000000
-1147383433919060111040163286934319433062966210601928359936.000000 386164449899933231687303211159627729073300589024888487936.000000 0.000000
0.000000 0.000000 0.000000
26000421574512496687043877323998304283985847517184.000000 -327750306440679282826543651360927403957775096610816.000000 0.000000
-327750306440679282826543651360927403957775096610816.000000 199820827548968858747711326877102987063746923331584.000000 0.000000
0.000000 0.000000 0.000000
2518504087397820902639445952360624495906919383351267688448.000000 1284208472145981675647136984951279508636085367337163685888.000000 0.000000
1284208472145981675647136984951279508636085367337163685888.000000 377173924116137345847516904045226223485362550765256704000.000000 0.000000
0.000000 0.000000 0.000000
484386506956778508634115966578304674963658845503694569472.000000 -270227382138136788625752247997460023555584818245510627328.000000 0.000000
-270227382138136788625752247997460023555584818245510627328.000000 82248286673683186070948626842124850347602119889271128064.000000 0.000000
0.000000 0.000000 0.000000
-48573831579650944495544115134603613530242812917807560261632.000000 -5916444491840715953733797093636140829808081304925253926912.000000 0.000000
-5916444491840715953733797093636140829808081304925253926912.000000 1337562756577868317394967399707469335307654881303928504320.000000 0.000000
0.000000 0.000000 0.000000
-762720713084978453840476022348534809997855762913010122752.000000 -3357855427038639273409608204678640479398091429452481298432.000000 0.000000
-3357855427038639273409608204678640479398091429452481298432.000000 1913503363550251694273535421692582085307992687248198860800.000000 0.000000
0.000000 0.000000 0.000000
5346158059640618274287018084909411230461169656221663232.000000 2375658482729521334110667715832725480312730100944601088.000000 0.000000
2375658482729521334110667715832725480312730100944601088.000000 622995492879834078899729707939832528470558552751079424.000000 0.000000
0.000000 0.000000 0.000000
-3731033254917796400693173448354155861023501321514581491712.000000 -9759994675829431969812598233880189368600905717077151580160.000000 0.000000
-9759994675829431969812598233880189368600905717077151580160.000000 5610632463548541312019217214177573277151651402868320108544.000000 0.000000
0.000000 0.000000 0.000000
1590640006380256390580017493764354361779832332391477673984.000000 -146877033022339440541095478478607174015350529703316291584.000000 0.000000
-146877033022339440541095478478607174015350529703316291584.000000 9005615055951270916713547436068287350576715915973361664.000000 0.000000
0.000000 0.000000 0.000000
4315781049921440077973494047608996418882373938581602304.000000 3223199354327199135618003420596796643186652579111108608.000000 0.000000
3223199354327199135618003420596796643186652579111108608.000000 1190498848040969375143946652768901195253264354121875456.000000 0.000000
0.000000 0.000000 0.000000
-5159143961032275570044903847584894907896422080872152301568.000000 2334340662214840006774400083347510316096614939787211571200.000000 0.000000
2334340662214840006774400083347510316096614939787211571200.000000 1153381531599204543215478272574229783417712737003195334656.000000 0.000000
0.000000 0.000000 0.000000
2468110555559525078004521468290574244213831643419839037440.000000 -7677217383361006164684512500098677514566604324036262494208.000000 0.000000
-7677217383361006164684512500098677514566604324036262494208.000000 4020693330149477860480456906383468945511256258339602956288.000000 0.000000
0.000000 0.000000 0.000000
573320868042900421044584834716446399054706716771725869056.000000 1200921504492033499952747482134668332952768918308788371456.000000 0.000000
1200921504492033499952747482134668332952768918308788371456.000000 632349667557281052775340312058455497497608067000479776768.000000 0.000000
0.000000 0.000000 0.000000
8342667106820623478215544276884980105156503463227144798208.000000 -2443712278247412922509862449234994033166979892812793774080.000000 0.000000
-2443712278247412922509862449234994033166979892812793774080.000000 483732609993662351167488508908603256791572780064366919680.000000 0.000000
0.000000 0.000000 0.000000
2591329695617727352807024886100651149959745855537295654912.000000 -4447952356150504182939996126217391343054892861201976393728.000000 0.000000
-4447952356150504182939996126217391343054892861201976393728.000000 2169758465598782405741641931987529527143056484881395613696.000000 0.000000
0.000000 0.000000 0.000000
1212556352518337101166020722405969459760908377744608329728.000000 -24767020551720762920481116367248706086207288737810874368.000000 0.000000
-24767020551720762920481116367248706086207288737810874368.000000 15817957159146135433530147551451075058951245590559719424.000000 0.000000
0.000000 0.000000 0.000000
9577729835813086469800081109004822942040178635965464576.000000 -258725238630079529245083327642386716092737811561972760576.000000 0.000000
-258725238630079529245083327642386716092737811561972760576.000000 143269002394635846826271808171026886327883428264188837888.000000 0.000000
0.000000 0.000000 0.000000
2157609088714100765580528301513191383777612472556705546240.000000 1934944417321284780843788628137244916557571951558932824064.000000 0.000000
1934944417321284780843788628137244916557571951558932824064.000000 780513837212571587999005191245634437111217442318117240832.000000 0.000000
0.000000 0.000000 0.000000
1946439734543173982649227019752978310251718593194382852096.000000 -2315982878285021677319629699402674006095892873590249357312.000000 0.000000
-2315982878285021677319629699402674006095892873590249357312.000000 1032888858522010942644907430823251663553353627711347621888.000000 0.000000
0.000000 0.000000 0.000000
5044539949046433627222343436454497732332898902597435392.000000 3758102670104382824731749880478044088984147297935818752.000000 0.000000
3758102670104382824731749880478044088984147297935818752.000000 1386169876341933610111745518957559879990046279809892352.000000 0.000000
0.000000 0.000000 0.000000
1754935442146721037860505196200583497033181895096151310336.000000 639088989020822235553755625142254748906472389813926363136.000000 0.000000
639088989020822235553755625142254748906472389813926363136.000000 142608773830276443908577537679988022909217193431903764480.000000 0.000000
0.000000 0.000000 0.000000
-3911690747502300412836496549170083370377986005719066869760.000000 -1708057631667924321532298664221163414435376457253958713344.000000 0.000000
-1708057631667924321532298664221163414435376457253958713344.000000 839055914225595509876338505336620929546333196868816732160.000000 0.000000
0.000000 0.000000 0.000000
4055930704743615583607433758794655649198757279361434386432.000000 1557770255346375327744796601795969664422610959018418503680.000000 0.000000
1557770255346375327744796601795969664422610959018418503680.000000 363988000118428530815221037696270008129486482930732630016.000000 0.000000
0.000000 0.000000 0.000000
2362359245951146216840538976613577937855448423416482234368.000000 6922375384551789670969311421775087736508303315170934915072.000000 0.000000
6922375384551789670969311421775087736508303315170934915072.000000 3608354870442529479888150244998834198003102686839375396864.000000 0.000000
0.000000 0.000000 0.000000
1976442482402808448123507548098505327480024449171614334976.000000 -2034003253895584095282039294450112090106925846354630541312.000000 0.000000
-2034003253895584095282039294450112090106925846354630541312.000000 871752038699265033924931907359349026741454058682444677120.000000 0.000000
0.000000 0.000000 0.000000
-4367971524148473906428854791721541190244369576965821169664.000000 -809704012249198742278360625436561012486787914269846405120.000000 0.000000
-809704012249198742278360625436561012486787914269846405120.000000 252981750646701692695635127670940036575760131152976805888.000000 0.000000
0.000000 0.000000 0.000000
-4040886949760575355634833474879544909167603274246413877248.000000 2035650397537982474448239190745777063612100197548581453824.000000 0.000000
2035650397537982474448239190745777063612100197548581453824.000000 1040313495741846512218618679367179598032338123779089629184.000000 0.000000
0.000000 0.000000 0.000000
225611164271982184483376310177272359762738034688600834048.000000 495708710859669034622589026179492391235452069609581051904.000000 0.000000
495708710859669034622589026179492391235452069609581051904.000000 250934283264847358858192415734391448000954713963239571456.000000 0.000000
0.000000 0.000000 0.000000
-34395313935481539505647584539090806707214420567411130368.000000 -208312402444166503492939616209703743247254879447573069824.000000 0.000000
-208312402444166503492939616209703743247254879447573069824.000000 118829309359975531088464747865756771374763691535912402944.000000 0.000000
0.000000 0.000000 0.000000
-385031783176108267405418864394013573922815039973340741632.000000 774154922838846515355106025740194904765657434920765620224.000000 0.000000
774154922838846515355106025740194904765657434920765620224.000000 463088339251296734133745830235269598576322990408428683264.000000 0.000000
0.000000 0.000000 0.000000
4070951190431854293266002614460306383496128091312743251968.000000 16230126080389984944238755000938053969644517208469440299008.000000 0.000000
16230126080389984944238755000938053969644517208469440299008.000000 8632171442552387275144881707560427894507983350166687055872.000000 0.000000
0.000000 0.000000 0.000000
988097971844541551648452524043247885450281189674181459968.000000 503074990890341014586234848425951657196755444809536110592.000000 0.000000
503074990890341014586234848425951657196755444809536110592.000000 146016063066112446204407979600595220169387919614278631424.000000 0.000000
0.000000 0.000000 0.000000
1284346121218056750859152404167578149978634655643992064.000000 1236051477317100257432837812348383233561536439294885888.000000 0.000000
1236051477317100257432837812348383233561536439294885888.000000 513459386722087656524371019549085508038097230408712192.000000 0.000000
0.000000 0.000000 0.000000
2382032674069294468101402803295372690118746968165458116608.000000 -1078598032536956974165978289263759994931982929632075710464.000000 0.000000
-1078598032536956974165978289263759994931982929632075710464.000000 286879098108001678552051414699723426819550021063985332224.000000 0.000000
0.000000 0.000000 0.000000
-30879865356777293384154062529796711773295067881696584007680.000000 -18510521793107306692154500115285261408810582843139767140352.000000 0.000000
-18510521793107306692154500115285261408810582843139767140352.000000 9937971811662959266051866009422332582390633511813856100352.000000 0.000000
0.000000 0.000000 0.000000
-897803904726953272499755215395875739177615575872438272.000000 14099798527656732510736342433944715419194958223444541440.000000 0.000000
14099798527656732510736342433944715419194958223444541440.000000 7906388466197073538548311393086479218282883828684947456.000000 0.000000
0.000000 0.000000 0.000000
1413934031884953430604863030458556930137684774804246233088.000000 -273274860001271336080049414645550145086590653079780065280.000000 0.000000
-273274860001271336080049414645550145086590653079780065280.000000 40804943347762721974599637845737649182815985890387558400.000000 0.000000
0.000000 0.000000 0.000000
4580632569620488777173908333557365816715504707402083598336.000000 2765776315748984912878410506489144412085784420177898635264.000000 0.000000
2765776315748984912878410506489144412085784420177898635264.000000 901676447535786180309327024011402191288203699311452618752.000000 0.000000
0.000000 0.000000 0.000000
-409765838488338133670063703872543386867920629452198903808.000000 -2485310429887018088074599920384262243767516345505480179712.000000 0.000000
-2485310429887018088074599920384262243767516345505480179712.000000 1408781657745306314556549391177877025962840606788085088256.000000 0.000000
0.000000 0.000000 0.000000
555090059195091634533377086339759781483429092624468803584.000000 220680517546728137289005160748956186183496861927906213888.000000 0.000000
220680517546728137289005160748956186183496861927906213888.000000 52950638423161361078141307298131908654232525735003684864.000000 0.000000
0.000000 0.000000 0.000000
348171659166879021782050032607977270405114678160180379648.000000 600746382604969119695493905453547782978288642043066449920.000000 0.000000
600746382604969119695493905453547782978288642043066449920.000000 299330486914371908173027477145331193098435323004169748480.000000 0.000000
0.000000 0.000000 0.000000
2116806747211860317817565129229981895803934219789427277824.000000 1537609238482373019537374022284498636657412220894754897920.000000 0.000000
1537609238482373019537374022284498636657412220894754897920.000000 559400759747849265384493871908085518269753670319359393792.000000 0.000000
0.000000 0.000000 0.000000
-1284208716369879518097625714837642423570710517786903314432.000000 -964646396680724445168439823691269665692586796222053875712.000000 0.000000
-964646396680724445168439823691269665692586796222053875712.000000 533735097727227315873043706285957293708322051120238166016.000000 0.000000
0.000000 0.000000 0.000000
1617698739943260197965129628025437188709040375219861061632.000000 -944777245941539927647602072671736417760091156310535438336.000000 0.000000
-944777245941539927647602072671736417760091156310535438336.000000 306580603476383892084086090087971335364054192336781967360.000000 0.000000
0.000000 0.000000 0.000000
-55751162796955763290339855585582106567103366605460006240256.000000 -2084485989810829540135780181488889825413482623666485198848.000000 0.000000
-2084485989810829540135780181488889825413482623666485198848.000000 154535754481997646313595337450161642654623760796568518656.000000 0.000000
0.000000 0.000000 0.000000
-45866222214083608471313268343163312026266900728119296.000000 2545134528197599455274463829559781925327823551070208.000000 0.000000
2545134528197599455274463829559781925327823551070208.000000 277301521743546715774993356460658809441976666030080.000000 0.000000
0.000000 0.000000 0.000000
1998770240803170704553270989247136335139921801339348189184.000000 130744200590136730402295727773413281726970649049277923328.000000 0.000000
130744200590136730402295727773413281726970649049277923328.000000 5684734676633912267878819616546562338502699619092267008.000000 0.000000
0.000000 0.000000 0.000000
1193206807453044461683804791745527316147517080281397854208.000000 2404192417115699045131606685003468929834149719817561571328.000000 0.000000
2404192417115699045131606685003468929834149719817561571328.000000 1203034962609638529182601512148090565058400727995011563520.000000 0.000000
0.000000 0.000000 0.000000
18994694378519899559584529677591913328714117598463131648.000000 6432857106018500864060357679545276855936712668717514752.000000 0.000000
6432857106018500864060357679545276855936712668717514752.000000 1349670727572768870259424366921115765049354662650576896.000000 0.000000
0.000000 0.000000 0.000000
6801577322371315578446309947611214648530438449730125037568.000000 7032795128241866750906394826010423098365181648385540620288.000000 0.000000
7032795128241866750906394826010423098365181648385540620288.000000 3001252627126205375343376963238902344579886691349155545088.000000 0.000000
0.000000 0.000000 0.000000
313736045000697531380230831245184080705959027795686326272.000000 4340554329911662072092503288789905903400173921449300459520.000000 0.000000
4340554329911662072092503288789905903400173921449300459520.000000 2387900853703864865476750644743725079393138546784570703872.000000 0.000000
0.000000 0.000000 0.000000
4964008545500156885981768842196229775774909278892484198400.000000 1456779766424649219800501043054017568613034645331573211136.000000 0.000000
1456779766424649219800501043054017568613034645331573211136.000000 272404077899238413203528936450359989366538037369415663616.000000 0.000000
0.000000 0.000000 0.000000
-366154403137990807281958789088714275783334481121603747840.000000 -943574158891928143339063910679981554847157792471045373952.000000 0.000000
-943574158891928143339063910679981554847157792471045373952.000000 543009114004125683497531004910119595529775887908530552832.000000 0.000000
0.000000 0.000000 0.000000
-6792412470810242308932984191173407653795873002288788275200.000000 -109693875678539065992840980259346087655166957820187770880.000000 0.000000
-109693875678539065992840980259346087655166957820187770880.000000 81848011894277224103424464953087602227470115247572910080.000000 0.000000
0.000000 0.000000 0.000000
8477783482006331977931238296444195121024719272091689418752.000000 -4019532283705986371462797724092436238119260064116516061184.000000 0.000000
-4019532283705986371462797724092436238119260064116516061184.000000 1107930124160372949474979668956001025454419646296832868352.000000 0.000000
0.000000 0.000000 0.000000
-13073156327592565045759845792053091522146743803494287802368.000000 -32721895185625234136938240963705096457773118217596597960704.000000 0.000000
-32721895185625234136938240963705096457773118217596597960704.000000 18828577958952785362122441831472201945156414746765165592576.000000 0.000000
0.000000 0.000000 0.000000
92012951704419697161560170940497030006415112514958262272.000000 512764322061950680950869684093803191429720526024689582080.000000 0.000000
512764322061950680950869684093803191429720526024689582080.000000 277371854946762203846544255523781871799660555491335995392.000000 0.000000
0.000000 0.000000 0.000000
15359313182498535920867603489505676811568627077557296037888.000000 -3029937960953980741793677039631603046554471491055499870208.000000 0.000000
-3029937960953980741793677039631603046554471491055499870208.000000 388845096144960246644398483257152596600514010992072458240.000000 0.000000
0.000000 0.000000 0.000000
-3475928030084664945146696264279850654065106884763777499136.000000 -2752783639512030703583172037858116662457135327112561950720.000000 0.000000
-2752783639512030703583172037858116662457135327112561950720.000000 1532820332664326161405745175766859433306057249299273613312.000000 0.000000
0.000000 0.000000 0.000000
2212753136231332981786200007001091604534834015693311049728.000000 3150824987131104413803722478113083033011564280985279266816.000000 0.000000
3150824987131104413803722478113083033011564280985279266816.000000 1497845066541681739355169310597878342508067635554594848768.000000 0.000000
0.000000 0.000000 0.000000
3021826209121344192413171331380715213233735916750198800384.000000 -1643090282936180923946390347951949122695509461392961830912.000000 0.000000
-1643090282936180923946390347951949122695509461392961830912.000000 502684965292161293498822746988230654102299291480498372608.000000 0.000000
0.000000 0.000000 0.000000
232373079096536612592554617135670263210476598807066836992.000000 -152010331321326947315641361078147574920865511522554609664.000000 0.000000
-152010331321326947315641361078147574920865511522554609664.000000 52082425633119360222509989938474922975183709977320620032.000000 0.000000
0.000000 0.000000 0.000000
-55146068188670836754650365493377110632300611662914781184.000000 294005649915953011940790887730519234336961949701194645504.000000 0.000000
294005649915953011940790887730519234336961949701194645504.000000 167397333248033140782737665273716284498710217739598823424.000000 0.000000
0.000000 0.000000 0.000000
-387121947730625884097682102077605334580178536359637549056.000000 -77063369898622977141819837152654894378259419113122168832.000000 0.000000
-77063369898622977141819837152654894378259419113122168832.000000 25360742662628386530067867994753878959701300222829264896.000000 0.000000
0.000000 0.000000 0.000000
-308766759518532502663176345051176826853789751103608324096.000000 322342806822960496803663895316604225022842157483597758464.000000 0.000000
322342806822960496803663895316604225022842157483597758464.000000 183822350509946416918312329473637140902848943218298454016.000000 0.000000
0.000000 0.000000 0.000000
-847097327892527164626761618851215754032962010412063129600.000000 -10780774010594076744694243201628495819413795934775311073280.000000 0.000000
-10780774010594076744694243201628495819413795934775311073280.000000 6055903124788144055152517320794542485118055994062633172992.000000 0.000000
0.000000 0.000000 0.000000
1764221338541770180711816362488676696683722379780492886016.000000 -1446815291752922673302027116739252084684758942026393714688.000000 0.000000
-1446815291752922673302027116739252084684758942026393714688.000000 559363604951192492619190476635195694270857616165525520384.000000 0.000000
0.000000 0.000000 0.000000
-1701229857542338984750970013650473156132989485067886657536.000000 -3472084504839370894686792115503175740076037899663848767488.000000 0.000000
-3472084504839370894686792115503175740076037899663848767488.000000 2003567838675500568156040125335798337819768060156938551296.000000 0.000000
0.000000 0.000000 0.000000
387442831940807567167841637555214147036680759063038918656.000000 -734922843715849931470616198808686797990314650650126843904.000000 0.000000
-734922843715849931470616198808686797990314650650126843904.000000 364496350902758775448365493471327729227803725153739735040.000000 0.000000
0.000000 0.000000 0.000000
10695833559593310121340554568568618582651890966577840914432.000000 -11207665201852025016556797391876435219108411738602057236480.000000 0.000000
-11207665201852025016556797391876435219108411738602057236480.000000 4876516558514591533622222123051555540393670954892218335232.000000 0.000000
0.000000 0.000000 0.000000
228324563742540090875041442422994656791627118608404971520.000000 -497419688273333491832721137330169985805346916072494727168.000000 0.000000
-497419688273333491832721137330169985805346916072494727168.000000 251532353115723127195770669998760159094793263896498012160.000000 0.000000
0.000000 0.000000 0.000000
1632282302492791735138268332091028607018681223509922807808.000000 -1901381127919288680736289922366515641408400686396991340544.000000 0.000000
-1901381127919288680736289922366515641408400686396991340544.000000 846072055653746813325384647086527691284375008361855320064.000000 0.000000
0.000000 0.000000 0.000000
2966160550760306765302727567014862635128298482542697250816.000000 -2707492333251416837559646711152204326403252943114662313984.000000 0.000000
-2707492333251416837559646711152204326403252943114662313984.000000 1100495394435004862574599427369990343486633821265308155904.000000 0.000000
0.000000 0.000000 0.000000
252908294727157961911244004393583068346544628060240478208.000000 -363749720003126688966478893372136823355041405221040291840.000000 0.000000
-363749720003126688966478893372136823355041405221040291840.000000 171150734346891577970472832487124723348321477534953766912.000000 0.000000
0.000000 0.000000 0.000000
-8654382893152390415642964679772698077764288426261581135872.000000 -4661164402184221020794656545714767204443036873948863135744.000000 0.000000
-4661164402184221020794656545714767204443036873948863135744.000000 2429296756824498080245345040558785490445727960438845472768.000000 0.000000
0.000000 0.000000 0.000000
-7093420180225964039237488492436613710434875047798443606016.000000 -1343569397348409019295855885314819710882363853883811299328.000000 0.000000
-1343569397348409019295855885314819710882363853883811299328.000000 427033922562382558451313722274609289888254391687000883200.000000 0.000000
0.000000 0.000000 0.000000
-7286316783216934415089078284345640161792785961281113817088.000000 1627608152850346841771795726153176383644840153542190694400.000000 0.000000
1627608152850346841771795726153176383644840153542190694400.000000 578262178069768686036165239843776911445873831708117172224.000000 0.000000
0.000000 0.000000 0.000000
-2761188188435695809425627251013917948410661126468798513152.000000 900400493753455625726870609334705565404273871622649151488.000000 0.000000
900400493753455625726870609334705565404273871622649151488.000000 394126130523576364536679741224445878681230962351962849280.000000 0.000000
0.000000 0.000000 0.000000
824964631824202074586688258484340415796316134102949429248.000000 -710609985377303994346205396527815350056846056926912446464.000000 0.000000
-710609985377303994346205396527815350056846056926912446464.000000 281668733411834695700640373411458942815860394765930463232.000000 0.000000
0.000000 0.000000 0.000000
7050373559502832362152778828184429835362395634003165052928.000000 1552250356720540100280945416517739764260996678683109359616.000000 0.000000
1552250356720540100280945416517739764260996678683109359616.000000 229810265391461769225535556154970106747361056081183768576.000000 0.000000
0.000000 0.000000 0.000000
-82089637308185483586369204599250837198777988402821201920.000000 51636784210644497433705005738614338697987356404207321088.000000 0.000000
51636784210644497433705005738614338697987356404207321088.000000 25633139725312206063651945467552801242286614624769933312.000000 0.000000
0.000000 0.000000 0.000000
375699840203351600162887620365042566262699702520786190336.000000 -619845448254473571420453439188609880221048767253804220416.000000 0.000000
-619845448254473571420453439188609880221048767253804220416.000000 300170608050463341096215505958323411698552859462943637504.000000 0.000000
0.000000 0.000000 0.000000
2968757751675896278541498794032762534813703779776253132800.000000 -1666075641037686113458312960386975441603288644179990675456.000000 0.000000
-1666075641037686113458312960386975441603288644179990675456.000000 518212206139083233207298746079889405833769540152119525376.000000 0.000000
0.000000 0.000000 0.000000
762711453015500159571732768884575683449042663699906560.000000 -152011924606754697148123442074811282371148411274526720.000000 0.000000
-152011924606754697148123442074811282371148411274526720.000000 19675632023353567012726795299003167825890545013620736.000000 0.000000
0.000000 0.000000 0.000000
-117338735932377595555404911677308231898268854481412161536.000000 260121237221096803124336374181371429614534486331544829952.000000 0.000000
260121237221096803124336374181371429614534486331544829952.000000 150145571202273000141209050689804238373182313680544464896.000000 0.000000
0.000000 0.000000 0.000000
-18071041951371272780518615227645330286201095123149128728576.000000 -6838533612836819928687850155344324447575652700248774541312.000000 0.000000
-6838533612836819928687850155344324447575652700248774541312.000000 3191011483234890065401982185789449048425353889854917705728.000000 0.000000
0.000000 0.000000 0.000000
11311392590401315894357867848979669844909917589396120403968.000000 -1408935319576645024602785325713071098086744583430962413568.000000 0.000000
-1408935319576645024602785325713071098086744583430962413568.000000 125814211090662115641140150750009545546360095015312556032.000000 0.000000
0.000000 0.000000 0.000000
-11984308318446849626197982633820250961429786244397653819392.000000 -1692018140239152190586753026347025507486697541689862520832.000000 0.000000
-1692018140239152190586753026347025507486697541689862520832.000000 435211298097755488018600609677450483844255007293638180864.000000 0.000000
0.000000 0.000000 0.000000
5651835794681734644953974235330474946198930260194928623616.000000 -871534659982516729182574281700321484348400678263758782464.000000 0.000000
-871534659982516729182574281700321484348400678263758782464.000000 91679671892619195547836314236386258892514924922981580800.000000 0.000000
0.000000 0.000000 0.000000
576909807266336412982538058957512182360859398391092740096.000000 -747246380960905126903417432156222619424546605491740999680.000000 0.000000
-747246380960905126903417432156222619424546605491740999680.000000 342517050999986499038826058795096362323796932692101038080.000000 0.000000
0.000000 0.000000 0.000000
5528083956041324077776150201025679166635352002121433088.000000 -238443795297130901373124158596728500214967996369600512.000000 0.000000
-238443795297130901373124158596728500214967996369600512.000000 6884385044663706212391613822865208544384598757343232.000000 0.000000
0.000000 0.000000 0.000000
25702772498504062443445788094851022627365457399291838464.000000 173349572777513642148372024653185966629957347095844225024.000000 0.000000
173349572777513642148372024653185966629957347095844225024.000000 94612551736166724927520329022712726355867427029309718528.000000 0.000000
0.000000 0.000000 0.000000
2377085985311701536388186195556704199409161480274014371840.000000 -141161290730040056104008540989119166384603615964071723008.000000 0.000000
-141161290730040056104008540989119166384603615964071723008.000000 5574805918312130325442869653810509174167623288445992960.000000 0.000000
0.000000 0.000000 0.000000
4063041031120408005147174025587788247135774798223727656960.000000 -826525624249264219571764174913598042012412626444394430464.000000 0.000000
-826525624249264219571764174913598042012412626444394430464.000000 109124125445455417483026330893722828023506077233681793024.000000 0.000000
0.000000 0.000000 0.000000
244695971272609308221903871060166658288451626440987770880.000000 319251513826470350181083438753206364229687429226437804032.000000 0.000000
319251513826470350181083438753206364229687429226437804032.000000 146620174541870247915716759124619080031431498015747080192.000000 0.000000
0.000000 0.000000 0.000000
-15502070536092611579222674079626410885566177378989835812864.000000 -23636231915809246861440124362703955121251219985362109595648.000000 0.000000
-23636231915809246861440124362703955121251219985362109595648.000000 13639769977202575961491693637169498032547031242390561095680.000000 0.000000
0.000000 0.000000 0.000000
-45678235064466201742296700465462075064070662071517083336704.000000 25355039290782186261578641373538316085378605942766630338560.000000 0.000000
25355039290782186261578641373538316085378605942766630338560.000000 13307927715486348599637802856956899841430492326516465074176.000000 0.000000
0.000000 0.000000 0.000000
2083244317817304218103624527335866469589197744482065317888.000000 933024120975908364585503407758198248055515813839078686720.000000 0.000000
933024120975908364585503407758198248055515813839078686720.000000 245453653196592131975072234805880785592743111598484226048.000000 0.000000
0.000000 0.000000 0.000000
2036420566206019941344820931214766207526509048588973113344.000000 -1482081769081727545433025532238581597551390856169270542336.000000 0.000000
-1482081769081727545433025532238581597551390856169270542336.000000 539766880912167736587313930342310288241994247956080885760.000000 0.000000
0.000000 0.000000 0.000000
4905071145681872147839670943517143535789133539044271063040.000000 1293016871963598670288395318568808149022645990382853160960.000000 0.000000
1293016871963598670288395318568808149022645990382853160960.000000 217257608781623297030489587683159095937623178254019985408.000000 0.000000
0.000000 0.000000 0.000000
-3177877504102573180825230489464591167292379982445695467520.000000 -1195691943449684827768388006421828375919129163295455444992.000000 0.000000
-1195691943449684827768388006421828375919129163295455444992.000000 681094096178236077239656058010763052348018410037216018432.000000 0.000000
0.000000 0.000000 0.000000
-10025702100859424838790060586381458390583199076161501003776.000000 2058674820859218954338391954707523800394345906510722236416.000000 0.000000
2058674820859218954338391954707523800394345906510722236416.000000 692000606748609554409029870923052055459953930495946915840.000000 0.000000
0.000000 0.000000 0.000000
105021393285789634490053858670440180078706379604839366656.000000 -87400427436924569758662734839270956291394833808246177792.000000 0.000000
-87400427436924569758662734839270956291394833808246177792.000000 34072845132302959590366303490049894851727692862163255296.000000 0.000000
0.000000 0.000000 0.000000
-451422266316922602255517772911867862020797247782912.000000 143697302852970633467593410965998052398786718728192.000000 0.000000
143697302852970633467593410965998052398786718728192.000000 64931904412440434336120073421025990969857998323712.000000 0.000000
0.000000 0.000000 0.000000
1236567323183810129741256109780919130729352963849164161024.000000 -291142753307787216262998646974264644205894939916099387392.000000 0.000000
-291142753307787216262998646974264644205894939916099387392.000000 44104986044013153901481976454102299313152243730367905792.000000 0.000000
0.000000 0.000000 0.000000
787843042157802286496360034995845991755372612318207672320.000000 -561353435661893638450829646027813257721226826692427776000.000000 0.000000
-561353435661893638450829646027813257721226826692427776000.000000 202092613634912355942212067576423157622034329501729554432.000000 0.000000
0.000000 0.000000 0.000000
2363213530023021939322267559275912761734456240325902991360.000000 -364224167274410218602868638093967864424554372201359343616.000000 0.000000
-364224167274410218602868638093967864424554372201359343616.000000 38135017208314489077238180334431856472884989527114907648.000000 0.000000
0.000000 0.000000 0.000000
-17084406182227460485276262982592655640461472302272348160.000000 36203088001970226897378993721704418064291989083457060864.000000 0.000000
36203088001970226897378993721704418064291989083457060864.000000 20874693744965370952945756637366563578929321242280329216.000000 0.000000
0.000000 0.000000 0.000000
364614332504703103638927225163929816900685216869110513664.000000 -2745432633425775628070243967375022263772207842444238127104.000000 0.000000
-2745432633425775628070243967375022263772207842444238127104.000000 1527665557632333315770372161165810221246421367974701039616.000000 0.000000
0.000000 0.000000 0.000000
559233988008480583193860701539987701775232848302702592.000000 -391337836115040013562877543222563935112424153707184128.000000 0.000000
-391337836115040013562877543222563935112424153707184128.000000 139453213936329310501632518236596380362761439155322880.000000 0.000000
0.000000 0.000000 0.000000
-1296852285122589028746063208375637889710797291822426095616.000000 619648240523151524533491348799635694856741638646039314432.000000 0.000000
619648240523151524533491348799635694856741638646039314432.000000 312845447873455909242586043102479755880832662490421657600.000000 0.000000
0.000000 0.000000 0.000000
372964473673808163843486649700366058018159329383817412608.000000 299256440204663177786020237475674988127206517211003879424.000000 0.000000
299256440204663177786020237475674988127206517211003879424.000000 123032485697361622824233302805818957394779214045096443904.000000 0.000000
0.000000 0.000000 0.000000
4555918790010246741598147800451866031346689284305246486528.000000 -7155233236390622641030369360678601177454044859201713340416.000000 0.000000
-7155233236390622641030369360678601177454044859201713340416.000000 3441209603288682075004159007896062987740481647356682436608.000000 0.000000
0.000000 0.000000 0.000000
2686606123315672053349476278163976245207291398440917925888.000000 1846999539196588833706118831770966046481173367022340276224.000000 0.000000
1846999539196588833706118831770966046481173367022340276224.000000 666872275033566904365985587600355248919357268374809739264.000000 0.000000
0.000000 0.000000 0.000000
1178902350802084950744738445072674599443062287166404034560.000000 -1387954546308993764658842626140132397054700054200339922944.000000 0.000000
-1387954546308993764658842626140132397054700054200339922944.000000 618976260086326171114141322029232709905213219343530196992.000000 0.000000
0.000000 0.000000 0.000000
-152050281800628929278832095820810994747041202265529331482624.000000 -39302630447967924625009271988629439309777461493656593629184.000000 0.000000
-39302630447967924625009271988629439309777461493656593629184.000000 15257114741017374340264373119141396149244340082808947998720.000000 0.000000
0.000000 0.000000 0.000000
2395031652667330630744363956796438269873156364878928150528.000000 -129814614782289211269071515577700803700655982626220277760.000000 0.000000
-129814614782289211269071515577700803700655982626220277760.000000 4892354071399479514749024397034973347538793209628983296.000000 0.000000
0.000000 0.000000 0.000000
404650158213311933829048827554436834714786633357090357248.000000 -1434704218391321089026728741661012026582534867838077763584.000000 0.000000
-1434704218391321089026728741661012026582534867838077763584.000000 758197598411357051145711022695499063035439724095390875648.000000 0.000000
0.000000 0.000000 0.000000
1942104646982844630106451712592268867642596714822500352.000000 -7082598070250264395460282471842507406420364047482355712.000000 0.000000
-7082598070250264395460282471842507406420364047482355712.000000 3749453969052129633413070948615088465631195540735655936.000000 0.000000
0.000000 0.000000 0.000000
1049550311340274121436818841144405309753046361219014852608.000000 -718545038627443649749349987863787945926906318427904802816.000000 0.000000
-718545038627443649749349987863787945926906318427904802816.000000 252873461614676305860117374687773366538781731364219650048.000000 0.000000
0.000000 0.000000 0.000000
791805295847905890216126767355053041139368103134156029952.000000 125977611600366600228475069048858854272046976905450094592.000000 0.000000
125977611600366600228475069048858854272046976905450094592.000000 13339086974547817956862864882788748886862393446787710976.000000 0.000000
0.000000 0.000000 0.000000
864446436402201129115064769824720747560161962904950669312.000000 -24742420967472173661697217870360545801738297736549105664.000000 0.000000
-24742420967472173661697217870360545801738297736549105664.000000 3454118818574207221367502741276933641417795215311241216.000000 0.000000
0.000000 0.000000 0.000000
-205664415117470023582170198292020435325356887148515557376.000000 628236754029548684359626492758952136544715631442469584896.000000 0.000000
628236754029548684359626492758952136544715631442469584896.000000 362183082247384083700923445191614632170424275512854577152.000000 0.000000
0.000000 0.000000 0.000000
12291275341661891471129050950158981904713451044864.000000 27047069187666898381455225060520213883339971493888.000000 0.000000
27047069187666898381455225060520213883339971493888.000000 11107641949841349106783927245819689418449448075264.000000 0.000000
0.000000 0.000000 0.000000
2844224360127852038766919031183833392060591942981549817856.000000 -3190423064200761878585273656032158867471056624375061020672.000000 0.000000
-3190423064200761878585273656032158867471056624375061020672.000000 1417339532829252275354841900110523089183309984361193930752.000000 0.000000
0.000000 0.000000 0.000000
13640382544334428004591420851532155109967644737836941312.000000 1274822161008482143806999843330075958926732507056439296.000000 0.000000
1274822161008482143806999843330075958926732507056439296.000000 78991740700407474003894037399584608709554958172684288.000000 0.000000
0.000000 0.000000 0.000000
284569604043287613800606472625172977574583933701078384640.000000 -132421202540565815361592177889192487043969485065091547136.000000 0.000000
-132421202540565815361592177889192487043969485065091547136.000000 35961866416955184244056404926505215936900787851338186752.000000 0.000000
0.000000 0.000000 0.000000
148903692569390807288672005141158681549202268170850664448.000000 175383201791986940012845668657921499976576585169987698688.000000 0.000000
175383201791986940012845668657921499976576585169987698688.000000 78154145527513532018894792254451419614292998332413378560.000000 0.000000
0.000000 0.000000 0.000000
2432741289469961291050947889180839998734255452629470543872.000000 -1354844109649935027752224663656965070967916964701634822144.000000 0.000000
-1354844109649935027752224663656965070967916964701634822144.000000 418726320375452225268076022689843738686106832271709306880.000000 0.000000
0.000000 0.000000 0.000000
1127630553736690850158871481177485621298331916771000320.000000 -586326927304105368173093004405246016962413948227813376.000000 0.000000
-586326927304105368173093004405246016962413948227813376.000000 172709252046385114085519486676433989603400219321434112.000000 0.000000
0.000000 0.000000 0.000000
126364757615100209682510022533082353670513117740654395392.000000 -1504720233932771302090296913374994556029381101322451812352.000000 0.000000
-1504720233932771302090296913374994556029381101322451812352.000000 826241400670194540758368909625034455719641226347204837376.000000 0.000000
0.000000 0.000000 0.000000
18641573636516190077318027435156810482158733611870447468544.000000 -35142031519265058987535535366889355023816446961157645795328.000000 0.000000
-35142031519265058987535535366889355023816446961157645795328.000000 17413177709205308725202136667978914308509366744166969638912.000000 0.000000
0.000000 0.000000 0.000000
-3449716041103349048475946829960857774915857445924045324288.000000 2292390028563495862417494578221067202912192452829166698496.000000 0.000000
2292390028563495862417494578221067202912192452829166698496.000000 1298170653928250810276709148229290001280700342384377987072.000000 0.000000
0.000000 0.000000 0.000000
-6999323346300913977938578362256751698621080512546987835392.000000 6475166467565175503993792171843945818565128423534388838400.000000 0.000000
6475166467565175503993792171843945818565128423534388838400.000000 3669407119521593300695872562449055005772534616349957160960.000000 0.000000
0.000000 0.000000 0.000000
-13517888104966693407558029731493438056690520761946261684224.000000 -199701711132455763156837342183881517961088758942116347904.000000 0.000000
-199701711132455763156837342183881517961088758942116347904.000000 74178591545485957302501337549108861872081576488704409600.000000 0.000000
0.000000 0.000000 0.000000
4373426307133622222363025062880148926354829319509431549952.000000 2122718076367992778241063468307062723255468369818505183232.000000 0.000000
2122718076367992778241063468307062723255468369818505183232.000000 605032084959671714132341566554966647296706004360676507648.000000 0.000000
0.000000 0.000000 0.000000
13381541255800968663087648401715655564556075869157720064.000000 -506493618525269875623636934823127402296003462296183504896.000000 0.000000
-506493618525269875623636934823127402296003462296183504896.000000 280914365826184278446058821420584073663127393702906953728.000000 0.000000
0.000000 0.000000 0.000000
-12225017857767315867799119393446931524141748476091612266496.000000 -5096755684066256063437195786030321223494931175527810072576.000000 0.000000
-5096755684066256063437195786030321223494931175527810072576.000000 2466392749183762990440168831468867098013020198626201174016.000000 0.000000
0.000000 0.000000 0.000000
-4827322926641909989011240979090123812697330011021059817472.000000 2030620884936153948248734220834085135971961631144893480960.000000 0.000000
2030620884936153948248734220834085135971961631144893480960.000000 999049892530458604700818118752891183177899529913591922688.000000 0.000000
0.000000 0.000000 0.000000
-224300240089581541706218068606350908094222241856984449024.000000 -1303069883790670856860059041775079254371896838684867035136.000000 0.000000
-1303069883790670856860059041775079254371896838684867035136.000000 738978147843365435798586762482117406088535413378322006016.000000 0.000000
0.000000 0.000000 0.000000
-56336082297965680973697702362059040969280924975856877568.000000 -149419600652319210669043739735274531596559672757467480064.000000 0.000000
-149419600652319210669043739735274531596559672757467480064.000000 86536534127469155597448737554986653049067081366239182848.000000 0.000000
0.000000 0.000000 0.000000
8788092988710785178436189455900297438613265883335409795072.000000 -7272897791311604070807361180866791390814869556245433417728.000000 0.000000
-7272897791311604070807361180866791390814869556245433417728.000000 2831407189143919381317384870331442046675189363743096045568.000000 0.000000
0.000000 0.000000 0.000000
-151708906748000098114912726800007859520729010552092753920.000000 -374848956933512844990247275471251899530630448964534534144.000000 0.000000
-374848956933512844990247275471251899530630448964534534144.000000 215923976551080263559848081424737351711310829819130806272.000000 0.000000
0.000000 0.000000 0.000000
351388436968540607818412133176047856460149872933224841216.000000 343027578295280523193516940636970702743567076889920012288.000000 0.000000
343027578295280523193516940636970702743567076889920012288.000000 143308962544750140840313186211406484875780790543959719936.000000 0.000000
0.000000 0.000000 0.000000
-7773549630699428069986789026111194056911154856512691634176.000000 3132836032799648096406855895333654329160935374768626991104.000000 0.000000
3132836032799648096406855895333654329160935374768626991104.000000 1494268650612929509233019736429630401499865831038569676800.000000 0.000000
0.000000 0.000000 0.000000
-73308459092308458184896943344683706992314691274458166984704.000000 2524941674908097296744482833888510524969909988524910706688.000000 0.000000
2524941674908097296744482833888510524969909988524910706688.000000 173301612543099046026866527566429052239064516627968032768.000000 0.000000
0.000000 0.000000 0.000000
1001272551701820311993513421597975597085693370736146644992.000000 2309092180319475781210689641708384471658748469690452934656.000000 0.000000
2309092180319475781210689641708384471658748469690452934656.000000 1178773391545279482293025401093353688748044586609832624128.000000 0.000000
0.000000 0.000000 0.000000
29095929548494544254737481778283085937487263039488.000000 29990325838869640935578380154515153502198965469184.000000 0.000000
29990325838869640935578380154515153502198965469184.000000 13066283143194733307897539317152143664836285300736.000000 0.000000
0.000000 0.000000 0.000000
-202208445359281652336384144794085802702008115020960966377472.000000 752820251984510916149669483385223171770874522368345112576.000000 0.000000
752820251984510916149669483385223171770874522368345112576.000000 5627907999144192531683715606712577322454919469779124224.000000 0.000000
0.000000 0.000000 0.000000
-733667089819760842775155543020926450496035950113671086080.000000 783844654014596201858155414964027226275690559176494284800.000000 0.000000
783844654014596201858155414964027226275690559176494284800.000000 447625160969472528287616085265124458655128311259058929664.000000 0.000000
0.000000 0.000000 0.000000
936988623413263039042638520915376476206123215609516785664.000000 2744750162968883886932789580508741282757853203776244023296.000000 0.000000
2744750162968883886932789580508741282757853203776244023296.000000 1433815666138906265099534360275071703424505510132566720512.000000 0.000000
0.000000 0.000000 0.000000
-438152539446219329449431018680397541689866005223472889856.000000 466730621871729593296979090118211546935996519599124250624.000000 0.000000
466730621871729593296979090118211546935996519599124250624.000000 281309627071084400693294172235875450687501800353094959104.000000 0.000000
0.000000 0.000000 0.000000
168494671987140702537242642273186058051914641178624.000000 -21137615355837998999465649155957770011766167699456.000000 0.000000
-21137615355837998999465649155957770011766167699456.000000 4000575981264402651179623077841890183328552714240.000000 0.000000
0.000000 0.000000 0.000000
1299539948082425962307246049846987715200244447736261246976.000000 -2211402636104231181751198563653142420449434182591887441920.000000 0.000000
-2211402636104231181751198563653142420449434182591887441920.000000 1077009139010389329921996143084315543016379861335952850944.000000 0.000000
0.000000 0.000000 0.000000
-31895691813830200021860364248178053138579058903108890394624.000000 22470524420969917931745065082424640207388525159884955582464.000000 0.000000
22470524420969917931745065082424640207388525159884955582464.000000 12317447158466694665719002897023458540865616666236098183168.000000 0.000000
0.000000 0.000000 0.000000
237733773269869301216049691594851794759331287461802278912.000000 -161728559765969107399511017879256429560912868111271591936.000000 0.000000
-161728559765969107399511017879256429560912868111271591936.000000 56961860259593454854015665760501866756315101098131062784.000000 0.000000
0.000000 0.000000 0.000000
-2708923729885861147758626358835839040483948379096752324608.000000 -1170242442199415471528718486730842104472514718631748173824.000000 0.000000
-1170242442199415471528718486730842104472514718631748173824.000000 575491622385704949387101284885443549623149231424313229312.000000 0.000000
0.000000 0.000000 0.000000
-78028453583047976157895823399644396527493984760224546816.000000 -198482470439821635218034568127621714691949668377609371648.000000 0.000000
-198482470439821635218034568127621714691949668377609371648.000000 128833894671285435109783398003954129044781545044916043776.000000 0.000000
0.000000 0.000000 0.000000
3974001216484448290740211157427242621088343911710886723584.000000 1519540804514149466562090231894637745129257603085595836416.000000 0.000000
1519540804514149466562090231894637745129257603085595836416.000000 353189086483036802205054492606696331241433432631891984384.000000 0.000000
0.000000 0.000000 0.000000
1124993476780851770063198285524637579005965453180687876096.000000 2020595163944417940270375542920701193597250254140837199872.000000 0.000000
2020595163944417940270375542920701193597250254140837199872.000000 993342332553674032380153443280413691557378758612950712320.000000 0.000000
0.000000 0.000000 0.000000
-39037834475553134384186009988639384847524330707912818163712.000000 -19729839031923693943586505838296194539195842506711870996480.000000 0.000000
-19729839031923693943586505838296194539195842506711870996480.000000 10113166793887036941847020679606482876546655410777237749760.000000 0.000000
0.000000 0.000000 0.000000
97574865468263619841062428865306638466622579643500199936.000000 106398299969269678468602710683209172570382807182977531904.000000 0.000000
106398299969269678468602710683209172570382807182977531904.000000 46371196917385129792649215145383307143758297171379617792.000000 0.000000
0.000000 0.000000 0.000000
1821169894318315719010733557213969692074179946765088718848.000000 1034185019087109758270008092169233866498818498779164966912.000000 0.000000
1034185019087109758270008092169233866498818498779164966912.000000 331195739273298201478464117358210534074058147300808589312.000000 0.000000
0.000000 0.000000 0.000000
-201043717392897521286957579249092018293349833822056264761344.000000 -27633705092490576460153074899652036556634036631018724655104.000000 0.000000
-27633705092490576460153074899652036556634036631018724655104.000000 6868365651841588716720853058346939411426487835766143582208.000000 0.000000
0.000000 0.000000 0.000000
302019259223804914395627346513723882908086781283816964096.000000 -406682163658245611737842334127816293614362938793688825856.000000 0.000000
-406682163658245611737842334127816293614362938793688825856.000000 188493971134603368709169922957204564497260964315196817408.000000 0.000000
0.000000 0.000000 0.000000
-137313951557282648414790119065004054568586090113950285824.000000 447035691059995990644441550953241679366557857176549851136.000000 0.000000
447035691059995990644441550953241679366557857176549851136.000000 257824627859868940811277813551362659495557903980991348736.000000 0.000000
0.000000 0.000000 0.000000
-24363589309591312176568445079631712748923599029231857696768.000000 -10267917410070557904803436520170664711277977692580939300864.000000 0.000000
-10267917410070557904803436520170664711277977692580939300864.000000 4984521786443352098978290478980140902294992030568057667584.000000 0.000000
0.000000 0.000000 0.000000
-5864029149531748138453842260825161104761385318051978674176.000000 -1417938519014550969085171643744884586414881358731488002048.000000 0.000000
-1417938519014550969085171643744884586414881358731488002048.000000 529288914460502496105400797822315508202736257350680707072.000000 0.000000
0.000000 0.000000 0.000000
700947638764874894467558160113818550080709280848737730560.000000 76070833730268455397368303232667901812875086435549446144.000000 0.000000
76070833730268455397368303232667901812875086435549446144.000000 5460257125165703753215790377122209517091061399742840832.000000 0.000000
0.000000 0.000000 0.000000
600975251222551070467776467202302990720589669531400536064.000000 -251266283795075483656371510405847155961799575363888611328.000000 0.000000
-251266283795075483656371510405847155961799575363888611328.000000 63560442702278034739132628264679840193790298420989132800.000000 0.000000
0.000000 0.000000 0.000000
-149901198888703557209170774103281109468632339623868104704.000000 -468373611736235122191012359224078864203519572162847440896.000000 0.000000
-468373611736235122191012359224078864203519572162847440896.000000 268716806631639711008013033804259517117108507380046364672.000000 0.000000
0.000000 0.000000 0.000000
-58822516807393007411732505157070901843646920527014002688.000000 648219794292713498737818339982316396449353031913358491648.000000 0.000000
648219794292713498737818339982316396449353031913358491648.000000 366393754145168692447274887491063705393869474788301340672.000000 0.000000
0.000000 0.000000 0.000000
-2196634072780691438605339952508496566095348845809491771392.000000 -2040958356051453967034788915204578020783064443838917509120.000000 0.000000
-2040958356051453967034788915204578020783064443838917509120.000000 1153455659754677329064058458319557049985198350911664029696.000000 0.000000
0.000000 0.000000 0.000000
5374141926479899035333125077313382117842004303452204695552.000000 5906885361756920931201321959879411492544222286284146606080.000000 0.000000
5906885361756920931201321959879411492544222286284146606080.000000 2623052757762031500491122881790144619519863674207293407232.000000 0.000000
0.000000 0.000000 0.000000
527947624784822669439180717322046200525011305864894611456.000000 -1821137480559205767550058668319988953948343556413652467712.000000 0.000000
-1821137480559205767550058668319988953948343556413652467712.000000 961661227846550766189479706198632290078684001585445470208.000000 0.000000
0.000000 0.000000 0.000000
52109792006035910415552012486169512107769451641982418944.000000 106474446224860409538683266388230309148221981823042846720.000000 0.000000
106474446224860409538683266388230309148221981823042846720.000000 54046445668388381855491863614928273239521009067364450304.000000 0.000000
0.000000 0.000000 0.000000
-8823915036669050196599876666709582107605830633465032212480.000000 -5994032096378579094986068262035293533733517068770775924736.000000 0.000000
-5994032096378579094986068262035293533733517068770775924736.000000 3305882190159436777059428601003434321412738171805238296576.000000 0.000000
0.000000 0.000000 0.000000
25298130130998899101056597045443901797673234766015462637568.000000 -5407436318296279606727597304549253331856707088290494283776.000000 0.000000
-5407436318296279606727597304549253331856707088290494283776.000000 749768890969142569075300467240089449950257579651873374208.000000 0.000000
0.000000 0.000000 0.000000
-309159373565838144906244143548262085595933796599299410231296.000000 -20528728472703126869486100823167216802172056202984921497600.000000 0.000000
-20528728472703126869486100823167216802172056202984921497600.000000 2656202309542869948311696209402678197094031263415949852672.000000 0.000000
0.000000 0.000000 0.000000
4710367236114615523756220171835114054289944902872126717952.000000 8924779175866778103957056700844691273341777813707553767424.000000 0.000000
8924779175866778103957056700844691273341777813707553767424.000000 4425788683614531920935537966575383944572541882522901938176.000000 0.000000
0.000000 0.000000 0.000000
279297980039584364495285114357442756737213312796251389952.000000 199602600649222293010657249877858412859629245025941979136.000000 0.000000
199602600649222293010657249877858412859629245025941979136.000000 73945134505412706765567315404291750894508548851104743424.000000 0.000000
0.000000 0.000000 0.000000
-95824059956950325338231120914799879206142849462495575277568.000000 4789902202520708068801253339012232977849180964984010571776.000000 0.000000
4789902202520708068801253339012232977849180964984010571776.000000 471752693652567852120166452401500869864428785223126220800.000000 0.000000
0.000000 0.000000 0.000000
1311657895983952478039421862513231917826794697802087661568.000000 968486105546397035909110437047386141629561585062192873472.000000 0.000000
968486105546397035909110437047386141629561585062192873472.000000 355461074021379862236742319022268236041278402042391429120.000000 0.000000
0.000000 0.000000 0.000000
-386747518898020422533085716050969531898628384335641706496.000000 2274851341428040508963568509537247559554370222042231341056.000000 0.000000
2274851341428040508963568509537247559554370222042231341056.000000 1293141580030283225696613450725112658432363026945325137920.000000 0.000000
0.000000 0.000000 0.000000
3517636580201987071163752862695895414422884320610013413376.000000 5901106930537681666127216757386690793375256974035876052992.000000 0.000000
5901106930537681666127216757386690793375256974035876052992.000000 2866644298764749200313849342755603532371179525423142797312.000000 0.000000
0.000000 0.000000 0.000000
1153110496073493365383792429794885309848107106440189050880.000000 -28004018563135175734880680855504761809666844831860654080.000000 0.000000
-28004018563135175734880680855504761809666844831860654080.000000 4505532972593846767442848200715041576869252627670499328.000000 0.000000
0.000000 0.000000 0.000000
-1540265087668377189094888130267333460101890084272340992.000000 -362079859500808361899323495955825880845553721280485654528.000000 0.000000
-362079859500808361899323495955825880845553721280485654528.000000 201478430564261063629835098348928344101578752058544095232.000000 0.000000
0.000000 0.000000 0.000000
94508939355788922487258129536447451608485592417515339776.000000 -189564215014316991345664511823821423081735536704147685376.000000 0.000000
-189564215014316991345664511823821423081735536704147685376.000000 94787033705295506921597642821424002026171101567420203008.000000 0.000000
0.000000 0.000000 0.000000
6860562562240523999653107278661199004209830412076112150528.000000 -3775160933209114592554653556707621774535147541012120862720.000000 0.000000
-3775160933209114592554653556707621774535147541012120862720.000000 1157239135388960135144092068494599452414005139382877552640.000000 0.000000
0.000000 0.000000 0.000000
-109127992646420902726707235737762524643147420384425410560.000000 584809102441416741234029639927625402177652475934353129472.000000 0.000000
584809102441416741234029639927625402177652475934353129472.000000 332380033180300260581945744639029755955539473493185789952.000000 0.000000
0.000000 0.000000 0.000000
2636701064070614486209022173249169305007281104449859223552.000000 -765134037120043631817116402670356705195641111425396506624.000000 0.000000
-765134037120043631817116402670356705195641111425396506624.000000 142523149264693871445046597832295284335199011858896912384.000000 0.000000
0.000000 0.000000 0.000000
7680042637924059415996158226297632703333820530248034287616.000000 8922885895661287730534214827197766358062848085655782686720.000000 0.000000
8922885895661287730534214827197766358062848085655782686720.000000 3963300058844097122611215018094129925085392138872981291008.000000 0.000000
0.000000 0.000000 0.000000
3569838110660053709771996522774149561187002561266037293056.000000 854167897608347027179447871692649788721162566909850288128.000000 0.000000
854167897608347027179447871692649788721162566909850288128.000000 132177775860524726196088396596289911188813165625411108864.000000 0.000000
0.000000 0.000000 0.000000
4598610350936000902777285857397271827330684532096264830976.000000 4350704454672906912447970938033738860208139610804939915264.000000 0.000000
4350704454672906912447970938033738860208139610804939915264.000000 1794982789093550302397873984321695483876040584199034372096.000000 0.000000
0.000000 0.000000 0.000000
1992384388460168305442959451080585216533136692034983165952.000000 -1734791051309021731642215003270631770167031187565340262400.000000 0.000000
-1734791051309021731642215003270631770167031187565340262400.000000 690695355989431754017253096287385245980322801718650732544.000000 0.000000
0.000000 0.000000 0.000000
1374302069037097889288201392585066056436163906674614075392.000000 -695207892098297926558551568526056969149094971639685185536.000000 0.000000
-695207892098297926558551568526056969149094971639685185536.000000 200934974754218737968066358271574212691771420402014748672.000000 0.000000
0.000000 0.000000 0.000000
78428880921499940305355809548170479765039133308680667136.000000 111917985364510274947502145069968435222395711546143539200.000000 0.000000
111917985364510274947502145069968435222395711546143539200.000000 52563144100197990766052255177095625071108221146320863232.000000 0.000000
0.000000 0.000000 0.000000
-6492214697277079684626323276793892073620324753435762098176.000000 -4141482118236642250894789210405340867613872563493628018688.000000 0.000000
-4141482118236642250894789210405340867613872563493628018688.000000 2233287610132579070657911975882444210012931262680169185280.000000 0.000000
0.000000 0.000000 0.000000
-291908705960231427294893105619511734390829533566125043875840.000000 26264791940808426448732215391148092536055624224169554608128.000000 0.000000
26264791940808426448732215391148092536055624224169554608128.000000 4512278753905797609823072204074664582861679502095407906816.000000 0.000000
0.000000 0.000000 0.000000
-554488194475134041407309088430661150849941282949643108352.000000 -13337636887816713972402589107527190638942034179433045164032.000000 0.000000
-13337636887816713972402589107527190638942034179433045164032.000000 7457553105828814313113042982990730188501481756715403706368.000000 0.000000
0.000000 0.000000 0.000000
-423239364518290001720538786241380404669220222906469051269120.000000 5408332721219166593869988391189923905650058685808038117376.000000 0.000000
5408332721219166593869988391189923905650058685808038117376.000000 138715385606896620517472188271844244924638811068466987008.000000 0.000000
0.000000 0.000000 0.000000
-558575559823726923145403187448218071499742450260889305088.000000 653320449944795622122624689675685891005195314952568569856.000000 0.000000
653320449944795622122624689675685891005195314952568569856.000000 374625861320866414095332121012442412477507038737955028992.000000 0.000000
0.000000 0.000000 0.000000
8545535785537206395805263676051474065217715654201050136576.000000 -2398969370995980580111157267918053085716132975863509549056.000000 0.000000
-2398969370995980580111157267918053085716132975863509549056.000000 426559528337311569760579805269735797169054365241300746240.000000 0.000000
0.000000 0.000000 0.000000
51149094763816776772941828158552864672096335866896580608.000000 72165351627425997282416773015263173713846354049478164480.000000 0.000000
72165351627425997282416773015263173713846354049478164480.000000 31650994877279804447916183928932040567508746343356039168.000000 0.000000
0.000000 0.000000 0.000000
1964154854990465764659094129051236089550780187213475872768.000000 1271069188333302919805240827335012957685760934425097404416.000000 0.000000
1271069188333302919805240827335012957685760934425097404416.000000 432876264290306512300895091856408300801386259144658386944.000000 0.000000
0.000000 0.000000 0.000000
53527054656520293455756357334847538851546811472396943360.000000 37189435367232159873090221938394010923854746972122513408.000000 0.000000
37189435367232159873090221938394010923854746972122513408.000000 8127284464666653575150089352905753385141636081496621056.000000 0.000000
0.000000 0.000000 0.000000
49908605626177354449603402583675984633228669268764131328.000000 -15063054958733112818098384804439631888041197600807845888.000000 0.000000
-15063054958733112818098384804439631888041197600807845888.000000 2857460023360988437137281968806431961066500896015253504.000000 0.000000
0.000000 0.000000 0.000000
207558038414332841866401960151751014199064792865389412352.000000 878857890022652865796088983640911981459506800733926195200.000000 0.000000
878857890022652865796088983640911981459506800733926195200.000000 477658396726804319642347897890116230319568015371859394560.000000 0.000000
0.000000 0.000000 0.000000
13489697606449066617752069111148891950203015777136672768.000000 -3874876257241672277493737335975854961315022338596871864320.000000 0.000000
-3874876257241672277493737335975854961315022338596871864320.000000 2153610910770847592289966097101814009712525700930025291776.000000 0.000000
0.000000 0.000000 0.000000
-13907007475950135878831211776142361786721193820120070225920.000000 1637400486226237329540741553737608047851873811071259115520.000000 0.000000
1637400486226237329540741553737608047851873811071259115520.000000 356967996541596963098306402362762032540996121737471983616.000000 0.000000
0.000000 0.000000 0.000000
709342099683996853029140574408537546135481425228992610304.000000 -1494645041536909552220974889334740679514018358374300647424.000000 0.000000
-1494645041536909552220974889334740679514018358374300647424.000000 759759154798148317722324296039200624575222037702770688000.000000 0.000000
0.000000 0.000000 0.000000
3255466678478599029658094684928143132277401212755707428864.000000 -2368864097398427850064644185305629442047419723740484730880.000000 0.000000
-2368864097398427850064644185305629442047419723740484730880.000000 862646183850108462046758263085678162528473662508364726272.000000 0.000000
0.000000 0.000000 0.000000
105999055287093378697171669593518324859470558468667080704.000000 1236674265398744887320128897380315559501481441234706759680.000000 0.000000
1236674265398744887320128897380315559501481441234706759680.000000 678666766704001155314584871944810679937342436540701212672.000000 0.000000
0.000000 0.000000 0.000000
12821528558821390292702617362619225466810737254471542243328.000000 -1799653243092417290759144324652718597728307099689554018304.000000 0.000000
-1799653243092417290759144324652718597728307099689554018304.000000 166433806345656360269429574033552730996295711184205643776.000000 0.000000
0.000000 0.000000 0.000000
7945645448138590692883367249897931453352680489804699271168.000000 -6163366231564821142651940822096863147109654461656143495168.000000 0.000000
-6163366231564821142651940822096863147109654461656143495168.000000 2321439121391311749962902836440111776416092385058349907968.000000 0.000000
0.000000 0.000000 0.000000
-560734153952074431590241888927360442592361929386573692928.000000 -1917740867046002745574181876071900271781854911111249264640.000000 0.000000
-1917740867046002745574181876071900271781854911111249264640.000000 1112232323426807208462629287840045548098362972956381937664.000000 0.000000
0.000000 0.000000 0.000000
-160107756461013057789353216746198218890627102953870842658816.000000 5155531084699461542547714153966508761917641444996665049088.000000 0.000000
5155531084699461542547714153966508761917641444996665049088.000000 330072003715282293798105431062568309496629313437912006656.000000 0.000000
0.000000 0.000000 0.000000
12436712440297785310957683493066968191684192262268865478656.000000 12030925503664885824618284690041996339684763087006563565568.000000 0.000000
12030925503664885824618284690041996339684763087006563565568.000000 5032167352545638509954226857916115619051126129319544356864.000000 0.000000
0.000000 0.000000 0.000000
222738942111870389137333949008893349347875228265899622400.000000 -58086035473989979656056323383944084123080987973481660416.000000 0.000000
-58086035473989979656056323383944084123080987973481660416.000000 9660146738839304171481140167433485300743597907440041984.000000 0.000000
0.000000 0.000000 0.000000
-41246447719194217716164275676143781141999951417759796035584.000000 -10791250799931750963378501817517004934925651084549101191168.000000 0.000000
-10791250799931750963378501817517004934925651084549101191168.000000 4273160724511134996686167046721627374465372264475666677760.000000 0.000000
0.000000 0.000000 0.000000
-4162776603008526583629735169867566887291422806615523328.000000 -7387824733197409358734311542973707096916458247028736.000000 0.000000
-7387824733197409358734311542973707096916458247028736.000000 71187676964066372698625204056530883184216302944256.000000 0.000000
0.000000 0.000000 0.000000
-106655886038947068404741083188334293453471597827901620224.000000 961270669851955481712011161791083336295342789558829842432.000000 0.000000
961270669851955481712011161791083336295342789558829842432.000000 541136691537571207590341621081844658195913916185975980032.000000 0.000000
0.000000 0.000000 0.000000
-8210849217454792580391431133034958050859801971924140032.000000 -171075228256570742753226898407920989676100967899305345024.000000 0.000000
-171075228256570742753226898407920989676100967899305345024.000000 97324948378062731764739549220686853073802301404522479616.000000 0.000000
0.000000 0.000000 0.000000
-649029514370310154217481678381177634845831103548059811840.000000 1589858062276902413989758076160114292101535425961874423808.000000 0.000000
1589858062276902413989758076160114292101535425961874423808.000000 1013222840377802847260585789090785704979213078950263652352.000000 0.000000
0.000000 0.000000 0.000000
-56427442185071288556502013445595806064905649244720764813312.000000 3423315527510301335512904479772998127645950558617691226112.000000 0.000000
3423315527510301335512904479772998127645950558617691226112.000000 408869809579031744046754579643553282713494624365136838656.000000 0.000000
0.000000 0.000000 0.000000
3535950496800449545065990684726520022955355332769585561600.000000 -2169292319327973992120063887172370915511397560528928768000.000000 0.000000
-2169292319327973992120063887172370915511397560528928768000.000000 714612574665667810325966557576239799539146263153499701248.000000 0.000000
0.000000 0.000000 0.000000
-58234866444335399543345527073582312426538064105547344379904.000000 -182344183441995713041825503600194289193508678939824881664.000000 0.000000
-182344183441995713041825503600194289193508678939824881664.000000 1578913700090998981198399961864478667684787580590620672.000000 0.000000
0.000000 0.000000 0.000000
1488904146857212487219921568685007599468758910644770570240.000000 -1653007750608438797599648287236561497785863946986997153792.000000 0.000000
-1653007750608438797599648287236561497785863946986997153792.000000 723487781505606948004407429117146191993026346993722589184.000000 0.000000
0.000000 0.000000 0.000000
1231332569638866647917887146031138711397760970145270857728.000000 -1752117535078829691705199442763387952069244710836798226432.000000 0.000000
-1752117535078829691705199442763387952069244710836798226432.000000 825730596906373877183093660123207850769423323458590212096.000000 0.000000
0.000000 0.000000 0.000000
383594476236985881271582593219264432157776804930289401856.000000 -186956519805741485044508379277652183829780890505298575360.000000 0.000000
-186956519805741485044508379277652183829780890505298575360.000000 52560709156076304961381109071031480445669742608056844288.000000 0.000000
0.000000 0.000000 0.000000
987488160223599262370852007153464857538563923166070046720.000000 886287143036838702123499578317537341681681946324485799936.000000 0.000000
886287143036838702123499578317537341681681946324485799936.000000 370098734193968447536355971974912709487529942150492979200.000000 0.000000
0.000000 0.000000 0.000000
6855985501235680092821478506733207814948224070601146368.000000 -2547494450339137348355986987836513965361740537414025216.000000 0.000000
-2547494450339137348355986987836513965361740537414025216.000000 1502669303166892808457801477528960711896702458854899712.000000 0.000000
0.000000 0.000000 0.000000
-210162659279305320850872115397278051148187736199595850465280.000000 -31131901776988250905563987159947320448722585624052546666496.000000 0.000000
-31131901776988250905563987159947320448722585624052546666496.000000 8218248944416794268410405075662182541428472264405580513280.000000 0.000000
0.000000 0.000000 0.000000
146455185410543355331452714899253121117370626080768.000000 -50739391734226002749275265317392774570658104344576.000000 0.000000
-50739391734226002749275265317392774570658104344576.000000 10858259108152795183681722795719860884325149966336.000000 0.000000
0.000000 0.000000 0.000000
9631968289197659391762931077805950050015593733562296172544.000000 16964049283484731750539259755808106801893569909766924271616.000000 0.000000
16964049283484731750539259755808106801893569909766924271616.000000 8312426234344512324867322565250799448538168134317293699072.000000 0.000000
0.000000 0.000000 0.000000
498098686429371685522980887529047972778111227920384.000000 -329108550827518536973476322822743541572093897342976.000000 0.000000
-329108550827518536973476322822743541572093897342976.000000 114059398804802025241667096060192403097958725189632.000000 0.000000
0.000000 0.000000 0.000000
9357376401011593832745101511525193076763630091253424586752.000000 -5463815001084322866167900023868524250409818260067697295360.000000 0.000000
-5463815001084322866167900023868524250409818260067697295360.000000 1742914374760214789782302587541399467502811021078293381120.000000 0.000000
0.000000 0.000000 0.000000
-3472249512412055624931783172249046744152743050147123953664.000000 -6987002168557248824756071171911783163671593353733677776896.000000 0.000000
-6987002168557248824756071171911783163671593353733677776896.000000 4038254100660958699991173011130565077353960112371034750976.000000 0.000000
0.000000 0.000000 0.000000
2332544526252717797479448134359244129598900058214925074432.000000 2123546165215053322671220772525708624095821031704363008000.000000 0.000000
2123546165215053322671220772525708624095821031704363008000.000000 862164795094901468801646817522596962209543305492921581568.000000 0.000000
0.000000 0.000000 0.000000
22763411792013044081989371327544965047751781406908350464.000000 -125368365426030954904815235382852944840607170941228679168.000000 0.000000
-125368365426030954904815235382852944840607170941228679168.000000 67749332045703972108068079944564409064776579726291501056.000000 0.000000
0.000000 0.000000 0.000000
2828895175359635841336662400169611403934505552497558421504.000000 -2266962932622915606762383786262908698564001411460394647552.000000 0.000000
-2266962932622915606762383786262908698564001411460394647552.000000 895338365392963510485795165147039573205434732301877510144.000000 0.000000
0.000000 0.000000 0.000000
18033701698795453684865363878225411440112321082277100519424.000000 5362679998077778312372862385813581889386444668933846859776.000000 0.000000
5362679998077778312372862385813581889386444668933846859776.000000 1003554848491585972594347910969447822304061737013589573632.000000 0.000000
0.000000 0.000000 0.000000
13322647413500031163915782247540751696372337497460952793088.000000 3184520150230211586462302277707177194192268774154818289664.000000 0.000000
3184520150230211586462302277707177194192268774154818289664.000000 489003682988778583689171466367121374952561715812107288576.000000 0.000000
0.000000 0.000000 0.000000
6484709004077978473936766860310688188271381044849998299136.000000 -433414405212702471959899007180565880263970967742922620928.000000 0.000000
-433414405212702471959899007180565880263970967742922620928.000000 19252351426802057808884055161368373629871546064839901184.000000 0.000000
0.000000 0.000000 0.000000
9618057871500973697869644301280718987181785749065931161600.000000 -5620484225506458109161222529813522998826999051117341442048.000000 0.000000
-5620484225506458109161222529813522998826999051117341442048.000000 1849908746354415681360491437336004960502155426957895925760.000000 0.000000
0.000000 0.000000 0.000000
1574818941470058837047257399092887415440585895268319232.000000 -170290042061777732645953987413115899232027253195931648.000000 0.000000
-170290042061777732645953987413115899232027253195931648.000000 12185407864759024646358069392887588429309445838733312.000000 0.000000
0.000000 0.000000 0.000000
309654731576188729823744143381153496345151479716207656960.000000 441624224110899055616236694298034737300809093339351613440.000000 0.000000
441624224110899055616236694298034737300809093339351613440.000000 207384470991095688854069943009218072361398702223535374336.000000 0.000000
0.000000 0.000000 0.000000
-1150980041241651537470723490186172877629613483872120471552.000000 -654075805375368703367433232598680409368785189295683010560.000000 0.000000
-654075805375368703367433232598680409368785189295683010560.000000 347154364755863346280168295287356526472596466882687533056.000000 0.000000
0.000000 0.000000 0.000000
-9633847138553651919030469402616664743499885083861845016576.000000 -328000115137385836274092123408655751493521405151883034624.000000 0.000000
-328000115137385836274092123408655751493521405151883034624.000000 71983430905361686498782751514682747235497478976278888448.000000 0.000000
0.000000 0.000000 0.000000
-1435446235650702187095735815387484360154110319968949108736.000000 -6053700407879607620755772686512995040629880258231703437312.000000 0.000000
-6053700407879607620755772686512995040629880258231703437312.000000 3472465618645354360688330425908223446976812756287694569472.000000 0.000000
0.000000 0.000000 0.000000
-668619742776983104285628367213884448109540053540319264768.000000 -5291992701927759495690542336611105987429552644206935146496.000000 0.000000
-5291992701927759495690542336611105987429552644206935146496.000000 2988336727798704455471823188038724722975115949569248067584.000000 0.000000
0.000000 0.000000 0.000000
282764732377600362665950957100787189995340238346518528.000000 -96546747865899644940754881928441974723996736202735616.000000 0.000000
-96546747865899644940754881928441974723996736202735616.000000 20390929720979719693735611784808046391561408326139904.000000 0.000000
0.000000 0.000000 0.000000
852798822585550502201439764456073865574112365193340125184.000000 -1312856182235942986189475946219610036472337254977407811584.000000 0.000000
-1312856182235942986189475946219610036472337254977407811584.000000 627363773730957769306937491797820011471239721768798126080.000000 0.000000
0.000000 0.000000 0.000000
307428520427534899899031001454156430288680186368353107968.000000 147279599040264297255487744038013987630261888985780453376.000000 0.000000
147279599040264297255487744038013987630261888985780453376.000000 40880782612334266976180702502462775120413570413541457920.000000 0.000000
0.000000 0.000000 0.000000
5649754951290798170547616066919041202689556279219338608640.000000 -1595508058291808265691103790658860578315067159010808430592.000000 0.000000
-1595508058291808265691103790658860578315067159010808430592.000000 309701488914188458725084205979784994205985630823387234304.000000 0.000000
0.000000 0.000000 0.000000
2409300905375598983501603386715345134813020521243927904256.000000 -1057221024568392002169557476068104623949205828455033208832.000000 0.000000
-1057221024568392002169557476068104623949205828455033208832.000000 274487562725705030294588616947610002734376529751810506752.000000 0.000000
0.000000 0.000000 0.000000
1281376043337749166172480954973665817811000541138911232.000000 -16283764330322377992262582822393927023750731920310272.000000 0.000000
-16283764330322377992262582822393927023750731920310272.000000 138956700123177057623004493272492332380231900856320.000000 0.000000
0.000000 0.000000 0.000000
259475061833727653752406607639280416160614093138402738176.000000 -44278995102253032064346769334603652498159489874804080640.000000 0.000000
-44278995102253032064346769334603652498159489874804080640.000000 8927712860694436208833442814152343468018739762329288704.000000 0.000000
0.000000 0.000000 0.000000
601113167375610868390405209677956464172626097934203617280.000000 -4424060670394785799045800318142111272034545148354363392.000000 0.000000
-4424060670394785799045800318142111272034545148354363392.000000 273609534972709564559630410527072603326739003996110848.000000 0.000000
0.000000 0.000000 0.000000
-190489179212399111854877297347547014191805750640300261376.000000 29312477353747642295683366151849034083545285697294303232.000000 0.000000
29312477353747642295683366151849034083545285697294303232.000000 7974586623809067766278265302377124219770917028431396864.000000 0.000000
0.000000 0.000000 0.000000
-890411512816722700589130332266899805108098879681472757760.000000 -348334925457248633995802205422265314313921720227886792704.000000 0.000000
-348334925457248633995802205422265314313921720227886792704.000000 164640375246004133773952722209627579312185099631091253248.000000 0.000000
0.000000 0.000000 0.000000
-6704552947525397683395835559505589029787834241362327240704.000000 -1127496047473666494167563215935589993556288734997818376192.000000 0.000000
-1127496047473666494167563215935589993556288734997818376192.000000 328060669614899813274142087885399840834277013993765732352.000000 0.000000
0.000000 0.000000 0.000000
715402256107912726955950589192417775948090165660051570688.000000 -1182072865323436635604184202109320182763749837936080715776.000000 0.000000
-1182072865323436635604184202109320182763749837936080715776.000000 572599882342963453363270385525049880691287228154359316480.000000 0.000000
0.000000 0.000000 0.000000
-9388640623966500588373344859026363918602751388742049595392.000000 1442176473767478226785692664502144537787430006752301547520.000000 0.000000
1442176473767478226785692664502144537787430006752301547520.000000 391104287067720436113703829940442582305777005189287378944.000000 0.000000
0.000000 0.000000 0.000000
-23404762543997050481864620550948434858805056331841536.000000 -312344571201326965901024752515085846067897237550137344.000000 0.000000
-312344571201326965901024752515085846067897237550137344.000000 175384189636978112031157751368074840007023874048786432.000000 0.000000
0.000000 0.000000 0.000000
119361456950725837020373619959790000639065741305600540672.000000 -80550601000398886679462120070991756929616404791825530880.000000 0.000000
-80550601000398886679462120070991756929616404791825530880.000000 28159500475473741688659112076848276922287189889946484736.000000 0.000000
0.000000 0.000000 0.000000
7400662733558298464220818353603272981403121060944388554752.000000 1921781485765366266549508335721855199071336242186249306112.000000 0.000000
1921781485765366266549508335721855199071336242186249306112.000000 328148047895862840898304058483069803588321219751943602176.000000 0.000000
0.000000 0.000000 0.000000
9458207750841169238720906118220491082226432069089657618432.000000 9364676366949999496030724065012730093099967955654926139392.000000 0.000000
9364676366949999496030724065012730093099967955654926139392.000000 3959073620303041452216463813883032341976406448993143357440.000000 0.000000
0.000000 0.000000 0.000000
-9272842927586219616699649977861555718903380008027291648.000000 1424689187002380299649936582596316484636957954208169984.000000 0.000000
1424689187002380299649936582596316484636957954208169984.000000 388383778375907098782561810102546363502390323418497024.000000 0.000000
0.000000 0.000000 0.000000
-11337868506706930685241266970396524077023044948246130589696.000000 -3708629113350039130348088342615426630942619305539717300224.000000 0.000000
-3708629113350039130348088342615426630942619305539717300224.000000 1628192644886241017103541901929990143086267069856703578112.000000 0.000000
0.000000 0.000000 0.000000
247174518069741077277878171600927599548072991780673421312.000000 -1670746466638359066804848450116879368888769436836557750272.000000 0.000000
-1670746466638359066804848450116879368888769436836557750272.000000 993310102944683844043526685997058373893386402404138745856.000000 0.000000
0.000000 0.000000 0.000000
14919421405901895104987537334765959964134256452716961202176.000000 -9870113031743443035143412848111184560305729891476474691584.000000 0.000000
-9870113031743443035143412848111184560305729891476474691584.000000 3404560890640773977609654870258844749632165391340627034112.000000 0.000000
0.000000 0.000000 0.000000
4287073339579899182261178620130906389064963258953999843328.000000 -6170376661852567109911503418864292672146350266973985701888.000000 0.000000
-6170376661852567109911503418864292672146350266973985701888.000000 2971062221485241218790071285833084109561443807936032800768.000000 0.000000
0.000000 0.000000 0.000000
603876063371706046165265715160458951692554046330378387456.000000 -148125238144156396378396884620426826314814487734974939136.000000 0.000000
-148125238144156396378396884620426826314814487734974939136.000000 23361783262989681114988325318370122607095868634486013952.000000 0.000000
0.000000 0.000000 0.000000
-29698470627544317940782840574209861821179546632048085041152.000000 -5905935205500911907610468090491858631346122875883113938944.000000 0.000000
-5905935205500911907610468090491858631346122875883113938944.000000 1933569372399120708394092345408238516070742884094234853376.000000 0.000000
0.000000 0.000000 0.000000
2922293759675411750642540991261679428216089444404428800.000000 -105164693745874096335222552563707330619054516661649408.000000 0.000000
-105164693745874096335222552563707330619054516661649408.000000 2520854153971296398960407602622931900671847150125056.000000 0.000000
0.000000 0.000000 0.000000
606521658155630066946847548322162444120161689750688759808.000000 -333125039827074308573757890163430606086522753526827843584.000000 0.000000
-333125039827074308573757890163430606086522753526827843584.000000 103237246053358370470456675792762786274632108803528589312.000000 0.000000
0.000000 0.000000 0.000000
-19078748883233987573691195651160388801386408159367584022528.000000 -1992838836695762537684783862653635199836402179490648686592.000000 0.000000
-1992838836695762537684783862653635199836402179490648686592.000000 391698346359282468432749670839214969641605192759673618432.000000 0.000000
0.000000 0.000000 0.000000
129801882367220571684251065554923231987755058497432059904.000000 -155223516346776377074942821875168111686670906052529094656.000000 0.000000
-155223516346776377074942821875168111686670906052529094656.000000 70296388348106144454061621374797103849849871691121950720.000000 0.000000
0.000000 0.000000 0.000000
2320782215661360809556980632391071015693910602678842425344.000000 -4454777922377500381906607683356689885962261943023080308736.000000 0.000000
-4454777922377500381906607683356689885962261943023080308736.000000 2215478755164092839287946816331569620677059297436657254400.000000 0.000000
0.000000 0.000000 0.000000
13420725223654002912994337772809644423564717472342003941376.000000 -33739690627751779726435820783194603472111206447276047204352.000000 0.000000
-33739690627751779726435820783194603472111206447276047204352.000000 17342199070503881655252212862189296343499911701497567510528.000000 0.000000
0.000000 0.000000 0.000000
462164011867337960755637055200373813868654638510888714240.000000 542468145102354502691877628940914555022498075959657234432.000000 0.000000
542468145102354502691877628940914555022498075959657234432.000000 241839512837171439284883868671452729163401373361486430208.000000 0.000000
0.000000 0.000000 0.000000
-1544061023517383215002466201381496052827332406157307281408.000000 -2690367387107249216242697307652861918959217984611947642880.000000 0.000000
-2690367387107249216242697307652861918959217984611947642880.000000 1592667655567421245096631186998388582214843488184857264128.000000 0.000000
0.000000 0.000000 0.000000
690320916033153303932428893929217268988469898783813009408.000000 -3171594098385041420361239915798303574905103719090433818624.000000 0.000000
-3171594098385041420361239915798303574905103719090433818624.000000 1719242663691666592595231849672665088053760701025283473408.000000 0.000000
0.000000 0.000000 0.000000
10249109418355631569544711899056633234045531653194538549248.000000 8279696194924905102212502773974493942070624436009662676992.000000 0.000000
8279696194924905102212502773974493942070624436009662676992.000000 3182934243486523016716423437717833653272827607287192354816.000000 0.000000
0.000000 0.000000 0.000000
-92361629984565475130408854260588584242353737415478835412992.000000 -44925549962074619289799814906087164385537434438353960304640.000000 0.000000
-44925549962074619289799814906087164385537434438353960304640.000000 22801772658298608111164434254551325692309241791836544040960.000000 0.000000
0.000000 0.000000 0.000000
-2276996134730714019402589984229209418554729065384186998148825088.000000 3393473356179556851486021624864001934195252611944124306685952.000000 0.000000
3393473356179556851486021624864001934195252611944124306685952.000000 10124545643527339007174450845967416462689476580031542067200.000000 0.000000
0.000000 0.000000 0.000000
30365124261031728176520114844339779944502264954890485760.000000 -173379946790224774812498187398735617439465262484381761536.000000 0.000000
-173379946790224774812498187398735617439465262484381761536.000000 93919458139885573432470708090367106380354587676614066176.000000 0.000000
0.000000 0.000000 0.000000
-446422361440217127466248796650450372185216719907096363008.000000 -36057471138877024728836995961810010794888608732141322240.000000 0.000000
-36057471138877024728836995961810010794888608732141322240.000000 5608657598613353879741154894341203415872418865391599616.000000 0.000000
0.000000 0.000000 0.000000
4080734959754868767223140269498725391155078904807449165824.000000 2412277183551149733563485552262156688370507712354188263424.000000 0.000000
2412277183551149733563485552262156688370507712354188263424.000000 775726918336077853081266571236958498703967642684835758080.000000 0.000000
0.000000 0.000000 0.000000
-92601290489391214520758381163651934217143114630304890880.000000 -66703359532207104455345746523923632281943759851622498304.000000 0.000000
-66703359532207104455345746523923632281943759851622498304.000000 36719656149115354447832983960990118850759857106654855168.000000 0.000000
0.000000 0.000000 0.000000
-1095767065453926200184352743931442416010479593272165531648.000000 537495563021758305634208608156630516600592462612304756736.000000 0.000000
537495563021758305634208608156630516600592462612304756736.000000 273455551523467027465977919775843799000641828801224900608.000000 0.000000
0.000000 0.000000 0.000000
1893167612770491392262183678139481288424479707437048266752.000000 -1025828973786648134159769247744350672249804118997141028864.000000 0.000000
-1025828973786648134159769247744350672249804118997141028864.000000 311162141447036430022229291020225184863389782306554118144.000000 0.000000
0.000000 0.000000 0.000000
-4991107404542358633637460987596963985363989032487027212288.000000 8083119211644248696255181876140424148511598087637653520384.000000 0.000000
8083119211644248696255181876140424148511598087637653520384.000000 4694014323152336281876224957157924348427266327694469496832.000000 0.000000
0.000000 0.000000 0.000000
6797705891440515096497894810107371725194464775092217839616.000000 763754097980224952736634240860738582132965086985677963264.000000 0.000000
763754097980224952736634240860738582132965086985677963264.000000 57146678590870593357443760828475431866524881209429852160.000000 0.000000
0.000000 0.000000 0.000000
10936691507266804638462732016163971098945193931716952064.000000 -9192623000463154026434124040484095976885620128570408960.000000 0.000000
-9192623000463154026434124040484095976885620128570408960.000000 3682785458640955545920427625629156273618148800495353856.000000 0.000000
0.000000 0.000000 0.000000
161058449878669467541006237956689188513861011355667005440.000000 -228770346807156611196642150458186137764389048174002569216.000000 0.000000
-228770346807156611196642150458186137764389048174002569216.000000 107360969364630277336552320797707156649554809405803855872.000000 0.000000
0.000000 0.000000 0.000000
-469538573240976277184557743943245571622265778075162640384.000000 -40275453152633262418326043964923490906960429057409286144.000000 0.000000
-40275453152633262418326043964923490906960429057409286144.000000 6622815850568854931969590540699235678885376609358970880.000000 0.000000
0.000000 0.000000 0.000000
3599531998105545186690233230040792371839934259526639812608.000000 -6303825995042709646599143041805252274122307608854917021696.000000 0.000000
-6303825995042709646599143041805252274122307608854917021696.000000 3124574878540976414274405367266202198848404892191169708032.000000 0.000000
0.000000 0.000000 0.000000
543602444506102050240704218700492527946618560588021760.000000 222733428516235560063773970522235104100566582069035008.000000 0.000000
222733428516235560063773970522235104100566582069035008.000000 54975199837875447827741672348466252932149769731571712.000000 0.000000
0.000000 0.000000 0.000000
-44547887382685751487295036578798577905837268500112998400.000000 12699102013199580118888152937947925517449229784236163072.000000 0.000000
12699102013199580118888152937947925517449229784236163072.000000 5203324377890019942802650766608322761064629269094727680.000000 0.000000
0.000000 0.000000 0.000000
-52464873772156960881350664493058674899969957481401116786688.000000 25142196723426738332033407262057875041372446769815278845952.000000 0.000000
25142196723426738332033407262057875041372446769815278845952.000000 12715121765131647605988795211270998290737812839971791306752.000000 0.000000
0.000000 0.000000 0.000000
818803344880750461813399420831406553615355595467316527104.000000 -187436462040506257751247742798183707152830023638529867776.000000 0.000000
-187436462040506257751247742798183707152830023638529867776.000000 27636823504813049311598541055193169321296908313197281280.000000 0.000000
0.000000 0.000000 0.000000
-3435202707761861864897132582272010069271039952646962151424.000000 2870334673634829949953021024455154319773992324551124451328.000000 0.000000
2870334673634829949953021024455154319773992324551124451328.000000 1608790283057453362409073602888862480398694207465281552384.000000 0.000000
0.000000 0.000000 0.000000
-1754518642533317291186119308809074238267210119862154166272.000000 -226499654764469428311539966463830598353687448810638278656.000000 0.000000
-226499654764469428311539966463830598353687448810638278656.000000 53943129258233718835153529977536107277646822577623007232.000000 0.000000
0.000000 0.000000 0.000000
457462475327808867114917587336256933064954859661295616.000000 -137569943446905235258378125418913841726030872945098752.000000 0.000000
-137569943446905235258378125418913841726030872945098752.000000 26034381653202802028679144755546325988725160864120832.000000 0.000000
0.000000 0.000000 0.000000
-838804857422325716936133659080620557342229964204802048.000000 -2623975488534854578043379296458436624300615205497339904.000000 0.000000
-2623975488534854578043379296458436624300615205497339904.000000 1504415569254379547301480491263063796762445439209308160.000000 0.000000
0.000000 0.000000 0.000000
-611265554749493272407401950241263532427804003905623293952.000000 352915410905719359895326900054316153451565350588367503360.000000 0.000000
352915410905719359895326900054316153451565350588367503360.000000 186528362608104779019561143087168670165005723233803042816.000000 0.000000
0.000000 0.000000 0.000000
52981818115637327915731556595699708444790391386083950592.000000 -109705705576688785574675587220863926814775249974702637056.000000 0.000000
-109705705576688785574675587220863926814775249974702637056.000000 55107822439499399734792786694535590412262266055979696128.000000 0.000000
0.000000 0.000000 0.000000
4076101802203432383353662000516753576758728737285635833856.000000 -10610454151949275096538827921116900926318859096166481526784.000000 0.000000
-10610454151949275096538827921116900926318859096166481526784.000000 5472507825771762002945168720326995420301298091375141584896.000000 0.000000
0.000000 0.000000 0.000000
3403286106025590462575674602602607802106743054289262870528.000000 -1917761828041721790276579334108882278226192912211612008448.000000 0.000000
-1917761828041721790276579334108882278226192912211612008448.000000 597929254920596460739891550673565707438077313620564246528.000000 0.000000
0.000000 0.000000 0.000000
1153735922158332588935380671176252394457842935855579136000.000000 -7910661339932703043959429828503209892788327296057600901120.000000 0.000000
-7910661339932703043959429828503209892788327296057600901120.000000 4297517741011753945301405094411384541970018575977545728000.000000 0.000000
0.000000 0.000000 0.000000
1470947634854318912024660157170695648486564393136724901888.000000 1970263781121773373202786382420115296831467925755240906752.000000 0.000000
1970263781121773373202786382420115296831467925755240906752.000000 911103315342702644657369149350303173226425846723728375808.000000 0.000000
0.000000 0.000000 0.000000
46247928472676104460295185904168693222663221649489667293184.000000 -38340095282553689425070409728651244823796239661534743101440.000000 0.000000
-38340095282553689425070409728651244823796239661534743101440.000000 14927067059860994208321535574751047072677300875589077434368.000000 0.000000
0.000000 0.000000 0.000000
5232261567695228778648996176697869784505922371189894807552.000000 -18135334958609163953792683729966861402131878541202164809728.000000 0.000000
-18135334958609163953792683729966861402131878541202164809728.000000 9569427474255606082927405783520602928740349893915340439552.000000 0.000000
0.000000 0.000000 0.000000
-5840258828303916297157497622902997665727275823355417067520.000000 -8351781271444328043264586967582780822768022720820488962048.000000 0.000000
-8351781271444328043264586967582780822768022720820488962048.000000 4812019948273288689170227783192900968096699129827189325824.000000 0.000000
0.000000 0.000000 0.000000
9621898093841371735462652067407159884497700168320315031552.000000 6399005571834539064571528529060576379271729324283402387456.000000 0.000000
6399005571834539064571528529060576379271729324283402387456.000000 2214242193159295978707011855073024302863322838960984555520.000000 0.000000
0.000000 0.000000 0.000000
5569757753394716052332799652473045769733652188898458075136.000000 10098333944729565933134620666036739267330636659014548586496.000000 0.000000
10098333944729565933134620666036739267330636659014548586496.000000 4972429797434851725589158600467022145790840290205025435648.000000 0.000000
0.000000 0.000000 0.000000
-125146601518205518305416171365789911547890326230731325440.000000 -322709788918458495247657952771310794123005940740390912.000000 0.000000
-322709788918458495247657952771310794123005940740390912.000000 344003009689337232823628423172515320387834350195965952.000000 0.000000
0.000000 0.000000 0.000000
-9617538088321317067631892768533486690862233844449280.000000 -392955990594235275968472328891611477494361868992512.000000 0.000000
-392955990594235275968472328891611477494361868992512.000000 31786003303954694571877413265947691251810923708416.000000 0.000000
0.000000 0.000000 0.000000
4534114784345878110886728300240377541321146282553303367680.000000 4784223994507211446139601454228602803470020227572147683328.000000 0.000000
4784223994507211446139601454228602803470020227572147683328.000000 2058687768007909287151448968159066019051144267180646858752.000000 0.000000
0.000000 0.000000 0.000000
-4520489084817034370302099975158841945381022899598373421056.000000 7972197602144236102792394656310129047392065937629614440448.000000 0.000000
7972197602144236102792394656310129047392065937629614440448.000000 4605505916290566301708007099010236954067186119338289528832.000000 0.000000
0.000000 0.000000 0.000000
-16350971464456470819807994843075617365991048363903780126720.000000 -7522201318664611470770687078882686626123294173107410960384.000000 0.000000
-7522201318664611470770687078882686626123294173107410960384.000000 3756414397954668880380389366478142355977111612080141631488.000000 0.000000
0.000000 0.000000 0.000000
65688546416914391859685916052419454476562637276837838848.000000 220159267529720388147134732854558520247893406383951839232.000000 0.000000
220159267529720388147134732854558520247893406383951839232.000000 115919078384470514136627799889823404468685201080747819008.000000 0.000000
0.000000 0.000000 0.000000
38505939686225089226009039061200191652108168844831358976.000000 23841662443171234301358323887651020944171279062398926848.000000 0.000000
23841662443171234301358323887651020944171279062398926848.000000 7897430378483442353185495437570641171966792055228727296.000000 0.000000
0.000000 0.000000 0.000000
1613801476823715107491891025558654509985499611091691372544.000000 4496761550217870381888024254609102472112938553737247457280.000000 0.000000
4496761550217870381888024254609102472112938553737247457280.000000 2333107423147687420527821007469163971416919863798538436608.000000 0.000000
0.000000 0.000000 0.000000
4854036125528774185217243341642030157160725816427199594496.000000 3770290193620646600273930144233929398045386628828751724544.000000 0.000000
3770290193620646600273930144233929398045386628828751724544.000000 1421386754469536709051365724974163267441817750426942963712.000000 0.000000
0.000000 0.000000 0.000000
9177202547760565900871939039909517901076793842215929511936.000000 -7338761037814976774186166072016544340340379154315772690432.000000 0.000000
-7338761037814976774186166072016544340340379154315772690432.000000 2806780866609876188840069022568022650522100727786374168576.000000 0.000000
0.000000 0.000000 0.000000
475627152946216110763604136457965337652925055156749336576.000000 -311023062742040022240042175635323178682577668170309435392.000000 0.000000
-311023062742040022240042175635323178682577668170309435392.000000 121040719808535536513550429731249962976368820583820951552.000000 0.000000
0.000000 0.000000 0.000000
475627152947110057041835860109052992109620045335555473408.000000 -311023062742421182047136592594525481554850999833471221760.000000 0.000000
-311023062742421182047136592594525481554850999833471221760.000000 121040719808634735629155221712118805941927329652824604672.000000 0.000000
0.000000 0.000000 0.000000
10076807486122693480198745057073663955397635440564116652032.000000 1768906390457893887078577277518292971068369682308343529472.000000 0.000000
1768906390457893887078577277518292971068369682308343529472.000000 205746709579722290376744716051289640594172609414446448640.000000 0.000000
0.000000 0.000000 0.000000
-393563058294979880053074189207904721216006241503970066432.000000 -370017033353171551473672072342663682198283393545235595264.000000 0.000000
-370017033353171551473672072342663682198283393545235595264.000000 209576930766210341948914061466212070464851585331416268800.000000 0.000000
0.000000 0.000000 0.000000
-393563058284909612687076772935308351809613963228763652096.000000 -370017033352326823636991793230931370244807334320534454272.000000 0.000000
-370017033352326823636991793230931370244807334320534454272.000000 209576930766104108516220279845426512619408246749945397248.000000 0.000000
0.000000 0.000000 0.000000
1519281550152595148944904343805081090109966670901677129728.000000 -1886625969278231821746400276118661888006460645332240826368.000000 0.000000
-1886625969278231821746400276118661888006460645332240826368.000000 854804882334510884468007849661747471401906644635843821568.000000 0.000000
0.000000 0.000000 0.000000
-323626898688057722069141586142564720203169006689254899712.000000 -104136747971884542552017098836074622325661016206904131584.000000 0.000000
-104136747971884542552017098836074622325661016206904131584.000000 45138786883614478130618628263778533621228292234079633408.000000 0.000000
0.000000 0.000000 0.000000
7314817261274564146207797818511483641178547210611215826944.000000 -6670535180694812309262632445675351493609027912650369007616.000000 0.000000
-6670535180694812309262632445675351493609027912650369007616.000000 2715426131971404951174837989856956957300018376886747922432.000000 0.000000
0.000000 0.000000 0.000000
2004907166937215296688187043870678344076495574954210754560.000000 7802644545090136203421118913256997222832403683850108010496.000000 0.000000
7802644545090136203421118913256997222832403683850108010496.000000 4146220841084524026760798928214612492863002702891746066432.000000 0.000000
0.000000 0.000000 0.000000
1098087617224517216693660741737878484215213247583748096.000000 1346195057704529860786070694036749227291556661426126848.000000 0.000000
1346195057704529860786070694036749227291556661426126848.000000 607641077039336286917827474756148748415826202751664128.000000 0.000000
0.000000 0.000000 0.000000
77634519787600767788891711198470713795409986408390066176.000000 -777742256378566547223715984134014969286553187042132492288.000000 0.000000
-777742256378566547223715984134014969286553187042132492288.000000 426986296650219580375432058684259582290500518703909568512.000000 0.000000
0.000000 0.000000 0.000000
1196371651085331638748072138332573243400541409160820948992.000000 545266119394903438798307529455656077578970824524634783744.000000 0.000000
545266119394903438798307529455656077578970824524634783744.000000 157394360293126443445884363471788210071301402906765295616.000000 0.000000
0.000000 0.000000 0.000000
-39141395877605137463898736799459837845200796262903228399616.000000 24481394088906948389698468663500007804770595982216446083072.000000 0.000000
24481394088906948389698468663500007804770595982216446083072.000000 13161791936408581379746807238780222866490069472317987094528.000000 0.000000
0.000000 0.000000 0.000000
-50613108833403131939196894074737242037973197950812160.000000 693932934574787038773147716726044380061669945285541888.000000 0.000000
693932934574787038773147716726044380061669945285541888.000000 389573258029319814666747677446740872891290623391301632.000000 0.000000
0.000000 0.000000 0.000000
2997406662607965811350099916398547701579805264720133357568.000000 -2108751347178875538281035951074366628304517213336761270272.000000 0.000000
-2108751347178875538281035951074366628304517213336761270272.000000 752624650572740104828832583684848593001694802677946384384.000000 0.000000
0.000000 0.000000 0.000000
-4132586620236354284970323193798622584533063856886592307200.000000 -5832909487061690342685901769310849532811160229810624528384.000000 0.000000
-5832909487061690342685901769310849532811160229810624528384.000000 3361394610957855608285930301697973376389037301833194799104.000000 0.000000
0.000000 0.000000 0.000000
2827586862714320721570038388173237559907056781670909739008.000000 -3772517395057291203866382221149082442872570172738067496960.000000 0.000000
-3772517395057291203866382221149082442872570172738067496960.000000 1742135173021533387405426201042283868355078625976624611328.000000 0.000000
0.000000 0.000000 0.000000
1130197382115204890902026271022089584724735431785901457408.000000 -1342131939414782850613761710839701522166979811111734345728.000000 0.000000
-1342131939414782850613761710839701522166979811111734345728.000000 600117160243976280969539166574496077495391001314601205760.000000 0.000000
0.000000 0.000000 0.000000
6880080032669236435641694159638210377454929217197917077504.000000 410605892011550105281698987946648836464338468350919180288.000000 0.000000
410605892011550105281698987946648836464338468350919180288.000000 21667962536117106035785131950553532913498226131583631360.000000 0.000000
0.000000 0.000000 0.000000
4215818932118617121605699138350396204619041248376782848.000000 -2316324626480888483423519413837213129314064531397279744.000000 0.000000
-2316324626480888483423519413837213129314064531397279744.000000 709301180888969733940045789125193342966945562279018496.000000 0.000000
0.000000 0.000000 0.000000
-3613624917846834268807839315880054805589904813968223895552.000000 -670594497782980938326488924027933277744209213287525515264.000000 0.000000
-670594497782980938326488924027933277744209213287525515264.000000 210052226607455555392223737275895016677377410927089942528.000000 0.000000
0.000000 0.000000 0.000000
1190322490826732220481491132239345472086830256287154962432.000000 -130131111345241779463013972516024795799906719301082546176.000000 0.000000
-130131111345241779463013972516024795799906719301082546176.000000 9421789654155733938388268277124610508111472334301298688.000000 0.000000
0.000000 0.000000 0.000000
208996190799306910741578074680559634274198963673593020416.000000 46031109968819868589503849550428141552801537566783307776.000000 0.000000
46031109968819868589503849550428141552801537566783307776.000000 103638153165447580503557405330738993130016855418808041472.000000 0.000000
0.000000 0.000000 0.000000
-458826794550344398779895316552038435100822705392941268992.000000 -745148304806941713818676706811929569235147944738968043520.000000 0.000000
-745148304806941713818676706811929569235147944738968043520.000000 437234477122847871628340772183472249289740204004515774464.000000 0.000000
0.000000 0.000000 0.000000
-59249115877650276562210659471910487601802189844143971237888.000000 -28832701630510340281126426185041287486100417491957010399232.000000 0.000000
-28832701630510340281126426185041287486100417491957010399232.000000 14640172738688675363239182258270271541445139097171357859840.000000 0.000000
0.000000 0.000000 0.000000
30873414945392706887334919841347073155566658978938856931328.000000 -23592421608839798571825846764772978481387309391520957726720.000000 0.000000
-23592421608839798571825846764772978481387309391520957726720.000000 8818312282640264310770729248716454606394480853607690272768.000000 0.000000
0.000000 0.000000 0.000000
-150826125622328861576778823498267062172164590386538348544.000000 -560117069025263887606489106439621912252248699515321712640.000000 0.000000
-560117069025263887606489106439621912252248699515321712640.000000 320155917565307892448635528088723061986539654496573718528.000000 0.000000
0.000000 0.000000 0.000000
-694026373417171116592959026829270444784866247511495409664.000000 -188642722286014633753870946538773102785938636110666137600.000000 0.000000
-188642722286014633753870946538773102785938636110666137600.000000 75325986608745806890699211463617721418166607344687906816.000000 0.000000
0.000000 0.000000 0.000000
207357079182646324841311042479796152513810595732659372032.000000 61957270490343459028918801550000106552469355985452924928.000000 0.000000
61957270490343459028918801550000106552469355985452924928.000000 11648940318064231185273176486777597947510612476320284672.000000 0.000000
0.000000 0.000000 0.000000
2133317771480684910126304763490224418822732872471805952.000000 2378563754069854898172106311910681186969637952168132608.000000 0.000000
2378563754069854898172106311910681186969637952168132608.000000 1042519981943019157889157496429997157847324663436279808.000000 0.000000
0.000000 0.000000 0.000000
-52282704966094138270563159192316819909936820325894559105024.000000 -16962582071588166424482259809868853757509913724822474457088.000000 0.000000
-16962582071588166424482259809868853757509913724822474457088.000000 7410666512949587109014447736975966978960958110501135450112.000000 0.000000
0.000000 0.000000 0.000000
27231842719938748037729816961399877338001812829106371297280.000000 -32120452391534312296896030689249139786653620392092311224320.000000 0.000000
-32120452391534312296896030689249139786653620392092311224320.000000 14332691742152354975471767300007631888199822367839821496320.000000 0.000000
0.000000 0.000000 0.000000
2379032297025494685109942851344910593985315553306432503808.000000 777181876487976084227232355820611215801224914303897829376.000000 0.000000
777181876487976084227232355820611215801224914303897829376.000000 157261509131361447000549250139523063226756787763358466048.000000 0.000000
0.000000 0.000000 0.000000
2427994932286208009225780457825422953347359284867891200.000000 -2770787610265135141521038549027500458934786105840500736.000000 0.000000
-2770787610265135141521038549027500458934786105840500736.000000 1223650565463537298924875822251600024934787159332749312.000000 0.000000
0.000000 0.000000 0.000000
1006358100982387293498299366193953380086610462267009925120.000000 -1351444741360434923289315920148804648279385418550913007616.000000 0.000000
-1351444741360434923289315920148804648279385418550913007616.000000 633943213172091363133329801124936770597667551930902118400.000000 0.000000
0.000000 0.000000 0.000000
1171446436304436513856802154543762280025633674154834132992.000000 -600608924134490964171512592099277511530417473600628981760.000000 0.000000
-600608924134490964171512592099277511530417473600628981760.000000 175279321134143879318648306811175485053178480265292414976.000000 0.000000
0.000000 0.000000 0.000000
1293267719528444405855752978824169604712711836311805231104.000000 -68358776599043512155188944356966916696029761976643092480.000000 0.000000
-68358776599043512155188944356966916696029761976643092480.000000 2409329867053146914526829086599856936310905384005009408.000000 0.000000
0.000000 0.000000 0.000000
172133857445307240587121974076941881226808608596154122240.000000 -80777035607099854703287993868172261253285122900959952896.000000 0.000000
-80777035607099854703287993868172261253285122900959952896.000000 22238579135478415002098406284272536100885819921801412608.000000 0.000000
0.000000 0.000000 0.000000
-2619514528036585570532852848948904494945858207135901417472.000000 8304525786548401867960490783666361210631168182623318048768.000000 0.000000
8304525786548401867960490783666361210631168182623318048768.000000 4758434151242229119299210108576169867818513587043374727168.000000 0.000000
0.000000 0.000000 0.000000
20546134611688078821106035352313161175826220597847441539072.000000 -13081905005850209145842080610935495287482628721158872104960.000000 0.000000
-13081905005850209145842080610935495287482628721158872104960.000000 4411282942971400419133493082438289365880617156701256155136.000000 0.000000
0.000000 0.000000 0.000000
-13706805292206154908820689997207286179491418734592.000000 -12617525388314769248325509697706613729169621647360.000000 0.000000
-12617525388314769248325509697706613729169621647360.000000 7135474768900151043555062427489016218570528391168.000000 0.000000
0.000000 0.000000 0.000000
-52297722670565636030815874277794657763433195639498430480384.000000 25202998103630816940995609871442777869890853757994464706560.000000 0.000000
25202998103630816940995609871442777869890853757994464706560.000000 12758673217639479362601590707553900546880862517281677115392.000000 0.000000
0.000000 0.000000 0.000000
4490033209735727689094840078211400050275936641311473401856.000000 2017617047165994619923637673881989723116017277995292033024.000000 0.000000
2017617047165994619923637673881989723116017277995292033024.000000 533633805453265048484461974174484232789273199845031542784.000000 0.000000
0.000000 0.000000 0.000000
853098969703745098691125799469077585720604924158880514048.000000 -676322914596014544497547410363623988410421942390834069504.000000 0.000000
-676322914596014544497547410363623988410421942390834069504.000000 257581261325380857615613958175168625717726576722258690048.000000 0.000000
0.000000 0.000000 0.000000
-685531193572973833180947070921854690687305438757499437056.000000 421066148741535070637583053069520246319308465580592332800.000000 0.000000
421066148741535070637583053069520246319308465580592332800.000000 225748759587277407034703518912883784008542342600072364032.000000 0.000000
0.000000 0.000000 0.000000
1166792143211697486288174945535814399240205293991013384192.000000 563647667977452618573990307968983528333006400303925297152.000000 0.000000
563647667977452618573990307968983528333006400303925297152.000000 157425579377539747633077367397796540262115279984304062464.000000 0.000000
0.000000 0.000000 0.000000
2552107059593389919991986021438480254663602149160162164736.000000 -6210655080438619499151786317828778225430746254438542868480.000000 0.000000
-6210655080438619499151786317828778225430746254438542868480.000000 3181264841263138094614555960112047488063701987413700116480.000000 0.000000
0.000000 0.000000 0.000000
16056235894317482272461368848413777123725248684795652734976.000000 -1263304390114745357684264050739643137949025072312825675776.000000 0.000000
-1263304390114745357684264050739643137949025072312825675776.000000 66892995483610363455356536648359853715704099993410338816.000000 0.000000
0.000000 0.000000 0.000000
-33009702570633771430040782176257945402429645882596536614912.000000 -22682479404181924054150539933626321623127613516801296564224.000000 0.000000
-22682479404181924054150539933626321623127613516801296564224.000000 12481755449373041009733347372207334118961805230473207611392.000000 0.000000
0.000000 0.000000 0.000000
-315774727499250618980120447274550993608689655611584937984.000000 -1643763563472462925323646494341107449425409515634718408704.000000 0.000000
-1643763563472462925323646494341107449425409515634718408704.000000 917325205989104597542566893467344979625501213102025211904.000000 0.000000
0.000000 0.000000 0.000000
-16433106629775537161209963081311382292769168814359183360.000000 -31051826975779879655065610514193251021398704542682447872.000000 0.000000
-31051826975779879655065610514193251021398704542682447872.000000 17919757887400202428337130357288589393401344626270404608.000000 0.000000
0.000000 0.000000 0.000000
-14549896994717337288955979855950321116015136515959625351168.000000 -10289983423181659127083294444434863769975374140294880559104.000000 0.000000
-10289983423181659127083294444434863769975374140294880559104.000000 5668427480948535745313727571124511591108513182350313521152.000000 0.000000
0.000000 0.000000 0.000000
-13277598136980894007811812721888262838284828691871270174720.000000 -2314285803679417182877167722567080130300819944123913994240.000000 0.000000
-2314285803679417182877167722567080130300819944123913994240.000000 692468643644285255706460525573199844903015947221753397248.000000 0.000000
0.000000 0.000000 0.000000
161329728076717860820446957788895821462753689484111380480.000000 -122056657520092065484457623561839351633435218090118873088.000000 0.000000
-122056657520092065484457623561839351633435218090118873088.000000 46385101211964523621518105103642022574976745786665074688.000000 0.000000
0.000000 0.000000 0.000000
-57464896915739584638476707809292848303026332440975550447616.000000 -10905467399672853565215955228311681947976108645068186845184.000000 0.000000
-10905467399672853565215955228311681947976108645068186845184.000000 3470886957805105210607988742695764224872910066767309570048.000000 0.000000
0.000000 0.000000 0.000000
-2148644528217704663728245073073709861543125242719085002752.000000 -478218645500207031133284577427834358342505582561966686208.000000 0.000000
-478218645500207031133284577427834358342505582561966686208.000000 169567767112631754418156884304257576398508753366248587264.000000 0.000000
0.000000 0.000000 0.000000
-8026064271108085851126054539027898463390804974201139625984.000000 776909256626003057395520728415305540983130818002554978304.000000 0.000000
776909256626003057395520728415305540983130818002554978304.000000 142667832504229522449679147327166775770185580666649837568.000000 0.000000
0.000000 0.000000 0.000000
4857620973236100876929793806969800172803985870330395623424.000000 2621157838689109245681710713584546170745797575620773806080.000000 0.000000
2621157838689109245681710713584546170745797575620773806080.000000 792691561205038407499671754246015799844848411589340037120.000000 0.000000
0.000000 0.000000 0.000000
-12226654471411988396463008416085512399008716708518849150976.000000 -8621781195736055425452691877205077629773549951394265432064.000000 0.000000
-8621781195736055425452691877205077629773549951394265432064.000000 4731646723948435378507778292034706351100509886236149678080.000000 0.000000
0.000000 0.000000 0.000000
3620531741880956532412937058909571162792720030878400512.000000 1956848785702515446827141630302610589295584190293606400.000000 0.000000
1956848785702515446827141630302610589295584190293606400.000000 592476910360969950940437543074583407777173760974520320.000000 0.000000
0.000000 0.000000 0.000000
14772050465683689449451241459603661318291513843411582976.000000 36473174651770160280130163834988517411620274880802455552.000000 0.000000
36473174651770160280130163834988517411620274880802455552.000000 24401851166283257945606401738495391232996450829089112064.000000 0.000000
0.000000 0.000000 0.000000
11230718479298971856869248239260234823985478023536541958144.000000 15007795572230746537238686929599408959968612691826788270080.000000 0.000000
15007795572230746537238686929599408959968612691826788270080.000000 6959606285807623262842305530314750749042999794948766695424.000000 0.000000
0.000000 0.000000 0.000000
13732595891423119087301417767434723406352796613062164480.000000 1909226431685281477823748521465075580986943085882638336.000000 0.000000
1909226431685281477823748521465075580986943085882638336.000000 174687148534205111200784547808158455660943679053365248.000000 0.000000
0.000000 0.000000 0.000000
1101963817388423593807964538312412689490956359650842247168.000000 -4509204578913492985384411124547653924864800460060584050688.000000 0.000000
-4509204578913492985384411124547653924864800460060584050688.000000 2402516035865081152294415337446992035809818470229173338112.000000 0.000000
0.000000 0.000000 0.000000
527076386903135265349642300085664630760602000464235462656.000000 485994901831439432173804082332214689768078429932616679424.000000 0.000000
485994901831439432173804082332214689768078429932616679424.000000 198383676839606752299476904034697363526622577290318446592.000000 0.000000
0.000000 0.000000 0.000000
43736632651344379365653230088711191145797602223784225406976.000000 -12235132754172572145416753101396022365851797661275452866560.000000 0.000000
-12235132754172572145416753101396022365851797661275452866560.000000 2170370999915560756469666271139236702544080647200815710208.000000 0.000000
0.000000 0.000000 0.000000
1054821263544965386730422423135599490888868595259899117568.000000 -863593218857540194018740780254168714931674928222602002432.000000 0.000000
-863593218857540194018740780254168714931674928222602002432.000000 334106557464466682861155581670101652445384168375215718400.000000 0.000000
0.000000 0.000000 0.000000
-1040799212059102971970980256849311601964208538469269504.000000 800005497343145777968575501397931024477561696693518336.000000 0.000000
800005497343145777968575501397931024477561696693518336.000000 444307107413325819790030096161080886700926689829978112.000000 0.000000
0.000000 0.000000 0.000000
1988395416044614635267464059544442892461555782263450370048.000000 3690334195441653251381829792952898236824941644703766413312.000000 0.000000
3690334195441653251381829792952898236824941644703766413312.000000 1839367154420441293956086756775480300849591813232119513088.000000 0.000000
0.000000 0.000000 0.000000
-1016839435862599320485213132848970154067120021974127959080960.000000 -36699327321871818767966903714642972412982547708454532808704.000000 0.000000
-36699327321871818767966903714642972412982547708454532808704.000000 2627522079313044830601562187922630427415060367529671131136.000000 0.000000
0.000000 0.000000 0.000000
67312733619565180570544092166041842939024857340405874688.000000 -463197841393654190599822123407961849325380128374924509184.000000 0.000000
-463197841393654190599822123407961849325380128374924509184.000000 251644849217707817348167244510692710137301495277816905728.000000 0.000000
0.000000 0.000000 0.000000
10827878838186557752455515565561801627033830704866505261056.000000 -3062125449654446492674336016532589872504053494670577106944.000000 0.000000
-3062125449654446492674336016532589872504053494670577106944.000000 551669329724523752953842891930742341549710124413507076096.000000 0.000000
0.000000 0.000000 0.000000
-90964842171379815664895929455316048612895862071624728576.000000 -410749345114643136656411464428965204753693945414257999872.000000 0.000000
-410749345114643136656411464428965204753693945414257999872.000000 234407334583711566283211811056166631209585508825503367168.000000 0.000000
0.000000 0.000000 0.000000
8031794618653927335431559912673129413840411428062278713344.000000 -2568547247871820329249157377332111233531110322884629757952.000000 0.000000
-2568547247871820329249157377332111233531110322884629757952.000000 513439395959223781725294128682945865280589420757314961408.000000 0.000000
0.000000 0.000000 0.000000
12217859225866333190329274085373669263816485220304069591040.000000 -10526217504972308302714878217755892138643858438201962135552.000000 0.000000
-10526217504972308302714878217755892138643858438201962135552.000000 4226608239130455826253259151000029307468546110121199009792.000000 0.000000
0.000000 0.000000 0.000000
4705215024065264891663932385247083392339963714980250910720.000000 4711345073128858712962836416321883840616345980031809355776.000000 0.000000
4711345073128858712962836416321883840616345980031809355776.000000 1987678678474604083324199972050351356350121284454039158784.000000 0.000000
0.000000 0.000000 0.000000
-744467188653975004369209976725703674122589973844464762880.000000 314650739010326644563350890493895342864829850922795401216.000000 0.000000
314650739010326644563350890493895342864829850922795401216.000000 157870351502758452969721437146431235513668794382634975232.000000 0.000000
0.000000 0.000000 0.000000
-4747339089577973919269248136458925428505276894148391075840.000000 1586286361762963024927460903714332624680830320674619785216.000000 0.000000
1586286361762963024927460903714332624680830320674619785216.000000 701246552860060117836410092891965845061853672247755014144.000000 0.000000
0.000000 0.000000 0.000000
-68296431256927256977954135686638464032490036522246995968.000000 542557699022814052097552345004044714485985299485545201664.000000 0.000000
542557699022814052097552345004044714485985299485545201664.000000 306208589696581177323206128915381373782503052629294186496.000000 0.000000
0.000000 0.000000 0.000000
-77977972941559357091790009945562937103005539741983009931264.000000 14714723658405936517585790543295845717901071656469089222656.000000 0.000000
14714723658405936517585790543295845717901071656469089222656.000000 4666939227707112565030345348624748554013329616662991732736.000000 0.000000
0.000000 0.000000 0.000000
-527276195296001657990796769029227494221330719175950204928.000000 326466706077842336396163070372513532479348012794314227712.000000 0.000000
326466706077842336396163070372513532479348012794314227712.000000 175294769333328509630814303757828569615290786742987128832.000000 0.000000
0.000000 0.000000 0.000000
4395228429518766608906006078493747929693940948530102272.000000 -2373091579957538067737309274811365485532483374643412992.000000 0.000000
-2373091579957538067737309274811365485532483374643412992.000000 717973832216792438619283859657358141860994141153918976.000000 0.000000
0.000000 0.000000 0.000000
929840179108478398651329680767913416554030123267261464576.000000 -412273911855401457965237679694273704999500220487985790976.000000 0.000000
-412273911855401457965237679694273704999500220487985790976.000000 107888138846612667401109866920671117093549520880024944640.000000 0.000000
0.000000 0.000000 0.000000
140616064532519992048607546159313674704273823815044169728.000000 -68498097960927869476454930282229811131241696398330036224.000000 0.000000
-68498097960927869476454930282229811131241696398330036224.000000 19250148049115818321596627355931875876572864483004776448.000000 0.000000
0.000000 0.000000 0.000000
141882587480261337127396356177523093555405195756976472064.000000 -205269610989670894392296777396341202386356968756581761024.000000 0.000000
-205269610989670894392296777396341202386356968756581761024.000000 96714212036578660883637381382651610098824711646964875264.000000 0.000000
0.000000 0.000000 0.000000
-221018851984018900463409336816657143576355964571596357632.000000 553468794476589951667044622852192235794460431674316423168.000000 0.000000
553468794476589951667044622852192235794460431674316423168.000000 318635546469434258483158473682814659445258149205607710720.000000 0.000000
0.000000 0.000000 0.000000
-5168891937795917216199381715800361137360277299549876256768.000000 -5921240796953623341354375342017388085887226672470380511232.000000 0.000000
-5921240796953623341354375342017388085887226672470380511232.000000 3392268683361970112062128244424467408154311236628516962304.000000 0.000000
0.000000 0.000000 0.000000
-18043291517078051657558749843198383906019111743103166316544.000000 9433663494427848803315202075822027699372267103621954404352.000000 0.000000
9433663494427848803315202075822027699372267103621954404352.000000 4880938659852950580018740766573697140105353321294721974272.000000 0.000000
0.000000 0.000000 0.000000
190132537682354215775605436003376256893729120452608.000000 80497561625254858208444928127860091776296684617728.000000 0.000000
80497561625254858208444928127860091776296684617728.000000 20373919793342115869159097475541260536752736567296.000000 0.000000
0.000000 0.000000 0.000000
2776797320657605715469574800300582709649607231320390369280.000000 1446872232757687756964990263607932077225858256210598297600.000000 0.000000
1446872232757687756964990263607932077225858256210598297600.000000 428624655338299511101785464997165828852904109378585493504.000000 0.000000
0.000000 0.000000 0.000000
-258330441414830062855287817853633578844770900807096729600.000000 297447085907556295252727366580319983643992184251802976256.000000 0.000000
297447085907556295252727366580319983643992184251802976256.000000 170528286708481362997877992608043007932604223070706597888.000000 0.000000
0.000000 0.000000 0.000000
6967914938988821019072317509397334702763915940827999764480.000000 -8516075567111914541355387242979825510816101138797692977152.000000 0.000000
-8516075567111914541355387242979825510816101138797692977152.000000 3840573723132849115297642376316212948360166574321519558656.000000 0.000000
0.000000 0.000000 0.000000
-449832953545158559058267816265107938920504328134974242816.000000 57790302956315050767613973667159795061029175781750734848.000000 0.000000
57790302956315050767613973667159795061029175781750734848.000000 13577069095909820142993428421158047482368051944190115840.000000 0.000000
0.000000 0.000000 0.000000
-51220849358410564393636191685008945313387103246216069120000.000000 -18832085080118830196005504377950672260430825821755687305216.000000 0.000000
-18832085080118830196005504377950672260430825821755687305216.000000 8666331009362434325506693185378850126351502664695243866112.000000 0.000000
0.000000 0.000000 0.000000
1065397896192491966417993519148127048559239649283801088.000000 -1265166540624426785330370002895131790234655110171983872.000000 0.000000
-1265166540624426785330370002895131790234655110171983872.000000 567369604855898083666532981806771456669164432038821888.000000 0.000000
0.000000 0.000000 0.000000
144515595145897778426039119018279346822024653701120.000000 -159190416612408121541080114526591588980426033594368.000000 0.000000
-159190416612408121541080114526591588980426033594368.000000 69524039018575620340811718615590282714026979885056.000000 0.000000
0.000000 0.000000 0.000000
940932908529092909616993962423329562369492662105969524736.000000 -366794348704446486082051293490305130222795980240194633728.000000 0.000000
-366794348704446486082051293490305130222795980240194633728.000000 86607642266600037396649025507160946805248284309638348800.000000 0.000000
0.000000 0.000000 0.000000
190092603248764261088353070090205833814766609594681655296.000000 245879129171643592852595266639739402620125035687732838400.000000 0.000000
245879129171643592852595266639739402620125035687732838400.000000 113145127316862972603663580651507361054831290460282028032.000000 0.000000
0.000000 0.000000 0.000000
8956192393443321336173957234891948328681908755492765696.000000 -1762108228645235441494129459454345663883651153007738880.000000 0.000000
-1762108228645235441494129459454345663883651153007738880.000000 225328175414152229794685473438748876366988245274198016.000000 0.000000
0.000000 0.000000 0.000000
48497401284355085462493166460383851744242715689540911104.000000 44770472037953476949784772683192469068010030526590091264.000000 0.000000
44770472037953476949784772683192469068010030526590091264.000000 18284424753994134582098403501963942003923912742129369088.000000 0.000000
0.000000 0.000000 0.000000
-1342759378977976651660257916244566329008468950168507514880.000000 -3270832228869525279759149792768793390100516445120144343040.000000 0.000000
-3270832228869525279759149792768793390100516445120144343040.000000 1883344727729989073949056977864903034663422052699861942272.000000 0.000000
0.000000 0.000000 0.000000
-5658184523585736781868336260855983226542075753379070476288.000000 -3583150549795060587855833941136015717036078199178241507328.000000 0.000000
-3583150549795060587855833941136015717036078199178241507328.000000 1932005299459876799684103403956668422719277139278736392192.000000 0.000000
0.000000 0.000000 0.000000
-102252090671822933370010182296997328387504535610524172288.000000 5501107957891939205184654491584049307220009901172457472.000000 0.000000
5501107957891939205184654491584049307220009901172457472.000000 581926491908613014726508449490502561973065658367213568.000000 0.000000
0.000000 0.000000 0.000000
-32556562433164701815882323609684664703378037940601936150528.000000 4146857643774294949014198512743945822427759258332701917184.000000 0.000000
4146857643774294949014198512743945822427759258332701917184.000000 1020671930797298215147568286015358721197851628947252445184.000000 0.000000
0.000000 0.000000 0.000000
-464344433109755779310230835769628844764702203856424009728.000000 -941424680516972981041920219500085065147740174017984724992.000000 0.000000
-941424680516972981041920219500085065147740174017984724992.000000 543038190224474275208948764301001756267766800652892635136.000000 0.000000
0.000000 0.000000 0.000000
5729585440198535432505643225845230528971995988623360.000000 3863360826383827975173852158614196849108777284141056.000000 0.000000
3863360826383827975173852158614196849108777284141056.000000 1349399495179915544929447032900992442903234764341248.000000 0.000000
0.000000 0.000000 0.000000
79511716617341529449639511884347994513498594631816839168.000000 -47265881940646196833767452847895860620175229469862133760.000000 0.000000
-47265881940646196833767452847895860620175229469862133760.000000 15650761873700191260862254250957583456097041500042428416.000000 0.000000
0.000000 0.000000 0.000000
-1783566265949400967410317439622358220939433972279277518848.000000 -980721853180499250666518438073139179404689291635243089920.000000 0.000000
-980721853180499250666518438073139179404689291635243089920.000000 513631990880246168266195040833833206242752300917465284608.000000 0.000000
0.000000 0.000000 0.000000
12048402544692302686542715055660177322481698461584457728.000000 -14444786560088042325652101571049599117321560284674916352.000000 0.000000
-14444786560088042325652101571049599117321560284674916352.000000 6477441233400266186029185077962218411020964111788802048.000000 0.000000
0.000000 0.000000 0.000000
41344281640063803353401356280152840851450728126152179712.000000 -9053081503059810173831192803097852562570442050902163456.000000 0.000000
-9053081503059810173831192803097852562570442050902163456.000000 1280498501861420327495978296120864226106088684288737280.000000 0.000000
0.000000 0.000000 0.000000
-61198977523576313398617112845730883429602819906358403399680.000000 -13070171144971671885004258850053924866169701331333342560256.000000 0.000000
-13070171144971671885004258850053924866169701331333342560256.000000 4510298974680678683241546157937773609680084641587140755456.000000 0.000000
0.000000 0.000000 0.000000
3431585776793928020512527306220441773219529444047494053888.000000 -331101920954919635414936316142906645582966123464379858944.000000 0.000000
-331101920954919635414936316142906645582966123464379858944.000000 21744413435242123336528874583730512583738086696415133696.000000 0.000000
0.000000 0.000000 0.000000
-395513754185701341315064767729298312589017637183241060352.000000 92739910096114613939081242159056726280288253198548860928.000000 0.000000
92739910096114613939081242159056726280288253198548860928.000000 69950481643417994453330181483014604216248691756489506816.000000 0.000000
0.000000 0.000000 0.000000
758300004271618629893719562034675648615584819516836675584.000000 1019241950066132788526737084608425930128612358343503118336.000000 0.000000
1019241950066132788526737084608425930128612358343503118336.000000 471778245396514213002416623710671006636573592481821622272.000000 0.000000
0.000000 0.000000 0.000000
-3600245564439460765372099435078553839409537245522165760.000000 -1806940097985673967534234033562822873297822040935366656.000000 0.000000
-1806940097985673967534234033562822873297822040935366656.000000 925036375218224693501396158034597875440769056490127360.000000 0.000000
0.000000 0.000000 0.000000
18002240226854002924644048372089730012269105905664.000000 21241229411799671571420370207128463977050124845056.000000 0.000000
21241229411799671571420370207128463977050124845056.000000 7208942046955319667025307433430323050989448331264.000000 0.000000
0.000000 0.000000 0.000000
212371918500401841296612743813421481372799070260892270592.000000 -74576608653892621701866048637263097658534634800482877440.000000 0.000000
-74576608653892621701866048637263097658534634800482877440.000000 16137543424829661863078752790528420062850829809629528064.000000 0.000000
0.000000 0.000000 0.000000
-6109403830561546342602916752909585594887949974317364674560.000000 15102406115068853468252080279762147857247739421953909325824.000000 0.000000
15102406115068853468252080279762147857247739421953909325824.000000 8691657245994640822112547899372850059067382738771146440704.000000 0.000000
0.000000 0.000000 0.000000
465722932198170146439984011560238097165793182344598781952.000000 1397494657122190552251799425052765422264018196139650056192.000000 0.000000
1397494657122190552251799425052765422264018196139650056192.000000 729856741472546619114211173558486391050880245531599175680.000000 0.000000
0.000000 0.000000 0.000000
-1411506504944529870660374875898816047629906566742164897792.000000 4433676186395924291042457144761296305156385591280160210944.000000 0.000000
4433676186395924291042457144761296305156385591280160210944.000000 2541797680132281759281369850027832454305065193422572224512.000000 0.000000
0.000000 0.000000 0.000000
1404781996968873890778904623793594679432796839132350382080.000000 -699211125747767454828560787220395578784785124201475342336.000000 0.000000
-699211125747767454828560787220395578784785124201475342336.000000 199640311376419128061467681802518941302380560664112398336.000000 0.000000
0.000000 0.000000 0.000000
-16720008072282887080678308884594133758494649159764714455040.000000 -7561680050635556945982750461961884941778968920973283164160.000000 0.000000
-7561680050635556945982750461961884941778968920973283164160.000000 3755967557591853927546629641179385589746993034403787046912.000000 0.000000
0.000000 0.000000 0.000000
-67098202367967886081682749119168797966769797351143135772672.000000 16680266172861983673560068661963292992898510077637032935424.000000 0.000000
16680266172861983673560068661963292992898510077637032935424.000000 6342853963522687932719800496816923545938330389546388160512.000000 0.000000
0.000000 0.000000 0.000000
5534594000354690613212748247637573614387350170726354124800.000000 -5594871600050763480223618330759323012637904229848206802944.000000 0.000000
-5594871600050763480223618330759323012637904229848206802944.000000 2368943918275635297203626358865262528815740469106844893184.000000 0.000000
0.000000 0.000000 0.000000
963573818706101494296625646966732149262451020377586925568.000000 -1429968436596211667540002102646343119945970751235352952832.000000 0.000000
-1429968436596211667540002102646343119945970751235352952832.000000 680516508026973583397413350259539266694415541421763198976.000000 0.000000
0.000000 0.000000 0.000000
2369531936591811542103613724164918876769196155337208496128.000000 -3157122950177910816285335743271047183617177195848753217536.000000 0.000000
-3157122950177910816285335743271047183617177195848753217536.000000 1460639820403597679938166243152046898420126393633400160256.000000 0.000000
0.000000 0.000000 0.000000
175669206564596931246119878059652657782808514027010916352.000000 73339915130985059989700215184071379684911098190008156160.000000 0.000000
73339915130985059989700215184071379684911098190008156160.000000 18304795587033908629897507764891868875609761598893195264.000000 0.000000
0.000000 0.000000 0.000000
-1466049356147568539461074538472791088666422972860166307840.000000 -1716025557294302881916706245136472934338870463441728962560.000000 0.000000
-1716025557294302881916706245136472934338870463441728962560.000000 983835258908863076968472267282885938132848686113570684928.000000 0.000000
0.000000 0.000000 0.000000
-312992302027041602669367007261945673741134438354563104768.000000 3075169914008608648803311869402141828235433865166819688448.000000 0.000000
3075169914008608648803311869402141828235433865166819688448.000000 1738527029076004776479615461200742879917029472344110792704.000000 0.000000
0.000000 0.000000 0.000000
156085253996806067387987925604863022144027249765066473472.000000 -457973563237168010522676304737195411636039248657457872896.000000 0.000000
-457973563237168010522676304737195411636039248657457872896.000000 238748902171081557477047570542295760393925472435736412160.000000 0.000000
0.000000 0.000000 0.000000
76624299135497641833855373852249190152157498849095581696.000000 -136524726811668257370969719283331600930599237826033745920.000000 0.000000
-136524726811668257370969719283331600930599237826033745920.000000 67606992981331807354174697920230223922423465932186714112.000000 0.000000
0.000000 0.000000 0.000000
15025238570524079559215247059278178735131409783613684711424.000000 -1854896846098712767511320198944311511093032672405575696384.000000 0.000000
-1854896846098712767511320198944311511093032672405575696384.000000 158722490859466663818995466447101035840644544115173752832.000000 0.000000
0.000000 0.000000 0.000000
13007438876151142284498444557104687695662938144720814080.000000 -26064341658746331405662438377156456547056783966703976448.000000 0.000000
-26064341658746331405662438377156456547056783966703976448.000000 13033165901121071734818667068806172415030140718096056320.000000 0.000000
0.000000 0.000000 0.000000
9117705152753289515299490177322839196533937898559650136064.000000 7530053540161234280019854025028387377735498587280961961984.000000 0.000000
7530053540161234280019854025028387377735498587280961961984.000000 2964078234008908545015500152985497408448240893669127749632.000000 0.000000
0.000000 0.000000 0.000000
8341692543618478856718086235377892626471494474195674333184.000000 -1554589341524743444018135552155093070691406108211793625088.000000 0.000000
-1554589341524743444018135552155093070691406108211793625088.000000 188754875077249396014347850900307625399455610798149206016.000000 0.000000
0.000000 0.000000 0.000000
1132779611084385680393636885081385185578857133662755880960.000000 -5088523048786100207603890300434522359407063429327192326144.000000 0.000000
-5088523048786100207603890300434522359407063429327192326144.000000 2723581998663050072142711557002305865136458990098076139520.000000 0.000000
0.000000 0.000000 0.000000
-34743027497369807774829791021408739143582483526814007296.000000 -223531361107640573280457262619059711888387830347699585024.000000 0.000000
-223531361107640573280457262619059711888387830347699585024.000000 127590193627003340034091064142464750662228694022320291840.000000 0.000000
0.000000 0.000000 0.000000
29721271132099513729796099743788744714072163046056263680.000000 111547329575536568714911043966045193297841573065293561856.000000 0.000000
111547329575536568714911043966045193297841573065293561856.000000 58566782162639750200190336533984634344782097996171968512.000000 0.000000
0.000000 0.000000 0.000000
-374574834271881389495383082146678566086308532534665436725248.000000 62675905988335119715351335541774764966269006204208574103552.000000 0.000000
62675905988335119715351335541774764966269006204208574103552.000000 18189274568027985449098203729531046626144000576629667528704.000000 0.000000
0.000000 0.000000 0.000000
3268434859579853095472500793127436684245634296491695669248.000000 1838191837277376109001896212119766866038797737559599349760.000000 0.000000
1838191837277376109001896212119766866038797737559599349760.000000 577928200227947584137434591549546423999540285987673341952.000000 0.000000
0.000000 0.000000 0.000000
2284922335726175245549771099587697190721419896903302119424.000000 1341185321882688433121636320392977548934141562242497249280.000000 0.000000
1341185321882688433121636320392977548934141562242497249280.000000 429303423229598891011330958471412594661751260925256531968.000000 0.000000
0.000000 0.000000 0.000000
-1867856056781214864558952559929057808752430213873715380224.000000 697401823157257984594451547703433013944700133851470495744.000000 0.000000
697401823157257984594451547703433013944700133851470495744.000000 324389852888099848934449852911469191777328628062408933376.000000 0.000000
0.000000 0.000000 0.000000
22181566749074471651064391748068868602749351349993865216.000000 -30753460962880496042723791985325090282709358557574201344.000000 0.000000
-30753460962880496042723791985325090282709358557574201344.000000 14344612882222757106659690732482192717508686435514843136.000000 0.000000
0.000000 0.000000 0.000000
-27932623010711023986710140544376331014493538127243833769984.000000 17633326873844150843012169034493297143727731353727933612032.000000 0.000000
17633326873844150843012169034493297143727731353727933612032.000000 9573976964035889260116680841711322624563157830698505601024.000000 0.000000
0.000000 0.000000 0.000000
-1131896349772645691803233088206316374959853023417189007360.000000 -2830016787666974031274276149795537256317946549016050270208.000000 0.000000
-2830016787666974031274276149795537256317946549016050270208.000000 1628011272295032746996619210893625917735149816405439807488.000000 0.000000
0.000000 0.000000 0.000000
211066808414418790948670081171320566258545305216832503808.000000 217868474376215660364706213268688442742362468334562181120.000000 0.000000
217868474376215660364706213268688442742362468334562181120.000000 92964836477024111161901158505444770860468338849027719168.000000 0.000000
0.000000 0.000000 0.000000
2257644728899024294582842972510539115990550699214165245952.000000 1734742939087028106304182520865620580467367715984830889984.000000 0.000000
1734742939087028106304182520865620580467367715984830889984.000000 650227948809733118633553079186144882367757230750967005184.000000 0.000000
0.000000 0.000000 0.000000
2172475231811443083422702320597151523142026178050461270016.000000 1212389309952401585963644648165727907101983820135807320064.000000 0.000000
1212389309952401585963644648165727907101983820135807320064.000000 376614496176943863382890421213663143212823210101422686208.000000 0.000000
0.000000 0.000000 0.000000
737928036631065299206566824788255618888557752014077952.000000 -1510586269935682107296218648208666158554619370228678656.000000 0.000000
-1510586269935682107296218648208666158554619370228678656.000000 757638356284883159216353262342374555125976287431098368.000000 0.000000
0.000000 0.000000 0.000000
-1249999864599674693780599968583087809404431148545023672320.000000 -7198672504653890445211488641523904265077523830748978610176.000000 0.000000
-7198672504653890445211488641523904265077523830748978610176.000000 4083818226032546747262877705367435992389629490123184799744.000000 0.000000
0.000000 0.000000 0.000000
-46381815175279129739801129077436451132692331016684530827264.000000 -12123987773864306440593006480467202492047050375895409754112.000000 0.000000
-12123987773864306440593006480467202492047050375895409754112.000000 4756934648444099693002151337822710837207194225744296280064.000000 0.000000
0.000000 0.000000 0.000000
-86311860684363944486938286999481967998248506020115278462976.000000 -31667055450312772904994833838830286883863668599235180232704.000000 0.000000
-31667055450312772904994833838830286883863668599235180232704.000000 14596107218131794187150214203065747849643708215998589960192.000000 0.000000
0.000000 0.000000 0.000000
82422189535038591351720440926111757102013981157931089920.000000 -1212039274309572483753533793273008833062976998825420390400.000000 0.000000
-1212039274309572483753533793273008833062976998825420390400.000000 668353214580821971912873653514844291139391358726500777984.000000 0.000000
0.000000 0.000000 0.000000
-39008506547708010303327309134670632827659716745953804288.000000 6068677325442379238484309895721717926628795028481245184000.000000 0.000000
6068677325442379238484309895721717926628795028481245184000.000000 3377795187314356944884070084452779163197037224274945900544.000000 0.000000
0.000000 0.000000 0.000000
3721202376243454825105223859673870673351024000163119104.000000 2729056222489370161330543189067769588798751215447965696.000000 0.000000
2729056222489370161330543189067769588798751215447965696.000000 998044210680043432924439337577374451365397795124019200.000000 0.000000
0.000000 0.000000 0.000000
-123483381361394476174884045064148904194677990689710538752.000000 -692247395965027762382754214698028023382871920355338878976.000000 0.000000
-692247395965027762382754214698028023382871920355338878976.000000 392881205197945404373936509054329926718685295391721652224.000000 0.000000
0.000000 0.000000 0.000000
665812023744018801808710981024172139565147436050404081664.000000 -555079439532795890122223291532864866174048422882405515264.000000 0.000000
-555079439532795890122223291532864866174048422882405515264.000000 218156877385936464388856560533211184008690044031599640576.000000 0.000000
0.000000 0.000000 0.000000
374071334157823078633107123992184477519925057608310849536.000000 -336076512171215851713711906393234991950933475228133621760.000000 0.000000
-336076512171215851713711906393234991950933475228133621760.000000 135672512176085545679456946758443076284424837030100336640.000000 0.000000
0.000000 0.000000 0.000000
611248442913398430819315369277153978890902270713847087104.000000 -85788375869421531284814833294624707995739605005357809664.000000 0.000000
-85788375869421531284814833294624707995739605005357809664.000000 7921995186436766046561249103095096333639695630694612992.000000 0.000000
0.000000 0.000000 0.000000
383121764198862194844519416346210748162440116070418219008.000000 266829886590497414389034954416421931646707889456128458752.000000 0.000000
266829886590497414389034954416421931646707889456128458752.000000 94828647888194593401466946290598371545895947278831583232.000000 0.000000
0.000000 0.000000 0.000000
25693729641195050816636645239778202618749146857876750336.000000 -10622157692578852481697075558863444831252932648432041984.000000 0.000000
-10622157692578852481697075558863444831252932648432041984.000000 2624170961455745490925270427000145290028933102220345344.000000 0.000000
0.000000 0.000000 0.000000
728883183169368397654433584155576245409038974821557338112.000000 -1523878925436996369022391453242402335519134887493503025152.000000 0.000000
-1523878925436996369022391453242402335519134887493503025152.000000 766476232948145925237160259507150240528188636112506322944.000000 0.000000
0.000000 0.000000 0.000000
-455101840819178292299587201655043857645688491826418286592.000000 -20610171712146548440672017426612335168234480125830234112.000000 0.000000
-20610171712146548440672017426612335168234480125830234112.000000 1428447156114809014380481657069914392444795045730582528.000000 0.000000
0.000000 0.000000 0.000000
36011589813171436012206201843873895794330587605548021055488.000000 -53888606505214552692762224594745764024443979370450321932288.000000 0.000000
-53888606505214552692762224594745764024443979370450321932288.000000 25582680363467073063144820241927286484012938256595497779200.000000 0.000000
0.000000 0.000000 0.000000
1202947452139212865942831359653816975988546994838700032000.000000 2596420797559913222157349868007348508650894338149576605696.000000 0.000000
2596420797559913222157349868007348508650894338149576605696.000000 1311347001597249003174131245886137061945401208536093949952.000000 0.000000
0.000000 0.000000 0.000000
3656822393036170585546426204530607215024682471824948199424.000000 7858059164068011699509760857018585798562078657211101347840.000000 0.000000
7858059164068011699509760857018585798562078657211101347840.000000 4004317670373570844396946559324089549509505414216787427328.000000 0.000000
0.000000 0.000000 0.000000
237854700835388874469212655754463960235676953878481338368.000000 -358992993357704324239122138448305986696207074083460874240.000000 0.000000
-358992993357704324239122138448305986696207074083460874240.000000 170942695663953624257768171735177170117303015283525419008.000000 0.000000
0.000000 0.000000 0.000000
3131775236843787760423963003944201793179470489253314560.000000 -485296738570616570139543652454744235211934784072712192.000000 0.000000
-485296738570616570139543652454744235211934784072712192.000000 49338788267740615468821635668656694005826118454607872.000000 0.000000
0.000000 0.000000 0.000000
-6366384025380445863476876455424105050821512036018049515520.000000 -16875464115903960998806582258100208424043685045274627014656.000000 0.000000
-16875464115903960998806582258100208424043685045274627014656.000000 9701928793487193878144360800828543054043616796297939386368.000000 0.000000
0.000000 0.000000 0.000000
-363002076060764676485698174126759784535303619438807351296.000000 393797735575652301663351596916575315918021518125749501952.000000 0.000000
393797735575652301663351596916575315918021518125749501952.000000 225044317320543808592499367662244111280590224886597681152.000000 0.000000
0.000000 0.000000 0.000000
101002221252251969043644291588129605394570460302869004288.000000 -49338846970515134912017453289055269049948777058798665728.000000 0.000000
-49338846970515134912017453289055269049948777058798665728.000000 14190210836734307479666564601303229539125171664464117760.000000 0.000000
0.000000 0.000000 0.000000
5082006460512822995451991323343439594872279534203750580224.000000 4211680439964898110706012359600268189680629742097779392512.000000 0.000000
4211680439964898110706012359600268189680629742097779392512.000000 1686485895551849124687198273211415564117158569439066587136.000000 0.000000
0.000000 0.000000 0.000000
1002460725046986706626518886851833678873167924601127174144.000000 -12544713181226244651900632337866338771915783788365348864.000000 0.000000
-12544713181226244651900632337866338771915783788365348864.000000 119492515988201620711445598806528985932946609945968640.000000 0.000000
0.000000 0.000000 0.000000
-4352927322698182786033371425453100833785978127977768026112.000000 -20329257012843217555280626922355574061083144090137552486400.000000 0.000000
-20329257012843217555280626922355574061083144090137552486400.000000 11572909561901613609624205876516595005434144538959821144064.000000 0.000000
0.000000 0.000000 0.000000
4797946816472241032648526130129440064318034568921693028352.000000 4806334171320686557957280042112276909986403027018871472128.000000 0.000000
4806334171320686557957280042112276909986403027018871472128.000000 2028094134766446543615362979096720052205839867313446191104.000000 0.000000
0.000000 0.000000 0.000000
178526172944630098598231833785143268457483337634450243584.000000 -7437861583289785215947861749976305656390901625115377664.000000 0.000000
-7437861583289785215947861749976305656390901625115377664.000000 303060416649041235485047537607541121717893781665087488.000000 0.000000
0.000000 0.000000 0.000000
-2666844688706744335422514159503820514823479782767534800896.000000 -13735202153494958885472998444248304012021673701053409787904.000000 0.000000
-13735202153494958885472998444248304012021673701053409787904.000000 7805745129797305976485443205916160688969411951337635053568.000000 0.000000
0.000000 0.000000 0.000000
-141090352695330248319548945396536866747615078475043438592.000000 29205801737511582655444158513083424123772899509367996416.000000 0.000000
29205801737511582655444158513083424123772899509367996416.000000 9870682438545202310549509795356219855017632364962512896.000000 0.000000
0.000000 0.000000 0.000000
-209579888963338439681970333699073514864888642513680728064.000000 -4596026301382563059088597886232318956986700902061756645376.000000 0.000000
-4596026301382563059088597886232318956986700902061756645376.000000 2571360440488130914539591073427847039558674369940566310912.000000 0.000000
0.000000 0.000000 0.000000
2354378400125091926256997571416887952603313750316941312.000000 1111096842689516751920505604406297051949716488954314752.000000 0.000000
1111096842689516751920505604406297051949716488954314752.000000 304893838654682989516384055096929852319869372133801984.000000 0.000000
0.000000 0.000000 0.000000
-2045744885338982902890872323293459621553078166387962150912.000000 -5877390064690031301933372060707047862466957913915020804096.000000 0.000000
-5877390064690031301933372060707047862466957913915020804096.000000 3374587326732003273923571414288050407700725399418033930240.000000 0.000000
0.000000 0.000000 0.000000
-1894772781520127265024134958817798678676851104027770880.000000 -2924011557326422048097697788166898453698729602529099776.000000 0.000000
-2924011557326422048097697788166898453698729602529099776.000000 1687019103399997171887354505163045563674671231436587008.000000 0.000000
0.000000 0.000000 0.000000
61976573459807110648633806807755459997697689598392532992.000000 -37460015191777684902936466842020468994125604329686564864.000000 0.000000
-37460015191777684902936466842020468994125604329686564864.000000 9519858687624597705245153123178752182638481357255213056.000000 0.000000
0.000000 0.000000 0.000000
-3224666715854966653467870457172848399515460949663469797376.000000 -1522299903069089994966176402777018680840531041307471118336.000000 0.000000
-1522299903069089994966176402777018680840531041307471118336.000000 766253142137836830673209179255240499733721650652812148736.000000 0.000000
0.000000 0.000000 0.000000
-48630598850203117809319265447560568326559970035833663127552.000000 9475773398109899383175907578798476793165458667672661131264.000000 0.000000
9475773398109899383175907578798476793165458667672661131264.000000 3072399878840196570017581702081845481252519013059041165312.000000 0.000000
0.000000 0.000000 0.000000
-219375437542530188590018865709994959913080584286889391947776.000000 13776709357683085386383356673797264363220533952202166763520.000000 0.000000
13776709357683085386383356673797264363220533952202166763520.000000 1690347889083700370559118167761580490142813384423495434240.000000 0.000000
0.000000 0.000000 0.000000
-4715260919058785968511696006601431144931967058602220322816.000000 2778420311515542016134883415027195699524388427722515283968.000000 0.000000
2778420311515542016134883415027195699524388427722515283968.000000 1477106535772926024267957792256736894281312042426199703552.000000 0.000000
0.000000 0.000000 0.000000
582317328212001727560443195552599217686574026738592907264.000000 2981886023048098509585326884049793635974291681987052699648.000000 0.000000
2981886023048098509585326884049793635974291681987052699648.000000 1616434643842591890739707012818124970238717650949719982080.000000 0.000000
0.000000 0.000000 0.000000
151966994614929704344892043333643411806511249734045270016.000000 400995408904477474779043142369968234597681477910163095552.000000 0.000000
400995408904477474779043142369968234597681477910163095552.000000 207090609329888823481285587615907495182447164369705893888.000000 0.000000
0.000000 0.000000 0.000000
-8154051251748370364477273555359808594840170682292142866432.000000 -14952161132646402380317003373552019840040544000381221339136.000000 0.000000
-14952161132646402380317003373552019840040544000381221339136.000000 8633222177537833089110114458342772303184690058768536305664.000000 0.000000
0.000000 0.000000 0.000000
-7476996644852393558687645822446718459662556919981414547456.000000 -2147444190876606955177738687438357408490084826405486460928.000000 0.000000
-2147444190876606955177738687438357408490084826405486460928.000000 882519275864683938561555066159390748845665080153112313856.000000 0.000000
0.000000 0.000000 0.000000
1743788387640617479022485745629181960704552835278461468672.000000 1457755953045856112318474747796254569207934283462645645312.000000 0.000000
1457755953045856112318474747796254569207934283462645645312.000000 573898340527016981188081294710137163206015218256497868800.000000 0.000000
0.000000 0.000000 0.000000
232726417845151021807650432429416142069830547976652587008.000000 676776309813923919541451583726796145087237444890641039360.000000 0.000000
676776309813923919541451583726796145087237444890641039360.000000 350462118557450174638398219830627422857814886676474888192.000000 0.000000
0.000000 0.000000 0.000000
-3822847355419651010629783394740053585881228992974954692608.000000 5858453217622468487347297106817243840179273713965389053952.000000 0.000000
5858453217622468487347297106817243840179273713965389053952.000000 3382720715612078708336728855738021276820442614285742374912.000000 0.000000
0.000000 0.000000 0.000000
1694567096553302519820165462432428468603254864697477824512.000000 -3917842579912414259711257094331893922794437432450253586432.000000 0.000000
-3917842579912414259711257094331893922794437432450253586432.000000 1996980171932646818556401244292036277150461551959313743872.000000 0.000000
0.000000 0.000000 0.000000
-4788062501355147778432214773375912766793539755728529522688.000000 7153243261049074081366531929615616524713497579941743558656.000000 0.000000
7153243261049074081366531929615616524713497579941743558656.000000 4111193555377451668884282952524091879750798386999972593664.000000 0.000000
0.000000 0.000000 0.000000
473027390150514149006482634050557188623609002693161385984.000000 -421277758147845845868975674228633140217517847012091887616.000000 0.000000
-421277758147845845868975674228633140217517847012091887616.000000 145284868900695081355416850940580711871110697142903111680.000000 0.000000
0.000000 0.000000 0.000000
468343043148003721647265739600213306656778621527875649536.000000 -501192402211071383008343198303739215321744257132835897344.000000 0.000000
-501192402211071383008343198303739215321744257132835897344.000000 217257486864816044873699225297149505040275811261617274880.000000 0.000000
0.000000 0.000000 0.000000
3115874683156437895634646088106532479849673687308552896512.000000 14629951759906703137827489954831545811184158366173338009600.000000 0.000000
14629951759906703137827489954831545811184158366173338009600.000000 7853905964808013593580626823510652818221590764106457022464.000000 0.000000
0.000000 0.000000 0.000000
-5876741553094977937519825761171467768139308606707397033984.000000 6817330659762546253995175163872716232689916160811504500736.000000 0.000000
6817330659762546253995175163872716232689916160811504500736.000000 3907916695109148848762460843207078579767770253626215235584.000000 0.000000
0.000000 0.000000 0.000000
312553184193407522428252788449486883912059226178382200832.000000 710198245955557039444245035895571944757619774153767780352.000000 0.000000
710198245955557039444245035895571944757619774153767780352.000000 360975277609406177185146431676043946367185334083459743744.000000 0.000000
0.000000 0.000000 0.000000
1007121095472049085885903889197071582901906019053142540288.000000 -678305431508723370625331679320327799635339985305691226112.000000 0.000000
-678305431508723370625331679320327799635339985305691226112.000000 210442251885463042102902023469354479411923525451456184320.000000 0.000000
0.000000 0.000000 0.000000
-14654055209160383379829282963248869652867615102496088784896.000000 2250640157504209426061043114604852484247582194924016107520.000000 0.000000
2250640157504209426061043114604852484247582194924016107520.000000 611242278899413836671073377611373127618885705857608187904.000000 0.000000
0.000000 0.000000 0.000000
12152465901585986542351151278388277633560879184993922842624.000000 -9421924435855140883127964279980552943413434010623664979968.000000 0.000000
-9421924435855140883127964279980552943413434010623664979968.000000 3547950642159770068535305299706107571999529240410269417472.000000 0.000000
0.000000 0.000000 0.000000
1009840128551984285118988698673722166255666767239019757568.000000 -544317098121462252405490983848486720151774329647528935424.000000 0.000000
-544317098121462252405490983848486720151774329647528935424.000000 164650458679947964229820553718585246134708773364258832384.000000 0.000000
0.000000 0.000000 0.000000
-23034498924506958695342628406064498865121054697516433408.000000 105398056027354188103513771063601681618910959796985266176.000000 0.000000
105398056027354188103513771063601681618910959796985266176.000000 58271261361237901066111257742563105807971917981684858880.000000 0.000000
0.000000 0.000000 0.000000
461045682294565426746845663549671866659663893267218432000.000000 -1070133281739458763169771611735321372308513385315213246464.000000 0.000000
-1070133281739458763169771611735321372308513385315213246464.000000 545280831635332951971621019834103173774099428012378292224.000000 0.000000
0.000000 0.000000 0.000000
1291847520994110828423941426095833822049695886890617536512.000000 364627354291990566778994289681147241215453976776094515200.000000 0.000000
364627354291990566778994289681147241215453976776094515200.000000 65431826556542814858257560445891526790454802012826501120.000000 0.000000
0.000000 0.000000 0.000000
13046380350464585348967593504482009732536077748947478642688.000000 -4674349984242108288214106578871115957056436419946214326272.000000 0.000000
-4674349984242108288214106578871115957056436419946214326272.000000 1045016757276506770511939273229048836692003389513215770624.000000 0.000000
0.000000 0.000000 0.000000
3594640751567364328676531545541249988725092000568679858176.000000 -4081174433557971208150763061266114947291598572722174558208.000000 0.000000
-4081174433557971208150763061266114947291598572722174558208.000000 1799381425036393472517830559015834011095498687752792178688.000000 0.000000
0.000000 0.000000 0.000000
226561006870429273145912539434817755098617200567832805376.000000 -158466691856128869405092517009875020298594570348999475200.000000 0.000000
-158466691856128869405092517009875020298594570348999475200.000000 57301016129944591773181628340161056808346150250372661248.000000 0.000000
0.000000 0.000000 0.000000
-1849624583585711946370131756511824966050373356554654056448.000000 -3616722373904930205531776462977806531331023338165055258624.000000 0.000000
-3616722373904930205531776462977806531331023338165055258624.000000 2086745838424784603649989575597797944412828883928798461952.000000 0.000000
0.000000 0.000000 0.000000
496818529576208730737061640765081530717716961751382097920.000000 -857102407279249934501463576116998562495206392402114772992.000000 0.000000
-857102407279249934501463576116998562495206392402114772992.000000 418480622469440045727483498331681768569403113627340242944.000000 0.000000
0.000000 0.000000 0.000000
16052380349839121357890383474214308823258764482954919936.000000 38774234975947166864931491223995875010206205013124972544.000000 0.000000
38774234975947166864931491223995875010206205013124972544.000000 19845312312657238372573884156273413282123201190081593344.000000 0.000000
0.000000 0.000000 0.000000
6829652439542604109663232317248569662149940409568067584.000000 -2723590249381812648531981118496367336265556427842519040.000000 0.000000
-2723590249381812648531981118496367336265556427842519040.000000 655150677332259812386530202955658769128685658898956288.000000 0.000000
0.000000 0.000000 0.000000
-255115886923778055673523707442735258472376518971364474880.000000 -515557294905233226478096453921361610409411251584626589696.000000 0.000000
-515557294905233226478096453921361610409411251584626589696.000000 297534073562398696441704240292124093120129026216563834880.000000 0.000000
0.000000 0.000000 0.000000
-25965668601254451924785863723357625137311669262201548439552.000000 7006686741461876404463982888991673613079192632705945698304.000000 0.000000
7006686741461876404463982888991673613079192632705945698304.000000 2784639573505305486930836377077151222409085842336730054656.000000 0.000000
0.000000 0.000000 0.000000
298971113847348257386202308258774219038779216057092538368.000000 225231702242285036289315170441603045057064835611724087296.000000 0.000000
225231702242285036289315170441603045057064835611724087296.000000 83652958760273050573831839350428745722833944320541720576.000000 0.000000
0.000000 0.000000 0.000000
1204420210019446944475680965113610248716636950903648157696.000000 -591567891885284270049728981238982133648703860224481558528.000000 0.000000
-591567891885284270049728981238982133648703860224481558528.000000 170048238204865870407668694208328342835133391828657635328.000000 0.000000
0.000000 0.000000 0.000000
4137958484340460399689367035594698588874032555453260496896.000000 -2701423709016020681975676940442568250322018488748722880512.000000 0.000000
-2701423709016020681975676940442568250322018488748722880512.000000 922634653324053885373897856914278409538775465417945120768.000000 0.000000
0.000000 0.000000 0.000000
-7974304396014868707464900063751731208890579179991012999168.000000 884953940117339365445523842938406599815615443757923565568.000000 0.000000
884953940117339365445523842938406599815615443757923565568.000000 183723677268611078618915852625696560952941252697495961600.000000 0.000000
0.000000 0.000000 0.000000
552663564476709781566646548707764112750718727850295296.000000 -148752184274933530805706236243775755337029279889227776.000000 0.000000
-148752184274933530805706236243775755337029279889227776.000000 25461044210360736872942555873329142916890037275590656.000000 0.000000
0.000000 0.000000 0.000000
-5503673913540287236737814737293735609986143719508429242368.000000 -1557786492941799504499132553421075906853505066135499833344.000000 0.000000
-1557786492941799504499132553421075906853505066135499833344.000000 635837124491328650816584585357877296999050170750115774464.000000 0.000000
0.000000 0.000000 0.000000
1914217546655801876589514879570354489840260153391345303552.000000 -271818659339233455943483511784260266045068045546927685632.000000 0.000000
-271818659339233455943483511784260266045068045546927685632.000000 25387913804149783642482491258341463933966373668649959424.000000 0.000000
0.000000 0.000000 0.000000
86408141327195304341403408935043809437991368359938097152.000000 -411474337234248671499409725182059629890767675847824375808.000000 0.000000
-411474337234248671499409725182059629890767675847824375808.000000 222007073853820329199634889876348328305553205889593245696.000000 0.000000
0.000000 0.000000 0.000000
-228281005356808084180542836585108310717451860132589731840.000000 562254902201344486620161775387648150942395573744783327232.000000 0.000000
562254902201344486620161775387648150942395573744783327232.000000 323562788833711955738887611608369655471450058325483323392.000000 0.000000
0.000000 0.000000 0.000000
-580595386901209956957138623912781090761109433493430992896.000000 447953405179781233970718763337364500235543352496315432960.000000 0.000000
447953405179781233970718763337364500235543352496315432960.000000 249493865775517452089806564443729134708226766974312513536.000000 0.000000
0.000000 0.000000 0.000000
2244472877463528076070375099378671598689397921917335240704.000000 2986906901093735344763682566118426787394952757021776019456.000000 0.000000
2986906901093735344763682566118426787394952757021776019456.000000 1378945948640167489251727421657473107661639276116223983616.000000 0.000000
0.000000 0.000000 0.000000
-448075189569400680646706896777729069760499106752453672960.000000 313117517249265622620596597670440914446168777690772930560.000000 0.000000
313117517249265622620596597670440914446168777690772930560.000000 171608319625444867947251738349255659797303252787176407040.000000 0.000000
0.000000 0.000000 0.000000
9454026652758921136654422051565227558393418615688655798272.000000 524348865162491238821607288360095436597357753220015849472.000000 0.000000
524348865162491238821607288360095436597357753220015849472.000000 25355865753720261383632798152482079861235735086556512256.000000 0.000000
0.000000 0.000000 0.000000
3624138431723807995881992028083630268731170990978276261888.000000 8836036012023114690556785803069704978211759554634776051712.000000 0.000000
8836036012023114690556785803069704978211759554634776051712.000000 4543970639929118097258043341622709100267614863281633624064.000000 0.000000
0.000000 0.000000 0.000000
273206314596437300791086679150166958184776365738035249152.000000 -309864514769345416200744138536017301499031495536430546944.000000 0.000000
-309864514769345416200744138536017301499031495536430546944.000000 133180453439753500160063507211193276826917326148253777920.000000 0.000000
0.000000 0.000000 0.000000
-467867427375808089493074077731795463871926968966606487552.000000 -3209922143764545590227794246157176464673336059179072225280.000000 0.000000
-3209922143764545590227794246157176464673336059179072225280.000000 1816676637878562173483704371858999874985881091561117188096.000000 0.000000
0.000000 0.000000 0.000000
-2538156274365031829133985415658074489195269258219886739456.000000 4903283369385296855679156921350501967642175244495847686144.000000 0.000000
4903283369385296855679156921350501967642175244495847686144.000000 2863541368131227318645969408652805683679904308439032004608.000000 0.000000
0.000000 0.000000 0.000000
-174303505880643775199422622340708108982529805592123257389056.000000 -34099195382208900928043077575016528548889570063573925756928.000000 0.000000
-34099195382208900928043077575016528548889570063573925756928.000000 11393953112570239717402289970037681966581285289387519639552.000000 0.000000
0.000000 0.000000 0.000000
2498269472565617879124343100720946729266113650249170944.000000 6456488665378073510194132577946201280074851471421603840.000000 0.000000
6456488665378073510194132577946201280074851471421603840.000000 3327761448679406865078490580733586845887310499692937216.000000 0.000000
0.000000 0.000000 0.000000
3990981273881139415047281406927128828690681898981130240.000000 -4368090536550254723145432185904434538863051432827813888.000000 0.000000
-4368090536550254723145432185904434538863051432827813888.000000 2212070086512727858801925819137338263909143655435206656.000000 0.000000
0.000000 0.000000 0.000000
78334660947066785699361758424809451503301694674993938432.000000 -316422928966631530875380234523487767657773085281350582272.000000 0.000000
-316422928966631530875380234523487767657773085281350582272.000000 169699711637945124801510875577075437966574481388750241792.000000 0.000000
0.000000 0.000000 0.000000
6203088228844127278530567907580220841897086383197121413120.000000 11870949790462369759904590608422921503781071247731758989312.000000 0.000000
11870949790462369759904590608422921503781071247731758989312.000000 5895820425803411741651448536086897550889912774723345842176.000000 0.000000
0.000000 0.000000 0.000000
-216973632286300677621438861306898315612524170183164550971392.000000 26677888067542715360793872010535996152636204723130396049408.000000 0.000000
26677888067542715360793872010535996152636204723130396049408.000000 6041293455353426387536097906044748264164701327066849607680.000000 0.000000
0.000000 0.000000 0.000000
907874520677340497335370868998804485304240665397372649472.000000 2990177542911346819706405958490213008265251133404651454464.000000 0.000000
2990177542911346819706405958490213008265251133404651454464.000000 1571566951962260096158633225576369674334181428885383544832.000000 0.000000
0.000000 0.000000 0.000000
12160829290350311505286795754619733702626287484970580574208.000000 767258744432209059850961514564143067992990201083154399232.000000 0.000000
767258744432209059850961514564143067992990201083154399232.000000 32977815556072953160637597099864853297545889989689081856.000000 0.000000
0.000000 0.000000 0.000000
1056932439182245560000788696767332146231096777626630488064.000000 -3781222260382306051946843071294379381156789342438953058304.000000 0.000000
-3781222260382306051946843071294379381156789342438953058304.000000 2010194001946693794321981757193336175675779757338360020992.000000 0.000000
0.000000 0.000000 0.000000
3634561502236055226098880610204030879973883022972888809472.000000 1303842673311720212844247287000743950728424627137805287424.000000 0.000000
1303842673311720212844247287000743950728424627137805287424.000000 328660208281659974940405211893238286722216991082825121792.000000 0.000000
0.000000 0.000000 0.000000
-14940834358425602427129092364953092922555901791415828480.000000 -448714209409856189061400051511994923528141177516829179904.000000 0.000000
-448714209409856189061400051511994923528141177516829179904.000000 251854546581355721634069044771192719005084495291040661504.000000 0.000000
0.000000 0.000000 0.000000
9598660742208108202351080344813809839610045487044953636864.000000 7516812542413435251161108184595253485925998180017979260928.000000 0.000000
7516812542413435251161108184595253485925998180017979260928.000000 2845137230330429727580160436021686892960335311597691994112.000000 0.000000
0.000000 0.000000 0.000000
1874555219392067548173505545280627817981878965232115646464.000000 219954583894494921683881660406353946319141657950549966848.000000 0.000000
219954583894494921683881660406353946319141657950549966848.000000 17047429731134943429641239058592711974102689503514722304.000000 0.000000
0.000000 0.000000 0.000000
118710857537681070424973568760598952628836558262222454784.000000 63842274716835336401266408608019174418275328807290273792.000000 0.000000
63842274716835336401266408608019174418275328807290273792.000000 19304112448770921171124212522443483679953101485445742592.000000 0.000000
0.000000 0.000000 0.000000
1130742076583067979604593411171086812568236710304940032.000000 272571708513978428788925978324603827117807377521311744.000000 0.000000
272571708513978428788925978324603827117807377521311744.000000 42322512900290376841237494554999064253540720049127424.000000 0.000000
0.000000 0.000000 0.000000
728484382542881652204172727370329616537584805939077185536.000000 295808228541714018545293301651422064065845994355098124288.000000 0.000000
295808228541714018545293301651422064065845994355098124288.000000 88725758676316420070769601550471690227257469307667349504.000000 0.000000
0.000000 0.000000 0.000000
4199053722760330220629781964825738803822136667364392960.000000 367896401079973191845015716844738233641087973206261760.000000 0.000000
367896401079973191845015716844738233641087973206261760.000000 21387968482835128638207085600865849010648342811639808.000000 0.000000
0.000000 0.000000 0.000000
967107116257429425699789359588724963355596446680261591040.000000 1285102804311409990834184601873103826853111592062558404608.000000 0.000000
1285102804311409990834184601873103826853111592062558404608.000000 594829317805715857498416988238080067993617419250259984384.000000 0.000000
0.000000 0.000000 0.000000
-642664513813836928630478210417832028483109694699590654099456.000000 34762466547670569050093179648062945407222760738834108907520.000000 0.000000
34762466547670569050093179648062945407222760738834108907520.000000 3726832950397697671113181680802298191386276244824440963072.000000 0.000000
0.000000 0.000000 0.000000
221764179617527764880853589190135017021405206680120066048.000000 -109400908576438569115338370380252901802550306659341697024.000000 0.000000
-109400908576438569115338370380252901802550306659341697024.000000 31030738969823443372633413254506447385534564754530500608.000000 0.000000
0.000000 0.000000 0.000000
-5760034183194635555403687192936149912835472425954050048.000000 -95173017721705272025981726285866418902088099530065051648.000000 0.000000
-95173017721705272025981726285866418902088099530065051648.000000 53584622256627759800930956199874559776128147120149495808.000000 0.000000
0.000000 0.000000 0.000000
-975004009654386557184701515739215101132271252326643843203072.000000 756646323974969009289510802973757715373859902845333012480.000000 0.000000
756646323974969009289510802973757715373859902845333012480.000000 4776012561664625042767252631011124370300232084469317632.000000 0.000000
0.000000 0.000000 0.000000
-21235906839725213068107139030053827131708986465406347640832.000000 3462851379788572678420405619645653357960056977009823186944.000000 0.000000
3462851379788572678420405619645653357960056977009823186944.000000 984581874960925835200478961383074227080508172908621725696.000000 0.000000
0.000000 0.000000 0.000000
1252843152753293741689867727247102403384311870888521760768.000000 -319380257941253326486064798672285687814164663138730901504.000000 0.000000
-319380257941253326486064798672285687814164663138730901504.000000 52022553670642925662719842991383772618508986902370058240.000000 0.000000
0.000000 0.000000 0.000000
1952155560800104414914772493148430592776867183832864915456.000000 2038740505998701388847514980953526767342853944960981401600.000000 0.000000
2038740505998701388847514980953526767342853944960981401600.000000 877425283873543323023936972970775132654055873809861312512.000000 0.000000
0.000000 0.000000 0.000000
-1515672539607647798995700120249347779484909545216540672.000000 -1589362439669082187443435212523908701595697598549628813312.000000 0.000000
-1589362439669082187443435212523908701595697598549628813312.000000 883972833625434385734035221281875331261992679746387836928.000000 0.000000
0.000000 0.000000 0.000000
53164592931156603659104724826290121552117977764706910208.000000 -144876946319060504926441645186482806512628459678057103360.000000 0.000000
-144876946319060504926441645186482806512628459678057103360.000000 75044268644121267404891506178034303128981214624615497728.000000 0.000000
0.000000 0.000000 0.000000
4703260044727719391328350730502258774559431253631923388416.000000 -762243055963603878015418777517123023526933900617693790208.000000 0.000000
-762243055963603878015418777517123023526933900617693790208.000000 102920699840314010365009284772817859227603543566747435008.000000 0.000000
0.000000 0.000000 0.000000
2698527193929564699071323329251260451040247300701078683648.000000 376456678617769639370199149050460272155098207679594627072.000000 0.000000
376456678617769639370199149050460272155098207679594627072.000000 38274776163471243643559862686358196335200064503707336704.000000 0.000000
0.000000 0.000000 0.000000
485632299197540052237364593054135213749370789328140107776.000000 -382563623924585952662012625301377899340712388133950324736.000000 0.000000
-382563623924585952662012625301377899340712388133950324736.000000 145534389423655331390636467343725655072950748347767980032.000000 0.000000
0.000000 0.000000 0.000000
222670056904496709328075157424764222851026260252598206464.000000 700625190022896695399641676668060090068198167236222910464.000000 0.000000
700625190022896695399641676668060090068198167236222910464.000000 367214454779101834296008362470603237896838151582198530048.000000 0.000000
0.000000 0.000000 0.000000
1796493034856075965048240979778001190720520104341260992512.000000 -1695260788030273416161864126876309303730086504255430066176.000000 0.000000
-1695260788030273416161864126876309303730086504255430066176.000000 697304490328737319028519909200406459500438671712051003392.000000 0.000000
0.000000 0.000000 0.000000
-37680371544616697835800779148489706817484302400692500299776.000000 34239425747046118323393772173518193662896712613961668755456.000000 0.000000
34239425747046118323393772173518193662896712613961668755456.000000 19341113959565277511074149687274608013447740075916440633344.000000 0.000000
0.000000 0.000000 0.000000
440308019885679437922909424017199880734482251680730578944.000000 -541467915628112031855477369675431103417157007914265739264.000000 0.000000
-541467915628112031855477369675431103417157007914265739264.000000 244663597372108861115514751013579666144497182304637026304.000000 0.000000
0.000000 0.000000 0.000000
-100154458932908509472718008174653858716989803956677902336.000000 8213908263789827255472943383872118073559664515135829966848.000000 0.000000
8213908263789827255472943383872118073559664515135829966848.000000 4575176355470208256928598712414111870481014766002711298048.000000 0.000000
0.000000 0.000000 0.000000
256559508200619904771152352272421264407250252810837557248.000000 -455332717400800321423801776633615188208635210910171922432.000000 0.000000
-455332717400800321423801776633615188208635210910171922432.000000 223476144950905400504783246312131149591754851095171563520.000000 0.000000
0.000000 0.000000 0.000000
-18627295766493864801624239012998651808070666077339648.000000 155605774605992181992894123348171501559666639372288.000000 0.000000
155605774605992181992894123348171501559666639372288.000000 10470947741035609870135292105466882528606530043904.000000 0.000000
0.000000 0.000000 0.000000
-40688244246457093183780521298529947774333652945949478092800.000000 -42372551388930889437043055820503659424467716742495783092224.000000 0.000000
-42372551388930889437043055820503659424467716742495783092224.000000 24163052191340368317945730695188078139462706863032594595840.000000 0.000000
0.000000 0.000000 0.000000
437871643883316582458276850480214710215396096104225308672.000000 14958159883179949257826745219104362740525638813195698176.000000 0.000000
14958159883179949257826745219104362740525638813195698176.000000 395172394595346014576892449312974644988529345417969664.000000 0.000000
0.000000 0.000000 0.000000
-69725167047211770729518491401689940152689353919094063104.000000 -185437247969954216013208144590336177775436594469402574848.000000 0.000000
-185437247969954216013208144590336177775436594469402574848.000000 34206925674549407006339908003340637827791748417890287616.000000 0.000000
0.000000 0.000000 0.000000
-24520159683361287273710301647637863980800107226383515648.000000 -94075213294512255629666075529810240553519250117731811328.000000 0.000000
-94075213294512255629666075529810240553519250117731811328.000000 54238714956604118635625395554418660512584693025934934016.000000 0.000000
0.000000 0.000000 0.000000
382415925248564069933470642713593358828016629583676702720.000000 180719440741739235608381688839767626034569192747080613888.000000 0.000000
180719440741739235608381688839767626034569192747080613888.000000 49671711504313028582890609536629887472750048780908232704.000000 0.000000
0.000000 0.000000 0.000000
287307973196457513811730697527942919956201738962282217472.000000 -287754663285991204483611008730088656778478747419829862400.000000 0.000000
-287754663285991204483611008730088656778478747419829862400.000000 121480505284886486474824623554283856362918226298518110208.000000 0.000000
0.000000 0.000000 0.000000
883677606415454176170951561565480807377380978131367624704.000000 -466327400045286727511043416757410903060652716816932536320.000000 0.000000
-466327400045286727511043416757410903060652716816932536320.000000 138861119714430174773934744469512856677774364980774174720.000000 0.000000
0.000000 0.000000 0.000000
-18083561974625796438312739981189589174617310314944614367232.000000 -4854111937086336006848506189708204473830531734181716688896.000000 0.000000
-4854111937086336006848506189708204473830531734181716688896.000000 1925185946864583382622204263283301841291651610747904983040.000000 0.000000
0.000000 0.000000 0.000000
881908695553719933130408049798871187710957221027350839296.000000 1225173509258891277735358345866198582887674578693091491840.000000 0.000000
1225173509258891277735358345866198582887674578693091491840.000000 568489911651152296259872942964316247293530756887577886720.000000 0.000000
0.000000 0.000000 0.000000
2492199384523182101504114931915037291068234172849333469184.000000 728593192176622238024452053028778495790794625317179752448.000000 0.000000
728593192176622238024452053028778495790794625317179752448.000000 135848842477148321690383509577070730428471071253395931136.000000 0.000000
0.000000 0.000000 0.000000
-1902304940911913642069762328898806633834354362085642600448.000000 -2416262696067097554533686776077971457782384795168704299008.000000 0.000000
-2416262696067097554533686776077971457782384795168704299008.000000 1410610164363453267495676320999774813800008803131523596288.000000 0.000000
0.000000 0.000000 0.000000
773089337866933879969902325755168048168537824735256379392.000000 208093566839924611036091055788106086484195064762469449728.000000 0.000000
208093566839924611036091055788106086484195064762469449728.000000 35625960872353292225760928703517649051252054815913541632.000000 0.000000
0.000000 0.000000 0.000000
753683277788185189414006284126840414760619135528303853568.000000 -119825179407338168348689324343848042278232473654215573504.000000 0.000000
-119825179407338168348689324343848042278232473654215573504.000000 12488670982675748173365603129354173396292901382148587520.000000 0.000000
0.000000 0.000000 0.000000
450719317715729318003241558165886115057420135755950325760.000000 96706335327240067567296070148880502810949190730572103680.000000 0.000000
96706335327240067567296070148880502810949190730572103680.000000 14341434260360208929418455744383230865545533618443517952.000000 0.000000
0.000000 0.000000 0.000000
1625461131877236514636268024636841540664927173625249792000.000000 -1314721063968280611672456509748125905014658191429136809984.000000 0.000000
-1314721063968280611672456509748125905014658191429136809984.000000 505654819815391625762915083892180784706527558272928448512.000000 0.000000
0.000000 0.000000 0.000000
-3681828038556563090078572060726635369638089855146714464256.000000 8039123809514474985287854869233380384572391066215466926080.000000 0.000000
8039123809514474985287854869233380384572391066215466926080.000000 4620034532827988806302103595362203099085942351751488208896.000000 0.000000
0.000000 0.000000 0.000000
-10840723468446166186467169262885646801943793939080022065152.000000 2366508233824638448854170998756518038705121465208074665984.000000 0.000000
2366508233824638448854170998756518038705121465208074665984.000000 828411311402428590808440733989811209577848418383811313664.000000 0.000000
0.000000 0.000000 0.000000
232610370454891491525214608374565394022861782455104307200.000000 -85677602175322511774316270616947034684707650995916636160.000000 0.000000
-85677602175322511774316270616947034684707650995916636160.000000 19301821476300912989496787438416057938719259828349304832.000000 0.000000
0.000000 0.000000 0.000000
-1110003233962895351821480351202128331991204753352511455232.000000 -3568061922297424233162763703279601584751292575235996385280.000000 0.000000
-3568061922297424233162763703279601584751292575235996385280.000000 2044718977293966806445782105997002292072176033220144398336.000000 0.000000
0.000000 0.000000 0.000000
-1255775945511939184393275602173173068575510322949520359424.000000 -6482053262120212425496176276042355957103879038196521107456.000000 0.000000
-6482053262120212425496176276042355957103879038196521107456.000000 3683806422129563150778099451160057268553443368854425174016.000000 0.000000
0.000000 0.000000 0.000000
-966164108466356469406878282804149542555944304347192261915705344.000000 1674403831043093223612575844699443458176314932340296645607424.000000 0.000000
1674403831043093223612575844699443458176314932340296645607424.000000 5832089058494119525660957470180004169782636831472177119232.000000 0.000000
0.000000 0.000000 0.000000
201637132616871379693582695166014836517908019613009969152.000000 -197371094591133276381630624713277625913764059469766983680.000000 0.000000
-197371094591133276381630624713277625913764059469766983680.000000 82533042521344400626039542174116932470003719785475473408.000000 0.000000
0.000000 0.000000 0.000000
619093266900806379851942323692799220925427821595636793344.000000 -3593259504184856468615826641654302219959654281503639076864.000000 0.000000
-3593259504184856468615826641654302219959654281503639076864.000000 1942483372269466814660429958756952214252286525676919455744.000000 0.000000
0.000000 0.000000 0.000000
1960746899265254099814045820789271742312038098959501099008.000000 1332181494524276840212430930124741843474884709301325135872.000000 0.000000
1332181494524276840212430930124741843474884709301325135872.000000 466764823946219618077957609008815886097894999432869445632.000000 0.000000
0.000000 0.000000 0.000000
-575793942365894789054880665485707414531508526285427048448.000000 -2511589805555036929059221017229795683899402166596215504896.000000 0.000000
-2511589805555036929059221017229795683899402166596215504896.000000 1434078430523909527198303894949144631514027598145933803520.000000 0.000000
0.000000 0.000000 0.000000
-247907953272218468849431297298588267348375862600299184128.000000 848720727102599718619990956073031867810668514235507539968.000000 0.000000
848720727102599718619990956073031867810668514235507539968.000000 485825846053850397614906716476352919868565505349450203136.000000 0.000000
0.000000 0.000000 0.000000
1851947929006382357320117481167736175821158302695645249536.000000 771516842751588941978230991885361833382797182226925617152.000000 0.000000
771516842751588941978230991885361833382797182226925617152.000000 192330037932267173552253531504811952040456656451002171392.000000 0.000000
0.000000 0.000000 0.000000
1646876608982667020788010921402494340327392475229353672704.000000 360770042550749961461889435244857717708327176532664516608.000000 0.000000
360770042550749961461889435244857717708327176532664516608.000000 51902142383715808996492231831288194731738902790649413632.000000 0.000000
0.000000 0.000000 0.000000
782879810083724470753276242788982769957531922539695046656.000000 -938542920739967679285768206939864275681608302968631721984.000000 0.000000
-938542920739967679285768206939864275681608302968631721984.000000 420858286420017826586483199543091192240654144470152904704.000000 0.000000
0.000000 0.000000 0.000000
582764424456343618224075841173555287832836747574397370368.000000 265500641953375630571137130507611771037324642172981477376.000000 0.000000
265500641953375630571137130507611771037324642172981477376.000000 70983169477796429104385140309073018063888598308902404096.000000 0.000000
0.000000 0.000000 0.000000
386866972794005950114356441736348137742892618391285137408.000000 1581735141742604676942851610044449273021009089349550080.000000 0.000000
1581735141742604676942851610044449273021009089349550080.000000 22024081093615192188911667626070036714244315365244928.000000 0.000000
0.000000 0.000000 0.000000
-5154510612110353314730411764624850554332975309231237365760.000000 5265897865272504743852816081303574485328639413629531193344.000000 0.000000
5265897865272504743852816081303574485328639413629531193344.000000 3199384112501508782833678888236689929739577157330344607744.000000 0.000000
0.000000 0.000000 0.000000
393898311659084767283448420108958700611020115803077869568.000000 -55039786020195519199493322231808622913050643183916023808.000000 0.000000
-55039786020195519199493322231808622913050643183916023808.000000 6486074682736364843126299234517228849264031433609969664.000000 0.000000
0.000000 0.000000 0.000000
-6568010380866300873334403795095865019640097455299683680256.000000 -4682403448178151226072136403019329228616924362719977537536.000000 0.000000
-4682403448178151226072136403019329228616924362719977537536.000000 2573815982988366922034454500671657060266603797998414594048.000000 0.000000
0.000000 0.000000 0.000000
1501429793310087854075209023053143577334766695377014882304.000000 265938993955045967672232844892889620848404861513917005824.000000 0.000000
265938993955045967672232844892889620848404861513917005824.000000 30763096518826000674637741765913713458904579158715662336.000000 0.000000
0.000000 0.000000 0.000000
142210122322397000808712503368626109172237639470179942400.000000 105661166631155977739746116053308070462516183541898805248.000000 0.000000
105661166631155977739746116053308070462516183541898805248.000000 37610201417644074258700785825921104479453188461665714176.000000 0.000000
0.000000 0.000000 0.000000
324342001579138356379082817573270183903969444268741754880.000000 -30944168645617434297519955493430826146608834739431276544.000000 0.000000
-30944168645617434297519955493430826146608834739431276544.000000 1956133145810898155551416654807587731610212178709184512.000000 0.000000
0.000000 0.000000 0.000000
-3097943756563712843186288706763803597304081580382962581504.000000 5602637022933342253800506129217059290971186653896611201024.000000 0.000000
5602637022933342253800506129217059290971186653896611201024.000000 3233677639063616360385017086687908134342216213149247340544.000000 0.000000
0.000000 0.000000 0.000000
-2448818341480898402715025864563833154906357278317270269952.000000 7273995030044002074334208987747361885350751606773162967040.000000 0.000000
7273995030044002074334208987747361885350751606773162967040.000000 4174525537804609979934652678214526266333695394709034237952.000000 0.000000
0.000000 0.000000 0.000000
-602653056951939557029132949297295390411088446691756474368.000000 1566906466712033753515926072471362470342988859960742379520.000000 0.000000
1566906466712033753515926072471362470342988859960742379520.000000 912007159075335358195720299221983492159797326460202516480.000000 0.000000
0.000000 0.000000 0.000000
-1426586857871733669617129152769761926959348427246884880384.000000 4074583267826998886287650887479231295715206977419575558144.000000 0.000000
4074583267826998886287650887479231295715206977419575558144.000000 2342940078519691801763204322790163887129486753610101424128.000000 0.000000
0.000000 0.000000 0.000000
4003256883226812112310648997966183789131682475171372859392.000000 -5872383536556300129463390537738693847837989261450409934848.000000 0.000000
-5872383536556300129463390537738693847837989261450409934848.000000 2776113664602144585804555881789805168186564561939394985984.000000 0.000000
0.000000 0.000000 0.000000
-42806554916734113506536070924036789928986402717133644496896.000000 -14332695593473985116447208283867117366163710292015213182976.000000 0.000000
-14332695593473985116447208283867117366163710292015213182976.000000 6352348235564743179605981739338613194365901990557393092608.000000 0.000000
0.000000 0.000000 0.000000
-35732670150531323341920563256157562191518292060621414334464.000000 -14011659484586332740700108881460664117154953533411043573760.000000 0.000000
-14011659484586332740700108881460664117154953533411043573760.000000 6628268867309347957438873474795325277680188199192471011328.000000 0.000000
0.000000 0.000000 0.000000
1187267412765637973048917039607782074785707650750458363904.000000 4025278231135991854353346219932671582615163698599878983680.000000 0.000000
4025278231135991854353346219932671582615163698599878983680.000000 2121052797543605434800900251768940819268579660114738282496.000000 0.000000
0.000000 0.000000 0.000000
282464129043631430162257006854867498905057271758838562816.000000 -215649051240564771629547706044412335033899567429464358912.000000 0.000000
-215649051240564771629547706044412335033899567429464358912.000000 81120799962458574092201772527973460767467887964503146496.000000 0.000000
0.000000 0.000000 0.000000
9707627308239297190682927987202477816244806188588804866048.000000 21128669692885381798000738540496091115330817045005330284544.000000 0.000000
21128669692885381798000738540496091115330817045005330284544.000000 10682943651861426886773580438874564499842628688869876301824.000000 0.000000
0.000000 0.000000 0.000000
885194919753232738693749174362483522060961123986883739648.000000 396874593842918843508522005926425695659024274270330028032.000000 0.000000
396874593842918843508522005926425695659024274270330028032.000000 104768588075546538524796609998165217807090684687502278656.000000 0.000000
0.000000 0.000000 0.000000
7842863784106812213966451186038439736090447784619074912256.000000 -30779260797486472939419080812429817490950626747269251072.000000 0.000000
-30779260797486472939419080812429817490950626747269251072.000000 96325543514344504394985450395197586420627600809394176.000000 0.000000
0.000000 0.000000 0.000000
-45269936190911632664905242881702960022905849016052296450048.000000 14011594184317676848304864908365159929354782195307325161472.000000 0.000000
14011594184317676848304864908365159929354782195307325161472.000000 5987612930758058460498404838429725566738773242401303560192.000000 0.000000
0.000000 0.000000 0.000000
7920624775080508385041250447969923348391059430224055762944.000000 -2143494484620947410165187003689539795856639389319462649856.000000 0.000000
-2143494484620947410165187003689539795856639389319462649856.000000 368746055266594999067013466415380135678651683602799001600.000000 0.000000
0.000000 0.000000 0.000000
1587133377380382970875088088735220499294347886863572795392.000000 1402877225210590723209760539398644336530471671164401876992.000000 0.000000
1402877225210590723209760539398644336530471671164401876992.000000 562321743811474578507866304878614001946723394906660798464.000000 0.000000
0.000000 0.000000 0.000000
16070666416732757258074406068920973326369667710659162275840.000000 -5740943803118183812576715308047476696020708809210496811008.000000 0.000000
-5740943803118183812576715308047476696020708809210496811008.000000 1260467507521555231264646802941246633815672525601319682048.000000 0.000000
0.000000 0.000000 0.000000
-249548616697650866597396434394562198671321407746045628121088.000000 29826367276184273862912366375568605026116618964949333442560.000000 0.000000
29826367276184273862912366375568605026116618964949333442560.000000 6591887482112637386239491544381874830766963768217435111424.000000 0.000000
0.000000 0.000000 0.000000
1518564186797446907633164256799355886318883791497517334528.000000 -687628753071714102776428079867917889140757656579967287296.000000 0.000000
-687628753071714102776428079867917889140757656579967287296.000000 183061842892708149046901545600992504793845939079248609280.000000 0.000000
0.000000 0.000000 0.000000
913537712050149650930113976954769196009076110159721267200.000000 -513979979183030060307617071718174950256599249748251115520.000000 0.000000
-513979979183030060307617071718174950256599249748251115520.000000 159988593459493530514008649457141170555814114925805043712.000000 0.000000
0.000000 0.000000 0.000000
1253105361136583938977447877992700088915022446605891534848.000000 184151692097731045680254154828313326659921052300130385920.000000 0.000000
184151692097731045680254154828313326659921052300130385920.000000 18106849209851395105442752723325876451086089877956067328.000000 0.000000
0.000000 0.000000 0.000000
1431352847807476070091222714115399037961419965693811490816.000000 -557429789607970148929873729105278525896604767860989886464.000000 0.000000
-557429789607970148929873729105278525896604767860989886464.000000 131530764494642258588888874704807206236738584177826332672.000000 0.000000
0.000000 0.000000 0.000000
-36386381226467939431003865495802470330148416324108288000.000000 12846030430490246805543233049287242828688042593875918848.000000 0.000000
12846030430490246805543233049287242828688042593875918848.000000 5827290615069469387007194083165902282132648968497135616.000000 0.000000
0.000000 0.000000 0.000000
-625404002001188821469680161111674045139573585457465786368.000000 1839175238912302534229107188146131822852859487016951218176.000000 0.000000
1839175238912302534229107188146131822852859487016951218176.000000 1134110472003402959627219163865525273265606608817754210304.000000 0.000000
0.000000 0.000000 0.000000
2925846555644121286555298430242978561025314658958799011840.000000 5018971182181935295934610695173016341229122140413651582976.000000 0.000000
5018971182181935295934610695173016341229122140413651582976.000000 2445944726350302951213790311378411956945136491414687842304.000000 0.000000
0.000000 0.000000 0.000000
2411642179116899921485518844370762457506896789159303708672.000000 1411751163102510812595969572551762487998579545283391127552.000000 0.000000
1411751163102510812595969572551762487998579545283391127552.000000 476241721018443342439716504995816131775715847071535726592.000000 0.000000
0.000000 0.000000 0.000000
1715334644262656536662061335990718254069609449341711286272.000000 -1987760323763925815324448417734276199688170300852343406592.000000 0.000000
-1987760323763925815324448417734276199688170300852343406592.000000 883064995513535936829259131576258367795901036696543690752.000000 0.000000
0.000000 0.000000 0.000000
1264915262205104932447989487517142920622364576502115205120.000000 -2599228369022589793132371178700065892123208964642057486336.000000 0.000000
-2599228369022589793132371178700065892123208964642057486336.000000 1304292768601128840853496086893234010408748897051707703296.000000 0.000000
0.000000 0.000000 0.000000
201446786103922846984584976718806460991627719569496342528.000000 -136112484966855796059906227937116354528902026643713818624.000000 0.000000
-136112484966855796059906227937116354528902026643713818624.000000 47537098097709237368235164203752759005509120899705470976.000000 0.000000
0.000000 0.000000 0.000000
369854484376075563554460999264338104665235237395324993536.000000 -133864382177004173583562258149374354766118919048242659328.000000 0.000000
-133864382177004173583562258149374354766118919048242659328.000000 30184041465008897204238218905026882209978169671941095424.000000 0.000000
0.000000 0.000000 0.000000
409663091265303776216945898376092140510478360029939367936.000000 -194475447735651804979195868061318792466091633368968986624.000000 0.000000
-194475447735651804979195868061318792466091633368968986624.000000 53959457880026366650328107060444314278867279871895142400.000000 0.000000
0.000000 0.000000 0.000000
277336623005852975643866081052343834957053233284467654656.000000 -269871724310304016982858501838413063973414514146668445696.000000 0.000000
-269871724310304016982858501838413063973414514146668445696.000000 112603026062092651921009352789076816851292296714228072448.000000 0.000000
0.000000 0.000000 0.000000
218323554573930989611754267564200373829517083430363332608.000000 -53891762728562222971031832154958338432869229343539200000.000000 0.000000
-53891762728562222971031832154958338432869229343539200000.000000 8666281155328357354868291852915364882469359349365997568.000000 0.000000
0.000000 0.000000 0.000000
353249928869084343536068202211566180834918746987522162688.000000 -258825432707739590190138216615847258173630795019865554944.000000 0.000000
-258825432707739590190138216615847258173630795019865554944.000000 94647677443750723242310285670574761267917090219949555712.000000 0.000000
0.000000 0.000000 0.000000
-7693432359183217309756694840032364637770599941148006940672.000000 65281745458847349637022951011025445969753759016510554112.000000 0.000000
65281745458847349637022951011025445969753759016510554112.000000 1842502127347033796697289038265691971600720968839856128.000000 0.000000
0.000000 0.000000 0.000000
-484570101511886038840113128637327476383918225705722846380032.000000 39036130546619358513869585572574966302275582735973743591424.000000 0.000000
39036130546619358513869585572574966302275582735973743591424.000000 6070783661378222971865393403231371312155108955073567260672.000000 0.000000
0.000000 0.000000 0.000000
-1798425026123350945072955769314674757072614742512715694080.000000 -3345036488832158236688855371402066828931653450625041039360.000000 0.000000
-3345036488832158236688855371402066828931653450625041039360.000000 1935678828456569219172005576667114356288694880035525361664.000000 0.000000
0.000000 0.000000 0.000000
-4215869291903661551447368708720919828711101429997402849280.000000 3881651550598000762875455685245425105633820138441514418176.000000 0.000000
3881651550598000762875455685245425105633820138441514418176.000000 2193174880777291554269069916074821086997950780126856740864.000000 0.000000
0.000000 0.000000 0.000000
-497107920800498810575684845165975745790480844599523803136.000000 -824517182689038096498913318437866286272953089077052178432.000000 0.000000
-824517182689038096498913318437866286272953089077052178432.000000 475897400477924757113641118842800404952921122637178994688.000000 0.000000
0.000000 0.000000 0.000000
12753116778101026525309138676807902137690049054544085647360.000000 7808543634006212791008216535293727715760098713590348906496.000000 0.000000
7808543634006212791008216535293727715760098713590348906496.000000 2568421521749122757304315241798425177250247706843826618368.000000 0.000000
0.000000 0.000000 0.000000
-1033568002471196399482256112642905741603223559504591323136.000000 -54824631603097565125502190564770158591452362638465433600.000000 0.000000
-54824631603097565125502190564770158591452362638465433600.000000 11167081972989073740038148966581137429771242817099661312.000000 0.000000
0.000000 0.000000 0.000000
1684036972847748525775398264182606786501696723160158699520.000000 -1948457370238356064445043355775623943304797659162671579136.000000 0.000000
-1948457370238356064445043355775623943304797659162671579136.000000 864255768869021189569382630967382233635302836477951475712.000000 0.000000
0.000000 0.000000 0.000000
-360606617273019744353116329600057927027191970604257378304.000000 -736863413913557786866168214196009448980346809606165495808.000000 0.000000
-736863413913557786866168214196009448980346809606165495808.000000 425281250641565217411823119953288705795193472138577182720.000000 0.000000
0.000000 0.000000 0.000000
-226361336249360641941868976532719953116513977400947638272.000000 -792303028057774922612165949659167222215267871444606910464.000000 0.000000
-792303028057774922612165949659167222215267871444606910464.000000 453351742426759789603935710466464145280310194736663101440.000000 0.000000
0.000000 0.000000 0.000000
5319892722746328670894290984197931088206433878016.000000 7864649050449405087999056373989003926899932528640.000000 0.000000
7864649050449405087999056373989003926899932528640.000000 3692498447933183084465672181878920630665725607936.000000 0.000000
0.000000 0.000000 0.000000
-188041075987010148905336379937284074670432648570043629568.000000 -14507995457600745907071125578018996240917041267366428672.000000 0.000000
-14507995457600745907071125578018996240917041267366428672.000000 2162448000073270979913916048237056946483454602121314304.000000 0.000000
0.000000 0.000000 0.000000
355080874545709846536011573263021522063844071995743404032.000000 -486207740550337028729872971047916854688741877354896293888.000000 0.000000
-486207740550337028729872971047916854688741877354896293888.000000 226098080066133060346826490081610087866300032824098422784.000000 0.000000
0.000000 0.000000 0.000000
824912419101075770040846579690838125805038639122858639360.000000 -152732156743199290957837606950828756383309827275415879680.000000 0.000000
-152732156743199290957837606950828756383309827275415879680.000000 18429017922621413516871821602229220160887593802032742400.000000 0.000000
0.000000 0.000000 0.000000
-807950170392541002876790855723781474633654370470144770048.000000 101066094475741681475040252104057104725998327792071081984.000000 0.000000
101066094475741681475040252104057104725998327792071081984.000000 23216804228985516355352517077513162097513756918579986432.000000 0.000000
0.000000 0.000000 0.000000
98032426091260466755359635133027694453471348231017332736.000000 -231211223172382873880404355567045347359256178588303491072.000000 0.000000
-231211223172382873880404355567045347359256178588303491072.000000 119793844648742892906113280478720539878279541958700433408.000000 0.000000
0.000000 0.000000 0.000000
5307318956048995869725137197821097139615286189878878928896.000000 -2002676834652513408649618193350694974312236064532628242432.000000 0.000000
-2002676834652513408649618193350694974312236064532628242432.000000 463197873019065817967336977432110489235782154287358935040.000000 0.000000
0.000000 0.000000 0.000000
-146481799344587395118456099649701722943852298783515561951232.000000 32344160307355195709382671640341060487799016178030624112640.000000 0.000000
32344160307355195709382671640341060487799016178030624112640.000000 11406555340547493988817316076935657453967564539843932323840.000000 0.000000
0.000000 0.000000 0.000000
4756598571904402941537811247988096385400037103883790581760.000000 -4339438936297731684962359329401236524014476138558663950336.000000 0.000000
-4339438936297731684962359329401236524014476138558663950336.000000 1768164105421343341440401841531080328944341202869522792448.000000 0.000000
0.000000 0.000000 0.000000
431263326962943222647845984179617734014863025030257704960.000000 942315480021552490331164808549652235885288995659370725376.000000 0.000000
942315480021552490331164808549652235885288995659370725376.000000 480775623617944206846324208094008064320723820946598658048.000000 0.000000
0.000000 0.000000 0.000000
-480175186486436402281001924030846559847482797762543616.000000 -377697562400389514971226651313410790285014221226770432.000000 0.000000
-377697562400389514971226651313410790285014221226770432.000000 210293785960214438122534910083030827584453243089977344.000000 0.000000
0.000000 0.000000 0.000000
7580743249688773472252416160349397576939570576033585299456.000000 21606340996421772694466453753376044450265583558175966101504.000000 0.000000
21606340996421772694466453753376044450265583558175966101504.000000 11234840496362395672101633338815788820663324559613506879488.000000 0.000000
0.000000 0.000000 0.000000
13002812610331659928153561309949611748347814595373295468544.000000 -4818590204182175916269162164227429117535497184524755795968.000000 0.000000
-4818590204182175916269162164227429117535497184524755795968.000000 1091190068685048829116649298691348719070848776721510957056.000000 0.000000
0.000000 0.000000 0.000000
692963887997084305702150661733927604526289509190987677696.000000 513492440331471866010286529340828214431389135641899958272.000000 0.000000
513492440331471866010286529340828214431389135641899958272.000000 188837342073027879526030950420957749367756922984551415808.000000 0.000000
0.000000 0.000000 0.000000
43391944643784458220615958389646807567448550626368419790848.000000 -18659245810839773539726903719785452704110521344735936774144.000000 0.000000
-18659245810839773539726903719785452704110521344735936774144.000000 4767871633655855161231781426435346762873074140580996448256.000000 0.000000
0.000000 0.000000 0.000000
5715501373055734907750179966437291950696935507267420160.000000 -46202401359697998823867224857088486065251570338592980992.000000 0.000000
-46202401359697998823867224857088486065251570338592980992.000000 26721983195394904816238604949258126771999826931502546944.000000 0.000000
0.000000 0.000000 0.000000
8681615168231033426040474042686172446208156592436498399232.000000 9796851723460057217269319858891510782163970443168960217088.000000 0.000000
9796851723460057217269319858891510782163970443168960217088.000000 4307943724326191603093845721874859483007940335775451709440.000000 0.000000
0.000000 0.000000 0.000000
4923999577925300833158997187245953220197970011559458504704.000000 3626263572021868154554999834659045738284896338292160593920.000000 0.000000
3626263572021868154554999834659045738284896338292160593920.000000 1330219532102126747182071495611718608275555480573340286976.000000 0.000000
0.000000 0.000000 0.000000
10274087514566450796972731537450364854587602671303609286656.000000 -2083171668035973544253635264044498028410247152306030116864.000000 0.000000
-2083171668035973544253635264044498028410247152306030116864.000000 277931400720521194436419299307468764177480563107225927680.000000 0.000000
0.000000 0.000000 0.000000
11167478624945795969499290957439603128344689427628223889408.000000 5498989421189099768028634255935782652136405424490934173696.000000 0.000000
5498989421189099768028634255935782652136405424490934173696.000000 1557729125864378803184091539449777608099675296686676115456.000000 0.000000
0.000000 0.000000 0.000000
-440739378300181834267304851530462229406626305878291120128.000000 -475810532376928388525642614592765255566614260892796190720.000000 0.000000
-475810532376928388525642614592765255566614260892796190720.000000 272169229052685268369427026617296240548607296380480782336.000000 0.000000
0.000000 0.000000 0.000000
9667177087452645811241964062955081168892894237006233600.000000 42984250754883772231541002834757578134765883199663898624.000000 0.000000
42984250754883772231541002834757578134765883199663898624.000000 22856954422828481572793078180167335048446948116464140288.000000 0.000000
0.000000 0.000000 0.000000
3712700484480207525610352233376974282787886192738105819136.000000 -198690268325860316385773129654905273808545819571567722496.000000 0.000000
-198690268325860316385773129654905273808545819571567722496.000000 7314628121112893711970659022659109343876340741039980544.000000 0.000000
0.000000 0.000000 0.000000
-880303037633090594603518968743167782352071121346422120644608.000000 55043213218006636295932433669599954910960211880352510115840.000000 0.000000
55043213218006636295932433669599954910960211880352510115840.000000 6725728011942927544810339086962030257412648424827428798464.000000 0.000000
0.000000 0.000000 0.000000
24194800109169441424902931514381863550354712822926150729728.000000 -7477806597759680241811469599417738339187035737293865353216.000000 0.000000
-7477806597759680241811469599417738339187035737293865353216.000000 1456720891196789066125069270280948174905532618003082903552.000000 0.000000
0.000000 0.000000 0.000000
3221863238440183123506241109315741448950720855214150123520.000000 -748810417137048783051442202435048511630426052044605358080.000000 0.000000
-748810417137048783051442202435048511630426052044605358080.000000 118893063434305759745962032034996824267965372526193803264.000000 0.000000
0.000000 0.000000 0.000000
-634984067352963584773060983420608834854055764625184522240.000000 -672651553196079369493435571753089157835575853947977465856.000000 0.000000
-672651553196079369493435571753089157835575853947977465856.000000 385000809802140466555073107052472076880455384455071137792.000000 0.000000
0.000000 0.000000 0.000000
2604417820913882547824544079473054053336954824740220960768.000000 -3323808844660508237882781273387924823145062163550205640704.000000 0.000000
-3323808844660508237882781273387924823145062163550205640704.000000 1517441005663808698155914845701008392672068754240813662208.000000 0.000000
0.000000 0.000000 0.000000
-17757553851701735814947592662881824988059960775693408665600.000000 -45251435643462314156362992109941219316082292501905030512640.000000 0.000000
-45251435643462314156362992109941219316082292501905030512640.000000 26031296066249568467672573580864966985215165288420399382528.000000 0.000000
0.000000 0.000000 0.000000
-150881415500630021785465359721552731783732256438986211328.000000 -483853787214543469553994652487465554962832699409215520768.000000 0.000000
-483853787214543469553994652487465554962832699409215520768.000000 279060885546800820822467028685895974862692545273092112384.000000 0.000000
0.000000 0.000000 0.000000
-497428918943054028163328441148330130724996717596922347520.000000 -5459361303988189286186360580420540336463884322680199970816.000000 0.000000
-5459361303988189286186360580420540336463884322680199970816.000000 3135395991443570061311397019928560519525875291509078622208.000000 0.000000
0.000000 0.000000 0.000000
1638086829416998119984402978794026692059621860773789171712.000000 -9012542189132642701715255227398638098926286956749184303104.000000 0.000000
-9012542189132642701715255227398638098926286956749184303104.000000 4871863521025596592388613265286522458538831533354730389504.000000 0.000000
0.000000 0.000000 0.000000
463044755887007328962219849359571829587471008041879470080.000000 -355825767204465601569566199652089528119631161878529441792.000000 0.000000
-355825767204465601569566199652089528119631161878529441792.000000 133378521565964818023130784606847105631124014712037048320.000000 0.000000
0.000000 0.000000 0.000000
1284018487780246838870297623667124875458489171006925570048.000000 -32008909428171222799592434923463897279210510659558047744.000000 0.000000
-32008909428171222799592434923463897279210510659558047744.000000 627653335640251357029587376434982143946247674353680384.000000 0.000000
0.000000 0.000000 0.000000
-53752444236886113869303109186547525730491086661125914230784.000000 -2630646407410929592050491003915816244794406172804394254336.000000 0.000000
-2630646407410929592050491003915816244794406172804394254336.000000 253872706724620809828761535057942807383453991632212328448.000000 0.000000
0.000000 0.000000 0.000000
-15347184318496223241231970540088365039041771699262413864960.000000 -9502305078128739023668509207346009153162703016559497969664.000000 0.000000
-9502305078128739023668509207346009153162703016559497969664.000000 5102230399687495012765173339518861986693272812301429243904.000000 0.000000
0.000000 0.000000 0.000000
560439284311700722624102268340037408448873856437753741312.000000 -780421152249006251668563716604290650401207002729646391296.000000 0.000000
-780421152249006251668563716604290650401207002729646391296.000000 364400657577903849030066843376860223740722951164023275520.000000 0.000000
0.000000 0.000000 0.000000
-6608555846393906068367347348266355268090578169349422448640.000000 -1413874976969539396772398510664969703965809280707425468416.000000 0.000000
-1413874976969539396772398510664969703965809280707425468416.000000 488555374623942363734666975947964836883608339427174121472.000000 0.000000
0.000000 0.000000 0.000000
-98841291622226645179152154636873757884870169246541283328.000000 500683825204535421112239364152274955142429198532531453952.000000 0.000000
500683825204535421112239364152274955142429198532531453952.000000 274656663087833543532128834760681713198113143169386283008.000000 0.000000
0.000000 0.000000 0.000000
-25125410418531975904310907022839976118159761547818533126144.000000 11267120040661569443510969303195826523818376515779871899648.000000 0.000000
11267120040661569443510969303195826523818376515779871899648.000000 5582234452503834286871219519537681474440698309800850620416.000000 0.000000
0.000000 0.000000 0.000000
14370326482799534381225764443019844885391053245877583872.000000 -3266039026094875311228680680840408851364992367170693365760.000000 0.000000
-3266039026094875311228680680840408851364992367170693365760.000000 1879174176033202882642909996358958485701672143277541818368.000000 0.000000
0.000000 0.000000 0.000000
6753682190363241335931025239590381588604780553486509015040.000000 2733777761617871016954603101661838277186437262190193934336.000000 0.000000
2733777761617871016954603101661838277186437262190193934336.000000 686750426209905025434949566627724741325154014486614507520.000000 0.000000
0.000000 0.000000 0.000000
89365357686410501530106660032375488127738680819847266304.000000 -14109953375090407539297696762170292681728619582217781248.000000 0.000000
-14109953375090407539297696762170292681728619582217781248.000000 1460775075194514294105674870338152191816953118517624832.000000 0.000000
0.000000 0.000000 0.000000
-9612478884679377457993306991980380009196391795128630618619904.000000 -53150719797321675008234425229766056243329099601790111842304.000000 0.000000
-53150719797321675008234425229766056243329099601790111842304.000000 587468630869006111269628300639299623109887102524699181056.000000 0.000000
0.000000 0.000000 0.000000
527631653544803675901308765588567988683889998568259321856.000000 42262372482621448117057052830142388946460506065045815296.000000 0.000000
42262372482621448117057052830142388946460506065045815296.000000 2267394294154057649258397171046166625962269808254779392.000000 0.000000
0.000000 0.000000 0.000000
1336579610862842750185714982013854623003497440534780182528.000000 -39174487772972965861733253154738023906769513320221245440.000000 0.000000
-39174487772972965861733253154738023906769513320221245440.000000 765127719098378851914337647803852479737334422879338496.000000 0.000000
0.000000 0.000000 0.000000
-1451626550051325716416281351898008577924101833856930283520.000000 -1025054154280436447477386108107602688172041760605506371584.000000 0.000000
-1025054154280436447477386108107602688172041760605506371584.000000 563033229818212098211440530674880553704370932312283545600.000000 0.000000
0.000000 0.000000 0.000000
-316592455973700608204270645626393311731224000638513840128.000000 80032372576383890741235668152809235659211612060288811008.000000 0.000000
80032372576383890741235668152809235659211612060288811008.000000 22142389787404668241274501526310782081384927618125529088.000000 0.000000
0.000000 0.000000 0.000000
-477114408049304558877002226071754646248378522464388382720.000000 1203405738418409951081983890872783418037600209469532274688.000000 0.000000
1203405738418409951081983890872783418037600209469532274688.000000 729991106434595928641048252282043116249013958371857924096.000000 0.000000
0.000000 0.000000 0.000000
-4425533613700551755827917117490922293109779622526976.000000 391351292361858676442955928508992394134898035654656.000000 0.000000
391351292361858676442955928508992394134898035654656.000000 70866395003164596457381663099962220402716681699328.000000 0.000000
0.000000 0.000000 0.000000
3411099581785203101878495574979851487438485158862274953216.000000 14162775854756096440678610599660951442740578826861794033664.000000 0.000000
14162775854756096440678610599660951442740578826861794033664.000000 7551580496343900229921189944212101673207395274562230812672.000000 0.000000
0.000000 0.000000 0.000000
1319469447383821586441373718319602632150255503872622592.000000 582580165962378387559908669296391983389910066643599360.000000 0.000000
582580165962378387559908669296391983389910066643599360.000000 151952282606871641879890216787508485601673429683011584.000000 0.000000
0.000000 0.000000 0.000000
9309684893926989498331986417993696748105690192130487615488.000000 -638957294500774329205846195994181237165143858708154941440.000000 0.000000
-638957294500774329205846195994181237165143858708154941440.000000 29773199899240328335562508358013848356352405301450768384.000000 0.000000
0.000000 0.000000 0.000000
459149034491102653315228388620062132252371149979274706944.000000 -858496002268435905024609476354658217686021528996460625920.000000 0.000000
-858496002268435905024609476354658217686021528996460625920.000000 435865344948849866009204141390453333242711520313629212672.000000 0.000000
0.000000 0.000000 0.000000
9855063913028215760699660659589983722060034028532607746048.000000 3052154299026298376268332718088724003009566139271272726528.000000 0.000000
3052154299026298376268332718088724003009566139271272726528.000000 596130950803483446467241732702766618786364456526711619584.000000 0.000000
0.000000 0.000000 0.000000
3450861622147236133954703801169281199532782069722862583808.000000 1088400540668088076937343314224474277550535719847376977920.000000 0.000000
1088400540668088076937343314224474277550535719847376977920.000000 215555444845813454423361218159680725497010632055372906496.000000 0.000000
0.000000 0.000000 0.000000
-268228498186967160895024299231039783315737244786668727173120.000000 -30760420945181304479190000195973163986931379253380760207360.000000 0.000000
-30760420945181304479190000195973163986931379253380760207360.000000 6570430074177040565122342407641949809677061386057642147840.000000 0.000000
0.000000 0.000000 0.000000
-416523773615353875400674181676084201808708242010531692544.000000 108654834560984448168630287729228326885130748592847323136.000000 0.000000
108654834560984448168630287729228326885130748592847323136.000000 42610269695488391176206909507785048734958900793313329152.000000 0.000000
0.000000 0.000000 0.000000
-5380782595728566028102821500362482599408656249223557152768.000000 1627030673282337416490322729557518780209328841753922371584.000000 0.000000
1627030673282337416490322729557518780209328841753922371584.000000 687133467047520438477289552804598074303024326247289192448.000000 0.000000
0.000000 0.000000 0.000000
27841554111710918773454332958752313109997458018260746240.000000 32178966730243919622734762638260836706570291328801832960.000000 0.000000
32178966730243919622734762638260836706570291328801832960.000000 14268512311052372960638650865689296468548422913119748096.000000 0.000000
0.000000 0.000000 0.000000
-807443871768350360219915238600695292117649185875423133696.000000 833145305241262570404791711203920501951731386734585315328.000000 0.000000
833145305241262570404791711203920501951731386734585315328.000000 474875195563775781349945578797199053009843012345844989952.000000 0.000000
0.000000 0.000000 0.000000
20361074089614482900138223426809739886092658092936265728.000000 -78967555284587086747506232466964405143396559955639140352.000000 0.000000
-78967555284587086747506232466964405143396559955639140352.000000 42465690934746631514729633798944907385235561941164883968.000000 0.000000
0.000000 0.000000 0.000000
-32250374547551233696900139864803569706464555132649430056960.000000 -6587477767320257849057946302641609647978332978766191525888.000000 0.000000
-6587477767320257849057946302641609647978332978766191525888.000000 2214183885086547073023062933882819829316335041339893743616.000000 0.000000
0.000000 0.000000 0.000000
11486272370227873674454640307540106512749614580241530880.000000 569170896325368226952584550158178157102456106745547718656.000000 0.000000
569170896325368226952584550158178157102456106745547718656.000000 315539175140562766981530740558729772991095430194036473856.000000 0.000000
0.000000 0.000000 0.000000
6537212547470417031335450465355724098190415609791416107008.000000 3031770544128562604605886765677513748987921691480856461312.000000 0.000000
3031770544128562604605886765677513748987921691480856461312.000000 825608550759376099968828009524278005245824652307272302592.000000 0.000000
0.000000 0.000000 0.000000
9034836582077207893018758903637893296396413865333620736.000000 -2325229247651075002183530189632213435766450576630480896.000000 0.000000
-2325229247651075002183530189632213435766450576630480896.000000 382184346391215905224305575174209667976783217939185664.000000 0.000000
0.000000 0.000000 0.000000
20274441014944913025198127020554030545226929674865606656.000000 548077034278775053668280302484703558991940572843331289088.000000 0.000000
548077034278775053668280302484703558991940572843331289088.000000 303122186801515118473302991044102916656426407457154138112.000000 0.000000
0.000000 0.000000 0.000000
943932086118580525047884418330160217735123289323339776.000000 -1069568507115749537785484430642047461571327481471827968.000000 0.000000
-1069568507115749537785484430642047461571327481471827968.000000 471286959701663747144983347838705897646830463486001152.000000 0.000000
0.000000 0.000000 0.000000
8964063632358073900121339518728465753720968863346988154880.000000 -7640737164489831580702660289350553267263762199463239614464.000000 0.000000
-7640737164489831580702660289350553267263762199463239614464.000000 2990185178463266413519034722976605052729854510203200864256.000000 0.000000
0.000000 0.000000 0.000000
-2120699655584308518562782610663330015901346748283598950891520.000000 -17603058458206307276060957675354486673802723128860888530944.000000 0.000000
-17603058458206307276060957675354486673802723128860888530944.000000 292010949235790530727192838928123318357172738749246734336.000000 0.000000
0.000000 0.000000 0.000000
257400955108233827644750296557088044607385640413578657792.000000 -117841650788877677751400232853591563031555774765655392256.000000 0.000000
-117841650788877677751400232853591563031555774765655392256.000000 31607972139957655225726067606698744370864924191205883904.000000 0.000000
0.000000 0.000000 0.000000
7467128988444536916754069682848938113300679566148054810624.000000 -4020327164081045704582739309800338452399354922972838100992.000000 0.000000
-4020327164081045704582739309800338452399354922972838100992.000000 1286750386205075862040186637439309276054487702522596163584.000000 0.000000
0.000000 0.000000 0.000000
724032614911026842618787459563748717819163967332508762112.000000 -131960343356551016779147297662873492166158230913248395264.000000 0.000000
-131960343356551016779147297662873492166158230913248395264.000000 15704380890020690761936063284635788700806282783903186944.000000 0.000000
0.000000 0.000000 0.000000
707227196732222215471597649344783568354239173221674909696.000000 -123665088237467295670522877540505674590688477359976218624.000000 0.000000
-123665088237467295670522877540505674590688477359976218624.000000 14127130267516182666105037269716074325652302344864399360.000000 0.000000
0.000000 0.000000 0.000000
1545365149934678848569948492455220435406782471407879061504.000000 147395195452837696790734249793839630709212536860290580480.000000 0.000000
147395195452837696790734249793839630709212536860290580480.000000 9314999186080625000491881319201470906713431992919130112.000000 0.000000
0.000000 0.000000 0.000000
-13621069728969596361477362274535602579715278554068334673920.000000 -5720144776380029835966527221944672420519170633316985470976.000000 0.000000
-5720144776380029835966527221944672420519170633316985470976.000000 2770254873836096798045068718213582634536128764286160863232.000000 0.000000
0.000000 0.000000 0.000000
3944117835602034278963362379551259489467461242574124089344.000000 3276566741373599972422376002101326160651519719299988062208.000000 0.000000
3276566741373599972422376002101326160651519719299988062208.000000 1276517576916667096187152111417425145770633755923048300544.000000 0.000000
0.000000 0.000000 0.000000
1395739699901830987443445567265605942388925017576439808.000000 -346019321034520059409464860920620953183186517265219584.000000 0.000000
-346019321034520059409464860920620953183186517265219584.000000 54944331573116855060795291380384926335714053354160128.000000 0.000000
0.000000 0.000000 0.000000
-104744526675547604449650576723419889685547333251623813120.000000 -144941344947904798233313790051157687088833651591222394880.000000 0.000000
-144941344947904798233313790051157687088833651591222394880.000000 83516790049510650592782274590798959960361274989135003648.000000 0.000000
0.000000 0.000000 0.000000
1770263489902529643328366744948432702773822064498311168.000000 -14368742042712847503734951766110379460878126153434398720.000000 0.000000
-14368742042712847503734951766110379460878126153434398720.000000 8110127531216919114113137204286334071747981933967048704.000000 0.000000
0.000000 0.000000 0.000000
14545713470868514781387292721929506275263370330172817408.000000 -160903262403856790067849244584809197039594417817925976064.000000 0.000000
-160903262403856790067849244584809197039594417817925976064.000000 88723066241565660745947300457729118229348372133263179776.000000 0.000000
0.000000 0.000000 0.000000
22141515485819370895754965230786440335807891565977796608.000000 -41783285850511571751269982149556693243328830685910663168.000000 0.000000
-41783285850511571751269982149556693243328830685910663168.000000 21440983150510055447537809905889159120957953567711297536.000000 0.000000
0.000000 0.000000 0.000000
3790167588516888863697704547607660961821280795390640128.000000 -3510248966575267099263378731186163596836407667576537088.000000 0.000000
-3510248966575267099263378731186163596836407667576537088.000000 1435572225234116091160374289885289307704326004418805760.000000 0.000000
0.000000 0.000000 0.000000
3244019249394117808914266267722358106327230899283484999680.000000 -2327188743311950129993496642192039120020529677565652107264.000000 0.000000
-2327188743311950129993496642192039120020529677565652107264.000000 838282577519164397479372913628955608112055816909869809664.000000 0.000000
0.000000 0.000000 0.000000
3276853735877183743458661609333134924137540195403853463552.000000 1005548352532959646682779928083280699248286456664855412736.000000 0.000000
1005548352532959646682779928083280699248286456664855412736.000000 200914790765773974657684742398024569483847449180161179648.000000 0.000000
0.000000 0.000000 0.000000
5952271697598335952383797820405063059298080420514639118336.000000 332873527265695130900398012167007668361968621736192638976.000000 0.000000
332873527265695130900398012167007668361968621736192638976.000000 15172020424104026305709361318584055874531304144627564544.000000 0.000000
0.000000 0.000000 0.000000
1290131633700884290913405939668769446460092600442421248.000000 1963701544177603355957294679596251900931275940167680.000000 0.000000
1963701544177603355957294679596251900931275940167680.000000 5161093492161598614648855135840376282672718151680.000000 0.000000
0.000000 0.000000 0.000000
-950792470148943497871330412862002265433899057805709927251968.000000 58305405126971002187322652708669208540440589138845520363520.000000 0.000000
58305405126971002187322652708669208540440589138845520363520.000000 6993020712361050036573015780048649911775432729308212232192.000000 0.000000
0.000000 0.000000 0.000000
215164031526766360307345268801497482661551653326824669184.000000 160557868936464673324430226654165469752407955825687003136.000000 0.000000
160557868936464673324430226654165469752407955825687003136.000000 59265917036028671999114325710322862083790313452841467904.000000 0.000000
0.000000 0.000000 0.000000
7101194120552344263167891168806617096013717734499721150464.000000 1287547361321768311065893884003386484143802679987422625792.000000 0.000000
1287547361321768311065893884003386484143802679987422625792.000000 153936016492288561839469249843592505073155338189192298496.000000 0.000000
0.000000 0.000000 0.000000
109956170180628277487156679625367764467040739161876201472.000000 -80760601467618781389409030860248729631996786088647589888.000000 0.000000
-80760601467618781389409030860248729631996786088647589888.000000 31516926348048897363418769115000902513846617651342737408.000000 0.000000
0.000000 0.000000 0.000000
1392869171333621850056188671425955515366602688147534905344.000000 -356213293168577150587813316133185457530616634562773516288.000000 0.000000
-356213293168577150587813316133185457530616634562773516288.000000 58194154455361759377705926382809624947794807662600781824.000000 0.000000
0.000000 0.000000 0.000000
177475396430100045605263379410391252962896307854245888.000000 40745877476678332354130586161273559543013940423294976.000000 0.000000
40745877476678332354130586161273559543013940423294976.000000 6188484264697303847847771528714304131933354198040576.000000 0.000000
0.000000 0.000000 0.000000
134616459564666743428410349542428771190906669256927084544.000000 -64422415658522653359267355220936160129430409791238307840.000000 0.000000
-64422415658522653359267355220936160129430409791238307840.000000 18280204954151121715806904878835257462071762158671101952.000000 0.000000
0.000000 0.000000 0.000000
8120726125572023443674372222153666777377352034996319158272.000000 -2514671226469910831154033803697289269042575858582629122048.000000 0.000000
-2514671226469910831154033803697289269042575858582629122048.000000 488803985412368330098802260230763371701494662553453723648.000000 0.000000
0.000000 0.000000 0.000000
-261037330352890381069470847575155413397049395974173819404288.000000 28001480813549365103789825265394857591638114616066753691648.000000 0.000000
28001480813549365103789825265394857591638114616066753691648.000000 5634625930580194814213431591664543165411401719869459136512.000000 0.000000
0.000000 0.000000 0.000000
-8100886751903973158220564333518808845923430465832268857344.000000 -1718566239796772324595443602458860965370922616559759261696.000000 0.000000
-1718566239796772324595443602458860965370922616559759261696.000000 590463716531157168715984307201122673067738599896469471232.000000 0.000000
0.000000 0.000000 0.000000
59205626928215798719467013089806652248154705246149410816.000000 -63161882462519183925708240119465972856751558501823676416.000000 0.000000
-63161882462519183925708240119465972856751558501823676416.000000 27271198161060390655914306026783381374390802070552707072.000000 0.000000
0.000000 0.000000 0.000000
333256991343944657049716099961673251926488761167962439680.000000 50896962122611231821759785585780036798686393429336784896.000000 0.000000
50896962122611231821759785585780036798686393429336784896.000000 5106179431841580897219767533420017887753457129006039040.000000 0.000000
0.000000 0.000000 0.000000
-804551968533807578371596624986186256996727063581172957184.000000 -1059195656726520069261958169958899097946845092184487624704.000000 0.000000
-1059195656726520069261958169958899097946845092184487624704.000000 610372267913504925042113580826552657262364803834616741888.000000 0.000000
0.000000 0.000000 0.000000
4435666242964625575692107571331616711855101374390157180928.000000 -8699218441307842567019822397822949095939368024217248333824.000000 0.000000
-8699218441307842567019822397822949095939368024217248333824.000000 4336760519617798669696946965785320793696763504028486205440.000000 0.000000
0.000000 0.000000 0.000000
4997378000493799337441448624970444418165616804760129634304.000000 -3523728507348290424819292864779381878903457008144502226944.000000 0.000000
-3523728507348290424819292864779381878903457008144502226944.000000 1260857311737400293610337410641105097170845525322428841984.000000 0.000000
0.000000 0.000000 0.000000
2956177446364172298502176079145643383281687874130906447872.000000 -1188197095246355432651958642644457913863383427962072203264.000000 0.000000
-1188197095246355432651958642644457913863383427962072203264.000000 287646305584936217689305894822147240553999131579768635392.000000 0.000000
0.000000 0.000000 0.000000
3373332330080430274758693310214024903922756477977133842432.000000 -767237656038199447063760306264512749668359983513328418816.000000 0.000000
-767237656038199447063760306264512749668359983513328418816.000000 115267561308380915537448479067891811235161207505413996544.000000 0.000000
0.000000 0.000000 0.000000
-8008738673284629363834149308431969565432442998882335339839488.000000 34250630542837953549476341797025203799446561035926871474176.000000 0.000000
34250630542837953549476341797025203799446561035926871474176.000000 292826188554202829086997477605671960754824293720961056768.000000 0.000000
0.000000 0.000000 0.000000
198478019041916704010913260515298866946974649357346799616.000000 -234121884075857290324124387823732646290561851196180529152.000000 0.000000
-234121884075857290324124387823732646290561851196180529152.000000 104946771886729161459515325657713055664260961031507935232.000000 0.000000
0.000000 0.000000 0.000000
2406203393958641553245945105868756066127106175217518510080.000000 -114997684001827164715816200301128666195869928527717466112.000000 0.000000
-114997684001827164715816200301128666195869928527717466112.000000 3793066984847487528520464712234589973747224722781765632.000000 0.000000
0.000000 0.000000 0.000000
822479594046890588505205714517767267268987190670276952064.000000 778755589669390808091959510419215113386685611139494051840.000000 0.000000
778755589669390808091959510419215113386685611139494051840.000000 321395107161417210945244621408191204300652770811988410368.000000 0.000000
0.000000 0.000000 0.000000
71239051199919032463883257643061865097956866650013696.000000 6836270366068035526402481468896271811794779936451985408.000000 0.000000
6836270366068035526402481468896271811794779936451985408.000000 3796030063321227106754858501423147633415605099002068992.000000 0.000000
0.000000 0.000000 0.000000
85481569975605611075462924308446688398147311377487757312.000000 -107792212610211717405798496069893372103993533013415690240.000000 0.000000
-107792212610211717405798496069893372103993533013415690240.000000 49047556915847191142784517812763984708727036753876090880.000000 0.000000
0.000000 0.000000 0.000000
1640129082030055341729591747041442260429551317406030233600.000000 -1156552886502727880166861630881638076480975142684568059904.000000 0.000000
-1156552886502727880166861630881638076480975142684568059904.000000 413923784069949160630276187915949197991642669403602944000.000000 0.000000
0.000000 0.000000 0.000000
195130139009938411242831239829785956079559042247247790080.000000 -302367041483660226326499528068264060314148342839709270016.000000 0.000000
-302367041483660226326499528068264060314148342839709270016.000000 144660569024128964631611876413992417655534889402741293056.000000 0.000000
0.000000 0.000000 0.000000
834185051823662051077616485270785133536871643315722780672.000000 -410328207569114728240688007554325634736109285624095178752.000000 0.000000
-410328207569114728240688007554325634736109285624095178752.000000 116145061887593430710727038852078143744097365824053968896.000000 0.000000
0.000000 0.000000 0.000000
66349484874228136126525463241676328670584279840648593408.000000 35971377444654929462512414417100693085134328956792602624.000000 0.000000
35971377444654929462512414417100693085134328956792602624.000000 10914514947923249739809184729813715196016851175765704704.000000 0.000000
0.000000 0.000000 0.000000
6565047467554865328453382232697722994611716835828517830656.000000 9782802649146961007411895594330866187041438557411399958528.000000 0.000000
9782802649146961007411895594330866187041438557411399958528.000000 4651446126091880018075012026836119145785881456183905091584.000000 0.000000
0.000000 0.000000 0.000000
-25511128729316581028654564155340304015743456973718743416832.000000 11646207893221235510827662375486641146132884280252701868032.000000 0.000000
11646207893221235510827662375486641146132884280252701868032.000000 5802111330749631289066354089252813289906711518508671303680.000000 0.000000
0.000000 0.000000 0.000000
584564532117708339166427434216997243323152747433295872.000000 -577611925262423447124979993777306733333457126056525824.000000 0.000000
-577611925262423447124979993777306733333457126056525824.000000 242456081190669094416199494424989168149946838806429696.000000 0.000000
0.000000 0.000000 0.000000
1214852633595614407650198955950145626646477387570593398784.000000 468254723985338532269004452380367458536398398374872612864.000000 0.000000
468254723985338532269004452380367458536398398374872612864.000000 109543366880160267749145696672170301878986250570914856960.000000 0.000000
0.000000 0.000000 0.000000
1506549507549434635568982667727164264113023209328082944.000000 -528823050483591445302499527374930907511517452177506304.000000 0.000000
-528823050483591445302499527374930907511517452177506304.000000 114420333981802348696234231321047864383588118212640768.000000 0.000000
0.000000 0.000000 0.000000
154580411763090880045954140756874562790477004303125970944.000000 301011460716511038693968119996181589648702008495569895424.000000 0.000000
301011460716511038693968119996181589648702008495569895424.000000 151111978744561246741772980521844081335738265658948845568.000000 0.000000
0.000000 0.000000 0.000000
1694482504191713585294197009450571041981037828674924052480.000000 -786082825708264764855167787633177796928032030432698564608.000000 0.000000
-786082825708264764855167787633177796928032030432698564608.000000 213075987248381199141918750966104526275247947171005202432.000000 0.000000
0.000000 0.000000 0.000000
-5371911774374908786606539248731867745818180025854298423296.000000 5449126730411795390291629666632343851243346105133869039616.000000 0.000000
5449126730411795390291629666632343851243346105133869039616.000000 3114873491207790975155999159250635248208853406547097681920.000000 0.000000
0.000000 0.000000 0.000000
-32527559013336657346432490633423114521645626244267507712.000000 37361448848484826943045698469405039798830097117051092992.000000 0.000000
37361448848484826943045698469405039798830097117051092992.000000 21408138734350250300975203521222547349729637761263075328.000000 0.000000
0.000000 0.000000 0.000000
-451845001904601383235688299347531298489043235425468022784.000000 -863849904822218316663715020581438726603879243406972551168.000000 0.000000
-863849904822218316663715020581438726603879243406972551168.000000 527926770362556738795545705244617846785218871377050730496.000000 0.000000
0.000000 0.000000 0.000000
615800664414241078958245511450245651047625719236131815424.000000 1389825322788323214324717804760993553265736597029817155584.000000 0.000000
1389825322788323214324717804760993553265736597029817155584.000000 705823519744788082463634043855748508316352111785216573440.000000 0.000000
0.000000 0.000000 0.000000
-84156681628845766876291717371970252392138998357436661760.000000 -9584631059185093328217985779982309180156225418667491328.000000 0.000000
-9584631059185093328217985779982309180156225418667491328.000000 2031726563876786159725798339630062801516292239360262144.000000 0.000000
0.000000 0.000000 0.000000
-2512022267822015026640205621466760153019562721070284800.000000 2807074163339284771163990218785114372884871401099493376.000000 0.000000
2807074163339284771163990218785114372884871401099493376.000000 1606535623002291611268436993620293215098041011399557120.000000 0.000000
0.000000 0.000000 0.000000
611138955164515298550906097595042379815623318689269415936.000000 1479228609874772950010363356876006230745033102847129944064.000000 0.000000
1479228609874772950010363356876006230745033102847129944064.000000 757261994308455937895970504385486896042927498259706413056.000000 0.000000
0.000000 0.000000 0.000000
4874190308905874736296624585073217134058957903058490621952.000000 20753827301142892832900202036571808896036934907309588480.000000 0.000000
20753827301142892832900202036571808896036934907309588480.000000 1361109900801755050203474518156483348798164221252599808.000000 0.000000
0.000000 0.000000 0.000000
785158254455712158533581483107037529947723471799587962880.000000 83419396437711454067795519737724883633598885013783314432.000000 0.000000
83419396437711454067795519737724883633598885013783314432.000000 5866288378124478734011831835996049977171539875814440960.000000 0.000000
0.000000 0.000000 0.000000
-619810820451560750963054912083939589496728397306497335296.000000 273306291844234998464456915533686909602933160232936800256.000000 0.000000
273306291844234998464456915533686909602933160232936800256.000000 134684299538779867185020371418405526030372138152993226752.000000 0.000000
0.000000 0.000000 0.000000
-2170882275063135927403507054535331661704829844977908449280.000000 807862930061857616635174305354814852267839009519688482816.000000 0.000000
807862930061857616635174305354814852267839009519688482816.000000 374509137160125793622979486600486329189934953080041766912.000000 0.000000
0.000000 0.000000 0.000000
-163779453540048700412785385815289022578374685003162866155520.000000 30646011317181543207598651313237465777870553684549147033600.000000 0.000000
30646011317181543207598651313237465777870553684549147033600.000000 9848185071022960761941233449295544503528037377092972707840.000000 0.000000
0.000000 0.000000 0.000000
404151606307353205404998015815279424107942047103691259904.000000 190826495925298565502403295659757007368695439258753695744.000000 0.000000
190826495925298565502403295659757007368695439258753695744.000000 45660642311454508838313192967105270854479913930842963968.000000 0.000000
0.000000 0.000000 0.000000
1903494199127880980598663698540987678922441600488255258624.000000 -1483971470318910211839607262643348179960100633405361750016.000000 0.000000
-1483971470318910211839607262643348179960100633405361750016.000000 560373884029852195010831884492856914199138417281826029568.000000 0.000000
0.000000 0.000000 0.000000
-78819126845274904679658524853248679369614672394243931111424.000000 -20531806859162460480464145815649493607403911187901813096448.000000 0.000000
-20531806859162460480464145815649493607403911187901813096448.000000 8076428016464953383614432191461817542959967125481073934336.000000 0.000000
0.000000 0.000000 0.000000
53591203139007099031806934271847144404441262516911210496.000000 136761366795235819986329347488009880913865079423921815552.000000 0.000000
136761366795235819986329347488009880913865079423921815552.000000 70344419549084048383113372101442936412494595901630709760.000000 0.000000
0.000000 0.000000 0.000000
57926689781359248060025152796171354798174648018006966272.000000 -74093149294528126408303806236808323798717849489945657344.000000 0.000000
-74093149294528126408303806236808323798717849489945657344.000000 33893819437976655590734105590993349746888435620093362176.000000 0.000000
0.000000 0.000000 0.000000
-12340088547045963269951938093327673956047713088176237051904.000000 -10466334039030976917478894815929609478044336944556162416640.000000 0.000000
-10466334039030976917478894815929609478044336944556162416640.000000 5884664357178514553730719625799360508371471462476632031232.000000 0.000000
0.000000 0.000000 0.000000
26105409693840743302550792987766581204457290237652504674304.000000 21587907849321542117427159386211113759266833260468607385600.000000 0.000000
21587907849321542117427159386211113759266833260468607385600.000000 8396292127021257077325950755307808485514479883593768239104.000000 0.000000
0.000000 0.000000 0.000000
-1309567185811373912398246739753719574431375265103872.000000 679349755839664362046004534161777114454122335043584.000000 0.000000
679349755839664362046004534161777114454122335043584.000000 348575620353815186487268027228708690209371316027392.000000 0.000000
0.000000 0.000000 0.000000
334277416029968086024819225015091375433165363107214655488.000000 -3498867141855534445750349023157357127721204065039810560.000000 0.000000
-3498867141855534445750349023157357127721204065039810560.000000 284120755853585729022824462484634144359496113167794176.000000 0.000000
0.000000 0.000000 0.000000
13158973452357087736265621928280645176591041075457095106560.000000 -8027756488108623819428229112600821277314638823985457922048.000000 0.000000
-8027756488108623819428229112600821277314638823985457922048.000000 2634410591706461288886032737408370134751901998514553487360.000000 0.000000
0.000000 0.000000 0.000000
-6184871442284981696948587692243358581223324229402886144000.000000 -7962459398482662005069991983941526983572804087872057507840.000000 0.000000
-7962459398482662005069991983941526983572804087872057507840.000000 4579792724777100204462648924503139342093702110757200592896.000000 0.000000
0.000000 0.000000 0.000000
-9626130291966883529841028236160809504938256692055883382784.000000 -1611202615645721156505745784618762921448050450360248041472.000000 0.000000
-1611202615645721156505745784618762921448050450360248041472.000000 467780200300014271287807415985081380025143109692623421440.000000 0.000000
0.000000 0.000000 0.000000
4408790966479479935414841409528816395976199085518361722880.000000 -2770053927603748335950489976604427522588020032855586373632.000000 0.000000
-2770053927603748335950489976604427522588020032855586373632.000000 924181158270857132451377926890106559272583288360016019456.000000 0.000000
0.000000 0.000000 0.000000
2506899914712832023738563432268815193037896473248792576.000000 783547550716081482779280182577562848400177538954952704.000000 0.000000
783547550716081482779280182577562848400177538954952704.000000 153300918066101100455400967581193214658491726386167808.000000 0.000000
0.000000 0.000000 0.000000
326386588045808425945555224940345494596293637580416614400.000000 -1055687380973184308291671587745307093159544490025837133824.000000 0.000000
-1055687380973184308291671587745307093159544490025837133824.000000 554421127692826642122311277176331890034776183603002867712.000000 0.000000
0.000000 0.000000 0.000000
1085436826121593340870570939415574303231119207167866961920.000000 -1512913667911468922875926689848926982382612409599060344832.000000 0.000000
-1512913667911468922875926689848926982382612409599060344832.000000 708001441584438009218214851083754303616355213382812434432.000000 0.000000
0.000000 0.000000 0.000000
6868348704120070901768950169311313273818401574806980919296.000000 -10486729387473495681567422500857467016058530574403211624448.000000 0.000000
-10486729387473495681567422500857467016058530574403211624448.000000 5000413238602285091728299520942501897980796019241593602048.000000 0.000000
0.000000 0.000000 0.000000
7790994126436130346669697656094507581173700821275165851648.000000 -8021662135946269233591441750116366695174992016147038076928.000000 0.000000
-8021662135946269233591441750116366695174992016147038076928.000000 3419951655712343367069984419016369889108384037528575934464.000000 0.000000
0.000000 0.000000 0.000000
-57611424404152891586573654351222380958904718264817942528.000000 342273868765371036798351842194435992228774234596143267840.000000 0.000000
342273868765371036798351842194435992228774234596143267840.000000 194075556727594977637128383432276885312795863085867859968.000000 0.000000
0.000000 0.000000 0.000000
396966511854517907142732382645315036382826537781961949184.000000 -584235950752119706564556435061644022044522310693912838144.000000 0.000000
-584235950752119706564556435061644022044522310693912838144.000000 276619106668013294084672747462524504296958401813762015232.000000 0.000000
0.000000 0.000000 0.000000
-79944455941279410614035617982412175008652255295539511296.000000 -12393880198746937692477476811765957423498811553641136128.000000 0.000000
-12393880198746937692477476811765957423498811553641136128.000000 3391566973514290430438788793328496997491120833684307968.000000 0.000000
0.000000 0.000000 0.000000
161010094100010416013220876243415127483994944629658091520.000000 -70690643841147289426918540126243568610285769944773689344.000000 0.000000
-70690643841147289426918540126243568610285769944773689344.000000 18358342677784842563512279077517762076305125463117791232.000000 0.000000
0.000000 0.000000 0.000000
53346477163567344988990457590846147285573927908949016707072.000000 -22221260878561682504594205009459819249483385639175073038336.000000 0.000000
-22221260878561682504594205009459819249483385639175073038336.000000 5537222033950337788551172601590635306824135990157116440576.000000 0.000000
0.000000 0.000000 0.000000
10887908292170480154701716497443603617135603021307736752128.000000 -760840473699667454905034138111132241271206252374506078208.000000 0.000000
-760840473699667454905034138111132241271206252374506078208.000000 35461777603496035915680658527330525548774637383039582208.000000 0.000000
0.000000 0.000000 0.000000
-988259754363738072716764752349776991081802922914217984.000000 3812157722805317248977540522639428569460967234076672.000000 0.000000
3812157722805317248977540522639428569460967234076672.000000 117613031475690154919784319305827117618822471745536.000000 0.000000
0.000000 0.000000 0.000000
40795339163174448794903931863729170885981000467067437056.000000 10622389347956470853641466982189388252869311746648571904.000000 0.000000
10622389347956470853641466982189388252869311746648571904.000000 1764210434902252824908759134642806636791488282558988288.000000 0.000000
0.000000 0.000000 0.000000
1635789202994709256669174822498338130374781971634665291776.000000 -25659364798368028280092738986762134620373839488718209024.000000 0.000000
-25659364798368028280092738986762134620373839488718209024.000000 274509028494867589150076682310146705811379851328749568.000000 0.000000
0.000000 0.000000 0.000000
-32601599776867854587038393427783963534433278764966215680.000000 -1426058988576011835758644268348671550237917907123443859456.000000 0.000000
-1426058988576011835758644268348671550237917907123443859456.000000 795524728069517916975278799948150835773288586004630863872.000000 0.000000
0.000000 0.000000 0.000000
2290034702568235563585004720053498041394968614650351976448.000000 634542523659614425130790812127411838198371141379220832256.000000 0.000000
634542523659614425130790812127411838198371141379220832256.000000 117216788079208758628442515224923680671634928054810181632.000000 0.000000
0.000000 0.000000 0.000000
781863591970179284815240693314174145617572868953720487936.000000 -117863793578142556702962956906893744478545444404472053760.000000 0.000000
-117863793578142556702962956906893744478545444404472053760.000000 12155995417339470854450763656423865847311599583832834048.000000 0.000000
0.000000 0.000000 0.000000
9853069943636911527312015280056115520806051608415933825024.000000 8815525917812885724553106744976122685622477233235397967872.000000 0.000000
8815525917812885724553106744976122685622477233235397967872.000000 3552371111759736389316508660137141899913063608862459822080.000000 0.000000
0.000000 0.000000 0.000000
-743648271750188234096812067635386860894475181981404495872.000000 -3250246847015396604062338759972853959679706631521454522368.000000 0.000000
-3250246847015396604062338759972853959679706631521454522368.000000 1851678583412489841475344799953147294182905301712702013440.000000 0.000000
0.000000 0.000000 0.000000
603281013117926578480284058492173109090532705451653464064.000000 -1047606998985724354245872824136293908563702563065418481664.000000 0.000000
-1047606998985724354245872824136293908563702563065418481664.000000 512086080826296312127631926736099047238660937041317986304.000000 0.000000
0.000000 0.000000 0.000000
-1117141340694284899380114576449458201103454327700386217984.000000 -677996867546601952935371519297236337960618684485132615680.000000 0.000000
-677996867546601952935371519297236337960618684485132615680.000000 362891926904134113927494983544486620838953578871769792512.000000 0.000000
0.000000 0.000000 0.000000
-973306807398181268379165329239264210428047432083996409856.000000 -838261629905201072654616242938530149475061765048314626048.000000 0.000000
-838261629905201072654616242938530149475061765048314626048.000000 471458969891078044006555917275793723085451059095314366464.000000 0.000000
0.000000 0.000000 0.000000
3802189072755584679533210157355274790109121484401659609088.000000 -1769224538104736230782153472099085065909002911115651317760.000000 0.000000
-1769224538104736230782153472099085065909002911115651317760.000000 480453559073464666686633238402830764329797802491805433856.000000 0.000000
0.000000 0.000000 0.000000
-9458295053137617999714281544010640694541660806042353664.000000 23354996826498448980993264744755016089501307744485900288.000000 0.000000
23354996826498448980993264744755016089501307744485900288.000000 13441386205818680483808370837722880682658075935716147200.000000 0.000000
0.000000 0.000000 0.000000
778050273228767563665722554870970507214513177669908037632.000000 186614399763815059993381455288135467208684607016175403008.000000 0.000000
186614399763815059993381455288135467208684607016175403008.000000 28744195149363550919715438022585747105193961029676040192.000000 0.000000
0.000000 0.000000 0.000000
32676910416106716441318461843641850431068306375485549445120.000000 4036760300827763126522225672020793173672201897295684304896.000000 0.000000
4036760300827763126522225672020793173672201897295684304896.000000 342378315301652197246265010257163481016213667181209059328.000000 0.000000
0.000000 0.000000 0.000000
60831438174251178236237996622559680968349456502733406208.000000 -39624546837225519396862559625470939613868017850582564864.000000 0.000000
-39624546837225519396862559625470939613868017850582564864.000000 13541577113674657731217499738292817660811194887374372864.000000 0.000000
0.000000 0.000000 0.000000
14613818355962210128673145776781902041813816906231540875264.000000 -42019372358962535575724618531569362448531148897969730748416.000000 0.000000
-42019372358962535575724618531569362448531148897969730748416.000000 21868468710784815551275482824437346838171606337381501763584.000000 0.000000
0.000000 0.000000 0.000000
4619013507653275806487589894339425867934283049225305456640.000000 2998107777352367105073056664346581971518991659990735912960.000000 0.000000
2998107777352367105073056664346581971518991659990735912960.000000 1037146011058926813528826748559733611474035618121439510528.000000 0.000000
0.000000 0.000000 0.000000
-21548550660378680655282726504916898994840653611359172296704.000000 -11542958416227157120520245001801868110131182496697901121536.000000 0.000000
-11542958416227157120520245001801868110131182496697901121536.000000 6147929968564127401023314932096837906256936742431787843584.000000 0.000000
0.000000 0.000000 0.000000
11072955209140032748967957668901971971489447139023519744.000000 2922089778294982428579857533910105592820099700003700736.000000 0.000000
2922089778294982428579857533910105592820099700003700736.000000 491792651815775248856848726490125276247714187538595840.000000 0.000000
0.000000 0.000000 0.000000
20010138740222227764169169501559543269646042190581858304.000000 18152048236264838781465420378023518080339680821021507584.000000 0.000000
18152048236264838781465420378023518080339680821021507584.000000 7359174131485116744893850216538141268211762634720018432.000000 0.000000
0.000000 0.000000 0.000000
-35476198315434240880015194402619959653720533080829948067840.000000 -5605965253866737253512613774592787597920854011435959713792.000000 0.000000
-5605965253866737253512613774592787597920854011435959713792.000000 1557075751962183200455595423041818542902871944913836048384.000000 0.000000
0.000000 0.000000 0.000000
-32233874942584827859432945271330481209497231078083681845248.000000 -2556110970076022750023968692406105629482289765358231355392.000000 0.000000
-2556110970076022750023968692406105629482289765358231355392.000000 391453527608915564670211995944123841745084038752789069824.000000 0.000000
0.000000 0.000000 0.000000
2545842963406358885128492389366649183212613325844480262144.000000 518499835242823219861480763352841832314997151422381817856.000000 0.000000
518499835242823219861480763352841832314997151422381817856.000000 117709110399404289560776669359689298557885895032965169152.000000 0.000000
0.000000 0.000000 0.000000
7240298048070019062449425302768703232661115940788521402368.000000 -6719708148059387411139009417826771853261935969421496418304.000000 0.000000
-6719708148059387411139009417826771853261935969421496418304.000000 2751225053911269303300479099315392679196141452469901197312.000000 0.000000
0.000000 0.000000 0.000000
1374555885239092528656548623295129879338381648175562752.000000 805171870388336472405714472927560107744023729347231744.000000 0.000000
805171870388336472405714472927560107744023729347231744.000000 257383217307561534130035969273241829642797616392568832.000000 0.000000
0.000000 0.000000 0.000000
-2222372940636855258782458146231809720805844375782276726784.000000 835824465970951972314835770480877210465641986449601462272.000000 0.000000
835824465970951972314835770480877210465641986449601462272.000000 389119442190819635652630812320589605666472512111142502400.000000 0.000000
0.000000 0.000000 0.000000
-2122860251554845600051655585299596335666378741349361909760.000000 -4408962036361487350740177185622931326486237207918186332160.000000 0.000000
-4408962036361487350740177185622931326486237207918186332160.000000 2544544016047353803553084443165606529555164042915789930496.000000 0.000000
0.000000 0.000000 0.000000
5188244858578503424459566731860277256475870984039181582336.000000 -22078213601438293489774614263053228834657077493085455253504.000000 0.000000
-22078213601438293489774614263053228834657077493085455253504.000000 11786411957659211323511244149379462728739581261629926408192.000000 0.000000
0.000000 0.000000 0.000000
369159176182257179690655241397547625749293777806122024960.000000 -331900918509347799099513915643146667411039545627601010688.000000 0.000000
-331900918509347799099513915643146667411039545627601010688.000000 134529790206337661141181721462365328686560664303762931712.000000 0.000000
0.000000 0.000000 0.000000
1716859752644410170126471923959711390258687900113304551424.000000 -887029490994482743668967831647951382132684067757610762240.000000 0.000000
-887029490994482743668967831647951382132684067757610762240.000000 260186036502433708878440007864466004989021248358663061504.000000 0.000000
0.000000 0.000000 0.000000
4442961232116141976557786433108225370676077211381244362752.000000 7393601864307308229329846601640215813472791562047023218688.000000 0.000000
7393601864307308229329846601640215813472791562047023218688.000000 3586290730955795985570649427320640539481326704965957189632.000000 0.000000
0.000000 0.000000 0.000000
835528517585627383268751395618930903347986347924538785792.000000 296472499475905771920294549877536534179444332012431736832.000000 0.000000
296472499475905771920294549877536534179444332012431736832.000000 71299173096990234137530577764934275081237992168881127424.000000 0.000000
0.000000 0.000000 0.000000
1905611392104533038061415321523862968445226296199952203776.000000 -1526272585094017689087181758793971408839271673121621409792.000000 0.000000
-1526272585094017689087181758793971408839271673121621409792.000000 584193248478757896485203252778451285364992642071597678592.000000 0.000000
0.000000 0.000000 0.000000
-1395536567498174506778940788447507113142487789150735958016.000000 -564918091883203355608563309043099337171335977938364399616.000000 0.000000
-564918091883203355608563309043099337171335977938364399616.000000 270510803589755995881697936070376763780400105613619625984.000000 0.000000
0.000000 0.000000 0.000000
167824483557394261945580658780845425807506165593517588480.000000 259024649183751758160485025019365851710268371910579453952.000000 0.000000
259024649183751758160485025019365851710268371910579453952.000000 133092310252492638074079985443828788220378758161056661504.000000 0.000000
0.000000 0.000000 0.000000
375101850598578181202516049336916035576060053568922583040.000000 -323472391561565311858923948214211958987786417419185029120.000000 0.000000
-323472391561565311858923948214211958987786417419185029120.000000 130065596356760231896760755073366772987978669257685729280.000000 0.000000
0.000000 0.000000 0.000000
-133688057457012927803601586073748583458257198780453302042624.000000 -31190625085528254667692627831082270844045145786771058982912.000000 0.000000
-31190625085528254667692627831082270844045145786771058982912.000000 11426854101627577077210387211963894312500044852584119271424.000000 0.000000
0.000000 0.000000 0.000000
-133095728201734173286763750684212041171077530302622960975872.000000 -43173545140341849865269488132934190863442559540413262200832.000000 0.000000
-43173545140341849865269488132934190863442559540413262200832.000000 18861209468894458941250069438756018930672753359425317634048.000000 0.000000
0.000000 0.000000 0.000000
-902023532075824813007576196846156865761729939932786458624.000000 -785892970126717467646146308510998072592662475295516786688.000000 0.000000
-785892970126717467646146308510998072592662475295516786688.000000 442282968908331239260617562275425065252921477475336192000.000000 0.000000
0.000000 0.000000 0.000000
579688559092003708691793031028120605826425922364119187456.000000 -3278934529123324527127279597315947382432439681480197668864.000000 0.000000
-3278934529123324527127279597315947382432439681480197668864.000000 1788712063300798963257262018405556022714840864938264625152.000000 0.000000
0.000000 0.000000 0.000000
-29887686435430045582149516484120170203914516319640223744.000000 7965901235034602619330595655464565485665456987693522092032.000000 0.000000
7965901235034602619330595655464565485665456987693522092032.000000 4428437834816984983223334151699038371784549687449247285248.000000 0.000000
0.000000 0.000000 0.000000
-52273614664906413076571660888359225125274552855127952195584.000000 854068729522456618159801672675277752935276414752522240000.000000 0.000000
854068729522456618159801672675277752935276414752522240000.000000 31108892291538828478352702368590386630051886324502233088.000000 0.000000
0.000000 0.000000 0.000000
481687533353085923874907022578643186198329306181009408.000000 278168885183752733994689438416434418264364103818543104.000000 0.000000
278168885183752733994689438416434418264364103818543104.000000 88089618860344719504105933897816427701425004489998336.000000 0.000000
0.000000 0.000000 0.000000
18357319706496383692154463034305399282040048689904353280.000000 -1970972352937160703178220350935831623676103949773795491840.000000 0.000000
-1970972352937160703178220350935831623676103949773795491840.000000 1090447658835510369952697063815348815576882469176719966208.000000 0.000000
0.000000 0.000000 0.000000
10615138855148739169403609891895909165625746234561724940288.000000 1183262729811881102304493313730961659005162429480330854400.000000 0.000000
1183262729811881102304493313730961659005162429480330854400.000000 87265272907342078342452247522562258630126458746915782656.000000 0.000000
0.000000 0.000000 0.000000
12015794773101367013259320931578769019511167184360045543424.000000 10761142736993591989873596939093904764988452848501224636416.000000 0.000000
10761142736993591989873596939093904764988452848501224636416.000000 4338259917435793797878368701125375882936359209785626722304.000000 0.000000
0.000000 0.000000 0.000000
-678871490296267390492570193415185299044320126042472710144.000000 -626352826353391526304396880137519599689550973458666487808.000000 0.000000
-626352826353391526304396880137519599689550973458666487808.000000 354244070165445506676364342293225482934031137089498644480.000000 0.000000
0.000000 0.000000 0.000000
7652290689784973750358179079395155996258078061584449536.000000 1056422395690500308134442317477879244790215975848902656.000000 0.000000
1056422395690500308134442317477879244790215975848902656.000000 4842119113584439721724620389983029966425142111206637568.000000 0.000000
0.000000 0.000000 0.000000
1048895041350093493454448978664462799310365769888901890048.000000 894655567237542518452670359055959107151839288168575664128.000000 0.000000
894655567237542518452670359055959107151839288168575664128.000000 352874145480188861040887270787632682401538784730202243072.000000 0.000000
0.000000 0.000000 0.000000
-3822564325054782553995693375884731065814375965642859741184.000000 705316120309198304101395095022340480408131196108056559616.000000 0.000000
705316120309198304101395095022340480408131196108056559616.000000 220015629017949750163117383845761988285420919105779662848.000000 0.000000
0.000000 0.000000 0.000000
-3626588573865959218917441997688919312302694912615251968.000000 5854512333899667354917878539465886794992617394769231872.000000 0.000000
5854512333899667354917878539465886794992617394769231872.000000 3378760782524115080702639891330133652170123818913759232.000000 0.000000
0.000000 0.000000 0.000000
-9382458295711528344648163052676268914587081544790959980544.000000 13462308667696018968474258380593428954793112106571831181312.000000 0.000000
13462308667696018968474258380593428954793112106571831181312.000000 7760657555559466791516487965096797620380740997916613672960.000000 0.000000
0.000000 0.000000 0.000000
-197909084709936427282268771155598088692728167302334251008.000000 -1175026947987421387387623822496799911847310335625545121792.000000 0.000000
-1175026947987421387387623822496799911847310335625545121792.000000 666188252992605721676726094299232341467371190829386301440.000000 0.000000
0.000000 0.000000 0.000000
796021610743824428090361282156591579979779065525659762688.000000 -478289710643199108313975069843896654061120769969178542080.000000 0.000000
-478289710643199108313975069843896654061120769969178542080.000000 155434863482084134437444353957068668347590610036291796992.000000 0.000000
0.000000 0.000000 0.000000
159562279588913007324128719263787237427824327397977620480.000000 -85987270490575756856058715416165438828329186347536351232.000000 0.000000
-85987270490575756856058715416165438828329186347536351232.000000 25979295511816439981021667822393258348016553191542882304.000000 0.000000
0.000000 0.000000 0.000000
-4178180839451101163085156758008841698368136990557661560832.000000 15177168891400240216441588763509452502815716029104371269632.000000 0.000000
15177168891400240216441588763509452502815716029104371269632.000000 8678297624510965433504526967541439170843012706406611550208.000000 0.000000
0.000000 0.000000 0.000000
1703742848284988401572648745255258986576090974967826481152.000000 -4960102448089955770089818711797577298068905994971997274112.000000 0.000000
-4960102448089955770089818711797577298068905994971997274112.000000 2607298004456500843397166639887196843079467375465188032512.000000 0.000000
0.000000 0.000000 0.000000
2096989919169078936985869661163295892689850411845156864.000000 119532024863579041577248359339615851516956090071777280.000000 0.000000
119532024863579041577248359339615851516956090071777280.000000 4532014581359153750986727140189855731169070013218816.000000 0.000000
0.000000 0.000000 0.000000
8330042203297701228232981161727985303983535499040098615296.000000 -5221218554965871351977987808177151394089787305592270880768.000000 0.000000
-5221218554965871351977987808177151394089787305592270880768.000000 1742765486833596469823678890569798926870307143968299679744.000000 0.000000
0.000000 0.000000 0.000000
-7113500104650046121967295723729957982610768439996070232064.000000 -5936739004855634513119066387131572311695744483866825457664.000000 0.000000
-5936739004855634513119066387131572311695744483866825457664.000000 3327079580979219909090102466089167833482327626085008670720.000000 0.000000
0.000000 0.000000 0.000000
-104900953177028905182330979097137953705570569364772487168.000000 2011527126234336146453833325133059674725465178754944860160.000000 0.000000
2011527126234336146453833325133059674725465178754944860160.000000 1139219599507892974637872661063168602432371657891133784064.000000 0.000000
0.000000 0.000000 0.000000
2218961826449356059815347430496961734098791519064424448.000000 -5632527916643989191320634362518783520017270964291108864.000000 0.000000
-5632527916643989191320634362518783520017270964291108864.000000 2895914409171580073686909162195661073411226349938409472.000000 0.000000
0.000000 0.000000 0.000000
-44928624236089217607249594997649877064850749645922282504192.000000 6176331253247228308139391081575151269036447714289605672960.000000 0.000000
6176331253247228308139391081575151269036447714289605672960.000000 1534980876806062696627573346826332038463816612608930217984.000000 0.000000
0.000000 0.000000 0.000000
506734600056908742536848543953478468290319666329998589952.000000 48931005539684079802143443379877018254225739664974675968.000000 0.000000
48931005539684079802143443379877018254225739664974675968.000000 3130078260150033173459413565753323826601133948562046976.000000 0.000000
0.000000 0.000000 0.000000
-903230195985854696299202154516505968456892451354560167936.000000 -738226617794146810605990647685892114936638438630722895872.000000 0.000000
-738226617794146810605990647685892114936638438630722895872.000000 413009493943545768686793572528319913265758624942405976064.000000 0.000000
0.000000 0.000000 0.000000
327955210741570066954343534837499946475516517014256484352.000000 243956136927959907346069324680924049215633999821201735680.000000 0.000000
243956136927959907346069324680924049215633999821201735680.000000 91412313901152739189741933882855539611431383639636574208.000000 0.000000
0.000000 0.000000 0.000000
3001304258553583245532415798113026374122208640168521367552.000000 -331840458452159151233837062792777356723527611975066451968.000000 0.000000
-331840458452159151233837062792777356723527611975066451968.000000 26661704807023838095040001248887290235380262983939653632.000000 0.000000
0.000000 0.000000 0.000000
10496975704641571301658668210847487835590649802703507554304.000000 -7608676348783380287806784406187239723736315605272483594240.000000 0.000000
-7608676348783380287806784406187239723736315605272483594240.000000 2765559679824634121242849617730023912718459137167105982464.000000 0.000000
0.000000 0.000000 0.000000
2476820420571668246199605268588079788701077752475048476672.000000 -1160789463135771318238764001920661217474500584063249678336.000000 0.000000
-1160789463135771318238764001920661217474500584063249678336.000000 317105159007684868783538484667278723737177074582643802112.000000 0.000000
0.000000 0.000000 0.000000
-791595143091799322103835654745809060497090564751601172480.000000 505762655946974242128610028851651255292043382097474224128.000000 0.000000
505762655946974242128610028851651255292043382097474224128.000000 274443701311036890624979356772275331709622505739409948672.000000 0.000000
0.000000 0.000000 0.000000
2302756076777311743409842662761382148677271883010042494976.000000 -2075270103705913386705468253440024067403835838393424543744.000000 0.000000
-2075270103705913386705468253440024067403835838393424543744.000000 841610745389822369706576761737031815630425454219030953984.000000 0.000000
0.000000 0.000000 0.000000
1594968932515934687728542589073545954068044960700131442688.000000 343778722633769660290414890290738503907202986330879426560.000000 0.000000
343778722633769660290414890290738503907202986330879426560.000000 48336112839315954371421039769230514730332712933166940160.000000 0.000000
0.000000 0.000000 0.000000
-724445675967704926909932921070212315155012765706673455104.000000 3431494447160817586605647258439269404790668024814743060480.000000 0.000000
3431494447160817586605647258439269404790668024814743060480.000000 1971221671088918166579299211202818825647736163704892293120.000000 0.000000
0.000000 0.000000 0.000000
4621617891820516610523208037532633661198945840945935941632.000000 -3808765029231404537567395701378234761646014311800988762112.000000 0.000000
-3808765029231404537567395701378234761646014311800988762112.000000 1517709579869095939550167119571483325039983797872541827072.000000 0.000000
0.000000 0.000000 0.000000
6561522137514774111046368692589947652849968758931262013440.000000 5993510260400434320752178575086418737066785976508443787264.000000 0.000000
5993510260400434320752178575086418737066785976508443787264.000000 2436833692909899637138081708603268738603033927677177233408.000000 0.000000
0.000000 0.000000 0.000000
4133609673538036921598938377451868823374036498202107052032.000000 -7021297101428848777842240381454265319967197282837121204224.000000 0.000000
-7021297101428848777842240381454265319967197282837121204224.000000 3418581831588623407773752279384270569369957586427841609728.000000 0.000000
0.000000 0.000000 0.000000
1542070174085753866735394966474320417940112180926895620096.000000 556969862790022199862299231454595092652824531016500641792.000000 0.000000
556969862790022199862299231454595092652824531016500641792.000000 139675381137865682229404981657321453914260650689847885824.000000 0.000000
0.000000 0.000000 0.000000
42868964827797372690520444923941480882073015541806661632.000000 528739596140966741290460708957439332674055121563908308992.000000 0.000000
528739596140966741290460708957439332674055121563908308992.000000 290454153684844957517082430161644507096894132952766611456.000000 0.000000
0.000000 0.000000 0.000000
125648624920602242056152371662794408630622524891654520832.000000 -58258706317489061146665172817620103724959971983029698560.000000 0.000000
-58258706317489061146665172817620103724959971983029698560.000000 17057785222867442193679954121098839114107750185531604992.000000 0.000000
0.000000 0.000000 0.000000
33347169582680724363198015540221539006624006681704269873152.000000 -12970499594456289957127424259851546899466753697444609916928.000000 0.000000
-12970499594456289957127424259851546899466753697444609916928.000000 3057896375552143354258228758550429588436860458939977826304.000000 0.000000
0.000000 0.000000 0.000000
34969704076843217365569153375785504512368609451856397074432.000000 -12488016554644732474136396954387592815167646915655779745792.000000 0.000000
-12488016554644732474136396954387592815167646915655779745792.000000 2744529684950224801009088683400582683326680865362568806400.000000 0.000000
0.000000 0.000000 0.000000
16545485971690094225469703921477050567344544740301458112512.000000 -638439491485250923373443376178243504599186987345046929408.000000 0.000000
-638439491485250923373443376178243504599186987345046929408.000000 22610380848503540895675063540515786964245890932701921280.000000 0.000000
0.000000 0.000000 0.000000
-1490253472577025253241652799461080649388241799095609458688.000000 -666222453538644920009092606788602162813209701384368160768.000000 0.000000
-666222453538644920009092606788602162813209701384368160768.000000 334334937200621143319333871636480898803652185299292782592.000000 0.000000
0.000000 0.000000 0.000000
17368063964657211017526717758744249010511452881739164155904.000000 -52138312247614745036088873200000787978046167160580175036416.000000 0.000000
-52138312247614745036088873200000787978046167160580175036416.000000 27230530251913219590793428398340573892372696138470089818112.000000 0.000000
0.000000 0.000000 0.000000
-2877007254269722049858064485784003147520870786522486407168.000000 -1725643863458300734729461889474526590177312757944676253696.000000 0.000000
-1725643863458300734729461889474526590177312757944676253696.000000 923118517677827525193043368410985263977992497537245773824.000000 0.000000
0.000000 0.000000 0.000000
1995886964478133992385407055962353082766583984964891574272.000000 1331995285058043734215748776207451794741819978026821091328.000000 0.000000
1331995285058043734215748776207451794741819978026821091328.000000 466425429660675097409933329421722231842089874800745906176.000000 0.000000
0.000000 0.000000 0.000000
954306773042604057226740788868879054590110469255333937152.000000 7517314995843598167402297257094097367166953506430160732160.000000 0.000000
7517314995843598167402297257094097367166953506430160732160.000000 4097551176163208148281095701685478312433878321327006285824.000000 0.000000
0.000000 0.000000 0.000000
4768806730689573875907385337681489192176064518861319307264.000000 3467990799276725460742737402142753812336552746298286014464.000000 0.000000
3467990799276725460742737402142753812336552746298286014464.000000 1262492158112801768443508152566586938458594964825786286080.000000 0.000000
0.000000 0.000000 0.000000
2747972924915983034036085627144507734936069135790342406144.000000 59204697413045976532497430652480105268375406212989059072.000000 0.000000
59204697413045976532497430652480105268375406212989059072.000000 964985826810202711095198051948294685051414939711832064.000000 0.000000
0.000000 0.000000 0.000000
-1157296923003273167926116990845502721433944153980034613248.000000 5521094603869903968253167737800133683981826998927980756992.000000 0.000000
5521094603869903968253167737800133683981826998927980756992.000000 3140160914444133068475322674045959206631567074298255376384.000000 0.000000
0.000000 0.000000 0.000000
-72086013951496794739016930364689168234331263318827158470656.000000 1883798392712667981892715133908909101609212144039053230080.000000 0.000000
1883798392712667981892715133908909101609212144039053230080.000000 98024724200000630048335647581335047529112936479721521152.000000 0.000000
0.000000 0.000000 0.000000
6375731973310100976146964905721803972350999306854746554368.000000 9621570704288153888979468631463526994801264351537774198784.000000 0.000000
9621570704288153888979468631463526994801264351537774198784.000000 4575976250083526572113845554707343155700995377279073779712.000000 0.000000
0.000000 0.000000 0.000000
-40759032463929611606911158933803885142304999823887149563904.000000 -21588009853519115354612497752279661163537390949439228608512.000000 0.000000
-21588009853519115354612497752279661163537390949439228608512.000000 11236372140165587040936352120205780257709613828696862359552.000000 0.000000
0.000000 0.000000 0.000000
5431770422553238216568549820754376986938465215406078427136.000000 -6899204914170140757002680706160170001254032060554900668416.000000 0.000000
-6899204914170140757002680706160170001254032060554900668416.000000 3145100725610894309127689708047881880700671740497312612352.000000 0.000000
0.000000 0.000000 0.000000
-185671156976943958112394723575790752199121851212512624640.000000 21410777151857848922987036792993863526021298134313861120.000000 0.000000
21410777151857848922987036792993863526021298134313861120.000000 16530794973290002964855804533684274342027326325243510784.000000 0.000000
0.000000 0.000000 0.000000
10951488358964000736506188924974111601814498824234578477056.000000 4481434177972230200569906172483961774086087397003493376.000000 0.000000
4481434177972230200569906172483961774086087397003493376.000000 1891974713335947778337785133173389636420011441520640.000000 0.000000
0.000000 0.000000 0.000000
-18035484505781023405797367182991955698222199718894003814400.000000 12110553689660658857958227792882291758644271897424718462976.000000 0.000000
12110553689660658857958227792882291758644271897424718462976.000000 6614558894372151551757166924445645980242352000206309949440.000000 0.000000
0.000000 0.000000 0.000000
23580018732548990859000015488446960989016280074750961647616.000000 2094300816676212568200287325961101335705388325332102152192.000000 0.000000
2094300816676212568200287325961101335705388325332102152192.000000 141859660338344188739904657479157457203247388946996396032.000000 0.000000
0.000000 0.000000 0.000000
184802190895475165305045485128647555581111225669864390656.000000 -172693265515028565349262473212685157450274271208673378304.000000 0.000000
-172693265515028565349262473212685157450274271208673378304.000000 70888471673919020098685084675055891641615625458368380928.000000 0.000000
0.000000 0.000000 0.000000
-796180906992653188079315572904393611153759651321788497920.000000 3104335500388303725225749468555976303718341476280763940864.000000 0.000000
3104335500388303725225749468555976303718341476280763940864.000000 1772036333362106616854105747378216709600176280837912788992.000000 0.000000
0.000000 0.000000 0.000000
2517226031368639698244273684102124283312602229059136520192.000000 2662166211492039362123381133514450284207217218368726630400.000000 0.000000
2662166211492039362123381133514450284207217218368726630400.000000 1145470783023865403671492249942014864404847768612573806592.000000 0.000000
0.000000 0.000000 0.000000
15061107719543882508705856677110512068246812656075276288.000000 11786089336307784695818037548828876508503574355977961472.000000 0.000000
11786089336307784695818037548828876508503574355977961472.000000 4459442381581340511861509178762163767160333821861167104.000000 0.000000
0.000000 0.000000 0.000000
2861842592251651426328506427205148459405286269802667573248.000000 -2673017878391380113755266277991711582360715032447508545536.000000 0.000000
-2673017878391380113755266277991711582360715032447508545536.000000 1097008788085266861066207689311359919186978791570318295040.000000 0.000000
0.000000 0.000000 0.000000
9275137055285199126598139993605513801790828375271756791808.000000 -1162295620223252093830689205752266622729777263407173468160.000000 0.000000
-1162295620223252093830689205752266622729777263407173468160.000000 101948658025880319757506227431710882969534538987511742464.000000 0.000000
0.000000 0.000000 0.000000
24946062477301868958797666620718655767323732034523028783104.000000 17360267741567249971653730271647941401151669414434474819584.000000 0.000000
17360267741567249971653730271647941401151669414434474819584.000000 6168360590267637570164637168265202057365318068246564306944.000000 0.000000
0.000000 0.000000 0.000000
3572963698475393527768047948784982193360394446870228762624.000000 -279636418727032425555806693007667199242935558791638286336.000000 0.000000
-279636418727032425555806693007667199242935558791638286336.000000 14941747425751228276495534187009007919290250837763293184.000000 0.000000
0.000000 0.000000 0.000000
-214789003055354338996630092293991758247788654563061399552.000000 1096902865590007019744694783042396900843213426873209978880.000000 0.000000
1096902865590007019744694783042396900843213426873209978880.000000 623179675059012041681831979778137350442303338411724898304.000000 0.000000
0.000000 0.000000 0.000000
22266275930447998721735799662726964068989515031516484206592.000000 -519067608155113352967489137125613836067410355512619827200.000000 0.000000
-519067608155113352967489137125613836067410355512619827200.000000 8063815509227247957591525699186371021144586612023230464.000000 0.000000
0.000000 0.000000 0.000000
1225291944414721571135625577318286200004436550256267624448.000000 848121573975796253959808537807652261611762383658294444032.000000 0.000000
848121573975796253959808537807652261611762383658294444032.000000 300360412937963317095298239400376825377978982954096918528.000000 0.000000
0.000000 0.000000 0.000000
-3105869878755458653890605267003009671324898986665893964021760.000000 -22543604871924460508749674003797321299143931987916891357184.000000 0.000000
-22543604871924460508749674003797321299143931987916891357184.000000 341068069345317092855725750733313622306975180533861974016.000000 0.000000
0.000000 0.000000 0.000000
-9196271732975603584388267627841427503014875384471625924608.000000 59062844189277462914265188710202000921695678312646443008.000000 0.000000
59062844189277462914265188710202000921695678312646443008.000000 3130241744148445900113822780157255078675636186289012736.000000 0.000000
0.000000 0.000000 0.000000
-326729309077135845237039953135712793110462447972457119744.000000 -255648968162599195695664075772827645197239974334648287232.000000 0.000000
-255648968162599195695664075772827645197239974334648287232.000000 160843778719182335861272883817804310484841133143266164736.000000 0.000000
0.000000 0.000000 0.000000
8673250107571433548324166600597558510906297756820298530816.000000 7196875424813242715942340793614537029231767181654113648640.000000 0.000000
7196875424813242715942340793614537029231767181654113648640.000000 2821488392072545702086912571496637298077614564163006234624.000000 0.000000
0.000000 0.000000 0.000000
8118449252462640617899901619454796078588862521667015933952.000000 15291937265338041756194681648783238943181974977892744953856.000000 0.000000
15291937265338041756194681648783238943181974977892744953856.000000 7576332225630085653277198243333136707046803365747293683712.000000 0.000000
0.000000 0.000000 0.000000
543117151428342949514737317386337756120319260046382858240.000000 202731662841405059391210964382537138621213673536469598208.000000 0.000000
202731662841405059391210964382537138621213673536469598208.000000 46344117848980503925818425830455085940092903960212406272.000000 0.000000
0.000000 0.000000 0.000000
-18267537650092453079830121914873053242323592407997491445760.000000 -6208403094338130620782061471846088042441187940460289589248.000000 0.000000
-6208403094338130620782061471846088042441187940460289589248.000000 2772317572827866164513200481032631543017420431288810078208.000000 0.000000
0.000000 0.000000 0.000000
3385603224345172989799813542934648928334848885069514276864.000000 -2085528564813005543108138316977361192788440506437344428032.000000 0.000000
-2085528564813005543108138316977361192788440506437344428032.000000 689041629178576595162733016881500994822011981632678920192.000000 0.000000
0.000000 0.000000 0.000000
625509536670407861237794376941063064041169806398815469568.000000 724962409319361378699754015029133860458855786896622092288.000000 0.000000
724962409319361378699754015029133860458855786896622092288.000000 326510896689979001631236746855925548181532806404106092544.000000 0.000000
0.000000 0.000000 0.000000
22626648416395914049945918391729497184804421033326052114432.000000 6873317010627269242980348606410650882620444457697288388608.000000 0.000000
6873317010627269242980348606410650882620444457697288388608.000000 1311399043453021218355009824138679411082475627997833461760.000000 0.000000
0.000000 0.000000 0.000000
8597167070911594254169935470253059858506337196706076033024.000000 7295195736545482010740301856062047133601722397584691036160.000000 0.000000
7295195736545482010740301856062047133601722397584691036160.000000 2756434497897008952739936993250634085650605835066697318400.000000 0.000000
0.000000 0.000000 0.000000
6559312885363106943310742370379497088935934219732230602752.000000 35513109850806786609021215999654249550049581602552414208.000000 0.000000
35513109850806786609021215999654249550049581602552414208.000000 128483598656603510553501336494779693687918971850850304.000000 0.000000
0.000000 0.000000 0.000000
-33352079498512784294022965225386897097412782267863035543552.000000 -5948080081867251911064395179339806756172334736888601509888.000000 0.000000
-5948080081867251911064395179339806756172334736888601509888.000000 1810339385492358718802718595854657040220444604064396738560.000000 0.000000
0.000000 0.000000 0.000000
16761964652556502557744547849671794275702083030613311356928.000000 -7610385621126964711759272210159061442663894043601326309376.000000 0.000000
-7610385621126964711759272210159061442663894043601326309376.000000 2020501285048390722652073146908466859013853065055897124864.000000 0.000000
0.000000 0.000000 0.000000
2852731206291679684103770509238875923979685538297102204928.000000 6040288077601672107786524662867264590122160038512594780160.000000 0.000000
6040288077601672107786524662867264590122160038512594780160.000000 3047952570713386821315802088034745881564012252501140045824.000000 0.000000
0.000000 0.000000 0.000000
1284861590198889290884815671917255075764139376215947476992.000000 25185526755255321517063150957932228644939082047652362190848.000000 0.000000
25185526755255321517063150957932228644939082047652362190848.000000 13901709709002490717951602511553535875796461866202557317120.000000 0.000000
0.000000 0.000000 0.000000
-3745565992568025971744390575935392256418116823206798032896.000000 129391952299990895568346082263082067944497716482887647232.000000 0.000000
129391952299990895568346082263082067944497716482887647232.000000 20910489927373513745272077845976482024584627333267193856.000000 0.000000
0.000000 0.000000 0.000000
1219008523492099726574638394261460919659431561395896844288.000000 381782581842493139495622512650678341905433590324105576448.000000 0.000000
381782581842493139495622512650678341905433590324105576448.000000 74949307274504186683045184585554938823987429828716396544.000000 0.000000
0.000000 0.000000 0.000000
-748083763963683626023749138025077147903656965108792295424.000000 -8028256033184375403197680813039913889560697085767580647424.000000 0.000000
-8028256033184375403197680813039913889560697085767580647424.000000 4550443503141472506481439933996790641454614182505171910656.000000 0.000000
0.000000 0.000000 0.000000
-15175353802122415007701966718178488592295869255233732345856.000000 -8192085023850000329708412131713116728771004216867255484416.000000 0.000000
-8192085023850000329708412131713116728771004216867255484416.000000 4270741447908154036487551276402646734239140127426182381568.000000 0.000000
0.000000 0.000000 0.000000
-3186670206881202636206152566899893117645148219002163560448.000000 -2126039016554225176185085683025189675241779674587930296320.000000 0.000000
-2126039016554225176185085683025189675241779674587930296320.000000 1165583193273015078186713729835187159629278724998790381568.000000 0.000000
0.000000 0.000000 0.000000
2907575392471401875384147840166043007341384384869010767872.000000 -547522165625872393576247787158850995503007562515343212544.000000 0.000000
-547522165625872393576247787158850995503007562515343212544.000000 70055143023660514423298399446308157797749900081679564800.000000 0.000000
0.000000 0.000000 0.000000
6777219273030710870725907353890181034933066203200256737280.000000 1593881380824706097961154546677903817865991706741684830208.000000 0.000000
1593881380824706097961154546677903817865991706741684830208.000000 242353413053789731215876434344900109883511942009468223488.000000 0.000000
0.000000 0.000000 0.000000
2798777568881712023478001533387705150308303692042879369216.000000 -1315956139208728956029345883861115096933949664887876616192.000000 0.000000
-1315956139208728956029345883861115096933949664887876616192.000000 359617146093664212265938834642803371727771376228067442688.000000 0.000000
0.000000 0.000000 0.000000
-1253847222396832185643245908361546742876832244447576064.000000 -3200096295886663165667594392520461562685141909766144000.000000 0.000000
-3200096295886663165667594392520461562685141909766144000.000000 1840844999023103559108200672390778361830679678040408064.000000 0.000000
0.000000 0.000000 0.000000
6913030960193781008672252574745806762432101200567702913024.000000 486514120590221417728009885669065099521610610697970909184.000000 0.000000
486514120590221417728009885669065099521610610697970909184.000000 27854452435813416985561250916178157706789214939160510464.000000 0.000000
0.000000 0.000000 0.000000
-333426513034517037284051203485176672663464821358677983232.000000 2846792338690484443514092730387582094103052754081126809600.000000 0.000000
2846792338690484443514092730387582094103052754081126809600.000000 1640106242169463142143135813118028683093458830185581248512.000000 0.000000
0.000000 0.000000 0.000000
-254569425317652879709131589520381080503880675986606005420032.000000 -22612222586144142495287326662095394495913671938412885573632.000000 0.000000
-22612222586144142495287326662095394495913671938412885573632.000000 3845932403075899628831481941090876687909809509674092855296.000000 0.000000
0.000000 0.000000 0.000000
-59137769756715771809810292323194010742830228159095977803776.000000 11367274394227856495927476518871099284316233616080098033664.000000 0.000000
11367274394227856495927476518871099284316233616080098033664.000000 3650674563020880888767099246649356165109142830089590800384.000000 0.000000
0.000000 0.000000 0.000000
-77237268164339036761199765403231326629163413973048362008576.000000 -20604627967208868602576342234899187164927109947591166525440.000000 0.000000
-20604627967208868602576342234899187164927109947591166525440.000000 8143849390715602603139482321663559304153573076777371172864.000000 0.000000
0.000000 0.000000 0.000000
-14017451086907118874772548122666884715082262518853288329216.000000 18314299986519864914274334983467945838549415924431044214784.000000 0.000000
18314299986519864914274334983467945838549415924431044214784.000000 10548371141653830751292113927573766952333587348909298024448.000000 0.000000
0.000000 0.000000 0.000000
14238792283418390509816925873667208021882177832349916463104.000000 14516214819692950461885113766151574480214802767661424967680.000000 0.000000
14516214819692950461885113766151574480214802767661424967680.000000 6166544861490699349994659874001298245569067165162726752256.000000 0.000000
0.000000 0.000000 0.000000
203905140578816101745984921899197719808712515676387934208.000000 -38503977030106158724649364260689000669279022432787628032.000000 0.000000
-38503977030106158724649364260689000669279022432787628032.000000 7271414634439995207836545505966555914402188147659112448.000000 0.000000
0.000000 0.000000 0.000000
-1510390315930122575454069036331219781570004409906697863168.000000 -866623848412100961729792580935800679799565254201706545152.000000 0.000000
-866623848412100961729792580935800679799565254201706545152.000000 458218300385536237133175041719471890225054051737578504192.000000 0.000000
0.000000 0.000000 0.000000
-728096761298550862615125792109863027341704501952358907904.000000 -1909463565705142179712918924170138716067078075954262704128.000000 0.000000
-1909463565705142179712918924170138716067078075954262704128.000000 1097995843588060834163892689326082863388465499694757314560.000000 0.000000
0.000000 0.000000 0.000000
-5319597022833460793321859393675241236047272970892074811392.000000 13086864366471132460797956563441781114953169899724201787392.000000 0.000000
13086864366471132460797956563441781114953169899724201787392.000000 7546257273190903424365160877448596004339422733237502345216.000000 0.000000
0.000000 0.000000 0.000000
2211192866569102822919264117113257115675803337461986230272.000000 6690214252529480154890247095750823098432546731616936919040.000000 0.000000
6690214252529480154890247095750823098432546731616936919040.000000 3496315590413446232971417973823624232499075718046204035072.000000 0.000000
0.000000 0.000000 0.000000
11571208667165213453633759495639404997513401517116286304256.000000 -8445219988696388399695060580241153002408214114242312273920.000000 0.000000
-8445219988696388399695060580241153002408214114242312273920.000000 3080470441401615850019620637476306235688731896476470345728.000000 0.000000
0.000000 0.000000 0.000000
-8249593088749838788162429767477764245100781667091505741824.000000 -4401845430184074395211143647806737078553073760140066291712.000000 0.000000
-4401845430184074395211143647806737078553073760140066291712.000000 2287540288944622308755157353507099922838003889441976877056.000000 0.000000
0.000000 0.000000 0.000000
1049470347256075846104846724091231327984208092030830641152.000000 -2269525162464557037032698175992429408127098727784446427136.000000 0.000000
-2269525162464557037032698175992429408127098727784446427136.000000 1146567531880447866288903593165297885376793932340932902912.000000 0.000000
0.000000 0.000000 0.000000
4681799932397335981054094737435097021532944529925079040.000000 -369800334852976370501263364576366146049851893177384960.000000 0.000000
-369800334852976370501263364576366146049851893177384960.000000 19410752337787235712670679399539472007823209340600320.000000 0.000000
0.000000 0.000000 0.000000
782478975302146772003512552925262043829125116106008166400.000000 -2103163420541707131192723984032204024059743181823226675200.000000 0.000000
-2103163420541707131192723984032204024059743181823226675200.000000 1087945842632500773020962400967620937383145279650174861312.000000 0.000000
0.000000 0.000000 0.000000
1618600891607459365197397327437073591762108276804606230528.000000 6967325045127602716792180861782781096189128995562395271168.000000 0.000000
6967325045127602716792180861782781096189128995562395271168.000000 3722611746133063799870323549714112184002147633289978970112.000000 0.000000
0.000000 0.000000 0.000000
-147521378377599778577047541040379218714625950798088138391552.000000 4664325408146330626412703603078939102434574268809464512512.000000 0.000000
4664325408146330626412703603078939102434574268809464512512.000000 293489037715836884592854027448082985679984030355808059392.000000 0.000000
0.000000 0.000000 0.000000
26398444407071596551576675870993102904876156294081139441664.000000 -10509272559313484447660585467055450134302000247142724141056.000000 0.000000
-10509272559313484447660585467055450134302000247142724141056.000000 2524549476579429217128710949207438981400097969372431122432.000000 0.000000
0.000000 0.000000 0.000000
6774592140267478230137700008432655977297379517791786237952.000000 6297712708580776948318017022636849308517390889647767289856.000000 0.000000
6297712708580776948318017022636849308517390889647767289856.000000 2578138707838272969949985719662928903306646721960500789248.000000 0.000000
0.000000 0.000000 0.000000
-2527528083260986839702229022292805766824859085292821282816.000000 3136807543025175971682290718663375264791029621466123468800.000000 0.000000
3136807543025175971682290718663375264791029621466123468800.000000 1802419868904501818902983579490772589698799917962415308800.000000 0.000000
0.000000 0.000000 0.000000
4861361331812437680477471019202442299727864179601409310720.000000 22119407160537749017182079763430052035752511104139235688448.000000 0.000000
22119407160537749017182079763430052035752511104139235688448.000000 11846039066689399310980674838617515632298184045232731979776.000000 0.000000
0.000000 0.000000 0.000000
-747406487523462599998600896736331857603004604635626340352.000000 -3041005646790589746502575811056364099761076774824866480128.000000 0.000000
-3041005646790589746502575811056364099761076774824866480128.000000 1737751123416939378445853517777126227328402622837807906816.000000 0.000000
0.000000 0.000000 0.000000
4451038081758033917115161714479788369571385062550910533632.000000 2605938518554487038460108083720080843458010136985540231168.000000 0.000000
2605938518554487038460108083720080843458010136985540231168.000000 829944880537925017530759623577995531953085702059480580096.000000 0.000000
0.000000 0.000000 0.000000
1913439581590783440179846680116660759817489332485402656768.000000 -10117707902937225908859670156126582325369257898178433253376.000000 0.000000
-10117707902937225908859670156126582325369257898178433253376.000000 5563981553393448534121905044921120619068589663855912681472.000000 0.000000
0.000000 0.000000 0.000000
15909533829164562022668983216420897095881987833087444123648.000000 4862546332597462027602186108740239977906169992108478300160.000000 0.000000
4862546332597462027602186108740239977906169992108478300160.000000 940577562325076780355774266360300208264639936679878066176.000000 0.000000
0.000000 0.000000 0.000000
-68853043593030402091362029142515002663369000082483479314432.000000 -16947267260343843788965641329376512206775039724024133320704.000000 0.000000
-16947267260343843788965641329376512206775039724024133320704.000000 6447838301402891871112817251773326073004945167865979338752.000000 0.000000
0.000000 0.000000 0.000000
430053041824528403342588344389528819491278209565174267904.000000 -1617072512561223544325234809177315567806318074304900628480.000000 0.000000
-1617072512561223544325234809177315567806318074304900628480.000000 869692008383142329970620758841879004487792396253031038976.000000 0.000000
0.000000 0.000000 0.000000
-2971883280535911124093596961636151002494025935119898902528.000000 -3207679993438940598084474306081448708913367461358697709568.000000 0.000000
-3207679993438940598084474306081448708913367461358697709568.000000 1835309549847035580141289035898458370616532922088367849472.000000 0.000000
0.000000 0.000000 0.000000
-298246414572520035148341487730999755203099072921600.000000 -330496693550865602482501531010118054727910667845632.000000 0.000000
-330496693550865602482501531010118054727910667845632.000000 200527767391830353582484127963406135591769986826240.000000 0.000000
0.000000 0.000000 0.000000
95719858963589558878025243713990987681420262232101545312256.000000 71735438303446695759629782089744248382670692849054182801408.000000 0.000000
71735438303446695759629782089744248382670692849054182801408.000000 26585756613380500873117757897818081186660927963724192415744.000000 0.000000
0.000000 0.000000 0.000000
-41080372235169802264991021034629644039071110430249684303872.000000 -9613786596883269796665220697516259830894184410055364837376.000000 0.000000
-9613786596883269796665220697516259830894184410055364837376.000000 3563924269845091082198550015777590425718944386509944389632.000000 0.000000
0.000000 0.000000 0.000000
1085340231033813134129477549690585113982705812012458311680.000000 749136135210147526994678726778904617264103880410001309696.000000 0.000000
749136135210147526994678726778904617264103880410001309696.000000 272855285178386044913415368366559663762697648734686150656.000000 0.000000
0.000000 0.000000 0.000000
42409280430457832768733871288863317731339468890196192264192.000000 -67180197963675114324797223686091653250506969100357879201792.000000 0.000000
-67180197963675114324797223686091653250506969100357879201792.000000 32275733959278072519840960082774781123591396892415170183168.000000 0.000000
0.000000 0.000000 0.000000
224819523703239791591805317530061922457831216477439524864.000000 258134012709384207901322787785649134972008946273391476736.000000 0.000000
258134012709384207901322787785649134972008946273391476736.000000 114220633683202077976835732447044397596055047901273915392.000000 0.000000
0.000000 0.000000 0.000000
17273513647715692643487314979148367815394017203688833024.000000 -2525669097944720747911199076606980729881191475188858880.000000 0.000000
-2525669097944720747911199076606980729881191475188858880.000000 242718018335491749121378922316506305475922786630238208.000000 0.000000
0.000000 0.000000 0.000000
-163665368019891911512239026750185411424380416108913542299648.000000 653745118489493351006364364402467965026018980408791662592.000000 0.000000
653745118489493351006364364402467965026018980408791662592.000000 20527887128895037946305226638245763955252736509828136960.000000 0.000000
0.000000 0.000000 0.000000
2741062730479301579091549501360150416182634118907533721600.000000 -1526658021139819766446733581405676900952748098131305955328.000000 0.000000
-1526658021139819766446733581405676900952748098131305955328.000000 472489334993478485869716883233026002028300536632964022272.000000 0.000000
0.000000 0.000000 0.000000
18016884969678869999267437262175742358928280352002276327424.000000 -10102507800198094828733448249671767354012087432291001827328.000000 0.000000
-10102507800198094828733448249671767354012087432291001827328.000000 3136834059871284741774374980023258795642260855619372187648.000000 0.000000
0.000000 0.000000 0.000000
4135704653125008865833449982740168113789762974526289739776.000000 1216426711356401429995932417279049652086277887458642231296.000000 0.000000
1216426711356401429995932417279049652086277887458642231296.000000 236891521519824856249237519196716585519776968398136672256.000000 0.000000
0.000000 0.000000 0.000000
-1373506091988717352183546778373321003172259372158095982592.000000 2616378882644216724553767223776796758807782076807766867968.000000 0.000000
2616378882644216724553767223776796758807782076807766867968.000000 1559874085428788748110741029308533515035623359315577929728.000000 0.000000
0.000000 0.000000 0.000000
4366413986959152134677230489910005143976656853354799955968.000000 9644400696605068797937371013452837160196812301445648875520.000000 0.000000
9644400696605068797937371013452837160196812301445648875520.000000 4887827741824322189889573823436241276094307820095982796800.000000 0.000000
0.000000 0.000000 0.000000
-15513417709105880592196176610123075551206371723299143024640.000000 63638599010078557341411976306713226510624386327891698253824.000000 0.000000
63638599010078557341411976306713226510624386327891698253824.000000 36306029299238139075095968361725176062002992979107811164160.000000 0.000000
0.000000 0.000000 0.000000
-343483370539108343660430578096001865921817832006302564352.000000 -1377971064212245535978871172124844098571001263966977523712.000000 0.000000
-1377971064212245535978871172124844098571001263966977523712.000000 788132332542879954738810683962087602311878078867301203968.000000 0.000000
0.000000 0.000000 0.000000
3297954062751883584931210846504192415856517834652258402304.000000 -285439693976388137777775810316635266096321809352501493760.000000 0.000000
-285439693976388137777775810316635266096321809352501493760.000000 16387252596657109666108236440063190104001111281543151616.000000 0.000000
0.000000 0.000000 0.000000
-6357875828800632022060219073000558363439083400474231046144.000000 -7323653284272377214274670149701805979559343369086065180672.000000 0.000000
-7323653284272377214274670149701805979559343369086065180672.000000 4235535390573136731769256235146717833728830185574202605568.000000 0.000000
0.000000 0.000000 0.000000
868471142601096638880300038862973115546484447238544162816.000000 -2082768081149105695042323805277957706113084644184721195008.000000 0.000000
-2082768081149105695042323805277957706113084644184721195008.000000 1065829932978951815882613327152882453810319392482284011520.000000 0.000000
0.000000 0.000000 0.000000
-96476062228637704988864260479258759591054059405435731968.000000 702165881837538652944729183196021918397268552191116836864.000000 0.000000
702165881837538652944729183196021918397268552191116836864.000000 396958981672649990869449333890508199428067093276665053184.000000 0.000000
0.000000 0.000000 0.000000
213261292975868872574914687706062299588487480050605621248.000000 -250520870602075085787065984615226669828080673497452380160.000000 0.000000
-250520870602075085787065984615226669828080673497452380160.000000 129374396321112049967873598258405292309028384889116819456.000000 0.000000
0.000000 0.000000 0.000000
2031650731549392703836806473524812895742036588524518506496.000000 947791848050828816993633844265021640872376276801562869760.000000 0.000000
947791848050828816993633844265021640872376276801562869760.000000 257887816377413886281560786840950460336548216854347251712.000000 0.000000
0.000000 0.000000 0.000000
6536923963425594904419277984312846813399679598985811591168.000000 -16426995801069400780468016259672162262226090479656883978240.000000 0.000000
-16426995801069400780468016259672162262226090479656883978240.000000 8442480803565361494559580457254956696972344660970075848704.000000 0.000000
0.000000 0.000000 0.000000
31485217679575224514187484666908994442474145616043704320.000000 -16746137056417586262133433323324563736769133626940981248.000000 0.000000
-16746137056417586262133433323324563736769133626940981248.000000 5014540246224429234664700488131316545376035172293541888.000000 0.000000
0.000000 0.000000 0.000000
5151209312771728697101425691598298372998179100006683770880.000000 -1317580498521871637853678000481800840655283808970154704896.000000 0.000000
-1317580498521871637853678000481800840655283808970154704896.000000 215273695279580741478963629186200309492465138983801716736.000000 0.000000
0.000000 0.000000 0.000000
23766475568553336570553840629357249516650455519987459162112.000000 -754926514281736000748745845532659952569695959551089573888.000000 0.000000
-754926514281736000748745845532659952569695959551089573888.000000 16002553187550685563288147978252925802461923718266355712.000000 0.000000
0.000000 0.000000 0.000000
5684070961963853346270259816019905237392207920376984895488.000000 6903917957170464429520812630976369916987563996061357834240.000000 0.000000
6903917957170464429520812630976369916987563996061357834240.000000 3114109560915419213723352719062948244529800591905977794560.000000 0.000000
0.000000 0.000000 0.000000
2732465239413393991788699960977103498664860989689440501760.000000 -1769332949996772310968726445340892711080578686576261857280.000000 0.000000
-1769332949996772310968726445340892711080578686576261857280.000000 387382033122195400898428297915219228113989571334006374400.000000 0.000000
0.000000 0.000000 0.000000
856076865731670146307226645488967134165761464260660035584.000000 952699362590268336459672907506532162482986749503668748288.000000 0.000000
952699362590268336459672907506532162482986749503668748288.000000 408252355519979809649539481354117303580260590520480301056.000000 0.000000
0.000000 0.000000 0.000000
21824020162643203553807519277841383656240386354372885348352.000000 16655127303285233616715828526626207807492214050232939315200.000000 0.000000
16655127303285233616715828526626207807492214050232939315200.000000 6220945217462845086003558690765877751544762455607585275904.000000 0.000000
0.000000 0.000000 0.000000
5925319237360429292060551458239552036073790452471473111040.000000 -3210755951897898228109806520771949889733367454608723542016.000000 0.000000
-3210755951897898228109806520771949889733367454608723542016.000000 973834893398286751046079112974331947371278531317882421248.000000 0.000000
0.000000 0.000000 0.000000
23926566973520481441953990390605884279623886994774559817728.000000 1534601429453266707449178697745889285687321569602129887232.000000 0.000000
1534601429453266707449178697745889285687321569602129887232.000000 103281707638045684190277726285444482267857333326522089472.000000 0.000000
0.000000 0.000000 0.000000
2855296795988178599680859960671281547149326143929674891264.000000 4576377228899668958615767935547756845263739205473871593472.000000 0.000000
4576377228899668958615767935547756845263739205473871593472.000000 2208009918864250374190963491598041238499190582474790928384.000000 0.000000
0.000000 0.000000 0.000000
4550533743389177498829209347219252153243966403317115912192.000000 -4217397036413172664601133494617246555085649675523960340480.000000 0.000000
-4217397036413172664601133494617246555085649675523960340480.000000 1740492514148141661678666233587852558230314952564488011776.000000 0.000000
0.000000 0.000000 0.000000
5283373750311840250349684127558503863488652080869862801408.000000 6375227991442792421574780515203801265219148451201851326464.000000 0.000000
6375227991442792421574780515203801265219148451201851326464.000000 2920946236252161203906722306200920893160110461995272110080.000000 0.000000
0.000000 0.000000 0.000000
-164261336217383383861221152764201200820544718080191945301295104.000000 890650458567833181347952903226719037055062553346270256168960.000000 0.000000
890650458567833181347952903226719037055062553346270256168960.000000 9661206402682027952552042028333092742096287795774094311424.000000 0.000000
0.000000 0.000000 0.000000
96864836338946345683625188217587945788808457333713464721408.000000 -114579004240418952391907798787693015564478038529446227476480.000000 0.000000
-114579004240418952391907798787693015564478038529446227476480.000000 51171472283634045561171169313207143505439655446820128030720.000000 0.000000
0.000000 0.000000 0.000000
11744986110289429946339325600985098178082902863592183300096.000000 -11639354536635534161865906405337980671860992353714875400192.000000 0.000000
-11639354536635534161865906405337980671860992353714875400192.000000 4891211625923607895836814934557876680500670330099445268480.000000 0.000000
0.000000 0.000000 0.000000
4491179403287286353209932584226785674515004765114273366016.000000 2865169483065910833056457566828449817837160438095193047040.000000 0.000000
2865169483065910833056457566828449817837160438095193047040.000000 988474998072480269042193650270717846258874877908189446144.000000 0.000000
0.000000 0.000000 0.000000
252499062791157083224617721599146504016444061781166391296.000000 -28761194785629948466805416808414635669907130025563389952.000000 0.000000
-28761194785629948466805416808414635669907130025563389952.000000 2486067204575798083339629719575198947862256363610570752.000000 0.000000
0.000000 0.000000 0.000000
5412809584172243027388190516778264261249063566109199826944.000000 6416409941252191413171750520697231400301300111743469486080.000000 0.000000
6416409941252191413171750520697231400301300111743469486080.000000 2896305991337039823686557480975704947209758069911627759616.000000 0.000000
0.000000 0.000000 0.000000
-13997617435895528395128169011880987187711388373674008510464.000000 10010905181954631763410189797794822186458295105746928402432.000000 0.000000
10010905181954631763410189797794822186458295105746928402432.000000 5505268329728050454728866051453787534430744808297148186624.000000 0.000000
0.000000 0.000000 0.000000
-935708456953703208821265371085416202408041644037905580032.000000 -1697605819736597707148119334939630633931088079866854113280.000000 0.000000
-1697605819736597707148119334939630633931088079866854113280.000000 1001343382809810117018713584203717111246018124202461102080.000000 0.000000
0.000000 0.000000 0.000000
5386049992514172038224164491701267469195409686105717473280.000000 -3365524011263656047831333491405912506540510774061644644352.000000 0.000000
-3365524011263656047831333491405912506540510774061644644352.000000 1124708609325440482846047086573978794365588413105125195776.000000 0.000000
0.000000 0.000000 0.000000
-407778513561049320127050476310598406499400774976016482304.000000 -43887126262442816772149186206005436809200927338408181760.000000 0.000000
-43887126262442816772149186206005436809200927338408181760.000000 8854127760980876639846228104669612783265865355382226944.000000 0.000000
0.000000 0.000000 0.000000
28884539003138357215824633079489453322781008191565665927168.000000 -13026802543722946728175477873552238323217166461014032515072.000000 0.000000
-13026802543722946728175477873552238323217166461014032515072.000000 3454138284637200538604264672736038830979565502015133974528.000000 0.000000
0.000000 0.000000 0.000000
3014165722089085311025594247608143994292086724112678912.000000 -910076370273968708931850784131310420764998544039870464.000000 0.000000
-910076370273968708931850784131310420764998544039870464.000000 172704295256402968196414994716285540639780164325081088.000000 0.000000
0.000000 0.000000 0.000000
-1417138877096727303118486702635500571923044167942573916160.000000 -8043416389766362447683501132589019423593615020172708413440.000000 0.000000
-8043416389766362447683501132589019423593615020172708413440.000000 4650490890813641272339200332715752688469353223780313333760.000000 0.000000
0.000000 0.000000 0.000000
2466733317348375432050481419481389832875325512655218671616.000000 1820217989534658739470488907797477755909905986874119290880.000000 0.000000
1820217989534658739470488907797477755909905986874119290880.000000 674045072086413062058066060090655316030119311511788716032.000000 0.000000
0.000000 0.000000 0.000000
691977958767842925587432485183995633880999853196344033280.000000 2352852502032109398982657928509821807850283332450453028864.000000 0.000000
2352852502032109398982657928509821807850283332450453028864.000000 1249805821150273659998043407329964502046974108629504884736.000000 0.000000
0.000000 0.000000 0.000000
123759925341466419963795395768239824448190039399123820478464.000000 -3123394894040626736638127720462228251553631371127735451648.000000 0.000000
-3123394894040626736638127720462228251553631371127735451648.000000 53329754159591238317329521090019840845012144429039878144.000000 0.000000
0.000000 0.000000 0.000000
-3693177834897195299711148223370144289014261277312742850560.000000 -175752013140451688852651093814184689839978835199681101824.000000 0.000000
-175752013140451688852651093814184689839978835199681101824.000000 47983208718510375552645022134219333114016519196717875200.000000 0.000000
0.000000 0.000000 0.000000
21344389438679022026226164073785136419359576723396849827840.000000 -10163162751461732178312762243490468631853736321008619487232.000000 0.000000
-10163162751461732178312762243490468631853736321008619487232.000000 2805554145570467234629841136064663571826428288075898552320.000000 0.000000
0.000000 0.000000 0.000000
127098552881534234243329656313943555890066569212943400960.000000 91381129164386989205049765512847169247709117683146424320.000000 0.000000
91381129164386989205049765512847169247709117683146424320.000000 33059327619620558003141562111736956825042390108401041408.000000 0.000000
0.000000 0.000000 0.000000
7552794466210470640016031044791029940404956226954534584320.000000 -914011070335042515787813285274117520273948148975055929344.000000 0.000000
-914011070335042515787813285274117520273948148975055929344.000000 73019058849717808736590716220101778106869034161692213248.000000 0.000000
0.000000 0.000000 0.000000
368042750296669737862386553690068503264551248068608.000000 217638194577722006727952356696662206141308260581376.000000 0.000000
217638194577722006727952356696662206141308260581376.000000 70022606397607739920169904286008964408974883422208.000000 0.000000
0.000000 0.000000 0.000000
436189451410489513792574405246263650561768969004770131968.000000 -2337212868136804044585432645082647220953224631819326980096.000000 0.000000
-2337212868136804044585432645082647220953224631819326980096.000000 1317835331435316724917392791303925136361599419008646381568.000000 0.000000
0.000000 0.000000 0.000000
3369817619092491378531333826094786083093001544380058697728.000000 1901385590608210434198267593001741580518737233209689374720.000000 0.000000
1901385590608210434198267593001741580518737233209689374720.000000 592854847034622521532931019609654410965819330147068674048.000000 0.000000
0.000000 0.000000 0.000000
29984036021722570861572340294937390144118154556587236130816.000000 -4610035641153705749235343183204008092021950909502856364032.000000 0.000000
-4610035641153705749235343183204008092021950909502856364032.000000 466983330737063344205167719805472744875084577723216035840.000000 0.000000
0.000000 0.000000 0.000000
12582868857854866839791360437258619453777238992873844637696.000000 -5706654715922250057608745516873628222933939561560023236608.000000 0.000000
-5706654715922250057608745516873628222933939561560023236608.000000 1520081641439302247562355052926828024940048022070437609472.000000 0.000000
0.000000 0.000000 0.000000
3446305488349178497273401971677400637296687869677048692736.000000 -3837785224405007130238242625042277306109720195123248103424.000000 0.000000
-3837785224405007130238242625042277306109720195123248103424.000000 1681405299345489195516567315162479219862512998586580467712.000000 0.000000
0.000000 0.000000 0.000000
4104587203248572668512073482189944591983948500559724544.000000 -252183798734835273847333157052161123489974556351791104.000000 0.000000
-252183798734835273847333157052161123489974556351791104.000000 10477284684812842251216467946958385910152695822417920.000000 0.000000
0.000000 0.000000 0.000000
-10320490514795307989335706576908788134516232821319260962816.000000 -7149841029700061959221931481852455407428579829869294125056.000000 0.000000
-7149841029700061959221931481852455407428579829869294125056.000000 3913380818674162843981145980494375068017161798278057033728.000000 0.000000
0.000000 0.000000 0.000000
-1706494528892192511920585536545559647794925968941756973056.000000 1629975092605645254058595350070779998489668110069497069568.000000 0.000000
1629975092605645254058595350070779998489668110069497069568.000000 927107394827742286543281380689988956820015477798108921856.000000 0.000000
0.000000 0.000000 0.000000
-42131804243567547632645109966891256175342710020213097627648.000000 26920679757677802895126385983911656368992245778057963503616.000000 0.000000
26920679757677802895126385983911656368992245778057963503616.000000 14558100501489070933494608635085821241376438187683760570368.000000 0.000000
0.000000 0.000000 0.000000
8057205703122609815000656963905485654088528722082559688704.000000 953333989931525996324280860690042625820198199282783748096.000000 0.000000
953333989931525996324280860690042625820198199282783748096.000000 74701157529115066978419718467322969994512242655369363456.000000 0.000000
0.000000 0.000000 0.000000
-17494415237971945412241035469602384891250558737313693696.000000 -7950573379872240839390066125562878683345692596056883200.000000 0.000000
-7950573379872240839390066125562878683345692596056883200.000000 3955729317357379384623438774231022851544864740394139648.000000 0.000000
0.000000 0.000000 0.000000
2667368602979043340040139074022927706052943633278503485440.000000 -13581102935737482648985538345194701858943907877678884061184.000000 0.000000
-13581102935737482648985538345194701858943907877678884061184.000000 7305850695265885482646644639621099736346697548240955375616.000000 0.000000
0.000000 0.000000 0.000000
28122975728558931591885586957568463070549606079744287178752.000000 3888259935339702264527971198839079044424326497177413091328.000000 0.000000
3888259935339702264527971198839079044424326497177413091328.000000 355293377642398325011631972088948623516989326478922481664.000000 0.000000
0.000000 0.000000 0.000000
-36012858519694514490698926302814039714754143688566192996352.000000 -10245983227483661353185566489900239173383255448333626376192.000000 0.000000
-10245983227483661353185566489900239173383255448333626376192.000000 4196309522444426569743779350394390942780079436566703898624.000000 0.000000
0.000000 0.000000 0.000000
114386017636690168952201339469539434170982814727573751201792.000000 -46585334607037830345070669287607734354523979187662494892032.000000 0.000000
-46585334607037830345070669287607734354523979187662494892032.000000 11398313521609966553449607992852198749535312685869165445120.000000 0.000000
0.000000 0.000000 0.000000
1644268339699225546525878136166391822496036115201048707072.000000 640465847197278499355666199975461080248990392185417367552.000000 0.000000
640465847197278499355666199975461080248990392185417367552.000000 152776559189125458806616850221417891249404183447827644416.000000 0.000000
0.000000 0.000000 0.000000
1614218963765508776600571126714318782902655693121872986112.000000 -1411637068782973472696110205261475061135056398045216243712.000000 0.000000
-1411637068782973472696110205261475061135056398045216243712.000000 563328380032005083661539653808973454207072255533668892672.000000 0.000000
0.000000 0.000000 0.000000
2227813765919593574059740265327688413231026369769982918656.000000 19879809678370024411159732766862603239907176334178081832960.000000 0.000000
19879809678370024411159732766862603239907176334178081832960.000000 10873260636997407389758058007010115748453685881152376668160.000000 0.000000
0.000000 0.000000 0.000000
-862661137435373373829309423515621949117130892436328939520.000000 253991052067301710424402182837518065222426180892485484544.000000 0.000000
253991052067301710424402182837518065222426180892485484544.000000 12815847327758084450469722186471121519065026986575396864.000000 0.000000
0.000000 0.000000 0.000000
4766683324905749367053206206218494263806536281649043210240.000000 -4851028928571367723239843727915557909733458425636232101888.000000 0.000000
-4851028928571367723239843727915557909733458425636232101888.000000 2082606889087125596727899713972485248694149205769725149184.000000 0.000000
0.000000 0.000000 0.000000
16991380111795179916706864205299879788459516186957579288576.000000 1225973535427897507050861302088858848332427145538309193728.000000 0.000000
1225973535427897507050861302088858848332427145538309193728.000000 58760891422312757714509589777353904007902725288088305664.000000 0.000000
0.000000 0.000000 0.000000
-175741072187774717307455279652099781246381852698244255055872.000000 55471740132361013100464082251105133182854649979265603338240.000000 0.000000
55471740132361013100464082251105133182854649979265603338240.000000 23922257445817637168134464207151408512972698944784274817024.000000 0.000000
0.000000 0.000000 0.000000
3659486295855438015278669233726402579214264600997455200256.000000 -7849594024180575862138570060258116824420506020003148988416.000000 0.000000
-7849594024180575862138570060258116824420506020003148988416.000000 3961483420626997504320765228786783817940628468232674607104.000000 0.000000
0.000000 0.000000 0.000000
30641991896433503660382097932232447377056663004090611007488.000000 -21810055372277765010839535026041709471612538142182315393024.000000 0.000000
-21810055372277765010839535026041709471612538142182315393024.000000 7846474422403777288135129330901325362431001838666697932800.000000 0.000000
0.000000 0.000000 0.000000
-1880830274943251682583382897419851360265843948852292354048.000000 1548925396165873553332924018439829140531079201539156344832.000000 0.000000
1548925396165873553332924018439829140531079201539156344832.000000 886053474248120640591315308811190547852655750833992892416.000000 0.000000
0.000000 0.000000 0.000000
-5108494502524185248570014164638928241392018738093154631680.000000 1769364463995501484981786446497536960304911754346629169152.000000 0.000000
1769364463995501484981786446497536960304911754346629169152.000000 809190976610748519524538272636395813900806859993890422784.000000 0.000000
0.000000 0.000000 0.000000
23040179397737204690334793108357033263902519638516276658176.000000 29010411521730422317596651234821179096802059788358560776192.000000 0.000000
29010411521730422317596651234821179096802059788358560776192.000000 13194515009312917999934232005870475970878632522311639498752.000000 0.000000
0.000000 0.000000 0.000000
4515692698537839764322729996182686685517952728667521024.000000 1706638221617056610899332871863892510501465609918742528.000000 0.000000
1706638221617056610899332871863892510501465609918742528.000000 392816768498963843035617256134480122242078325249933312.000000 0.000000
0.000000 0.000000 0.000000
-35104743247254976472947210158257917185484781316310764093440.000000 10619502949762911443319832880214197867871788905836434161664.000000 0.000000
10619502949762911443319832880214197867871788905836434161664.000000 4524559488459786362374349915866468020153842093362788696064.000000 0.000000
0.000000 0.000000 0.000000
21391712215200178869578287802721090033743786560162765996032.000000 16495841810064913622558228370462205725384743467327166611456.000000 0.000000
16495841810064913622558228370462205725384743467327166611456.000000 6194545183493026850929380603268270666195270530793989996544.000000 0.000000
0.000000 0.000000 0.000000
4100063307384331637882293620413451337845662261402010648576.000000 -2368548400920657612606659122417673369863643394614241525760.000000 0.000000
-2368548400920657612606659122417673369863643394614241525760.000000 746198854623250109013898832533350483668158673267642597376.000000 0.000000
0.000000 0.000000 0.000000
2149524226765022177652291210610168889129273633799151812608.000000 1908563879592295688406250049768321109506368817973767962624.000000 0.000000
1908563879592295688406250049768321109506368817973767962624.000000 766522844156323510936133836931751613533557223561046786048.000000 0.000000
0.000000 0.000000 0.000000
-236309135267369312366961029010962703124638994725590794240.000000 -62946282984301238903397578998053239530888968187735441408.000000 0.000000
-62946282984301238903397578998053239530888968187735441408.000000 24890265087743919439781064892237714309340766208297795584.000000 0.000000
0.000000 0.000000 0.000000
-58464820081655778607200218377669420885603479363187214647296.000000 -19563215626264368073929089740702698239880983843681375092736.000000 0.000000
-19563215626264368073929089740702698239880983843681375092736.000000 8668671542176416844695382828932883598555046278359007887360.000000 0.000000
0.000000 0.000000 0.000000
1050425884700094327602769046518764194147444831862017490944.000000 -3968133994323151634137575485145929248465613494878212194304.000000 0.000000
-3968133994323151634137575485145929248465613494878212194304.000000 2110647614741867242385088516276383547824145143349681061888.000000 0.000000
0.000000 0.000000 0.000000
5834599391041858207437817690745646710403546364276316831744.000000 -14631484703260899868274914337854853421644029852282502774784.000000 0.000000
-14631484703260899868274914337854853421644029852282502774784.000000 7518284870404534739716953804309789392618914144141147373568.000000 0.000000
0.000000 0.000000 0.000000
28607093535085565010504675743149254806057300002908504326144.000000 29848038587778631617838761023985652322408606158109313859584.000000 0.000000
29848038587778631617838761023985652322408606158109313859584.000000 12787408968303941782856105951596166836067993765134504820736.000000 0.000000
0.000000 0.000000 0.000000
-1922440586247671756751910436701875833271214397667089055744.000000 3004397743234694616753068172096523887160945637960909324288.000000 0.000000
3004397743234694616753068172096523887160945637960909324288.000000 1733508176484646927239600042561457221530869169726840373248.000000 0.000000
0.000000 0.000000 0.000000
654368018081390620650292513568557817808776710269094068224.000000 -3731533765283941662878661530435273676530824058668390023168.000000 0.000000
-3731533765283941662878661530435273676530824058668390023168.000000 2033698409203065494220731442319348073847438672704904888320.000000 0.000000
0.000000 0.000000 0.000000
25618296842552414065907014991716269294803765652238354087936.000000 -24977243590833597671792590456159995825604652747874499559424.000000 0.000000
-24977243590833597671792590456159995825604652747874499559424.000000 10429751951229638929095076323559615002923582965345488470016.000000 0.000000
0.000000 0.000000 0.000000
4575710796081437308060690649046171073750368605786968424448.000000 25170398348374708244522450592170214184312579462235791818752.000000 0.000000
25170398348374708244522450592170214184312579462235791818752.000000 13587430495263652238184926814508545492621784606719260753920.000000 0.000000
0.000000 0.000000 0.000000
18589058641798084080924036040533798213666272361878137077760.000000 -10586811526382324721030247689397568490238280417319585841152.000000 0.000000
-10586811526382324721030247689397568490238280417319585841152.000000 3321829866119947638278403066593250863782218189862185467904.000000 0.000000
0.000000 0.000000 0.000000
2040270132464809749185495960053768831076218026591415959552.000000 6103559448836076366915372810930109365611552144787259785216.000000 0.000000
6103559448836076366915372810930109365611552144787259785216.000000 3188854353449140550294477928829978730625136337179044216832.000000 0.000000
0.000000 0.000000 0.000000
8847403858327242107580617057027488221587408436496472997888.000000 3832449335535032927096976318796096685041952174510908112896.000000 0.000000
3832449335535032927096976318796096685041952174510908112896.000000 984850422122129166738433213517536755581385084408348803072.000000 0.000000
0.000000 0.000000 0.000000
-33075993941344025099553386654407339500132699116575796494336.000000 -10537705479199726348493598756665361719397279049907003457536.000000 0.000000
-10537705479199726348493598756665361719397279049907003457536.000000 4590504596481202444095491860921670002820738110853310578688.000000 0.000000
0.000000 0.000000 0.000000
228690466733467461084376796128530817370509043794240864256.000000 343198954821335546787178514086413587983115786441059205120.000000 0.000000
343198954821335546787178514086413587983115786441059205120.000000 163624605216365362482828264569017314073792756545958707200.000000 0.000000
0.000000 0.000000 0.000000
17056770238475306897909656369545237478444346896699355037696.000000 14511593296676821186779668215196363140274671238003602489344.000000 0.000000
14511593296676821186779668215196363140274671238003602489344.000000 5717009700817138929236012734702032163022850027487563350016.000000 0.000000
0.000000 0.000000 0.000000
6164838479196577711081019207069837894723848221050412204032.000000 -9894023411049153260791133136716097426858074948371765788672.000000 0.000000
-9894023411049153260791133136716097426858074948371765788672.000000 4768687752495470949834394443004475395923085079895663968256.000000 0.000000
0.000000 0.000000 0.000000
494204774646673492075513443589348636444257455686530629632.000000 -6917759643349626169231132625764349892473305056086186786816.000000 0.000000
-6917759643349626169231132625764349892473305056086186786816.000000 3805993883758656272894753945903741853286976986804729675776.000000 0.000000
0.000000 0.000000 0.000000
20486389365245292383391908424485592149449165247195945893888.000000 -9183543399899827359079720696677763635062920454990356021248.000000 0.000000
-9183543399899827359079720696677763635062920454990356021248.000000 2426761406062945783936599257220255473263802345777042292736.000000 0.000000
0.000000 0.000000 0.000000
-139794645764239665726297259071938265360253126801620992.000000 293910293912252820996149161151502750743027632480190464.000000 0.000000
293910293912252820996149161151502750743027632480190464.000000 169472278861747601887657544420249598495411026004017152.000000 0.000000
0.000000 0.000000 0.000000
-71805510789260827705617206699231146257076844486304773177344.000000 15659235668463991925680962926915630538698022027550705844224.000000 0.000000
15659235668463991925680962926915630538698022027550705844224.000000 5526579535671384356395894428816945992771414998149993857024.000000 0.000000
0.000000 0.000000 0.000000
-79571389227214864832606911450929610019314345440693977088.000000 -11380664528718118403250668933986587151913573114013810688.000000 0.000000
-11380664528718118403250668933986587151913573114013810688.000000 2920839280438660336317989444453250957491887075183558656.000000 0.000000
0.000000 0.000000 0.000000
52146147565038902082153063880922289183587645575764260159488.000000 107938846986368373185766807444113906430665935730484707328.000000 0.000000
107938846986368373185766807444113906430665935730484707328.000000 378319099677544796628903959183244233860029532122120192.000000 0.000000
0.000000 0.000000 0.000000
2079354484353079442770345203617246869381040280009554526208.000000 2704811529128252516558690052679511300059430900182397485056.000000 0.000000
2704811529128252516558690052679511300059430900182397485056.000000 1227363460918090492863517045726298240571625244031641976832.000000 0.000000
0.000000 0.000000 0.000000
8461938400633849594902634531911250314362710769871475441664.000000 -2112857243838445607050677394563574965234816919062313959424.000000 0.000000
-2112857243838445607050677394563574965234816919062313959424.000000 337865605927986533387530765076005295952547957870595932160.000000 0.000000
0.000000 0.000000 0.000000
-3399858683722336376619837613289848933374868255953974722560.000000 2510907573711906758950061773349842661433769182639230550016.000000 0.000000
2510907573711906758950061773349842661433769182639230550016.000000 1440022546237083112680136864425402901265566004341800697856.000000 0.000000
0.000000 0.000000 0.000000
-3192648055921896186633949006830063508234213956239319105536.000000 -1196390955724217566219010858143104281553504312983470211072.000000 0.000000
-1196390955724217566219010858143104281553504312983470211072.000000 556151745666999782859883741776426591205307139844093247488.000000 0.000000
0.000000 0.000000 0.000000
14929386919078784882981064651773732988450640829096132608000.000000 -4798008698521306147733159456894865360519933475611169783808.000000 0.000000
-4798008698521306147733159456894865360519933475611169783808.000000 968617392382759065615589900166846345123282024466493734912.000000 0.000000
0.000000 0.000000 0.000000
-33291843774320138032760257521839058674347433361302118989824.000000 -14976825194495806307818200514269204066624829448430760755200.000000 0.000000
-14976825194495806307818200514269204066624829448430760755200.000000 7473850229365653072142241392285633531249378329272522899456.000000 0.000000
0.000000 0.000000 0.000000
-8873185385539405836514815439064000483306550692645619892224.000000 19761537759294388600234214192266161437152577242678018703360.000000 0.000000
19761537759294388600234214192266161437152577242678018703360.000000 11388101542625614216877741179548326311660483054948558307328.000000 0.000000
0.000000 0.000000 0.000000
51430299000503013323023947896109275333238222226242431614976.000000 -16681233617294299825933453121071701867245064133548498223104.000000 0.000000
-16681233617294299825933453121071701867245064133548498223104.000000 3372017935880858104233887948327648871976162453815820288000.000000 0.000000
0.000000 0.000000 0.000000
-183472997861351751607343531594791469436022670571049865707520.000000 37783374829526024859226553772854265719907933875651706093568.000000 0.000000
37783374829526024859226553772854265719907933875651706093568.000000 12722810631665739245900614071962220519209843980057771507712.000000 0.000000
0.000000 0.000000 0.000000
25583002769443428465953135303951749229108088270011498496.000000 -7437722551815764710314892558514450669757429337974374400.000000 0.000000
-7437722551815764710314892558514450669757429337974374400.000000 1364714507760640711139719038521289953385954311174881280.000000 0.000000
0.000000 0.000000 0.000000
5862622379127783688373550594993634347370623428651384832.000000 -8012230361028600999365366097390731203538510931887652864.000000 0.000000
-8012230361028600999365366097390731203538510931887652864.000000 3724254608036137952782912520315503864825219443895304192.000000 0.000000
0.000000 0.000000 0.000000
1075149828439075191539472935421848764245758411294323507200.000000 742973484266083944968338255171866329438383202622066655232.000000 0.000000
742973484266083944968338255171866329438383202622066655232.000000 278887862464330532062087672484068418445111784242503745536.000000 0.000000
0.000000 0.000000 0.000000
-15244117236771125193236538644621324915157907624360646017024.000000 -8367025483164408702719689467925172153697206269154449948672.000000 0.000000
-8367025483164408702719689467925172153697206269154449948672.000000 4421862737691684756837571877811756279617130652279213391872.000000 0.000000
0.000000 0.000000 0.000000
11808365030823375987829353115502465224036563287729126768640.000000 1792453774544525751723627082031206700912286482293462138880.000000 0.000000
1792453774544525751723627082031206700912286482293462138880.000000 178626400503379723324616933763171991749860465263694053376.000000 0.000000
0.000000 0.000000 0.000000
-70526868344351690752987350775828574980600534614603865260032.000000 -22637938881433185975277327700871910036436353209498832207872.000000 0.000000
-22637938881433185975277327700871910036436353209498832207872.000000 9850785440314800210438127468146386712563933880060687155200.000000 0.000000
0.000000 0.000000 0.000000
20346909940360530301040260873020695449170035507391914573824.000000 -22751222119552156138623942717059469680055566657081487392768.000000 0.000000
-22751222119552156138623942717059469680055566657081487392768.000000 9916549710997545008783525164015530241175702250234386055168.000000 0.000000
0.000000 0.000000 0.000000
-473067311773347358666951365539416419864805467765734375424.000000 59190098295518234669655154599257421853878809519879880704.000000 0.000000
59190098295518234669655154599257421853878809519879880704.000000 12448082189761295166745098891099525002477353282035515392.000000 0.000000
0.000000 0.000000 0.000000
-7350400401738828383719393386172434192071881041967100985344.000000 -25785021978892295691984869727276275107861363301689229049856.000000 0.000000
-25785021978892295691984869727276275107861363301689229049856.000000 14753476254613170617721988357071343359149738226237623500800.000000 0.000000
0.000000 0.000000 0.000000
715258162307386071708436049934857400126114142583139598336.000000 1101684378148270668016712565599412706033594036884881801216.000000 0.000000
1101684378148270668016712565599412706033594036884881801216.000000 527534533030779166115659737908416052186218065910967566336.000000 0.000000
0.000000 0.000000 0.000000
1894537733045428362578973919220055704280047063401152643072.000000 -9216461593714136356516926563709286290217143656493168459776.000000 0.000000
-9216461593714136356516926563709286290217143656493168459776.000000 4992488214781640796575430834443446706439991684685094715392.000000 0.000000
0.000000 0.000000 0.000000
6979670798344444356016840917228796043120226629716042317824.000000 -5551768484441639372668286407482913191058998451301659967488.000000 0.000000
-5551768484441639372668286407482913191058998451301659967488.000000 2117719396342905349229569064643690297574314547800004624384.000000 0.000000
0.000000 0.000000 0.000000
-5483326232850432447089020829355607308611850970150731776.000000 -11121681490468541888594019370095409356179413075014713344.000000 0.000000
-11121681490468541888594019370095409356179413075014713344.000000 6428554371900791565427916987229712673599190214364889088.000000 0.000000
0.000000 0.000000 0.000000
-10764796920073899665109324171873760184818848860502837166080.000000 -16118620467532289689575285914934843604588585445824588152832.000000 0.000000
-16118620467532289689575285914934843604588585445824588152832.000000 9296778773522369803124654448124918991274512452005690081280.000000 0.000000
0.000000 0.000000 0.000000
6547980182766789756908677987559055361829096028944994402304.000000 -6429088855506440412662155811510744383841251717030302711808.000000 0.000000
-6429088855506440412662155811510744383841251717030302711808.000000 2691454717476618586857054181778647345430234319798902194176.000000 0.000000
0.000000 0.000000 0.000000
2773700626871025093126906501143135437709290626365029089280.000000 136770354760263285842405861122092291333700634284935610368.000000 0.000000
136770354760263285842405861122092291333700634284935610368.000000 8799036825645480929886932553083227111948995687130071040.000000 0.000000
0.000000 0.000000 0.000000
1324272216322056257070313243173345382762159720702849056768.000000 390837995146227855328876017443061498485179761276519186432.000000 0.000000
390837995146227855328876017443061498485179761276519186432.000000 72754329045665429931757909068389678094937432285471834112.000000 0.000000
0.000000 0.000000 0.000000
4913979265559608522757210436805495052844923624994969223168.000000 3125146223353573806254943960036389173916479285542439092224.000000 0.000000
3125146223353573806254943960036389173916479285542439092224.000000 1052570631906362335241032020937534157392948927833088983040.000000 0.000000
0.000000 0.000000 0.000000
19570727772280470725016201881107916306478147364038979354624.000000 -81602605871317724291842967894362979442497589995488709443584.000000 0.000000
-81602605871317724291842967894362979442497589995488709443584.000000 43520990764883914306532574206268808776016733341305488277504.000000 0.000000
0.000000 0.000000 0.000000
3222667005883989860366903822723760242762735944272302833664.000000 9571463900771351655941181745735176531759612654041882951680.000000 0.000000
9571463900771351655941181745735176531759612654041882951680.000000 5022281553197306155069168645372815183379497777488774299648.000000 0.000000
0.000000 0.000000 0.000000
7646913430314556742305039980531373258495055371754195124224.000000 -2129997248947205533895537505287378879596382717650139086848.000000 0.000000
-2129997248947205533895537505287378879596382717650139086848.000000 380860484542817633518630681991393458754310443441009459200.000000 0.000000
0.000000 0.000000 0.000000
4674709077827833467608007097722854922394965089557812346880.000000 7926611212710852663530835646596159705211398800857425248256.000000 0.000000
7926611212710852663530835646596159705211398800857425248256.000000 3860709647167367674068263389543799591392550900164512972800.000000 0.000000
0.000000 0.000000 0.000000
-8482240778840755241380990442521586491260879967480205803520.000000 166300888482443968562489806078692147318486450958799732736.000000 0.000000
166300888482443968562489806078692147318486450958799732736.000000 48193686688868540008537019702988781605250066099625525248.000000 0.000000
0.000000 0.000000 0.000000
-608313901760250324690054823384983545321883773544435810304.000000 -4273206947669475527097323613257912385892092659853032423424.000000 0.000000
-4273206947669475527097323613257912385892092659853032423424.000000 2472750985012931949444484865364363248107339502810753400832.000000 0.000000
0.000000 0.000000 0.000000
-62172518566420239794328485508041545071613389695514732134400.000000 -32251010378460066162991096962593553653413244129065232760832.000000 0.000000
-32251010378460066162991096962593553653413244129065232760832.000000 16690191638464494925463815888442538451353457271828125843456.000000 0.000000
0.000000 0.000000 0.000000
-3286812846253142295320154993418785502620884750207534759936.000000 -5834451309092666139553336832594001807305703757212823846912.000000 0.000000
-5834451309092666139553336832594001807305703757212823846912.000000 3367692622904253779448079159258521602984042231231674318848.000000 0.000000
0.000000 0.000000 0.000000
13024519913706023723609977624515284947373389524444964192256.000000 -376346055207339248997404765509814539480476757870912733184.000000 0.000000
-376346055207339248997404765509814539480476757870912733184.000000 12558765731814220139146835633713293196372646593516535808.000000 0.000000
0.000000 0.000000 0.000000
14830798665787751332980313534924403165264054807551811780608.000000 -1991229641737188160966020372602011988836662078269732945920.000000 0.000000
-1991229641737188160966020372602011988836662078269732945920.000000 188408327809578422937468782232490053891483094972519940096.000000 0.000000
0.000000 0.000000 0.000000
4504426712163146746241321150923226882898358562671994863616.000000 1221781346871030747700942709543497254656958764223482036224.000000 0.000000
1221781346871030747700942709543497254656958764223482036224.000000 211445629780549524901478145662157049896544347799783735296.000000 0.000000
0.000000 0.000000 0.000000
-105359105915920279969515588010528983012799472583428800512.000000 -486446594647887361029945034988156051275144201378837037056.000000 0.000000
-486446594647887361029945034988156051275144201378837037056.000000 276976047163559836770670266304373353895445196450943729664.000000 0.000000
0.000000 0.000000 0.000000
-563552472063602994652589251287730088656637969732238888140800.000000 822741225000777358045970385015539257461018538819373236224.000000 0.000000
822741225000777358045970385015539257461018538819373236224.000000 9628252526694798850994428761599466385275940007869153280.000000 0.000000
0.000000 0.000000 0.000000
1230371260365904637855015443735501592881073857894841057280.000000 -758445510096591964370221079581578432840650642393558679552.000000 0.000000
-758445510096591964370221079581578432840650642393558679552.000000 272172300124382151213744889044209305895705379980942770176.000000 0.000000
0.000000 0.000000 0.000000
419027200278030979997701596430175045630438657637929189376.000000 8035615480547911698516676307542550919600340807440155017216.000000 0.000000
8035615480547911698516676307542550919600340807440155017216.000000 4463556204513824538852045602477233985124338976157866131456.000000 0.000000
0.000000 0.000000 0.000000
5765762714589342351395625289500505536880328991894275096576.000000 7786851982658168656496391698285568246164281775971612229632.000000 0.000000
7786851982658168656496391698285568246164281775971612229632.000000 3623964468932396846887723156294208278034080779821188644864.000000 0.000000
0.000000 0.000000 0.000000
-150840155532876728574028593482871609398107719620246057779200.000000 11561011424089975560739156320665536121424443839948051709952.000000 0.000000
11561011424089975560739156320665536121424443839948051709952.000000 1714091038305608281724312196796609888630397536741728714752.000000 0.000000
0.000000 0.000000 0.000000
-27440449684665602988270270276313339686050226474733128384512.000000 13251364759266986992253610498746465375177060140529316003840.000000 0.000000
13251364759266986992253610498746465375177060140529316003840.000000 6712307244156226282399638156697244996049958036206918828032.000000 0.000000
0.000000 0.000000 0.000000
9546593321248946038302285569889098559043585162966883893248.000000 -5583450953498240148565806579084265478432206102137405440000.000000 0.000000
-5583450953498240148565806579084265478432206102137405440000.000000 1773071621440591145125903238809063695751691934174755684352.000000 0.000000
0.000000 0.000000 0.000000
5047502314587898887877331760262501492326626219028446707712.000000 -8279267395398697355228285915084376334650000416213190049792.000000 0.000000
-8279267395398697355228285915084376334650000416213190049792.000000 4004936619128183848679790555711837448179345322379449466880.000000 0.000000
0.000000 0.000000 0.000000
10472162128881630536460975120906111497410578834489832636416.000000 6163387912591433495116805263881391876991990160867761061888.000000 0.000000
6163387912591433495116805263881391876991990160867761061888.000000 1976411289819090973064552265798850292046270116600613961728.000000 0.000000
0.000000 0.000000 0.000000
1912026823159597000202267986941255368569026946162128584704.000000 -4250155573785237764479855893853567416389008269156403904512.000000 0.000000
-4250155573785237764479855893853567416389008269156403904512.000000 2163960890927985547916091529585068324575121772442185367552.000000 0.000000
0.000000 0.000000 0.000000
-13739391276042167013917070150914700538426860226215936.000000 -2174264717008243757562034278758490367163329255833600.000000 0.000000
-2174264717008243757562034278758490367163329255833600.000000 612994708620042511311988408770409059321814420815872.000000 0.000000
0.000000 0.000000 0.000000
11021471343881949667976260303126010561102044921244269150208.000000 3689675424428574648643047121807902202779278735187451576320.000000 0.000000
3689675424428574648643047121807902202779278735187451576320.000000 766370528843784843760721977130985053006734807385172344832.000000 0.000000
0.000000 0.000000 0.000000
4420533138078241879083828645749815677367641501519547727872.000000 2558591447303963571484882853547687271391562931891538493440.000000 0.000000
2558591447303963571484882853547687271391562931891538493440.000000 811454108987935102954190556048419388469757824988748972032.000000 0.000000
0.000000 0.000000 0.000000
15114717542124080553033235067892504786123552662986850041856.000000 -6965347420916313600927353068413203852399037100619993186304.000000 0.000000
-6965347420916313600927353068413203852399037100619993186304.000000 1878709151695203355298553507341454451888056505040101179392.000000 0.000000
0.000000 0.000000 0.000000
30322685237919496373241421674114835283619124863749651955712.000000 -67279897182350801813323849796786868900121316077174626713600.000000 0.000000
-67279897182350801813323849796786868900121316077174626713600.000000 34099190775110511258334715138636960595781635732698027786240.000000 0.000000
0.000000 0.000000 0.000000
-2722367139079898053640165807941300309804823466268707258368.000000 -10387921551870811177729114850702367110469247663749388566528.000000 0.000000
-10387921551870811177729114850702367110469247663749388566528.000000 5957827398851974175537424241500837846006560157028965154816.000000 0.000000
0.000000 0.000000 0.000000
10311624450992671590028267714919300826197728834019420798976.000000 2343723025441722007460587716839080460346749988340603289600.000000 0.000000
2343723025441722007460587716839080460346749988340603289600.000000 344761533211181520364004088360765927368239886017536983040.000000 0.000000
0.000000 0.000000 0.000000
11806319247412200158820068258890736133896365580467411353600.000000 -2420622827425017650747913191394470410871826340955442642944.000000 0.000000
-2420622827425017650747913191394470410871826340955442642944.000000 339005363639319679541623055408098843532056166425115492352.000000 0.000000
0.000000 0.000000 0.000000
-480662909274463684627406635943406437472566974911868829696.000000 -132688576729591257418724232454362296988719206642378342400.000000 0.000000
-132688576729591257418724232454362296988719206642378342400.000000 38858927300303321668790052974805638251486484499294846976.000000 0.000000
0.000000 0.000000 0.000000
17284668746372558551285425903797367366268146702951565492224.000000 -5715542969099619188514892307730963019883940344336660561920.000000 0.000000
-5715542969099619188514892307730963019883940344336660561920.000000 1174579422809239228335579610076905993970426906167117611008.000000 0.000000
0.000000 0.000000 0.000000
-16529464684485817815574289158420064831081535950655127027712.000000 1866008980662314410140638444142973580068217663799504666624.000000 0.000000
1866008980662314410140638444142973580068217663799504666624.000000 400037217349168815529572011521100620485645567999759876096.000000 0.000000
0.000000 0.000000 0.000000
17768527429227601229683745494756977008255965982311049068544.000000 9657195982242526729453100162619189015189274420630547070976.000000 0.000000
9657195982242526729453100162619189015189274420630547070976.000000 2938975774766358408942488257314861727902328793626505641984.000000 0.000000
0.000000 0.000000 0.000000
1829563298393789062357219559001287391502222813259311874048.000000 -387099401643508481079786027428043695845868581451506647040.000000 0.000000
-387099401643508481079786027428043695845868581451506647040.000000 77364030247911266575655671915711919366523559560119058432.000000 0.000000
0.000000 0.000000 0.000000
5496188891071159262173946558272591284268960562774705963008.000000 312884466908148413494264798515252607070058826486266200064.000000 0.000000
312884466908148413494264798515252607070058826486266200064.000000 11847554615059821121266092007999590599765105060203200512.000000 0.000000
0.000000 0.000000 0.000000
27514370886695143066448507355442498950712452703012522033152.000000 -11147434135402129381017063880868086216311831786263425318912.000000 0.000000
-11147434135402129381017063880868086216311831786263425318912.000000 2716085462631442629309684180670157852678586987793711366144.000000 0.000000
0.000000 0.000000 0.000000
8650307364751201333698563653343603849559483164467023314944.000000 -241085879935208513917253085107721003860960601490822529024.000000 0.000000
-241085879935208513917253085107721003860960601490822529024.000000 17386972755177677801704984969735001789884860869650677760.000000 0.000000
0.000000 0.000000 0.000000
29569394416332200253663084144091507459099614904625680875520.000000 6753358940970413431600971134803797112429420581861982208000.000000 0.000000
6753358940970413431600971134803797112429420581861982208000.000000 1004310942048716342564323564658511091804236737620117291008.000000 0.000000
0.000000 0.000000 0.000000
9142306512926088770396605339849976236510214116864270794752.000000 -10869857717739265018930496574475322834063185649824184664064.000000 0.000000
-10869857717739265018930496574475322834063185649824184664064.000000 4861840947706648530101348125281153471241532526095996289024.000000 0.000000
0.000000 0.000000 0.000000
-10560319816221255164490206422221283025117632680409601933312.000000 -7247100750408792479817528272287097834484860366002581405696.000000 0.000000
-7247100750408792479817528272287097834484860366002581405696.000000 3997885266282013472241729153270759247677256663041929379840.000000 0.000000
0.000000 0.000000 0.000000
2534929760852399118781724008301878111670713811742343823360.000000 -5985328198474700744670725987721354498841846601324198625280.000000 0.000000
-5985328198474700744670725987721354498841846601324198625280.000000 3081655886305964448771940419771563748366050624443043020800.000000 0.000000
0.000000 0.000000 0.000000
-40568298017409721893372881498196486323812282109280649216.000000 132462032161832403595280744604126339865475587015710867456.000000 0.000000
132462032161832403595280744604126339865475587015710867456.000000 79223298919836203855973949019833565261631382537732358144.000000 0.000000
0.000000 0.000000 0.000000
709979685172710226953369857824291393513491280383002542080.000000 -5108261764214862615929867289033950105595709226489382699008.000000 0.000000
-5108261764214862615929867289033950105595709226489382699008.000000 2777931109823323590789315720746228218063137938925349240832.000000 0.000000
0.000000 0.000000 0.000000
39782656514170178666521689957524731131973242649619145424896.000000 29647600590801387372161751447229577117917002255697474224128.000000 0.000000
29647600590801387372161751447229577117917002255697474224128.000000 10936184531331325874807751412922013291596967379606733586432.000000 0.000000
0.000000 0.000000 0.000000
15931584845614119666425855062333888924054861336215270981632.000000 -2926619724970917257051482504412897337183264283840852525056.000000 0.000000
-2926619724970917257051482504412897337183264283840852525056.000000 357820623224956831675566994608888458845902676756474626048.000000 0.000000
0.000000 0.000000 0.000000
7873393883728881839110741418289018524086046806606656569344.000000 -129362627358077510389937768731815446896910823768396398592.000000 0.000000
-129362627358077510389937768731815446896910823768396398592.000000 24267197988689291650356930106539920718814384597080473600.000000 0.000000
0.000000 0.000000 0.000000
27013829363986197079037522303945523799079536942360656084992.000000 28948312613110717816946754539543670221772726146641011146752.000000 0.000000
28948312613110717816946754539543670221772726146641011146752.000000 12518516687563887296879009843263689649044646572977113006080.000000 0.000000
0.000000 0.000000 0.000000
3335633137074527079961760904729912354288361727048881799168.000000 12840734059597564634525245404300391410206677214676312391680.000000 0.000000
12840734059597564634525245404300391410206677214676312391680.000000 6819126273291278944055474855648264590930441374520880136192.000000 0.000000
0.000000 0.000000 0.000000
5314805462520769156300214080119702723325820855633156505600.000000 -13472063699801138830394586598915655197739411869057767440384.000000 0.000000
-13472063699801138830394586598915655197739411869057767440384.000000 6930128602040530492660580022172853561362967370781056565248.000000 0.000000
0.000000 0.000000 0.000000
-4840775140501695408301920299619410887663996819378716803072.000000 -20383912665695979837820987696307444629596958995385400950784.000000 0.000000
-20383912665695979837820987696307444629596958995385400950784.000000 11634073543080488371837207042693789921698908671275448664064.000000 0.000000
0.000000 0.000000 0.000000
44037757935311159743849499621726324846389180408245780480.000000 -6755838468094778355873014704338343658027079633083564032.000000 0.000000
-6755838468094778355873014704338343658027079633083564032.000000 680199278045810454753420802176636078224409659288059904.000000 0.000000
0.000000 0.000000 0.000000
-445170704274646736340428488947763222625490627525479279624192.000000 38293122561920919336291703280198905455971444584089917587456.000000 0.000000
38293122561920919336291703280198905455971444584089917587456.000000 6313185823356794533609102653779756705678956699506647760896.000000 0.000000
0.000000 0.000000 0.000000
21201022501602646199675950316640806108890119053548118343680.000000 38911424942734675901016594876438135308747629569272212094976.000000 0.000000
38911424942734675901016594876438135308747629569272212094976.000000 19199139440301318554606702769668835654097898021135853813760.000000 0.000000
0.000000 0.000000 0.000000
13859482316810887646012763991441336645717099442166128705536.000000 -12338130750461098030637838915097473950060028818936314200064.000000 0.000000
-12338130750461098030637838915097473950060028818936314200064.000000 4974214026515233580181524318157002317206926853605714558976.000000 0.000000
0.000000 0.000000 0.000000
-103081714109931682125225468235677327959874765114882708733952.000000 14227575816275152814812629287872232973972560719118990311424.000000 0.000000
14227575816275152814812629287872232973972560719118990311424.000000 3547260484947423665725497641927847681957381433236658323456.000000 0.000000
0.000000 0.000000 0.000000
12163340286244082479382920789516264507213511399955989790720.000000 -4955561190844189870750247925678909265509830148829776707584.000000 0.000000
-4955561190844189870750247925678909265509830148829776707584.000000 1243979938176310632776668459217705625313449905460860682240.000000 0.000000
0.000000 0.000000 0.000000
1649975400381662134752450948684261469483515962875076149248.000000 1271459547852552585823375510917639919894337150645711142912.000000 0.000000
1271459547852552585823375510917639919894337150645711142912.000000 477325996359457170308719692879978263965157501766364823552.000000 0.000000
0.000000 0.000000 0.000000
-304282210838240159921318059389440715642885238112116539392.000000 136459669728636206750464516582162748050367254211738992640.000000 0.000000
136459669728636206750464516582162748050367254211738992640.000000 67609571070544062325409849987646422211882371417412468736.000000 0.000000
0.000000 0.000000 0.000000
6518620534389209985554811785636060159927536380741265915904.000000 1026707949481136391348427076244319772672629157129839706112.000000 0.000000
1026707949481136391348427076244319772672629157129839706112.000000 106041024969018711349633485074575133434230256927460294656.000000 0.000000
0.000000 0.000000 0.000000
-4283458355293835249368888370994456736904965927454427207172096.000000 214597760102360309257256222003866750512039449403125657501696.000000 0.000000
214597760102360309257256222003866750512039449403125657501696.000000 21182103060783580784893881216586272614983329508027659190272.000000 0.000000
0.000000 0.000000 0.000000
-51410385150026233030615578347233814493170586211321401835520.000000 16639053315559997579392216040803277483584773168477132292096.000000 0.000000
16639053315559997579392216040803277483584773168477132292096.000000 7261305049705004366611604185412883943512856822036303970304.000000 0.000000
0.000000 0.000000 0.000000
288106191079514938465557940436921714634320178456813371392.000000 483520841931329868014543320900130934286476427937647165440.000000 0.000000
483520841931329868014543320900130934286476427937647165440.000000 281535178854422433739698065554829930481408871957591490560.000000 0.000000
0.000000 0.000000 0.000000
24319463215468706589202135118551244380450355526573752320.000000 2015789498318429754118502370480394258405444079434334208.000000 0.000000
2015789498318429754118502370480394258405444079434334208.000000 110873301631017426074029729319923920722415265471528960.000000 0.000000
0.000000 0.000000 0.000000
14759251905449879878014549350051409520854625501605636603904.000000 -1587813688888972860350064440670176498961972547625722839040.000000 0.000000
-1587813688888972860350064440670176498961972547625722839040.000000 113375021628802037201583119113082991019406565280936099840.000000 0.000000
0.000000 0.000000 0.000000
6115824458647286753802496264293005534140636205011831881728.000000 27935009989500969503300025872987294806741066180859841740800.000000 0.000000
27935009989500969503300025872987294806741066180859841740800.000000 14963783618151245577698445253249210801230732590626319106048.000000 0.000000
0.000000 0.000000 0.000000
-130312917980084543850016735400713698009323964918321381376.000000 -1275826631443186594840234161697850729156369926583582982144.000000 0.000000
-1275826631443186594840234161697850729156369926583582982144.000000 718474768869399744854551887502495290361334114163598819328.000000 0.000000
0.000000 0.000000 0.000000
93907130679724642090261633340881759865857588948686077952.000000 11337067511563481873173732646916977580384060767127732224.000000 0.000000
11337067511563481873173732646916977580384060767127732224.000000 903579056244445947007751856558010920418732370378620928.000000 0.000000
0.000000 0.000000 0.000000
-134696281227762556388779766798391578259697967882844504064.000000 -82364897836653890351577013842734556583633599177649291264.000000 0.000000
-82364897836653890351577013842734556583633599177649291264.000000 43953529993956591075780431622694264560679682613375401984.000000 0.000000
0.000000 0.000000 0.000000
16968994298537779159142424676905253835047606968857881739264.000000 4170706416269761838409787003180839095595011049378059124736.000000 0.000000
4170706416269761838409787003180839095595011049378059124736.000000 657841528538493524243428036907925737046094028930019229696.000000 0.000000
0.000000 0.000000 0.000000
5764574518610751551627182253574871908961305771343823765504.000000 8673309619913829494799177607656557243972077823074676768768.000000 0.000000
8673309619913829494799177607656557243972077823074676768768.000000 4131226440331626732468048361624577883103116121309102211072.000000 0.000000
0.000000 0.000000 0.000000
-46762329798004677405371231942573245796207931223743397888.000000 1014968729015884716375993046020230222510637454988167610368.000000 0.000000
1014968729015884716375993046020230222510637454988167610368.000000 567879668469590921120146423987603810237994034700725780480.000000 0.000000
0.000000 0.000000 0.000000
12571354814574183798104190298179070634763834262522158907392.000000 -15788745119081783253213159251558360829248818798153380659200.000000 0.000000
-15788745119081783253213159251558360829248818798153380659200.000000 7176090563776869431447248051344779115861345830661846466560.000000 0.000000
0.000000 0.000000 0.000000
-13501553281117636944799147839594859084741924638684849635328.000000 -13858181317914075310964730702637969757120919003201972207616.000000 0.000000
-13858181317914075310964730702637969757120919003201972207616.000000 7896030867788419988307081121814565551449406726758520061952.000000 0.000000
0.000000 0.000000 0.000000
5364099459917822139262284393047146592571204073129766813696.000000 -15877673903557248574358242386733369989281087081794878046208.000000 0.000000
-15877673903557248574358242386733369989281087081794878046208.000000 8283198371743792984532933158084765894727479190757279006720.000000 0.000000
0.000000 0.000000 0.000000
798294979991304374605456784653032771323635350949035245568.000000 -1400161680010535270536023793913322082479804234852355538944.000000 0.000000
-1400161680010535270536023793913322082479804234852355538944.000000 689010211392857702045743287735557804848135278538503749632.000000 0.000000
0.000000 0.000000 0.000000
8168200423217872345029133179786348563541919279521692909568.000000 -11104863796808351778628471126490549496783745990068688388096.000000 0.000000
-11104863796808351778628471126490549496783745990068688388096.000000 5194643071098794997252949425238004715079936617185282097152.000000 0.000000
0.000000 0.000000 0.000000
1352876301836350793836675505779832130830204685311262326784.000000 -2752018086980042141905906665075180363075797513071941910528.000000 0.000000
-2752018086980042141905906665075180363075797513071941910528.000000 1379036402276586735252120454645673477577202844354496954368.000000 0.000000
0.000000 0.000000 0.000000
-20062453755174985654264642546877667337678251175454965760.000000 2693146947729340241369966307192485266306752001708526665728.000000 0.000000
2693146947729340241369966307192485266306752001708526665728.000000 1500767319421969223477414510757010949239242061035190878208.000000 0.000000
0.000000 0.000000 0.000000
40353203100206698375857562029706829630872337303867314143232.000000 4800482604934133803485692908543374337607510546678332522496.000000 0.000000
4800482604934133803485692908543374337607510546678332522496.000000 377260545788797104085106496679481698313411433404928360448.000000 0.000000
0.000000 0.000000 0.000000
50783676416998652758454757831267558722275157082977100365824.000000 -27890690848359484459262635512464810900715715225883886223360.000000 0.000000
-27890690848359484459262635512464810900715715225883886223360.000000 8544466604148685962082662645208828235969623322039039295488.000000 0.000000
0.000000 0.000000 0.000000
2492599687484138675966427330052798130943998300619752341504.000000 -350919375213841135567741827386156413764871452427527651328.000000 0.000000
-350919375213841135567741827386156413764871452427527651328.000000 32695520234463895589682147565777369865291337188283252736.000000 0.000000
0.000000 0.000000 0.000000
3513376413763659965673287548003175848150549822796896141312.000000 2195470957986852179714225465186696955625071502926089814016.000000 0.000000
2195470957986852179714225465186696955625071502926089814016.000000 731489021224777174327199232607628040860741951227420475392.000000 0.000000
0.000000 0.000000 0.000000
25027368565472930839082443113781321369477543424758508421120.000000 -32604661878663412666535231462987438806642383761314502672384.000000 0.000000
-32604661878663412666535231462987438806642383761314502672384.000000 14968196782844055934636777927401743896670805837394690965504.000000 0.000000
0.000000 0.000000 0.000000
479545018807099048945909121705971278400985370311530643456.000000 -529234174759885475336230214159427478858266617199464546304.000000 0.000000
-529234174759885475336230214159427478858266617199464546304.000000 243728233374581448525714120787355811215889299301067653120.000000 0.000000
0.000000 0.000000 0.000000
-81925195703042514994218498484296198003287286572424101888.000000 23024024899640875540290061881182791413981151087353420316672.000000 0.000000
23024024899640875540290061881182791413981151087353420316672.000000 12807572407966956808532257771224714834292386475721573269504.000000 0.000000
0.000000 0.000000 0.000000
357814906210454979777774162958741488517536417324212420608.000000 326035480887994979228289765522758069692797189032257781760.000000 0.000000
326035480887994979228289765522758069692797189032257781760.000000 134290518393090426582412663514783077445678595439977299968.000000 0.000000
0.000000 0.000000 0.000000
1897501082395613525142788426621927158636492897170489344.000000 -550357792634253718194055841264522951435997838141554688.000000 0.000000
-550357792634253718194055841264522951435997838141554688.000000 100907702583549662920729912556689453420411019205804032.000000 0.000000
0.000000 0.000000 0.000000
-2165167302964452030339380495338433808509583310658811723776.000000 -5592221430311154293902031496446828292379588314253571915776.000000 0.000000
-5592221430311154293902031496446828292379588314253571915776.000000 3216336268432656063247812283521185472040827311929836961792.000000 0.000000
0.000000 0.000000 0.000000
876557746291890399992947165466533284469850778198618406912.000000 -612336785444302814947104878725233918087235370228195000320.000000 0.000000
-612336785444302814947104878725233918087235370228195000320.000000 217988146052118155919744563414779376622738337577731883008.000000 0.000000
0.000000 0.000000 0.000000
1683592635424646258301581834204620117695886599054478540800.000000 1209153825840538718198619795715468639766039692375758995456.000000 0.000000
1209153825840538718198619795715468639766039692375758995456.000000 437139971674510586340327890195055024910443719991826055168.000000 0.000000
0.000000 0.000000 0.000000
511306677387128203247904692822447563518199292395140415488.000000 -167034849134930352120283906758009456927811157806595178496.000000 0.000000
-167034849134930352120283906758009456927811157806595178496.000000 33285072266362492404607032363703868178671221091136962560.000000 0.000000
0.000000 0.000000 0.000000
223384889011552774113135866052225652374855761557838626816.000000 165218241212175800728146720480358362460173077253206310912.000000 0.000000
165218241212175800728146720480358362460173077253206310912.000000 70985095566646493080617228981851934609401675951506456576.000000 0.000000
0.000000 0.000000 0.000000
2504251279019569365388678550389607592400486840903223214080.000000 -955946166992881041232701954095853472978651240874570153984.000000 0.000000
-955946166992881041232701954095853472978651240874570153984.000000 222711801884188142149236166143484857870693721843664158720.000000 0.000000
0.000000 0.000000 0.000000
-15257606222672909148044825601895904053410760988855107584.000000 -7712817646578848122900279051885937448391258651540586496.000000 0.000000
-7712817646578848122900279051885937448391258651540586496.000000 3956127769438156087490154524321244834255820072884895744.000000 0.000000
0.000000 0.000000 0.000000
2799860100382531897490916329213246941621885157324653330432.000000 -3046572306603132520506580584267469355081021249421102284800.000000 0.000000
-3046572306603132520506580584267469355081021249421102284800.000000 1324402787945268732898323118693340572070858305789589716992.000000 0.000000
0.000000 0.000000 0.000000
-213186614512852076682065876097164697330764057689988880400384.000000 -11956477609808263423934591947662334950646737564866959114240.000000 0.000000
-11956477609808263423934591947662334950646737564866959114240.000000 1315976864050001111375662326607770801582492983845348966400.000000 0.000000
0.000000 0.000000 0.000000
21474030016413016167842826615616927238956068473160073216.000000 -8498291207177356574497789597337411594162215752053030912.000000 0.000000
-8498291207177356574497789597337411594162215752053030912.000000 2248781265802363113847883576813131386285598736449011712.000000 0.000000
0.000000 0.000000 0.000000
-2818209161780094146284228858842062638621240333929807872.000000 9584228717365711925535795721914049145045078609223483392.000000 0.000000
9584228717365711925535795721914049145045078609223483392.000000 5486875305840318652510210067102219235689211669075984384.000000 0.000000
0.000000 0.000000 0.000000
15481058250406332849625800466020518635490599924897337573376.000000 -954867336009606663470491654895393204408745799592089485312.000000 0.000000
-954867336009606663470491654895393204408745799592089485312.000000 40938852518981054892409679353371944858405506305304297472.000000 0.000000
0.000000 0.000000 0.000000
6631680484047591855399050821290463717288056444850683248640.000000 -1993500489869156762217560270108685083281343183541709570048.000000 0.000000
-1993500489869156762217560270108685083281343183541709570048.000000 380635736935294679069816858154682078163626435572752449536.000000 0.000000
0.000000 0.000000 0.000000
-32390164511450416364129719862070303585644019698930548736.000000 -71495541844379571085059317297088544294536577810264227840.000000 0.000000
-71495541844379571085059317297088544294536577810264227840.000000 41206453776342482473031373708055076346290980105287106560.000000 0.000000
0.000000 0.000000 0.000000
3849531867732461664691147331583701581360577255791103311872.000000 -7040618847121676113239164527945868614371649860250527334400.000000 0.000000
-7040618847121676113239164527945868614371649860250527334400.000000 3470370039932425614920736145843594591513520538847134351360.000000 0.000000
0.000000 0.000000 0.000000
-6720600742729833726217267789657118140085749249377436696576.000000 -6073232757101077067405093287236800069549495663794336038912.000000 0.000000
-6073232757101077067405093287236800069549495663794336038912.000000 3457535864493024960156975119389599735696279187085141737472.000000 0.000000
0.000000 0.000000 0.000000
15719929912976173476644634567760725162398892967103299584.000000 20572768695695693728514436216560179432779928943533752320.000000 0.000000
20572768695695693728514436216560179432779928943533752320.000000 9455899560986196415485953370228107163612149058986049536.000000 0.000000
0.000000 0.000000 0.000000
16844463608673895444374931782048461827450621334405899091968.000000 -5457123869929177756676779326888594771918995698181327552512.000000 0.000000
-5457123869929177756676779326888594771918995698181327552512.000000 1102851827620428070460084813772450734515518105186558017536.000000 0.000000
0.000000 0.000000 0.000000
8733549706839083796057548243012898615391583846743706435584.000000 -1165878340595513486829595882820788200870536892859302281216.000000 0.000000
-1165878340595513486829595882820788200870536892859302281216.000000 109975104921990271952473686900465652242414744883592953856.000000 0.000000
0.000000 0.000000 0.000000
-34157435475214847312267104602891803879766861212358497271808.000000 28592815431295921046655513310573041587829611745729291747328.000000 0.000000
28592815431295921046655513310573041587829611745729291747328.000000 16028975036888425079732565393932622463538730649169952768000.000000 0.000000
0.000000 0.000000 0.000000
7702898117258492053341168374131302543763267670336526614528.000000 6926025450231840984689388760829517081970581032405175369728.000000 0.000000
6926025450231840984689388760829517081970581032405175369728.000000 2796985564632367226804553565927231393292580693325255802880.000000 0.000000
0.000000 0.000000 0.000000
1002433988709013861207673531245168735045047200354681225216.000000 3525929530710142422138379724253960904389895186154185031680.000000 0.000000
3525929530710142422138379724253960904389895186154185031680.000000 1862186397164361664266984503832074661538138287313040441344.000000 0.000000
0.000000 0.000000 0.000000
14290308849298121059116162509849320036718033217832443969536.000000 -31010784804188338780879046724168348495915706725457402527744.000000 0.000000
-31010784804188338780879046724168348495915706725457402527744.000000 15727388940180717384752831411535003905895582085636002152448.000000 0.000000
0.000000 0.000000 0.000000
