# vtk DataFile Version 2.0
Test
ASCII
DATASET POLYDATA
POINTS 1437 float
0.000000 0.000000 0.000000
30.000000 0.000000 0.000000
30.000000 100.000000 0.000000
0.000000 100.000000 0.000000
16.400000 50.000000 0.000000
2.142857 0.000000 0.000000
4.285714 0.000000 0.000000
6.428571 0.000000 0.000000
8.571429 0.000000 0.000000
10.714286 0.000000 0.000000
12.857143 0.000000 0.000000
15.000000 0.000000 0.000000
17.142857 0.000000 0.000000
19.285714 0.000000 0.000000
21.428571 0.000000 0.000000
23.571429 0.000000 0.000000
25.714286 0.000000 0.000000
27.857143 0.000000 0.000000
30.000000 2.040816 0.000000
30.000000 4.081633 0.000000
30.000000 6.122449 0.000000
30.000000 8.163265 0.000000
30.000000 10.204082 0.000000
30.000000 12.244898 0.000000
30.000000 14.285714 0.000000
30.000000 16.326531 0.000000
30.000000 18.367347 0.000000
30.000000 20.408163 0.000000
30.000000 22.448980 0.000000
30.000000 24.489796 0.000000
30.000000 26.530612 0.000000
30.000000 28.571429 0.000000
30.000000 30.612245 0.000000
30.000000 32.653061 0.000000
30.000000 34.693878 0.000000
30.000000 36.734694 0.000000
30.000000 38.775510 0.000000
30.000000 40.816327 0.000000
30.000000 42.857143 0.000000
30.000000 44.897959 0.000000
30.000000 46.938776 0.000000
30.000000 48.979592 0.000000
30.000000 51.020408 0.000000
30.000000 53.061224 0.000000
30.000000 55.102041 0.000000
30.000000 57.142857 0.000000
30.000000 59.183673 0.000000
30.000000 61.224490 0.000000
30.000000 63.265306 0.000000
30.000000 65.306122 0.000000
30.000000 67.346939 0.000000
30.000000 69.387755 0.000000
30.000000 71.428571 0.000000
30.000000 73.469388 0.000000
30.000000 75.510204 0.000000
30.000000 77.551020 0.000000
30.000000 79.591837 0.000000
30.000000 81.632653 0.000000
30.000000 83.673469 0.000000
30.000000 85.714286 0.000000
30.000000 87.755102 0.000000
30.000000 89.795918 0.000000
30.000000 91.836735 0.000000
30.000000 93.877551 0.000000
30.000000 95.918367 0.000000
30.000000 97.959184 0.000000
27.857143 100.000000 0.000000
25.714286 100.000000 0.000000
23.571429 100.000000 0.000000
21.428571 100.000000 0.000000
19.285714 100.000000 0.000000
17.142857 100.000000 0.000000
15.000000 100.000000 0.000000
12.857143 100.000000 0.000000
10.714286 100.000000 0.000000
8.571429 100.000000 0.000000
6.428571 100.000000 0.000000
4.285714 100.000000 0.000000
2.142857 100.000000 0.000000
0.000000 97.959184 0.000000
0.000000 95.918367 0.000000
0.000000 93.877551 0.000000
0.000000 91.836735 0.000000
0.000000 89.795918 0.000000
0.000000 87.755102 0.000000
0.000000 85.714286 0.000000
0.000000 83.673469 0.000000
0.000000 81.632653 0.000000
0.000000 79.591837 0.000000
0.000000 77.551020 0.000000
0.000000 75.510204 0.000000
0.000000 73.469388 0.000000
0.000000 71.428571 0.000000
0.000000 69.387755 0.000000
0.000000 67.346939 0.000000
0.000000 65.306122 0.000000
0.000000 63.265306 0.000000
0.000000 61.224490 0.000000
0.000000 59.183673 0.000000
0.000000 57.142857 0.000000
0.000000 55.102041 0.000000
0.000000 53.061224 0.000000
0.000000 51.020408 0.000000
0.000000 48.979592 0.000000
0.000000 46.938776 0.000000
0.000000 44.897959 0.000000
0.000000 42.857143 0.000000
0.000000 40.816327 0.000000
0.000000 38.775510 0.000000
0.000000 36.734694 0.000000
0.000000 34.693878 0.000000
0.000000 32.653061 0.000000
0.000000 30.612245 0.000000
0.000000 28.571429 0.000000
0.000000 26.530612 0.000000
0.000000 24.489796 0.000000
0.000000 22.448980 0.000000
0.000000 20.408163 0.000000
0.000000 18.367347 0.000000
0.000000 16.326531 0.000000
0.000000 14.285714 0.000000
0.000000 12.244898 0.000000
0.000000 10.204082 0.000000
0.000000 8.163265 0.000000
0.000000 6.122449 0.000000
0.000000 4.081633 0.000000
0.000000 2.040816 0.000000
16.388506 50.179028 0.000000
16.354213 50.355116 0.000000
16.297683 50.525374 0.000000
16.219846 50.687005 0.000000
16.121979 50.837355 0.000000
16.005689 50.973956 0.000000
15.872886 51.094564 0.000000
15.725750 51.197200 0.000000
15.566697 51.280178 0.000000
15.398339 51.342135 0.000000
15.223440 51.382054 0.000000
15.044872 51.399281 0.000000
14.865568 51.393531 0.000000
14.688471 51.364899 0.000000
14.516489 51.313856 0.000000
14.352446 51.241239 0.000000
14.199037 51.148241 0.000000
14.058779 51.036389 0.000000
13.933976 50.907520 0.000000
13.826677 50.763749 0.000000
13.738644 50.607437 0.000000
13.671322 50.441152 0.000000
13.625817 50.267622 0.000000
13.602876 50.089698 0.000000
13.602876 49.910302 0.000000
13.625817 49.732378 0.000000
13.671322 49.558848 0.000000
13.738644 49.392563 0.000000
13.826677 49.236251 0.000000
13.933976 49.092480 0.000000
14.058779 48.963611 0.000000
14.199037 48.851759 0.000000
14.352446 48.758761 0.000000
14.516489 48.686144 0.000000
14.688471 48.635101 0.000000
14.865568 48.606469 0.000000
15.044872 48.600719 0.000000
15.223440 48.617946 0.000000
15.398339 48.657865 0.000000
15.566697 48.719822 0.000000
15.725750 48.802800 0.000000
15.872886 48.905436 0.000000
16.005689 49.026044 0.000000
16.121979 49.162645 0.000000
16.219846 49.312995 0.000000
16.297683 49.474626 0.000000
16.354213 49.644884 0.000000
16.388506 49.820972 0.000000
16.142290 51.090246 0.000000
16.381031 49.246029 0.000000
16.476220 50.570036 0.000000
16.567534 49.809478 0.000000
13.432060 49.919357 0.000000
27.959184 67.346939 0.000000
15.062546 51.587060 0.000000
27.959184 79.591837 0.000000
2.040816 20.408163 0.000000
2.040816 30.612245 0.000000
2.040816 81.632653 0.000000
2.040816 69.387755 0.000000
27.959184 16.326531 0.000000
27.959184 24.489796 0.000000
27.959184 32.653061 0.000000
2.000226 63.022103 0.000000
2.040816 38.775510 0.000000
27.959184 38.775510 0.000000
2.063520 56.953992 0.000000
27.959184 59.183673 0.000000
15.000000 97.857143 0.000000
15.000000 2.142857 0.000000
27.959184 44.897959 0.000000
27.959184 51.020408 0.000000
2.058026 48.891267 0.000000
2.040816 12.244898 0.000000
27.959184 8.163265 0.000000
2.119286 91.907213 0.000000
27.959184 87.755102 0.000000
8.571429 2.142857 0.000000
21.428571 97.857143 0.000000
2.040816 6.122449 0.000000
27.959184 93.877551 0.000000
23.571429 2.142857 0.000000
6.428571 97.857143 0.000000
2.040816 44.897959 0.000000
15.808727 51.356253 0.000000
2.040816 77.551020 0.000000
27.959184 71.428571 0.000000
2.040816 26.530612 0.000000
4.285714 2.142857 0.000000
25.714286 97.857143 0.000000
2.021897 52.958989 0.000000
27.959184 53.061224 0.000000
27.914278 55.273576 0.000000
27.959184 61.224490 0.000000
27.879705 47.169173 0.000000
2.040816 36.734694 0.000000
1.985319 42.671502 0.000000
2.040816 4.081633 0.000000
27.959184 95.918367 0.000000
27.842785 41.012410 0.000000
27.904213 63.341606 0.000000
1.981595 60.897410 0.000000
2.040816 34.693878 0.000000
2.142857 97.857143 0.000000
27.857143 2.142857 0.000000
21.428571 2.142857 0.000000
8.571429 97.857143 0.000000
19.285714 2.142857 0.000000
10.714286 97.857143 0.000000
12.857143 2.142857 0.000000
17.142857 97.857143 0.000000
2.040816 73.469388 0.000000
2.040816 85.714286 0.000000
27.959184 28.571429 0.000000
27.957036 12.244796 0.000000
27.959184 20.408163 0.000000
27.959184 75.510204 0.000000
27.959184 81.632653 0.000000
2.040816 24.489796 0.000000
2.040816 18.367347 0.000000
2.101567 67.270721 0.000000
27.990742 34.718564 0.000000
2.040816 16.326531 0.000000
2.040816 10.204082 0.000000
2.040816 89.795918 0.000000
27.959184 83.673469 0.000000
27.959184 89.795918 0.000000
2.098379 2.081372 0.000000
27.901617 97.918624 0.000000
28.130079 4.091715 0.000000
1.869924 95.908287 0.000000
16.576970 50.167357 0.000000
25.954712 32.689406 0.000000
4.048051 69.354174 0.000000
4.081633 24.489796 0.000000
25.916213 79.588913 0.000000
4.086221 18.371935 0.000000
3.897904 34.877606 0.000000
3.923124 61.572806 0.000000
26.128612 39.133691 0.000000
26.214823 61.491956 0.000000
3.871989 43.375621 0.000000
26.265426 45.355943 0.000000
26.372982 51.593494 0.000000
15.011971 95.726257 0.000000
14.987483 4.273197 0.000000
4.095212 12.258477 0.000000
25.904714 87.741449 0.000000
8.590547 95.733404 0.000000
4.124327 91.817489 0.000000
23.644909 4.177846 0.000000
1.898679 46.664421 0.000000
1.887660 50.867252 0.000000
28.104743 49.216969 0.000000
28.091622 57.507646 0.000000
1.793213 54.763850 0.000000
1.898425 40.673936 0.000000
28.092220 43.114891 0.000000
1.898792 59.041649 0.000000
26.349643 53.492500 0.000000
3.788008 38.504633 0.000000
26.348185 4.174096 0.000000
28.073402 36.848913 0.000000
3.770644 95.809804 0.000000
1.947709 64.759841 0.000000
27.961478 65.481833 0.000000
2.032166 32.492602 0.000000
21.409200 4.266343 0.000000
6.436167 2.135262 0.000000
23.563887 97.864684 0.000000
17.151762 2.133952 0.000000
12.848401 97.865884 0.000000
10.720797 2.136346 0.000000
19.279431 97.863426 0.000000
25.741048 2.116095 0.000000
4.208553 97.884202 0.000000
2.040816 71.428571 0.000000
27.959184 73.469388 0.000000
2.040044 28.570656 0.000000
2.040816 79.591837 0.000000
2.040816 75.510204 0.000000
27.959184 30.612245 0.000000
27.959184 69.387755 0.000000
27.959184 77.551020 0.000000
2.040816 22.448980 0.000000
27.959184 22.448980 0.000000
27.959252 26.530681 0.000000
27.959184 18.367347 0.000000
2.040816 83.673469 0.000000
27.959184 14.285714 0.000000
25.913747 81.628033 0.000000
2.043283 87.757569 0.000000
2.046930 14.291828 0.000000
27.956122 10.201020 0.000000
27.953028 85.708130 0.000000
2.051111 8.173560 0.000000
27.948877 91.826428 0.000000
27.877535 6.025956 0.000000
2.132881 93.976795 0.000000
4.000357 6.267740 0.000000
4.120886 4.222927 0.000000
25.999609 93.732219 0.000000
25.879089 95.777048 0.000000
15.649674 48.560769 0.000000
26.010158 67.277614 0.000000
25.918367 24.489796 0.000000
4.081633 79.591837 0.000000
25.916050 16.328010 0.000000
23.873553 79.584761 0.000000
3.481175 55.433151 0.000000
24.733850 51.947925 0.000000
3.652422 50.744354 0.000000
25.910700 12.249504 0.000000
23.509255 6.363423 0.000000
26.366938 49.758281 0.000000
26.399277 43.548901 0.000000
3.661711 59.758281 0.000000
25.957156 34.691433 0.000000
10.699495 4.264413 0.000000
19.300303 95.735157 0.000000
17.109994 4.256463 0.000000
12.860039 95.741544 0.000000
25.918367 71.428571 0.000000
4.081633 75.510204 0.000000
4.081051 71.394408 0.000000
4.082695 22.452337 0.000000
4.101940 14.313488 0.000000
25.897715 85.686136 0.000000
4.098775 10.200519 0.000000
25.900922 89.799710 0.000000
3.484993 40.079859 0.000000
26.104841 46.997441 0.000000
26.094660 40.880576 0.000000
26.217182 37.055706 0.000000
26.283778 59.646794 0.000000
3.394990 47.531927 0.000000
3.704894 44.917521 0.000000
26.589189 56.610962 0.000000
3.896163 33.117193 0.000000
4.081633 30.612245 0.000000
4.081633 26.530612 0.000000
25.925339 8.209651 0.000000
6.124956 95.705249 0.000000
26.056738 64.934647 0.000000
3.837443 65.195708 0.000000
3.643332 63.322448 0.000000
26.181899 63.192966 0.000000
19.294998 4.257059 0.000000
10.706283 95.741406 0.000000
26.301437 55.150246 0.000000
12.863256 4.267083 0.000000
17.136818 95.732295 0.000000
25.918367 28.571429 0.000000
25.922292 30.652514 0.000000
6.508559 4.176475 0.000000
23.491534 95.823372 0.000000
4.048622 67.346368 0.000000
25.918367 73.469388 0.000000
25.918367 77.551020 0.000000
25.918367 20.408163 0.000000
4.082867 81.631419 0.000000
4.087811 85.710574 0.000000
4.083002 20.414121 0.000000
4.090228 89.806980 0.000000
4.086073 16.326679 0.000000
25.912810 83.674407 0.000000
3.917278 36.754068 0.000000
14.878780 48.427563 0.000000
4.121149 8.218141 0.000000
25.878782 91.781783 0.000000
25.877030 6.294134 0.000000
4.191064 93.660458 0.000000
3.706610 41.587650 0.000000
24.360874 63.474693 0.000000
5.368991 63.172792 0.000000
5.674069 34.909097 0.000000
6.109733 24.502512 0.000000
6.088864 69.353595 0.000000
6.132398 16.325610 0.000000
23.981312 34.665250 0.000000
5.376427 43.319631 0.000000
23.882585 71.433605 0.000000
6.124736 79.588316 0.000000
24.776210 45.416620 0.000000
24.946431 56.614079 0.000000
10.752083 6.375586 0.000000
12.894743 93.625460 0.000000
23.836000 87.699130 0.000000
6.155926 89.782091 0.000000
19.248565 93.623411 0.000000
6.164366 12.302233 0.000000
23.886460 30.607260 0.000000
23.877559 77.543952 0.000000
15.993494 48.772633 0.000000
5.251211 40.260448 0.000000
6.178688 93.732220 0.000000
3.877467 52.261786 0.000000
23.990247 8.280891 0.000000
17.186835 6.364626 0.000000
21.413206 6.362392 0.000000
3.711363 57.087486 0.000000
24.548632 37.413315 0.000000
5.712568 65.433508 0.000000
5.793943 32.523932 0.000000
24.589986 59.837123 0.000000
24.813004 53.682843 0.000000
5.250488 60.030776 0.000000
3.697518 48.909379 0.000000
24.119046 65.396539 0.000000
24.581314 40.691301 0.000000
10.603714 93.717869 0.000000
4.068917 28.558713 0.000000
4.081027 73.434619 0.000000
8.607507 4.236797 0.000000
21.392703 95.762913 0.000000
5.512345 38.522043 0.000000
17.126865 93.618251 0.000000
12.870913 6.383653 0.000000
25.921385 69.390773 0.000000
6.123796 22.456285 0.000000
25.918367 75.510204 0.000000
25.919947 26.532192 0.000000
4.081633 77.551021 0.000000
25.918367 22.448980 0.000000
25.918055 18.367035 0.000000
6.126108 20.415041 0.000000
23.865516 81.626176 0.000000
4.094668 87.761959 0.000000
25.903092 10.196473 0.000000
4.085158 83.675760 0.000000
25.916212 14.283559 0.000000
23.851875 83.638664 0.000000
6.166237 10.285603 0.000000
23.833198 89.714059 0.000000
6.100145 6.368968 0.000000
23.899708 93.630706 0.000000
3.849996 53.640692 0.000000
26.304700 57.958096 0.000000
26.390976 48.299874 0.000000
26.662179 42.156926 0.000000
24.928849 50.372815 0.000000
13.812511 49.014983 0.000000
6.961847 40.150704 0.000000
7.220966 63.583340 0.000000
8.149957 24.495948 0.000000
23.871440 16.336385 0.000000
22.546365 63.639938 0.000000
7.533761 34.314286 0.000000
23.539398 53.218806 0.000000
4.879497 50.090533 0.000000
23.877395 24.489952 0.000000
21.837403 77.544605 0.000000
4.942273 54.893282 0.000000
14.042009 51.239805 0.000000
21.957799 8.394841 0.000000
10.796003 91.534377 0.000000
6.137275 83.658457 0.000000
19.389985 91.656620 0.000000
10.642977 8.412362 0.000000
24.862291 43.842084 0.000000
23.887457 69.399677 0.000000
23.901485 28.589395 0.000000
23.882196 73.469776 0.000000
21.816253 81.579636 0.000000
5.179307 44.681010 0.000000
14.210175 48.650784 0.000000
21.781554 87.648985 0.000000
8.115148 12.462592 0.000000
8.650546 6.363441 0.000000
21.350405 93.635979 0.000000
24.663411 55.112128 0.000000
24.480994 61.756706 0.000000
8.023152 93.717055 0.000000
23.611367 50.645005 0.000000
24.922753 46.689466 0.000000
24.939931 48.967472 0.000000
5.138432 47.437222 0.000000
25.210225 42.253593 0.000000
15.083357 6.376675 0.000000
23.974703 32.674592 0.000000
24.018641 67.390173 0.000000
6.071740 28.533435 0.000000
6.032696 30.572869 0.000000
5.838095 36.820875 0.000000
19.313303 6.356962 0.000000
24.567791 39.067474 0.000000
5.934916 67.348646 0.000000
15.007592 93.613408 0.000000
6.109735 26.530614 0.000000
6.121468 71.394012 0.000000
6.121217 73.470014 0.000000
23.877083 22.449448 0.000000
23.876771 20.408631 0.000000
6.132219 18.371608 0.000000
8.164746 22.457893 0.000000
23.879217 75.504801 0.000000
6.122447 77.547502 0.000000
23.842069 85.655271 0.000000
23.863821 14.301895 0.000000
6.125976 81.631425 0.000000
24.747281 58.245451 0.000000
6.161833 14.324055 0.000000
6.156358 87.744384 0.000000
5.495841 61.447891 0.000000
14.375028 51.419444 0.000000
5.313717 41.826386 0.000000
6.202877 8.383179 0.000000
23.796848 91.616228 0.000000
23.850972 12.298467 0.000000
23.897727 10.313937 0.000000
6.162642 91.852046 0.000000
5.223624 58.441069 0.000000
13.628586 49.241874 0.000000
2.786570 54.199171 0.000000
5.093535 51.130499 0.000000
5.387914 52.233716 0.000000
3.358323 58.372731 0.000000
24.678812 35.893973 0.000000
13.607142 50.739267 0.000000
22.941442 41.026261 0.000000
23.223788 58.324579 0.000000
23.506071 46.765140 0.000000
6.482216 44.584016 0.000000
8.099406 69.355946 0.000000
6.357803 51.489803 0.000000
22.132765 34.570382 0.000000
21.884366 69.430514 0.000000
10.192943 24.500200 0.000000
8.163184 77.547578 0.000000
21.829594 16.348760 0.000000
21.836354 24.490489 0.000000
17.181425 8.462694 0.000000
7.654894 36.253489 0.000000
22.760177 61.916415 0.000000
6.728181 59.905241 0.000000
6.727014 41.596743 0.000000
12.864459 8.477611 0.000000
23.654334 49.356826 0.000000
8.007345 30.508084 0.000000
21.902053 28.606170 0.000000
8.137542 26.525713 0.000000
8.177006 81.607427 0.000000
21.794374 83.590324 0.000000
7.186926 38.525330 0.000000
7.015107 61.839380 0.000000
5.338531 56.651487 0.000000
19.872151 8.442610 0.000000
8.073424 89.599073 0.000000
8.271438 10.346690 0.000000
21.677622 89.640501 0.000000
23.449478 42.463540 0.000000
23.325650 51.972959 0.000000
23.330042 44.183491 0.000000
23.482458 55.740324 0.000000
5.148041 48.818759 0.000000
22.916720 37.715653 0.000000
22.015822 32.583921 0.000000
5.370442 53.547470 0.000000
7.507431 65.450312 0.000000
23.896408 26.568497 0.000000
8.160817 73.433612 0.000000
17.111241 91.511375 0.000000
22.292825 65.495872 0.000000
12.895571 91.525891 0.000000
21.867085 71.444405 0.000000
21.840385 75.505773 0.000000
23.876297 18.366873 0.000000
21.835560 22.450155 0.000000
8.248460 20.346607 0.000000
7.751615 32.465326 0.000000
8.179687 18.373078 0.000000
6.122212 75.510593 0.000000
21.807868 14.311537 0.000000
21.825204 79.544809 0.000000
6.150539 85.692882 0.000000
5.134328 46.040850 0.000000
21.779006 85.615406 0.000000
8.199717 16.395014 0.000000
8.224250 14.413504 0.000000
21.795834 12.397585 0.000000
21.699169 10.521320 0.000000
8.336322 91.561994 0.000000
8.133293 8.293858 0.000000
21.867399 91.706531 0.000000
23.516586 54.541985 0.000000
14.453896 48.556442 0.000000
25.238225 47.787622 0.000000
14.195523 51.302253 0.000000
22.958862 36.215682 0.000000
8.144178 41.549260 0.000000
8.421890 60.301761 0.000000
22.353255 54.162532 0.000000
22.464967 50.846703 0.000000
6.554031 48.817472 0.000000
21.044218 61.921272 0.000000
9.470408 34.412306 0.000000
19.896736 69.445945 0.000000
19.808323 75.512543 0.000000
10.221840 20.423287 0.000000
19.779021 79.496142 0.000000
19.775124 16.420730 0.000000
20.236331 34.461634 0.000000
19.795086 24.491422 0.000000
10.240021 16.469720 0.000000
6.413503 45.848624 0.000000
9.056013 63.626981 0.000000
10.165013 26.527671 0.000000
21.835011 20.408395 0.000000
19.674844 83.449691 0.000000
14.297504 48.455887 0.000000
22.349999 43.088950 0.000000
22.951502 60.196152 0.000000
9.021800 38.116547 0.000000
13.488444 50.412650 0.000000
6.365724 50.317585 0.000000
6.104654 55.080214 0.000000
18.986056 89.489607 0.000000
6.699509 57.246979 0.000000
10.044108 89.521230 0.000000
6.601349 43.002505 0.000000
10.776634 10.563823 0.000000
19.201430 10.542748 0.000000
23.606551 57.055676 0.000000
23.283637 45.471428 0.000000
23.009116 39.542705 0.000000
23.832626 47.983859 0.000000
22.107680 67.447639 0.000000
15.057387 8.467088 0.000000
21.878659 26.546718 0.000000
7.788147 67.381749 0.000000
20.781556 63.691942 0.000000
6.822586 58.427025 0.000000
8.162715 75.507075 0.000000
21.851491 73.475068 0.000000
9.702112 32.457152 0.000000
15.011124 91.520063 0.000000
21.917862 30.606984 0.000000
8.157559 71.390001 0.000000
8.072002 28.525975 0.000000
8.189608 83.659761 0.000000
10.208953 22.458613 0.000000
21.830076 18.393231 0.000000
8.165398 79.588241 0.000000
8.204106 85.655068 0.000000
8.212602 87.685542 0.000000
22.247762 52.043814 0.000000
10.281506 14.600909 0.000000
19.858600 87.627281 0.000000
19.768295 14.405443 0.000000
21.235482 35.786207 0.000000
22.055492 42.090022 0.000000
3.552023 46.248317 0.000000
6.477218 52.631238 0.000000
14.074613 51.468753 0.000000
21.267521 43.206749 0.000000
7.623500 49.895400 0.000000
7.454519 45.456673 0.000000
21.425923 51.623124 0.000000
19.361609 61.974414 0.000000
9.742125 67.387394 0.000000
19.951424 30.585322 0.000000
10.178004 71.399416 0.000000
10.202151 75.508143 0.000000
10.215226 79.565717 0.000000
10.248198 83.596478 0.000000
11.433770 34.358749 0.000000
19.659779 36.124614 0.000000
12.179625 26.525518 0.000000
12.330199 22.397486 0.000000
12.379252 16.414770 0.000000
17.653408 16.572879 0.000000
22.785660 47.586351 0.000000
7.869402 42.860172 0.000000
22.191123 56.893194 0.000000
21.406815 60.365026 0.000000
20.149475 67.520403 0.000000
19.845856 26.522525 0.000000
19.833442 73.494494 0.000000
10.069707 28.525376 0.000000
22.416736 49.749231 0.000000
7.460504 51.703671 0.000000
8.504576 39.859453 0.000000
8.319729 58.828183 0.000000
6.142505 46.759018 0.000000
22.247990 55.335280 0.000000
12.138980 89.165857 0.000000
17.914119 87.426583 0.000000
20.501555 65.594878 0.000000
9.496715 36.254127 0.000000
21.453194 39.077570 0.000000
21.596484 40.733754 0.000000
14.940569 10.545587 0.000000
16.964368 10.537124 0.000000
9.347761 65.498670 0.000000
8.621300 61.895188 0.000000
19.866367 71.473464 0.000000
22.239990 45.093362 0.000000
20.085298 32.542839 0.000000
19.792146 20.435077 0.000000
9.960094 30.507728 0.000000
12.859253 10.560230 0.000000
19.755888 85.526995 0.000000
19.783344 18.420410 0.000000
19.794302 22.450164 0.000000
17.066556 89.326025 0.000000
19.795951 77.496775 0.000000
22.136729 44.061282 0.000000
19.763883 81.477675 0.000000
10.233900 18.523933 0.000000
21.140825 37.504092 0.000000
19.893126 12.404498 0.000000
10.186732 12.619033 0.000000
10.207936 87.508327 0.000000
22.312564 53.030694 0.000000
6.717193 53.961431 0.000000
6.742458 56.121620 0.000000
21.677005 58.660720 0.000000
13.589769 50.546941 0.000000
7.741061 44.214374 0.000000
13.464216 50.616384 0.000000
9.731885 41.136364 0.000000
20.771535 57.274625 0.000000
8.490613 45.067810 0.000000
9.770659 59.143020 0.000000
10.909450 63.350601 0.000000
18.269947 67.566536 0.000000
17.861750 71.474869 0.000000
17.779913 75.435925 0.000000
18.286676 34.422817 0.000000
17.740798 79.435896 0.000000
17.931061 26.036097 0.000000
17.751471 22.477908 0.000000
11.993406 86.711078 0.000000
19.799139 60.341528 0.000000
21.244001 54.730634 0.000000
21.388285 52.675732 0.000000
12.183673 18.409634 0.000000
17.904275 14.697684 0.000000
14.937172 12.623506 0.000000
20.195854 40.358456 0.000000
19.156221 37.692705 0.000000
15.971062 87.354230 0.000000
7.670109 47.668472 0.000000
22.283335 46.855371 0.000000
12.497769 12.516127 0.000000
10.099674 39.603104 0.000000
11.326083 36.218072 0.000000
7.587670 52.882251 0.000000
7.602988 55.066063 0.000000
8.205827 57.600085 0.000000
21.520459 50.660827 0.000000
11.200897 65.480608 0.000000
21.158313 44.526039 0.000000
19.917008 28.573413 0.000000
10.188569 73.446985 0.000000
10.107031 69.353833 0.000000
19.055881 63.775158 0.000000
9.979963 60.454699 0.000000
15.030091 89.429578 0.000000
12.063477 28.521896 0.000000
11.642173 32.450128 0.000000
17.710887 81.477091 0.000000
12.233194 24.486911 0.000000
12.348198 14.417529 0.000000
10.207948 77.534361 0.000000
20.813159 41.775923 0.000000
18.135238 32.534665 0.000000
10.231889 81.583041 0.000000
17.790086 18.857560 0.000000
12.268043 20.263178 0.000000
17.754728 12.524423 0.000000
17.695072 83.522785 0.000000
17.763346 85.427074 0.000000
10.264455 85.656827 0.000000
8.820647 43.882350 0.000000
21.139207 55.958668 0.000000
7.329007 46.709657 0.000000
7.262855 50.785023 0.000000
21.362822 53.706851 0.000000
9.152980 42.529334 0.000000
22.666549 48.546495 0.000000
19.997708 42.720216 0.000000
9.935453 43.443779 0.000000
20.298905 55.292628 0.000000
20.557708 52.296448 0.000000
8.413521 51.971256 0.000000
11.253178 59.742807 0.000000
18.344843 60.443324 0.000000
12.510949 63.822848 0.000000
13.376062 50.795308 0.000000
12.194346 69.609129 0.000000
12.137227 73.802319 0.000000
13.266774 35.914998 0.000000
12.354395 77.371553 0.000000
15.570282 81.157153 0.000000
9.276905 56.768396 0.000000
17.926610 28.516085 0.000000
14.066417 28.531066 0.000000
15.487165 85.063526 0.000000
10.915829 40.435770 0.000000
14.205293 26.529933 0.000000
16.356414 34.470521 0.000000
14.348169 24.430784 0.000000
14.300444 22.468969 0.000000
14.214024 20.463572 0.000000
14.338414 18.528045 0.000000
12.275711 79.523779 0.000000
12.276331 81.544532 0.000000
14.357292 16.475358 0.000000
13.104567 34.145465 0.000000
12.309176 83.595850 0.000000
21.259966 45.407997 0.000000
10.839131 38.035403 0.000000
18.688418 65.626666 0.000000
9.591784 44.777881 0.000000
21.296096 49.784683 0.000000
21.398977 46.874424 0.000000
10.083488 61.990333 0.000000
17.983654 30.585260 0.000000
11.650226 67.428015 0.000000
20.594933 51.387278 0.000000
17.935745 69.502373 0.000000
17.678127 61.994429 0.000000
17.793213 36.330390 0.000000
11.928024 30.489825 0.000000
17.714892 24.320786 0.000000
17.638297 73.445268 0.000000
17.756835 77.396780 0.000000
18.028161 20.703249 0.000000
20.255031 43.935113 0.000000
20.379419 54.313924 0.000000
7.933531 56.400666 0.000000
20.422535 58.893288 0.000000
15.815976 14.836234 0.000000
8.280065 50.838455 0.000000
13.284558 50.557202 0.000000
11.663219 84.968960 0.000000
9.078122 45.887169 0.000000
7.826578 53.942857 0.000000
16.006397 18.582932 0.000000
19.701456 41.632086 0.000000
20.094516 38.804836 0.000000
21.717299 47.786848 0.000000
14.020261 87.168140 0.000000
14.146818 14.622322 0.000000
20.499408 53.327593 0.000000
10.397307 42.274427 0.000000
22.646028 46.030523 0.000000
19.272818 43.494399 0.000000
10.673454 44.193049 0.000000
13.122384 50.744545 0.000000
19.519165 54.741257 0.000000
19.804380 51.985680 0.000000
9.137345 51.239811 0.000000
17.776570 37.947859 0.000000
16.704981 60.634159 0.000000
19.687352 57.729439 0.000000
13.368895 67.503124 0.000000
12.801308 38.087834 0.000000
13.971901 30.512311 0.000000
13.267924 50.331371 0.000000
15.989487 69.502298 0.000000
15.857555 71.451203 0.000000
8.792296 54.371752 0.000000
15.789840 73.443897 0.000000
15.750812 75.369138 0.000000
11.265259 61.323052 0.000000
16.003038 77.408426 0.000000
16.823206 65.659908 0.000000
16.322296 36.223027 0.000000
20.826485 48.485949 0.000000
13.529375 50.962152 0.000000
10.982401 58.231536 0.000000
9.990519 45.794936 0.000000
18.636350 40.995957 0.000000
16.003580 32.382339 0.000000
17.344079 63.825391 0.000000
8.645174 53.039147 0.000000
12.947977 65.530577 0.000000
12.049109 72.173263 0.000000
13.543201 32.471576 0.000000
20.374875 45.164146 0.000000
15.936278 79.415766 0.000000
19.614641 53.830879 0.000000
12.200779 75.516685 0.000000
16.007785 30.322203 0.000000
9.073497 55.600853 0.000000
20.676059 50.545301 0.000000
15.970465 28.419413 0.000000
20.208040 56.401263 0.000000
8.677880 49.988306 0.000000
15.853522 82.673711 0.000000
8.162433 46.155518 0.000000
16.115013 26.406294 0.000000
16.308481 24.505451 0.000000
18.912542 42.317302 0.000000
21.631832 48.931676 0.000000
14.286139 77.517569 0.000000
16.188761 22.980853 0.000000
19.181537 59.006020 0.000000
16.333669 20.834067 0.000000
14.306527 79.498459 0.000000
15.649829 16.853705 0.000000
14.968672 36.207508 0.000000
14.166993 81.354495 0.000000
11.558615 39.494344 0.000000
14.125777 83.266107 0.000000
13.333460 85.173408 0.000000
12.664947 62.258933 0.000000
19.791833 52.867707 0.000000
21.742244 46.088515 0.000000
18.526488 39.391355 0.000000
11.200639 43.178038 0.000000
18.266160 43.118423 0.000000
11.764165 44.063257 0.000000
18.695660 54.139700 0.000000
9.324854 50.532839 0.000000
9.480077 53.661749 0.000000
13.161463 39.922661 0.000000
9.621993 46.659925 0.000000
16.889712 39.283543 0.000000
12.324608 59.001106 0.000000
20.527255 47.512687 0.000000
19.162557 52.492828 0.000000
14.217585 63.483201 0.000000
14.557630 37.801643 0.000000
18.414413 58.011042 0.000000
8.578613 49.035985 0.000000
20.504533 49.751157 0.000000
9.340541 52.113240 0.000000
10.399435 55.952810 0.000000
15.896601 62.369781 0.000000
20.646526 46.265566 0.000000
8.565534 47.040842 0.000000
19.174252 56.754469 0.000000
14.857041 65.893928 0.000000
10.014697 54.758370 0.000000
13.392193 50.140757 0.000000
16.412445 67.592022 0.000000
19.870929 51.195965 0.000000
14.038380 69.407389 0.000000
19.528164 44.619035 0.000000
11.738238 42.135677 0.000000
12.812193 60.382387 0.000000
17.871425 41.886648 0.000000
13.827574 71.433500 0.000000
13.046316 50.463260 0.000000
13.243285 51.041841 0.000000
19.413704 55.740076 0.000000
13.809389 73.446906 0.000000
16.237600 37.670984 0.000000
13.725099 75.491856 0.000000
14.547260 34.291607 0.000000
17.703442 59.219529 0.000000
13.713818 50.903029 0.000000
15.827702 64.246442 0.000000
10.243336 57.146715 0.000000
10.495991 45.079863 0.000000
19.053152 53.276450 0.000000
20.873765 49.185248 0.000000
12.844168 50.664110 0.000000
10.962866 55.153057 0.000000
18.212182 53.494494 0.000000
17.258246 42.774937 0.000000
10.022217 52.847173 0.000000
17.062435 57.933784 0.000000
13.438753 51.197620 0.000000
12.212752 57.735694 0.000000
19.910058 46.859393 0.000000
9.916938 51.244622 0.000000
14.344550 39.419241 0.000000
14.246505 60.238021 0.000000
18.442936 56.041372 0.000000
20.028294 48.476540 0.000000
13.887098 51.109272 0.000000
13.275027 49.914017 0.000000
11.322732 44.937686 0.000000
12.118402 40.937426 0.000000
11.311346 56.895935 0.000000
13.079606 50.158378 0.000000
14.434107 61.763730 0.000000
19.715898 45.838173 0.000000
19.148732 51.732031 0.000000
9.238974 47.714924 0.000000
19.911209 50.446426 0.000000
18.510577 52.903174 0.000000
7.618889 49.023274 0.000000
10.323769 53.967598 0.000000
18.647693 44.261756 0.000000
16.480658 59.238527 0.000000
18.716561 55.144341 0.000000
13.678611 51.138782 0.000000
17.489815 40.503110 0.000000
15.572420 38.968663 0.000000
12.938615 50.968535 0.000000
10.305235 46.433776 0.000000
17.909105 56.974746 0.000000
10.980332 41.383933 0.000000
14.837819 67.821848 0.000000
9.511106 49.736871 0.000000
9.525661 58.002296 0.000000
20.243897 49.101525 0.000000
15.268937 60.893569 0.000000
19.103649 46.410052 0.000000
12.154971 45.109861 0.000000
17.748362 53.044060 0.000000
19.369476 48.351635 0.000000
12.622029 50.896359 0.000000
10.801278 53.241784 0.000000
13.009685 42.171929 0.000000
15.677880 58.131868 0.000000
17.790902 55.408661 0.000000
13.578172 58.771972 0.000000
12.368106 56.526923 0.000000
15.826242 40.323323 0.000000
13.587155 51.371096 0.000000
9.465277 49.091021 0.000000
13.509920 49.563275 0.000000
14.453948 40.783165 0.000000
18.590754 52.181825 0.000000
19.230336 51.021474 0.000000
16.861091 56.679505 0.000000
10.996953 45.809594 0.000000
18.941145 45.337040 0.000000
17.808798 54.014866 0.000000
17.899828 54.648482 0.000000
19.829731 49.695700 0.000000
8.326209 48.277906 0.000000
16.741858 41.573916 0.000000
19.707306 47.765502 0.000000
10.143244 47.322548 0.000000
12.789977 50.341969 0.000000
10.316569 52.014259 0.000000
17.735915 43.956858 0.000000
12.988057 51.205543 0.000000
10.202002 50.529327 0.000000
15.101175 59.457749 0.000000
13.855186 51.332704 0.000000
13.448983 49.765429 0.000000
17.527738 56.155788 0.000000
11.674613 55.813718 0.000000
10.893710 54.465072 0.000000
13.412345 41.170763 0.000000
13.783480 51.598883 0.000000
17.364463 53.590269 0.000000
11.417666 53.842825 0.000000
16.789897 43.677434 0.000000
10.934300 52.490514 0.000000
15.863126 56.988568 0.000000
18.405798 45.962865 0.000000
14.266807 42.004752 0.000000
12.545424 55.323075 0.000000
19.000435 47.808167 0.000000
13.279411 49.642049 0.000000
16.789912 55.565239 0.000000
10.684743 51.358554 0.000000
10.939788 46.827363 0.000000
18.010538 52.515859 0.000000
18.581720 51.494915 0.000000
13.252448 57.321256 0.000000
10.400573 49.775356 0.000000
19.255637 50.376173 0.000000
16.196094 42.645957 0.000000
17.103222 54.284424 0.000000
18.160125 45.044728 0.000000
12.516129 43.299718 0.000000
19.370757 49.027802 0.000000
13.230231 51.381316 0.000000
19.242868 47.171163 0.000000
12.531130 50.557141 0.000000
12.760049 50.035242 0.000000
14.416377 57.929494 0.000000
13.594321 49.422503 0.000000
11.704126 45.563787 0.000000
7.358242 48.350751 0.000000
12.744480 51.136130 0.000000
15.431684 41.700210 0.000000
17.218213 54.948704 0.000000
9.411523 48.545541 0.000000
17.627515 45.666183 0.000000
16.720551 53.797118 0.000000
12.236497 45.951709 0.000000
17.061597 53.149969 0.000000
15.945287 55.996968 0.000000
10.869592 50.329786 0.000000
12.278247 50.816121 0.000000
11.214068 51.824935 0.000000
11.124919 47.697222 0.000000
15.775635 43.530892 0.000000
18.463252 47.067482 0.000000
14.247820 51.629657 0.000000
10.331421 48.223372 0.000000
14.924007 57.145400 0.000000
11.749549 54.603508 0.000000
16.507201 54.836714 0.000000
11.566734 46.359522 0.000000
18.094408 51.903036 0.000000
13.212055 56.071862 0.000000
13.432456 49.395577 0.000000
18.603428 50.851526 0.000000
17.378473 52.665556 0.000000
19.155431 49.698865 0.000000
13.586278 51.855089 0.000000
18.790824 48.518385 0.000000
12.987785 49.637177 0.000000
17.331645 44.813550 0.000000
11.480348 52.973378 0.000000
10.138169 49.073321 0.000000
13.011411 49.853488 0.000000
12.761810 51.417312 0.000000
6.698721 47.623765 0.000000
12.464125 50.202942 0.000000
15.098166 42.826410 0.000000
12.439877 51.161335 0.000000
13.884212 43.176417 0.000000
16.909466 45.458920 0.000000
16.152438 54.258540 0.000000
12.026602 53.308837 0.000000
16.728017 52.668177 0.000000
13.345067 55.034917 0.000000
12.748632 45.430150 0.000000
11.749160 52.237773 0.000000
12.125708 46.728242 0.000000
12.278560 51.513442 0.000000
13.310444 44.113248 0.000000
11.918673 51.102765 0.000000
15.010870 56.101293 0.000000
13.041562 51.679354 0.000000
13.346791 49.144657 0.000000
14.464575 51.653830 0.000000
14.050930 51.763086 0.000000
18.377781 48.004476 0.000000
18.094125 51.300169 0.000000
17.932659 46.530935 0.000000
18.693762 50.266879 0.000000
16.512697 53.326079 0.000000
15.776577 55.169175 0.000000
11.262599 48.385158 0.000000
11.009583 49.870436 0.000000
17.625437 52.173070 0.000000
18.699994 49.145398 0.000000
15.574398 44.403797 0.000000
16.473062 44.560621 0.000000
11.305146 51.238932 0.000000
10.956304 48.899646 0.000000
14.825931 43.785207 0.000000
13.194079 49.382044 0.000000
12.253532 50.446858 0.000000
12.396571 49.848143 0.000000
12.686589 49.734069 0.000000
12.728755 54.431669 0.000000
17.900212 47.627262 0.000000
14.147460 56.774954 0.000000
17.646504 47.070508 0.000000
16.013232 53.678466 0.000000
13.822163 51.957059 0.000000
18.166385 48.680963 0.000000
13.378236 54.315805 0.000000
12.294005 49.495908 0.000000
13.032789 49.112684 0.000000
14.705914 44.638234 0.000000
14.874754 51.569335 0.000000
14.806793 55.132499 0.000000
11.458053 50.306864 0.000000
13.552161 48.977396 0.000000
12.814457 46.283695 0.000000
18.087277 50.799141 0.000000
17.071286 52.297088 0.000000
11.680167 47.125964 0.000000
17.197945 46.304635 0.000000
12.551339 44.462572 0.000000
18.590162 49.706531 0.000000
16.268439 52.878384 0.000000
17.681472 51.610382 0.000000
14.304831 51.851575 0.000000
15.371731 54.414388 0.000000
16.224565 45.375958 0.000000
17.904872 48.247927 0.000000
14.108973 55.649661 0.000000
11.669673 48.919442 0.000000
11.776850 51.646053 0.000000
11.896565 50.588524 0.000000
12.592082 51.787847 0.000000
12.631174 49.412195 0.000000
10.864279 50.791753 0.000000
12.944466 49.378276 0.000000
14.100465 44.121762 0.000000
13.444759 51.623175 0.000000
12.203348 52.729729 0.000000
10.892635 49.447408 0.000000
12.050339 50.060778 0.000000
14.541902 51.490016 0.000000
17.028005 46.911888 0.000000
12.708745 46.982619 0.000000
15.433608 53.769110 0.000000
17.710332 48.980041 0.000000
16.513923 52.258656 0.000000
14.874035 51.771525 0.000000
17.525276 47.940597 0.000000
12.844724 52.034340 0.000000
12.574891 53.124499 0.000000
13.438207 45.703477 0.000000
11.907433 48.324342 0.000000
12.604665 49.027900 0.000000
13.941357 44.959417 0.000000
11.917195 49.573962 0.000000
13.551008 52.162845 0.000000
14.603445 51.889151 0.000000
18.169011 50.291339 0.000000
12.380941 52.208700 0.000000
15.396497 45.260873 0.000000
13.275085 51.940076 0.000000
17.290909 51.864795 0.000000
15.860724 53.186992 0.000000
17.681259 51.082684 0.000000
18.167847 49.231634 0.000000
13.047289 53.626200 0.000000
11.448875 49.758112 0.000000
14.561679 54.288151 0.000000
14.044970 54.738967 0.000000
16.507255 46.065095 0.000000
12.155519 51.878763 0.000000
13.246532 48.846138 0.000000
14.674530 51.623126 0.000000
14.089140 52.065167 0.000000
11.916613 47.768262 0.000000
13.205180 44.893102 0.000000
11.383234 50.777262 0.000000
16.464244 46.696696 0.000000
15.106482 51.802148 0.000000
14.876494 53.769563 0.000000
14.105969 48.363905 0.000000
16.154864 52.484590 0.000000
17.757726 49.425269 0.000000
14.692530 45.454761 0.000000
13.868247 53.902712 0.000000
13.097596 52.884579 0.000000
13.410067 46.555587 0.000000
17.536568 48.543069 0.000000
12.878342 48.864047 0.000000
12.196635 49.176258 0.000000
16.810417 51.977126 0.000000
15.305813 53.230941 0.000000
14.877127 52.008157 0.000000
17.286803 47.444950 0.000000
17.323167 51.361254 0.000000
12.700940 52.515882 0.000000
13.181035 52.351204 0.000000
17.664933 50.566507 0.000000
18.011940 49.786671 0.000000
15.745309 45.934567 0.000000
14.351155 52.137451 0.000000
12.368087 47.429353 0.000000
12.118052 48.798846 0.000000
12.257459 53.822923 0.000000
13.496616 48.730532 0.000000
14.143649 45.676366 0.000000
11.552393 48.074286 0.000000
13.837969 52.227717 0.000000
11.376936 49.319714 0.000000
15.886542 46.576126 0.000000
17.192280 48.221247 0.000000
13.298056 47.154955 0.000000
17.314509 49.148025 0.000000
15.156291 52.061888 0.000000
16.329272 51.938985 0.000000
14.769223 53.188065 0.000000
14.422382 48.274796 0.000000
12.715137 47.841940 0.000000
13.346390 48.494870 0.000000
13.975922 48.602089 0.000000
17.602806 49.857908 0.000000
14.662310 46.179140 0.000000
13.607820 52.606658 0.000000
13.614280 53.184309 0.000000
12.552001 48.572004 0.000000
15.691634 52.716604 0.000000
16.700212 47.320474 0.000000
15.438258 51.517034 0.000000
16.987112 51.588757 0.000000
17.329139 50.894668 0.000000
15.248434 51.590077 0.000000
13.032816 48.554527 0.000000
12.385823 48.034651 0.000000
14.617674 52.157741 0.000000
15.164729 45.858584 0.000000
17.738220 50.162003 0.000000
13.710849 48.844009 0.000000
14.025666 52.403050 0.000000
13.968603 46.241007 0.000000
14.201818 48.109284 0.000000
17.439152 50.192118 0.000000
16.035921 52.147935 0.000000
14.893862 52.371179 0.000000
13.871172 46.880107 0.000000
13.274157 48.159952 0.000000
14.668344 48.456935 0.000000
17.328525 49.526278 0.000000
15.108970 52.774353 0.000000
17.195115 48.757354 0.000000
16.206577 47.154176 0.000000
13.787074 48.447824 0.000000
16.966761 47.792036 0.000000
17.006906 51.146006 0.000000
16.564802 51.680225 0.000000
15.381789 51.761942 0.000000
15.661912 51.466398 0.000000
14.220847 53.185255 0.000000
12.823239 48.168034 0.000000
15.325879 46.496563 0.000000
13.969955 52.771266 0.000000
14.065250 48.747264 0.000000
17.238427 50.520784 0.000000
12.908160 47.499900 0.000000
14.417241 52.554495 0.000000
14.410159 46.801051 0.000000
14.497148 48.030964 0.000000
16.903309 48.485442 0.000000
15.920353 51.534959 0.000000
16.864555 48.953486 0.000000
16.990874 50.779758 0.000000
13.749497 47.406380 0.000000
15.449726 52.063606 0.000000
16.984572 50.526896 0.000000
13.365190 47.696155 0.000000
16.992973 49.274964 0.000000
16.388557 47.701615 0.000000
16.722997 51.353379 0.000000
17.256195 49.877252 0.000000
15.720577 52.301053 0.000000
15.695226 47.048012 0.000000
15.923498 51.840754 0.000000
14.766513 52.740023 0.000000
15.336844 52.381447 0.000000
13.892488 48.189924 0.000000
16.375343 51.446869 0.000000
13.587189 48.303006 0.000000
14.701290 48.232690 0.000000
13.897011 48.808103 0.000000
14.418554 53.722592 0.000000
14.270013 47.287641 0.000000
14.574928 52.917371 0.000000
13.017177 47.873196 0.000000
14.955430 48.214385 0.000000
16.654235 48.701001 0.000000
14.721915 47.314417 0.000000
16.724137 51.019428 0.000000
14.260915 47.887609 0.000000
16.475276 51.151926 0.000000
16.673675 48.128505 0.000000
16.609672 49.151505 0.000000
17.045143 50.224592 0.000000
16.679978 50.715073 0.000000
15.973902 47.503850 0.000000
13.616110 47.998614 0.000000
16.007779 51.236724 0.000000
17.014948 49.585468 0.000000
16.191866 51.661293 0.000000
15.260325 47.015649 0.000000
15.708220 51.682475 0.000000
14.066882 47.655500 0.000000
13.730393 48.667975 0.000000
13.939524 47.926605 0.000000
14.787803 47.979958 0.000000
15.066909 47.960110 0.000000
16.259041 48.051144 0.000000
16.288085 49.068679 0.000000
16.550269 49.610521 0.000000
15.526778 47.488809 0.000000
16.510149 50.919751 0.000000
16.477445 48.413044 0.000000
16.487894 49.417810 0.000000
14.499076 47.691606 0.000000
16.734498 49.379297 0.000000
16.952568 49.882061 0.000000
16.470272 48.905752 0.000000
16.722273 50.429575 0.000000
15.080084 48.422415 0.000000
16.275162 51.232461 0.000000
16.274404 50.952374 0.000000
15.703288 51.966294 0.000000
16.154101 51.422461 0.000000
14.916264 46.867381 0.000000
16.400274 50.751706 0.000000
13.747441 47.736651 0.000000
13.589532 48.528841 0.000000
15.880965 47.849220 0.000000
15.476312 48.485495 0.000000
16.151726 48.347633 0.000000
16.274977 48.659445 0.000000
16.159239 48.902712 0.000000
15.282036 48.434241 0.000000
16.762170 49.673109 0.000000
15.096318 47.354117 0.000000
16.800250 50.127075 0.000000
16.521160 50.371535 0.000000
15.197776 48.217866 0.000000
14.895168 47.665933 0.000000
15.668606 48.354214 0.000000
15.347989 48.000647 0.000000
16.543975 49.959043 0.000000
15.871188 48.245665 0.000000
15.996603 48.543670 0.000000
16.704298 49.931790 0.000000
15.240735 47.726583 0.000000
15.526145 47.844476 0.000000
15.439461 48.259796 0.000000
15.827628 48.654662 0.000000
15.785793 48.500682 0.000000
15.642796 48.079589 0.000000
POLYGONS 2699 10796
3 638 743 547
3 887 1006 964
3 1300 1301 1263
3 1072 1281 1120
3 1387 1399 1374
3 1206 1267 1232
3 1315 1341 1337
3 902 907 886
3 286 337 270
3 996 1059 956
3 1048 1110 1081
3 1316 1342 1321
3 809 939 876
3 559 570 510
3 1264 1289 1220
3 1300 1337 1301
3 887 964 640
3 1001 1018 981
3 1212 1230 1186
3 941 1003 876
3 549 745 683
3 1188 1250 140
3 797 860 765
3 1299 1316 1283
3 743 748 700
3 885 997 945
3 699 806 801
3 699 801 745
3 719 797 765
3 858 913 822
3 822 1027 776
3 561 617 571
3 969 1092 939
3 1082 1113 1059
3 1022 1083 1057
3 531 680 614
3 469 708 616
3 1079 1116 1095
3 431 638 547
3 1207 1248 1148
3 1151 1197 1092
3 747 806 616
3 1120 1281 1177
3 646 745 549
3 1141 1151 1092
3 1228 1253 1231
3 140 1250 1218
3 1041 1103 1045
3 893 935 751
3 1375 1396 1373
3 432 475 337
3 561 571 530
3 949 959 843
3 642 742 572
3 1048 1081 1066
3 1114 1118 1057
3 1004 1036 969
3 1108 1122 1100
3 1261 1283 1231
3 766 938 868
3 776 858 822
3 1087 1111 1062
3 401 470 429
3 1405 1406 1375
3 1192 1220 1149
3 1419 1430 178
3 1294 1364 1323
3 372 401 371
3 1299 1409 1342
3 547 743 700
3 843 959 937
3 1320 1359 1341
3 1190 1217 1208
3 636 1294 612
3 1337 1341 1334
3 1415 1428 1392
3 880 996 956
3 1180 1219 1196
3 1429 1435 1428
3 1136 1140 1102
3 531 1117 680
3 1351 1381 1322
3 1316 1321 1264
3 1152 1254 1208
3 479 642 572
3 279 423 217
3 712 870 785
3 401 429 371
3 577 677 546
3 1415 1429 1428
3 620 1013 682
3 573 648 558
3 1232 1286 1206
3 1356 1360 1349
3 890 913 775
3 1164 1171 1118
3 712 785 590
3 1285 1315 1300
3 578 619 500
3 511 573 558
3 1184 1262 1246
3 1380 1413 1395
3 278 362 199
3 139 1188 140
3 1386 1407 1332
3 1090 1143 1107
3 620 641 581
3 904 991 944
3 969 1024 1004
3 765 871 771
3 280 465 221
3 1092 1197 941
3 772 826 747
3 1375 1406 1396
3 765 771 727
3 707 774 679
3 941 1197 1031
3 282 336 193
3 951 982 962
3 1348 1411 1351
3 970 1007 935
3 942 989 985
3 1192 1264 1220
3 1413 1432 1395
3 1367 1399 1387
3 1255 1287 1247
3 700 711 580
3 1246 1262 1245
3 281 364 219
3 1010 1105 1054
3 1336 1409 1299
3 1120 1177 1078
3 1274 1300 1263
3 1190 1244 1217
3 701 859 743
3 575 609 485
3 1219 1255 1196
3 576 610 484
3 885 932 839
3 954 1105 1043
3 485 609 495
3 283 399 223
3 484 610 496
3 1113 1207 1148
3 963 988 957
3 572 644 538
3 218 286 270
3 1416 1417 420
3 841 900 864
3 951 962 905
3 1217 1244 1232
3 1054 1105 954
3 717 792 766
3 619 777 706
3 578 740 672
3 1019 1055 1041
3 285 343 228
3 407 646 549
3 1303 1356 1259
3 1433 1436 1425
3 284 466 226
3 952 997 885
3 681 792 677
3 463 479 336
3 1263 1301 1243
3 1114 1284 1164
3 649 700 580
3 366 430 365
3 1036 1141 1092
3 1041 1045 997
3 809 876 841
3 1100 1122 1049
3 434 476 338
3 497 611 432
3 743 859 748
3 338 541 423
3 498 638 431
3 937 959 838
3 293 366 365
3 1401 1430 1419
3 672 684 619
3 652 807 698
3 270 467 341
3 717 766 716
3 1187 1261 1231
3 1427 1430 258
3 643 674 576
3 1108 1192 1149
3 1005 1040 994
3 484 643 576
3 291 372 371
3 430 474 402
3 951 1007 958
3 861 943 880
3 149 964 150
3 155 468 156
3 942 985 910
3 1118 1171 1134
3 365 430 402
3 775 913 858
3 338 423 279
3 647 738 575
3 1081 1163 1121
3 701 743 638
3 343 433 265
3 812 956 904
3 1086 1179 1098
3 1098 1179 1119
3 485 647 575
3 608 645 482
3 538 543 427
3 1170 1254 1152
3 998 1007 970
3 639 708 570
3 1147 1253 1228
3 1035 1133 1072
3 437 608 482
3 1082 1170 1113
3 935 1007 951
3 1158 1178 1116
3 1283 1316 1228
3 1051 1071 989
3 343 543 538
3 1302 1309 1266
3 1031 1100 1003
3 420 1429 1416
3 865 904 890
3 286 432 337
3 436 577 546
3 1178 1180 1116
3 1180 1196 1160
3 910 985 936
3 792 867 766
3 1045 1103 1077
3 1136 1150 1140
3 1026 1087 1062
3 1397 1415 1392
3 773 885 839
3 579 637 577
3 639 839 772
3 1149 1279 1195
3 1210 1230 1212
3 218 270 198
3 1059 1113 1074
3 883 961 916
3 1413 1436 1432
3 219 286 218
3 267 498 431
3 1196 1255 1247
3 411 649 580
3 685 814 760
3 221 269 197
3 1087 1216 1165
3 223 268 210
3 1352 1377 1346
3 1019 1041 947
3 1354 1375 1373
3 886 912 902
3 998 1029 1007
3 839 932 772
3 1113 1148 1074
3 495 609 461
3 989 1071 1032
3 1144 1281 1072
3 650 723 579
3 496 610 462
3 1121 1143 1090
3 708 772 747
3 564 807 652
3 733 779 681
3 1097 1176 1135
3 1177 1184 1146
3 953 1023 961
3 958 982 951
3 1348 1351 1289
3 381 495 461
3 607 737 648
3 841 864 749
3 382 496 462
3 427 572 538
3 881 977 850
3 1315 1337 1300
3 607 648 573
3 1191 1314 468
3 1376 1392 1353
3 503 1137 620
3 917 943 861
3 840 903 783
3 581 641 476
3 770 874 548
3 269 486 342
3 1083 1195 1114
3 479 572 336
3 1402 1417 1416
3 504 577 436
3 618 740 475
3 1362 1375 1354
3 873 939 809
3 651 717 716
3 774 904 865
3 160 612 161
3 1252 1284 1114
3 1206 1286 1171
3 1381 1411 1389
3 337 578 500
3 1377 1398 176
3 913 957 822
3 1392 1413 1353
3 499 608 437
3 102 279 217
3 104 278 199
3 41 280 221
3 777 842 706
3 710 1137 503
3 996 1082 1059
3 819 952 885
3 619 706 500
3 1331 1362 1354
3 992 1048 1023
3 885 945 932
3 45 281 219
3 275 499 437
3 685 849 814
3 1230 1302 1266
3 1242 1276 1260
3 1379 1410 177
3 1129 1238 1214
3 1001 1064 1018
3 177 1403 1379
3 1049 1083 1022
3 883 916 748
3 100 282 193
3 913 963 957
3 1230 1266 1186
3 107 283 223
3 1067 1120 1078
3 220 361 194
3 1372 1399 1367
3 1124 1179 1086
3 706 807 564
3 806 873 809
3 895 903 840
3 1077 1141 1036
3 946 1010 960
3 699 745 646
3 1370 1423 1404
3 944 1014 963
3 1326 1344 1288
3 176 1393 1377
3 872 936 811
3 1389 1411 1387
3 336 540 463
3 1135 1176 1131
3 1377 1400 1398
3 38 284 226
3 1303 1360 1356
3 1293 1359 1325
3 228 265 190
3 682 804 641
3 1350 1403 1378
3 423 463 217
3 1219 1304 1255
3 1279 1310 1252
3 997 1045 945
3 767 881 850
3 948 1039 970
3 226 266 192
3 1177 1281 1243
3 258 1430 1421
3 1308 1332 1256
3 953 961 883
3 637 733 681
3 1376 1397 1392
3 714 840 783
3 98 285 228
3 486 577 504
3 1288 1376 1329
3 899 1005 994
3 1293 1325 1269
3 1161 1235 1198
3 1094 1214 1154
3 1179 1205 1153
3 1148 1236 1215
3 1199 1303 1259
3 1301 1337 1334
3 723 779 733
3 1344 1397 1376
3 1040 1124 1086
3 1035 1072 1014
3 1325 1360 1303
3 486 579 577
3 1353 1413 1380
3 1150 1248 1207
3 1367 1387 1348
3 1392 1428 1413
3 258 1421 1403
3 1416 1429 1415
3 1000 1093 1033
3 715 839 639
3 376 497 432
3 1217 1232 1175
3 1318 1378 1355
3 776 1027 709
3 1236 1273 1215
3 1124 1205 1179
3 1330 1373 1347
3 1255 1327 1287
3 1203 1237 1168
3 1346 1371 1344
3 1307 1347 1339
3 1378 1421 1401
3 228 343 265
3 1110 1163 1081
3 1030 1116 1076
3 285 543 343
3 369 499 275
3 762 811 684
3 1280 1302 1230
3 1233 1300 1274
3 1269 1303 1240
3 133 1382 211
3 1356 1407 1319
3 1214 1238 1154
3 502 613 465
3 956 1059 991
3 1264 1321 1289
3 578 672 619
3 173 1398 1394
3 337 467 270
3 1115 1169 1168
3 946 960 864
3 1134 1216 1087
3 209 369 275
3 819 885 773
3 1042 1214 1094
3 4 1427 258
3 1290 1346 1326
3 1172 1213 1141
3 222 287 191
3 397 424 340
3 1107 1109 1071
3 1014 1072 1068
3 723 838 779
3 1357 1395 1385
3 1118 1134 1105
3 1227 1273 1263
3 1148 1248 1236
3 1159 1193 1126
3 199 434 338
3 130 1410 1406
3 1398 1400 1394
3 1036 1092 969
3 227 267 220
3 895 965 962
3 277 397 340
3 1342 1367 1321
3 1108 1149 1122
3 741 865 775
3 336 572 427
3 910 936 872
3 994 1086 1039
3 1295 1310 1279
3 1324 1352 1290
3 270 341 198
3 702 840 714
3 970 1039 998
3 410 650 579
3 1010 1054 960
3 1265 1288 1225
3 1189 1202 1163
3 561 709 617
3 989 1032 1012
3 1078 1177 1146
3 988 1120 1067
3 1199 1259 1145
3 1346 1402 1371
3 1265 1326 1288
3 1325 1359 1320
3 977 1020 952
3 1275 1318 1313
3 812 904 774
3 1109 1162 1145
3 1147 1228 1192
3 1222 1326 1265
3 1171 1286 1216
3 709 1027 750
3 1145 1223 1194
3 291 371 247
3 1245 1257 1202
3 1298 1324 1260
3 1204 1265 1225
3 992 1023 953
3 1377 1402 1346
3 1133 1215 1144
3 1295 1335 1310
3 1223 1292 1268
3 1403 1421 1378
3 1277 1336 1312
3 1234 1250 1224
3 897 1028 1000
3 751 935 815
3 1373 1379 1347
3 1329 1376 1353
3 1198 1276 1242
3 1292 1384 1331
3 1304 1353 1327
3 748 916 802
3 651 716 582
3 1130 1183 1158
3 435 473 400
3 1272 1330 1307
3 341 465 280
3 1139 1172 1141
3 1306 1354 1330
3 1169 1203 1168
3 1123 1159 1085
3 1111 1211 1062
3 962 982 895
3 1202 1221 1143
3 859 883 748
3 943 996 880
3 760 859 701
3 612 1323 161
3 949 995 959
3 965 1025 962
3 1026 1134 1087
3 288 397 277
3 1164 1229 1206
3 1326 1346 1344
3 289 344 248
3 1371 1416 1397
3 1078 1146 1124
3 358 501 269
3 1074 1133 1035
3 1131 1173 1080
3 1121 1163 1143
3 983 1005 899
3 1074 1148 1133
3 1239 1306 1272
3 1426 1436 1433
3 1394 1419 178
3 1247 1287 1277
3 331 435 370
3 991 1014 944
3 1225 1329 1271
3 1167 1242 1183
3 1421 1430 1401
3 1241 1307 1275
3 278 678 362
3 410 579 486
3 503 620 581
3 963 1068 988
3 1149 1195 1122
3 1271 1329 1304
3 1221 1240 1181
3 1290 1352 1346
3 1045 1069 945
3 501 548 410
3 1153 1163 1110
3 1047 1126 1088
3 639 772 708
3 878 942 910
3 463 540 217
3 198 341 280
3 1327 1357 1287
3 945 1069 1004
3 702 714 653
3 1202 1257 1221
3 771 871 790
3 210 678 278
3 199 338 279
3 277 301 288
3 1347 1350 1339
3 1357 1385 1336
3 170 1417 1393
3 362 503 434
3 991 1035 1014
3 901 1019 938
3 542 679 584
3 1204 1225 1178
3 1395 1431 1420
3 1085 1159 1126
3 1126 1235 1161
3 1165 1190 1111
3 1395 1420 1385
3 467 564 502
3 653 714 589
3 1320 1360 1325
3 1327 1380 1357
3 1142 1169 1132
3 1006 1135 1002
3 381 461 327
3 1088 1161 1128
3 382 462 329
3 376 432 286
3 469 562 421
3 500 706 564
3 575 738 494
3 1084 1123 1046
3 1397 1416 1415
3 1203 1277 1237
3 1290 1326 1222
3 584 642 479
3 1260 1290 1222
3 641 804 551
3 966 1047 1011
3 1195 1279 1252
3 1393 1402 1377
3 764 860 797
3 752 965 895
3 1229 1310 1302
3 1116 1180 1160
3 165 1418 1414
3 1162 1240 1199
3 684 847 777
3 281 464 364
3 1142 1203 1169
3 642 775 742
3 1289 1351 1340
3 811 879 847
3 1237 1312 1261
3 900 1049 1022
3 1235 1276 1198
3 745 749 683
3 679 774 741
3 783 903 849
3 547 649 527
3 1363 1412 1296
3 1409 1420 1372
3 1200 1272 1241
3 1002 1065 179
3 1011 1088 1053
3 1086 1098 1039
3 491 631 602
3 215 381 327
3 1243 1262 1184
3 216 382 329
3 1229 1302 1280
3 269 342 197
3 616 699 562
3 1321 1367 1348
3 869 923 897
3 268 491 363
3 992 1075 1048
3 370 400 373
3 1122 1195 1083
3 1322 1369 1351
3 510 570 442
3 719 765 718
3 341 502 465
3 1220 1340 1279
3 611 711 618
3 1183 1204 1158
3 486 504 342
3 658 776 709
3 1004 1069 1036
3 989 1012 985
3 269 501 410
3 879 1009 966
3 897 1000 949
3 197 342 284
3 1222 1265 1183
3 762 872 811
3 1062 1211 1082
3 707 812 774
3 819 979 930
3 954 1026 917
3 370 435 400
3 809 841 801
3 475 578 337
3 1081 1104 1038
3 1262 1366 1245
3 43 218 198
3 1259 1319 1223
3 950 1009 879
3 644 858 776
3 44 219 218
3 847 966 914
3 268 532 407
3 1206 1280 1267
3 194 464 281
3 190 372 291
3 1146 1205 1124
3 559 715 639
3 1059 1074 991
3 654 719 718
3 564 652 502
3 991 1074 1035
3 1073 1169 1115
3 1289 1340 1220
3 40 221 197
3 106 223 210
3 1009 1085 1047
3 364 411 376
3 1046 1123 1085
3 1159 1241 1193
3 549 683 631
3 1235 1313 1276
3 411 580 497
3 1012 1046 950
3 549 631 491
3 1187 1213 1172
3 199 279 103
3 475 740 578
3 1032 1084 1012
3 1030 1050 1008
3 570 708 469
3 1033 1130 1079
3 198 280 42
3 512 651 582
3 1331 1384 1362
3 680 1070 1064
3 1051 1090 1071
3 210 278 105
3 1043 1134 1026
3 1098 1119 1037
3 879 966 847
3 1165 1244 1190
3 35 289 248
3 1396 1410 1379
3 194 281 46
3 1175 1232 1185
3 1288 1329 1225
3 895 982 903
3 1091 1132 1060
3 914 1011 955
3 331 370 292
3 868 938 767
3 1166 1239 1200
3 217 282 101
3 1107 1162 1109
3 1044 1099 153
3 1069 1077 1036
3 193 543 285
3 773 839 715
3 1047 1088 1011
3 1282 1388 1314
3 407 491 268
3 944 963 890
3 1106 1196 1142
3 1434 1435 1429
3 1240 1303 1199
3 1123 1200 1159
3 1193 1235 1126
3 904 944 890
3 698 770 548
3 1009 1047 966
3 191 283 108
3 1076 1160 1106
3 1362 1405 1375
3 942 1051 989
3 1186 1266 1249
3 1279 1340 1295
3 197 284 39
3 492 612 159
3 1395 1432 1431
3 1352 1400 1377
3 990 1089 1055
3 1298 1355 1324
3 1233 1274 1238
3 917 1026 943
3 1012 1084 1046
3 1157 1182 1070
3 1345 1384 1358
3 942 1052 1051
3 1342 1372 1367
3 1372 1424 1399
3 1075 1110 1048
3 952 1020 997
3 867 922 901
3 337 500 467
3 434 581 476
3 1087 1165 1111
3 193 285 99
3 411 497 376
3 95 291 247
3 980 1016 992
3 986 1028 897
3 947 1041 1020
3 888 1025 965
3 1359 1368 1341
3 897 949 869
3 1301 1334 1262
3 267 431 361
3 966 1011 914
3 1428 1436 1413
3 1319 1358 1292
3 47 220 194
3 1016 1063 1037
3 551 707 679
3 546 717 651
3 683 803 631
3 503 581 434
3 611 618 475
3 876 984 841
3 1418 1433 1414
3 1071 1109 1032
3 1044 1125 1099
3 401 571 470
3 1046 1085 1009
3 267 361 220
3 811 847 684
3 1229 1280 1206
3 1276 1298 1260
3 1223 1319 1292
3 545 744 147
3 1000 1056 949
3 1145 1259 1223
3 1093 1167 1130
3 229 264 222
3 421 562 532
3 109 222 191
3 1332 1407 1349
3 191 357 283
3 500 564 467
3 1065 1080 1044
3 1017 1052 942
3 502 652 613
3 707 861 812
3 682 1013 954
3 1350 1378 1339
3 168 1434 420
3 761 805 618
3 1132 1169 1073
3 697 929 860
3 1237 1261 1187
3 1073 1089 990
3 551 804 707
3 995 1030 1008
3 501 652 548
3 37 226 192
3 370 373 227
3 1333 1386 1305
3 950 1046 1009
3 342 466 284
3 1146 1246 1205
3 954 1043 1026
3 697 860 764
3 1060 1132 1073
3 814 980 926
3 1106 1132 1091
3 1275 1339 1318
3 824 912 886
3 767 938 881
3 838 959 908
3 1119 1153 1075
3 560 701 638
3 940 1060 990
3 878 910 857
3 1215 1273 1227
3 857 872 805
3 217 540 282
3 1324 1383 1352
3 811 936 879
3 1317 1343 1294
3 1401 1419 1383
3 882 1016 980
3 698 869 770
3 936 950 879
3 877 973 862
3 580 611 497
3 1193 1275 1235
3 930 952 819
3 1099 1125 539
3 361 527 464
3 1126 1161 1088
3 1268 1331 1306
3 1190 1254 1111
3 548 650 410
3 1344 1376 1288
3 658 709 561
3 507 653 589
3 1194 1268 1239
3 1334 1368 1293
3 97 228 190
3 967 1025 888
3 861 880 812
3 1148 1215 1133
3 1330 1347 1307
3 1205 1246 1189
3 1003 1100 1049
3 1181 1240 1162
3 1075 1153 1110
3 584 741 642
3 1037 1075 992
3 1220 1279 1149
3 880 956 812
3 637 677 577
3 1018 1064 1042
3 736 868 767
3 432 611 475
3 960 1054 769
3 1085 1126 1047
3 750 784 617
3 1304 1327 1255
3 740 805 762
3 527 649 411
3 433 561 530
3 258 1422 127
3 1393 1417 1402
3 399 532 268
3 1260 1324 1290
3 546 651 436
3 287 442 421
3 1178 1271 1180
3 1103 1139 1077
3 882 980 814
3 1243 1301 1262
3 807 923 869
3 873 969 939
3 1038 1052 1017
3 716 736 582
3 836 979 819
3 990 1055 971
3 721 844 632
3 959 1008 908
3 654 718 563
3 801 841 749
3 342 504 466
3 847 914 777
3 359 436 266
3 1008 1050 968
3 902 912 845
3 621 701 560
3 751 815 778
3 548 874 650
3 940 971 922
3 362 434 199
3 850 977 896
3 560 638 498
3 410 486 269
3 1211 1254 1170
3 1378 1401 1355
3 1109 1145 1127
3 1080 1173 1125
3 1029 1063 882
3 492 1338 1297
3 1321 1348 1289
3 1160 1196 1106
3 1168 1237 1187
3 958 1029 882
3 552 628 583
3 1354 1373 1330
3 444 654 563
3 1400 1419 1394
3 1379 1403 1350
3 1089 1103 1055
3 900 1022 946
3 1277 1312 1237
3 760 926 859
3 1387 1411 1348
3 1282 1314 1191
3 487 653 507
3 905 962 884
3 720 778 686
3 750 1027 899
3 192 289 36
3 864 960 919
3 442 469 421
3 1249 1282 1191
3 815 951 905
3 652 698 548
3 1116 1160 1076
3 292 370 227
3 930 977 952
3 882 1063 1016
3 1259 1356 1319
3 1147 1192 1108
3 995 1008 959
3 357 399 283
3 896 930 828
3 161 1323 162
3 899 994 948
3 1127 1194 1166
3 506 583 418
3 943 1062 996
3 938 1019 947
3 860 871 765
3 470 721 632
3 48 227 220
3 505 654 444
3 1229 1284 1252
3 971 1055 1019
3 531 614 142
3 473 657 621
3 672 762 684
3 976 978 818
3 133 211 134
3 1402 1416 1371
3 685 760 621
3 892 978 976
3 644 776 658
3 924 978 892
3 552 583 506
3 110 229 222
3 190 291 96
3 856 968 875
3 1385 1420 1409
3 894 924 892
3 393 510 442
3 709 750 617
3 770 869 843
3 357 421 399
3 810 857 761
3 1319 1407 1358
3 1050 1091 1015
3 1426 1433 1423
3 1180 1271 1219
3 1072 1120 1068
3 1380 1395 1357
3 984 1049 900
3 1143 1221 1181
3 875 922 808
3 632 844 751
3 1028 1093 1000
3 1143 1181 1107
3 1032 1127 1084
3 681 856 808
3 336 427 193
3 899 1027 983
3 755 850 828
3 361 464 194
3 293 365 229
3 211 1382 1345
3 680 1157 1070
3 1158 1204 1178
3 1186 1249 1155
3 908 1008 968
3 1168 1172 1115
3 1183 1242 1222
3 957 1067 1005
3 1167 1183 1130
3 1095 1116 1030
3 846 884 817
3 919 960 803
3 272 505 444
3 571 721 470
3 1227 1263 1243
3 876 1003 984
3 1287 1336 1277
3 538 561 433
3 192 360 289
3 723 733 579
3 1177 1243 1184
3 621 760 701
3 1252 1310 1229
3 371 383 247
3 580 711 611
3 845 912 823
3 440 495 381
3 1245 1366 1257
3 751 778 720
3 1003 1049 984
3 441 496 382
3 1107 1181 1162
3 779 908 856
3 104 199 103
3 1228 1264 1192
3 1358 1384 1292
3 43 198 42
3 846 905 884
3 44 218 43
3 135 1305 136
3 1049 1122 1083
3 45 219 44
3 364 376 219
3 1358 1407 1386
3 106 210 105
3 41 221 40
3 421 532 399
3 1198 1242 1167
3 1162 1199 1145
3 47 194 46
3 102 217 101
3 1109 1127 1032
3 656 720 686
3 40 197 39
3 1030 1076 1050
3 107 223 106
3 644 658 538
3 1164 1206 1171
3 437 482 413
3 1141 1213 1151
3 1045 1077 1069
3 1042 1094 993
3 1156 1250 1234
3 656 686 550
3 1355 1401 1383
3 1139 1141 1077
3 109 191 108
3 100 193 99
3 407 549 491
3 869 949 843
3 994 1039 948
3 1005 1067 1040
3 1195 1252 1114
3 849 958 882
3 780 823 703
3 542 584 423
3 105 278 104
3 803 960 769
3 864 919 749
3 780 845 823
3 103 279 102
3 42 280 41
3 1080 1125 1044
3 805 872 762
3 46 281 45
3 1306 1330 1272
3 1355 1383 1324
3 380 506 418
3 1384 1408 1362
3 692 836 819
3 566 780 655
3 431 547 527
3 1170 1207 1113
3 1015 1091 1060
3 348 437 413
3 101 282 100
3 215 327 254
3 216 329 255
3 108 283 107
3 1292 1331 1268
3 513 656 404
3 1342 1409 1372
3 1196 1247 1142
3 1131 1212 1173
3 373 498 267
3 487 507 445
3 438 509 366
3 949 1056 995
3 677 792 717
3 1115 1172 1139
3 431 527 361
3 151 1065 152
3 469 616 562
3 39 284 38
3 227 373 267
3 657 783 685
3 1318 1355 1298
3 38 226 37
3 1034 1096 987
3 999 1017 975
3 265 372 190
3 655 780 703
3 359 504 436
3 1239 1272 1200
3 692 773 622
3 1266 1309 1249
3 657 685 621
3 226 359 266
3 344 544 406
3 1329 1353 1304
3 442 570 469
3 1293 1366 1334
3 1182 1233 1129
3 375 437 348
3 1039 1063 998
3 1048 1066 1023
3 208 301 277
3 1171 1216 1134
3 1155 1249 1191
3 1073 1115 1089
3 617 721 571
3 99 285 98
3 1338 1365 1297
3 507 589 435
3 741 775 642
3 1215 1227 1144
3 463 584 479
3 1406 1410 1396
3 693 850 755
3 1067 1078 1040
3 1272 1307 1241
3 782 846 817
3 1079 1095 1056
3 1432 1436 1426
3 848 965 752
3 1052 1104 1090
3 374 425 347
3 813 970 893
3 98 228 97
3 1057 1118 1010
3 1228 1316 1264
3 1271 1304 1219
3 752 840 702
3 566 655 586
3 400 498 373
3 37 192 36
3 777 914 842
3 222 393 287
3 1010 1118 1105
3 749 919 683
3 18 256 231
3 79 257 230
3 1078 1124 1040
3 402 559 510
3 1145 1194 1127
3 1128 1167 1093
3 814 926 760
3 215 254 5
3 216 255 66
3 49 292 227
3 48 220 47
3 926 980 953
3 1183 1265 1204
3 1331 1354 1306
3 508 565 509
3 1257 1269 1221
3 1152 1208 1112
3 97 190 96
3 1225 1271 1178
3 110 222 109
3 111 293 229
3 884 1025 967
3 1056 1095 995
3 79 78 3
3 1 18 17
3 153 1099 154
3 857 910 872
3 362 678 503
3 1405 1408 1382
3 406 615 552
3 1221 1269 1240
3 875 1015 940
3 947 977 881
3 1031 1197 1147
3 429 585 513
3 899 948 813
3 297 374 347
3 1309 1335 1322
3 825 918 798
3 1224 1270 1234
3 622 773 715
3 572 742 644
3 1200 1241 1159
3 799 825 798
3 1064 1070 1042
3 298 375 348
3 1268 1306 1239
3 1391 1423 1370
3 906 976 818
3 363 678 210
3 1307 1339 1275
3 1093 1130 1033
3 1014 1068 963
3 1428 1435 1425
3 508 509 438
3 380 418 379
3 1309 1322 1296
3 967 972 817
3 985 1012 950
3 1269 1325 1303
3 1232 1267 1185
3 995 1095 1030
3 635 799 798
3 781 906 818
3 531 1218 1156
3 589 657 473
3 975 1017 878
3 562 699 646
3 1166 1200 1123
3 1257 1293 1269
3 782 817 688
3 1117 1157 680
3 1223 1268 1194
3 287 421 357
3 1233 1238 1129
3 750 899 813
3 541 542 423
3 1133 1144 1072
3 582 736 615
3 302 369 209
3 728 799 635
3 1088 1128 1053
3 305 438 366
3 783 849 685
3 889 967 888
3 445 507 331
3 132 1382 133
3 1353 1380 1327
3 808 867 792
3 1153 1189 1163
3 435 589 473
3 1194 1239 1166
3 265 401 372
3 377 412 345
3 616 806 699
3 378 416 346
3 1011 1053 955
3 226 466 359
3 364 464 411
3 999 1038 1017
3 686 846 782
3 586 655 477
3 404 656 550
3 800 863 759
3 579 733 637
3 1275 1313 1235
3 704 753 722
3 558 719 654
3 18 231 17
3 79 230 78
3 843 937 770
3 903 982 958
3 1256 1332 1291
3 914 955 842
3 704 722 660
3 1351 1369 1340
3 747 1024 873
3 553 653 487
3 999 1066 1038
3 541 641 551
3 1187 1231 1213
3 623 848 752
3 739 800 759
3 1431 1432 1426
3 184 366 293
3 711 761 618
3 503 678 602
3 406 552 506
3 476 541 338
3 36 289 35
3 221 358 269
3 817 972 906
3 159 612 160
3 344 406 259
3 604 673 630
3 1161 1198 1128
3 538 658 561
3 1097 1135 1006
3 888 965 848
3 268 363 210
3 1053 1093 1028
3 49 227 48
3 266 512 428
3 1062 1082 996
3 569 728 635
3 738 790 673
3 295 381 215
3 1328 1412 1363
3 850 896 828
3 781 818 689
3 296 382 216
3 890 963 913
3 590 785 662
3 5 254 0
3 66 255 2
3 371 429 383
3 682 954 917
3 810 878 857
3 111 229 110
3 209 275 233
3 605 673 604
3 299 377 345
3 1127 1166 1084
3 96 291 95
3 448 586 477
3 1082 1211 1170
3 300 378 346
3 603 728 569
3 1241 1275 1193
3 793 902 845
3 618 805 740
3 1128 1198 1167
3 771 790 738
3 308 380 379
3 1322 1363 1296
3 343 538 433
3 761 857 805
3 1002 1080 1065
3 282 540 336
3 889 972 967
3 16 301 208
3 648 719 558
3 277 340 294
3 659 781 689
3 77 302 209
3 167 1434 168
3 473 560 400
3 587 781 659
3 221 465 358
3 684 777 619
3 660 722 591
3 1334 1366 1262
3 714 783 657
3 853 892 891
3 736 767 693
3 682 917 861
3 851 907 787
3 393 442 287
3 255 329 225
3 254 327 224
3 1084 1166 1123
3 957 1005 983
3 936 985 950
3 408 553 487
3 935 951 815
3 585 720 656
3 383 513 260
3 900 946 864
3 1040 1086 994
3 1339 1378 1318
3 681 808 792
3 677 717 546
3 511 558 425
3 1090 1107 1071
3 1163 1202 1143
3 491 602 363
3 692 819 773
3 754 892 853
3 516 587 517
3 467 502 341
3 617 784 721
3 968 1050 1015
3 961 975 916
3 492 1258 636
3 552 676 628
3 1066 1081 1038
3 144 1001 145
3 260 513 404
3 838 908 779
3 528 605 405
3 516 517 439
3 670 800 739
3 622 715 559
3 164 1418 165
3 754 853 704
3 696 871 835
3 405 605 604
3 587 659 517
3 1033 1056 1000
3 778 905 846
3 886 907 851
3 841 984 900
3 439 517 350
3 238 439 350
3 219 376 286
3 473 621 560
3 574 645 608
3 664 782 688
3 1189 1245 1202
3 162 1323 394
3 670 739 671
3 408 591 553
3 547 700 649
3 623 702 553
3 588 643 484
3 806 809 801
3 624 754 704
3 1130 1158 1079
3 602 710 503
3 585 656 513
3 790 871 696
3 1076 1106 1091
3 470 585 429
3 169 1417 170
3 804 861 707
3 898 1018 993
3 248 344 259
3 834 837 794
3 829 925 921
3 916 975 810
3 724 793 687
3 277 294 232
3 172 1398 173
3 1383 1400 1352
3 458 603 569
3 1063 1098 1037
3 367 508 438
3 754 894 892
3 745 801 749
3 545 981 898
3 566 586 488
3 355 533 459
3 596 622 474
3 794 837 691
3 1115 1139 1089
3 356 534 460
3 524 603 458
3 1247 1277 1203
3 395 533 355
3 662 785 588
3 396 534 356
3 661 692 622
3 1210 1267 1230
3 208 277 232
3 679 741 584
3 259 506 380
3 489 660 591
3 402 510 393
3 589 714 657
3 854 894 754
3 632 751 720
3 0 254 126
3 2 255 65
3 130 1406 131
3 180 331 292
3 470 632 585
3 830 925 829
3 297 347 196
3 512 582 428
3 663 687 566
3 248 259 189
3 299 345 204
3 231 301 17
3 135 1333 1305
3 626 788 756
3 631 803 710
3 305 366 184
3 474 559 402
3 374 511 425
3 300 346 205
3 298 348 195
3 367 438 214
3 230 302 78
3 824 886 786
3 562 646 532
3 349 487 445
3 1053 1128 1093
3 232 294 234
3 443 588 484
3 867 901 766
3 247 383 260
3 670 671 601
3 828 902 793
3 35 248 34
3 34 248 189
3 550 782 664
3 233 275 235
3 485 495 412
3 837 863 691
3 945 1004 932
3 755 828 793
3 601 671 529
3 734 788 626
3 1197 1253 1147
3 697 764 627
3 928 931 833
3 796 832 831
3 1276 1313 1298
3 873 1024 969
3 50 292 49
3 180 292 50
3 418 488 379
3 824 915 912
3 627 675 556
3 706 923 807
3 1168 1187 1172
3 484 496 416
3 663 724 687
3 7 295 215
3 68 296 216
3 95 247 94
3 94 247 186
3 247 260 186
3 753 889 888
3 408 487 349
3 112 293 111
3 184 293 112
3 753 888 848
3 788 918 821
3 924 928 820
3 444 485 412
3 234 374 297
3 436 651 512
3 763 832 796
3 514 588 443
3 367 515 508
3 567 665 515
3 514 662 588
3 1371 1397 1344
3 691 863 800
3 624 854 754
3 694 786 633
3 856 875 808
3 596 661 622
3 392 524 458
3 833 931 834
3 358 613 501
3 633 705 567
3 661 787 692
3 627 764 675
3 703 823 757
3 1343 1364 1294
3 204 440 381
3 961 1023 999
3 443 484 416
3 205 441 382
3 755 793 724
3 265 530 401
3 354 524 392
3 556 675 599
3 235 375 298
3 820 928 833
3 767 850 693
3 798 918 788
3 508 665 565
3 565 596 509
3 600 734 626
3 545 746 744
3 732 854 624
3 568 794 691
3 753 848 722
3 907 979 836
3 288 301 231
3 202 398 325
3 530 571 401
3 583 724 663
3 418 566 488
3 418 663 566
3 400 560 498
3 490 734 600
3 930 979 828
3 236 377 299
3 276 398 202
3 820 833 791
3 322 395 250
3 323 396 253
3 756 854 732
3 126 254 224
3 65 255 225
3 237 378 300
3 204 381 295
3 12 297 196
3 205 382 296
3 833 834 690
3 214 438 305
3 201 397 324
3 1039 1098 1063
3 264 393 222
3 568 691 666
3 73 298 195
3 195 378 237
3 705 726 665
3 425 505 347
3 940 990 971
3 290 302 230
3 813 893 784
3 631 710 602
3 1037 1119 1075
3 1106 1142 1132
3 862 973 887
3 368 397 201
3 592 732 624
3 196 272 236
3 590 662 514
3 127 1422 128
3 591 623 553
3 9 299 204
3 694 827 824
3 626 732 478
3 791 833 690
3 827 920 915
3 70 300 205
3 775 858 742
3 691 800 666
3 574 608 415
3 223 399 268
3 828 979 902
3 690 834 794
3 287 357 191
3 722 848 623
3 1033 1079 1056
3 592 704 660
3 592 660 522
3 667 789 554
3 626 756 732
3 1349 1360 1291
3 415 608 537
3 250 395 355
3 271 378 195
3 427 543 193
3 253 396 356
3 208 232 15
3 209 233 76
3 711 802 761
3 345 495 440
3 346 496 441
3 726 851 787
3 863 934 759
3 489 591 408
3 688 906 781
3 554 789 694
3 414 576 493
3 492 636 612
3 623 752 702
3 595 735 625
3 695 789 667
3 266 360 192
3 759 870 712
3 377 444 412
3 606 607 535
3 1154 1238 1226
3 675 737 599
3 272 444 377
3 490 600 335
3 460 576 414
3 666 800 670
3 345 440 204
3 1022 1057 946
3 346 441 205
3 600 626 478
3 378 443 416
3 752 895 840
3 232 234 14
3 271 514 443
3 388 529 454
3 789 829 827
3 233 235 75
3 779 856 681
3 1007 1029 958
3 690 794 669
3 271 443 378
3 787 836 692
3 786 851 705
3 388 601 529
3 347 505 272
3 599 606 525
3 453 490 335
3 829 921 920
3 294 511 374
3 842 986 923
3 597 735 595
3 413 590 514
3 204 295 8
3 478 732 592
3 205 296 69
3 784 893 844
3 759 934 870
3 331 507 435
3 525 535 457
3 664 688 587
3 294 374 234
3 173 1394 174
3 535 607 536
3 142 614 143
3 1210 1212 1131
3 482 712 590
3 599 737 606
3 624 704 592
3 129 1410 130
3 1055 1103 1041
3 853 891 889
3 234 297 13
3 908 968 856
3 669 794 568
3 235 298 74
3 615 736 676
3 830 927 925
3 275 437 375
3 426 573 511
3 525 606 535
3 471 567 403
3 309 445 331
3 554 633 471
3 275 375 235
3 457 535 339
3 635 734 490
3 348 413 271
3 563 727 485
3 787 907 836
3 915 920 823
3 665 726 565
3 472 525 334
3 272 377 236
3 17 301 16
3 196 347 272
3 425 558 505
3 788 909 756
3 705 851 726
3 557 703 629
3 340 481 426
3 236 299 10
3 195 348 271
3 261 403 367
3 245 367 214
3 261 367 245
3 831 927 830
3 6 215 5
3 7 215 6
3 477 655 557
3 67 216 66
3 68 216 67
3 416 496 346
3 237 300 71
3 444 563 485
3 740 762 672
3 78 302 77
3 666 670 483
3 676 736 693
3 412 495 345
3 704 853 753
3 196 236 11
3 695 829 789
3 417 575 494
3 695 831 830
3 829 920 827
3 419 600 478
3 645 712 482
3 195 237 72
3 16 208 15
3 77 209 76
3 556 668 627
3 485 727 647
3 555 791 690
3 643 731 713
3 569 635 490
3 655 703 557
3 648 797 719
3 727 771 647
3 668 729 627
3 335 600 419
3 988 1067 957
3 731 785 768
3 768 870 825
3 483 670 601
3 630 735 597
3 334 525 457
3 409 669 568
3 558 654 505
3 406 506 259
3 413 514 271
3 516 664 587
3 695 830 829
3 522 660 489
3 181 1308 1256
3 353 528 405
3 8 295 7
3 15 232 14
3 481 607 573
3 69 296 68
3 76 233 75
3 535 536 339
3 821 909 788
3 768 799 713
3 796 831 695
3 718 765 727
3 825 934 933
3 891 976 972
3 696 835 832
3 725 855 795
3 459 575 417
3 947 1020 977
3 630 763 735
3 849 882 814
3 471 633 567
3 696 763 630
3 725 795 729
3 409 568 526
3 629 852 758
3 645 739 712
3 339 536 455
3 1052 1090 1051
3 556 599 525
3 555 690 669
3 802 810 761
3 820 978 924
3 14 234 13
3 588 731 643
3 478 592 419
3 398 537 422
3 75 235 74
3 453 569 490
3 635 798 788
3 379 586 448
3 340 426 294
3 689 911 820
3 384 408 349
3 274 460 414
3 419 592 522
3 387 526 483
3 877 987 973
3 147 744 148
3 273 459 417
3 446 471 403
3 756 909 894
3 604 630 597
3 261 446 403
3 349 445 213
3 9 204 8
3 70 205 69
3 13 297 12
3 550 664 516
3 317 458 453
3 515 665 508
3 74 298 73
3 403 567 515
3 687 845 780
3 10 299 9
3 335 419 385
3 628 755 724
3 356 460 274
3 71 300 70
3 403 515 367
3 387 483 456
3 355 459 273
3 554 694 633
3 703 757 629
3 785 870 768
3 11 236 10
3 827 915 824
3 694 824 786
3 565 661 596
3 726 787 661
3 891 972 889
3 335 385 262
3 729 795 697
3 72 237 71
3 458 569 453
3 627 729 697
3 12 196 11
3 353 391 319
3 625 667 595
3 509 596 430
3 870 934 825
3 317 453 335
3 273 417 353
3 472 593 556
3 309 331 180
3 689 820 791
3 73 195 72
3 757 921 852
3 922 971 901
3 392 458 317
3 634 729 668
3 464 527 411
3 304 384 349
3 725 729 634
3 426 511 294
3 593 668 556
3 354 392 321
3 263 389 183
3 224 327 206
3 225 329 207
3 404 550 516
3 182 317 262
3 853 889 753
3 447 522 384
3 688 781 587
3 436 512 266
3 213 445 309
3 763 796 735
3 246 263 183
3 920 921 757
3 482 590 413
3 686 782 550
3 789 827 694
3 449 523 409
3 456 601 388
3 835 929 832
3 333 449 409
3 448 477 332
3 758 855 730
3 483 601 456
3 313 448 332
3 494 528 417
3 304 349 213
3 243 447 384
3 419 522 447
3 567 705 665
3 855 927 795
3 244 317 182
3 673 696 630
3 384 522 489
3 1060 1073 990
3 730 855 725
3 517 659 598
3 629 758 730
3 446 521 471
3 474 622 559
3 189 380 308
3 379 448 240
3 262 385 182
3 352 452 446
3 389 452 352
3 390 537 276
3 696 832 763
3 718 727 563
3 931 933 834
3 519 668 593
3 243 384 304
3 634 668 519
3 409 526 333
3 598 659 555
3 318 454 251
3 588 785 731
3 263 520 452
3 419 447 385
3 674 728 603
3 308 379 240
3 689 791 659
3 417 528 353
3 865 890 775
3 59 321 252
3 120 319 249
3 768 825 799
3 795 927 866
3 320 455 201
3 731 768 713
3 818 978 911
3 817 906 688
3 756 894 854
3 390 454 415
3 635 788 734
3 317 335 262
3 183 389 311
3 713 799 728
3 557 594 477
3 594 730 725
3 659 791 555
3 385 447 243
3 405 604 520
3 170 1393 171
3 452 595 521
3 739 759 712
3 493 603 524
3 594 725 634
3 477 594 518
3 472 556 525
3 240 448 313
3 625 695 667
3 866 927 831
3 404 516 351
3 311 389 352
3 352 446 261
3 523 598 555
3 414 524 354
3 583 663 418
3 415 537 390
3 818 911 689
3 452 521 446
3 537 608 499
3 529 671 574
3 477 518 332
3 521 554 471
3 260 404 351
3 332 518 450
3 518 519 450
3 526 568 483
3 605 738 673
3 557 629 594
3 350 598 523
3 523 555 409
3 450 519 386
3 273 353 319
3 821 928 909
3 481 573 426
3 493 524 414
3 350 523 449
3 451 593 334
3 517 598 350
3 273 319 200
3 351 516 439
3 186 351 303
3 303 439 238
3 92 303 238
3 53 304 213
3 114 245 214
3 51 180 50
3 113 305 184
3 88 306 185
3 212 306 88
3 90 307 212
3 94 186 93
3 115 245 114
3 53 213 52
3 55 243 54
3 114 305 113
3 214 305 114
3 116 245 115
3 89 212 88
3 32 308 240
3 33 308 32
3 27 312 242
3 52 213 51
3 51 309 180
3 213 309 51
3 55 310 243
3 88 185 87
3 91 307 90
3 116 311 245
3 238 307 91
3 28 312 27
3 186 303 93
3 90 212 89
3 92 238 91
3 54 304 53
3 313 332 188
3 31 313 30
3 30 313 188
3 26 187 25
3 29 188 28
3 188 312 28
3 243 304 54
3 27 242 26
3 242 314 26
3 93 303 92
3 240 313 31
3 188 332 312
3 32 240 31
3 189 308 33
3 26 314 187
3 30 188 29
3 34 189 33
3 56 310 55
3 57 182 56
3 182 310 56
3 113 184 112
3 117 311 116
3 118 183 117
3 183 311 117
3 182 385 310
3 310 385 243
3 350 449 212
3 307 350 212
3 238 350 307
3 212 449 333
3 306 333 185
3 212 333 306
3 386 519 451
3 494 605 528
3 518 594 519
3 206 327 326
3 207 329 328
3 332 450 312
3 246 391 263
3 290 369 302
3 274 354 321
3 274 321 203
3 795 866 697
3 519 593 451
3 671 739 645
3 398 422 369
3 673 790 696
3 454 529 415
3 312 386 242
3 242 386 314
3 386 451 314
3 384 489 408
3 786 886 851
3 757 852 629
3 391 520 263
3 259 380 189
3 334 593 472
3 333 387 185
3 311 352 245
3 245 352 261
3 312 450 386
3 594 634 519
3 325 398 290
3 333 526 387
3 488 586 379
3 629 730 594
3 324 397 288
3 808 922 867
3 244 392 317
3 314 334 187
3 314 451 334
3 825 933 918
3 263 452 389
3 625 796 695
3 351 439 303
3 260 351 186
3 253 356 203
3 123 322 250
3 520 595 452
3 62 323 253
3 866 929 697
3 206 326 322
3 250 355 200
3 520 604 597
3 758 927 855
3 207 328 323
3 185 315 87
3 87 315 86
3 252 392 244
3 521 667 554
3 832 929 866
3 633 786 705
3 461 533 395
3 462 534 396
3 119 246 118
3 24 316 23
3 118 246 183
3 187 316 25
3 25 316 24
3 58 244 57
3 57 244 182
3 200 319 120
3 203 321 59
3 185 387 315
3 256 324 288
3 632 720 585
3 249 391 246
3 187 334 316
3 555 669 409
3 326 395 322
3 520 597 595
3 328 396 323
3 568 666 483
3 993 1094 974
3 85 239 84
3 86 239 85
3 239 318 84
3 405 520 391
3 266 428 360
3 576 674 493
3 387 456 315
3 713 728 674
3 315 456 239
3 493 674 603
3 334 457 316
3 23 241 22
3 120 249 119
3 241 320 22
3 59 252 58
3 200 355 273
3 203 356 274
3 241 457 339
3 423 584 463
3 86 315 239
3 274 414 354
3 239 388 318
3 241 339 320
3 206 322 123
3 207 323 62
3 388 454 318
3 257 325 290
3 321 392 252
3 735 796 625
3 339 455 320
3 23 316 241
3 119 249 246
3 58 252 244
3 239 456 388
3 591 722 623
3 595 667 521
3 83 251 82
3 84 251 83
3 84 318 251
3 529 574 415
3 675 797 737
3 1370 1404 394
3 319 391 249
3 878 1017 942
3 316 457 241
3 834 933 837
3 551 679 542
3 892 976 891
3 251 454 390
3 793 845 687
3 628 724 583
3 687 780 566
3 121 200 120
3 22 201 21
3 21 201 20
3 122 200 121
3 22 320 201
3 82 202 81
3 60 203 59
3 61 203 60
3 1373 1396 1379
3 353 405 391
3 565 726 661
3 494 738 605
3 553 702 653
3 574 671 645
3 461 609 533
3 492 1297 1258
3 179 1065 151
3 462 610 534
3 366 509 430
3 123 250 122
3 62 253 61
3 201 455 368
3 422 499 369
3 821 931 928
3 1016 1037 992
3 536 607 481
3 1385 1409 1336
3 534 576 460
3 276 537 398
3 201 324 20
3 202 325 81
3 1382 1408 1345
3 955 1053 1028
3 175 1382 132
3 1403 1422 258
3 251 390 202
3 533 575 459
3 430 596 474
3 778 846 686
3 264 402 393
3 124 206 123
3 125 206 124
3 63 207 62
3 64 207 63
3 912 915 823
3 606 737 607
3 82 251 202
3 1249 1309 1296
3 832 866 831
3 764 797 675
3 1152 1207 1170
3 898 993 974
3 955 986 842
3 1155 1191 539
3 1242 1260 1222
3 784 844 721
3 122 250 200
3 455 536 424
3 911 978 820
3 61 253 203
3 256 288 231
3 680 1064 480
3 202 390 276
3 290 398 369
3 1150 1152 1140
3 750 813 784
3 126 224 125
3 65 225 64
3 884 967 817
3 257 290 230
3 1185 1267 1210
3 138 1188 139
3 329 462 328
3 946 1057 1010
3 327 461 326
3 165 1414 166
3 1295 1369 1335
3 823 920 757
3 19 256 18
3 20 256 19
3 80 257 79
3 81 257 80
3 326 461 395
3 328 462 396
3 938 947 881
3 1391 1431 1426
3 815 905 778
3 909 924 894
3 81 325 257
3 20 324 256
3 1347 1379 1350
3 422 537 499
3 1390 1424 1391
3 424 536 481
3 1189 1246 1245
3 1112 1208 1174
3 1184 1246 1146
3 125 224 206
3 64 225 207
3 429 513 383
3 1104 1121 1090
3 1364 1390 1370
3 998 1063 1029
3 1213 1231 1151
3 875 940 922
3 957 983 822
3 1031 1147 1108
3 650 874 723
3 1351 1411 1381
3 1111 1254 1211
3 368 455 424
3 962 1025 884
3 433 530 265
3 925 927 758
3 852 925 758
3 647 771 738
3 1273 1274 1263
3 1345 1408 1384
3 1015 1060 940
3 602 678 363
3 1153 1205 1189
3 766 868 716
3 1054 1101 769
3 1317 1374 1343
3 643 713 674
3 1261 1312 1299
3 1175 1176 1097
3 968 1015 875
3 693 755 628
3 365 402 264
3 1302 1335 1309
3 1423 1433 1418
3 476 641 541
3 1142 1247 1203
3 428 544 360
3 1096 1174 1138
3 531 1156 1117
3 1364 1370 394
3 1256 1270 1224
3 1231 1253 1151
3 682 861 804
3 1314 1388 1365
3 933 934 837
3 1125 1155 539
3 428 615 544
3 582 615 428
3 1332 1349 1291
3 973 1058 1006
3 534 610 576
3 802 916 810
3 533 609 575
3 1119 1179 1153
3 810 975 878
3 420 1434 1429
3 1154 1226 1209
3 1013 1054 954
3 923 986 897
3 424 481 340
3 1258 1294 636
3 1365 1388 1297
3 620 1101 1013
3 1058 1097 1006
3 1287 1357 1336
3 987 1096 1058
3 1013 1101 1054
3 1227 1281 1144
3 1076 1091 1050
3 972 976 906
3 1425 1436 1428
3 1112 1174 1096
3 1094 1154 1136
3 1257 1366 1293
3 723 937 838
3 842 923 706
3 1305 1332 1308
3 909 928 924
3 893 970 935
3 859 926 883
3 1156 1234 1201
3 862 887 640
3 1038 1104 1052
3 971 1019 901
3 229 365 264
3 1312 1336 1299
3 1313 1318 1298
3 1070 1182 1129
3 1020 1041 997
3 961 999 975
3 1226 1274 1273
3 744 746 640
3 973 1006 887
3 532 646 407
3 1391 1426 1423
3 176 1398 172
3 1238 1274 1226
3 174 1394 178
3 1208 1254 1190
3 150 964 179
3 1101 1137 769
3 166 330 167
3 177 1410 129
3 983 1027 822
3 131 1406 175
3 1026 1062 943
3 1151 1253 1197
3 156 468 157
3 466 504 359
3 137 181 138
3 468 1365 157
3 1293 1368 1359
3 1291 1360 1320
3 330 1434 167
3 948 970 813
3 480 1001 144
3 128 1422 177
3 926 953 883
3 1089 1139 1103
3 1138 1175 1097
3 742 858 644
3 171 1393 176
3 1404 1418 164
3 420 1417 169
3 545 898 816
3 1150 1207 1152
3 166 1414 330
3 676 693 628
3 1345 1386 1333
3 181 1188 138
3 987 1058 973
3 1261 1299 1283
3 1258 1317 1294
3 1034 1112 1096
3 737 797 648
3 131 175 132
3 171 176 172
3 368 424 397
3 826 1024 747
3 1018 1042 993
3 162 394 163
3 174 1427 4
3 1399 1424 1390
3 150 179 151
3 1176 1210 1131
3 1004 1024 826
3 128 177 129
3 896 977 930
3 1023 1066 999
3 143 480 144
3 1328 1361 1258
3 137 1308 181
3 620 1137 1101
3 683 919 803
3 1249 1296 1282
3 1070 1214 1042
3 1297 1328 1258
3 181 1256 1224
3 1258 1361 1317
3 211 1333 135
3 541 551 542
3 1068 1120 988
3 1243 1281 1227
3 1388 1412 1328
3 1164 1284 1229
3 1256 1291 1270
3 1244 1286 1232
3 211 1345 1333
3 465 613 358
3 175 1406 1405
3 772 932 826
3 903 958 849
3 1270 1311 1234
3 175 1405 1382
3 1154 1209 1136
3 1361 1389 1317
3 1362 1408 1405
3 769 1137 803
3 816 877 862
3 4 258 127
3 1216 1244 1165
3 157 1338 158
3 932 1004 826
3 1297 1388 1328
3 146 545 147
3 974 1094 1061
3 168 420 169
3 637 681 677
3 163 1404 164
3 1185 1210 1176
3 145 981 146
3 1117 1201 1157
3 746 862 640
3 1136 1209 1150
3 1414 1425 330
3 1156 1201 1117
3 545 816 746
3 898 974 816
3 1226 1273 1236
3 1383 1419 1400
3 980 992 953
3 1349 1407 1356
3 177 1422 1403
3 770 937 874
3 480 1064 1001
3 134 211 135
3 1343 1390 1364
3 1291 1320 1270
3 1201 1251 1157
3 1363 1381 1361
3 1424 1431 1391
3 921 925 852
3 1234 1278 1201
3 148 640 149
3 1323 1364 394
3 1335 1369 1322
3 154 539 155
3 394 1404 163
3 1420 1424 1372
3 1031 1108 1100
3 1105 1134 1043
3 157 1365 1338
3 1358 1386 1345
3 158 492 159
3 1296 1412 1282
3 1343 1399 1390
3 136 1305 137
3 1129 1214 1070
3 1002 1135 1080
3 181 1224 1188
3 1305 1308 137
3 1175 1185 1176
3 1251 1285 1182
3 1081 1121 1104
3 613 652 501
3 716 868 736
3 140 1218 141
3 974 1021 877
3 1390 1391 1370
3 1021 1034 987
3 152 1044 153
3 1058 1138 1097
3 1080 1135 1131
3 1226 1236 1209
3 964 1002 179
3 1173 1212 1186
3 1425 1435 330
3 615 676 552
3 807 869 698
3 178 1427 174
3 877 1021 987
3 1270 1320 1311
3 955 1028 986
3 1278 1315 1251
3 141 531 142
3 1140 1152 1112
3 1234 1311 1278
3 1267 1280 1230
3 981 1018 898
3 1317 1389 1374
3 1034 1140 1112
3 803 1137 710
3 143 614 480
3 1061 1102 1021
3 148 744 640
3 1310 1335 1302
3 1173 1186 1155
3 154 1099 539
3 1094 1136 1061
3 816 974 877
3 1174 1217 1138
3 1157 1251 1182
3 146 981 545
3 1374 1399 1343
3 1314 1365 468
3 816 862 746
3 1096 1138 1058
3 1209 1248 1150
3 544 615 406
3 974 1061 1021
3 330 1435 1434
3 1285 1300 1233
3 1102 1140 1034
3 158 1338 492
3 1311 1341 1278
3 1201 1278 1251
3 835 871 860
3 1138 1217 1175
3 1236 1248 1209
3 1224 1250 1188
3 1218 1250 1156
3 1216 1286 1244
3 1021 1102 1034
3 152 1065 1044
3 1328 1363 1361
3 1381 1389 1361
3 1282 1412 1388
3 1278 1341 1315
3 1125 1173 1155
3 1404 1423 1418
3 1182 1285 1233
3 141 1218 531
3 918 931 821
3 1061 1136 1102
3 918 933 931
3 1251 1315 1285
3 1420 1431 1424
3 837 934 863
3 860 929 835
3 614 680 480
3 1374 1389 1387
3 178 1430 1427
3 874 937 723
3 1340 1369 1295
3 145 1001 981
3 640 964 149
3 155 539 468
3 289 360 344
3 360 544 344
3 539 1191 468
3 559 639 570
3 1294 1323 612
3 708 747 616
3 620 682 641
3 700 802 711
3 748 802 700
3 774 865 741
3 747 873 806
3 844 893 751
3 901 938 766
3 939 941 876
3 902 979 907
3 956 991 904
3 939 1092 941
3 941 1031 1003
3 964 1006 1002
3 1083 1114 1057
3 1079 1158 1116
3 1114 1164 1118
3 1208 1217 1174
3 1231 1283 1228
3 1299 1342 1316
3 1305 1386 1332
3 1320 1341 1311
3 1322 1381 1363
3 1341 1368 1334
3 1414 1433 1425
POINT_DATA 1437
SCALARS UX float 1
LOOKUP_TABLE default
1005892967946094989215882177750111060240778995136409237144534489280302819911799911113666303110232350834998375073447936.000000
-5179453465764773694746532896753740514416416472462757386076496190860414527951720111604864628762538345789158198077292544.000000
-111086756708929443797983128827244748786283852157076580221048675243430131675128441915415455795745930247628092338304121307136.000000
-1166414643032567773428528063152366868729509476734157458687994451466756274462662807466244857934093967307785988361682944.000000
-611822244024945313942494144073002486073448865341702614318189503782950293715120606615107173517770780400948524524400697014755222618112.000000
-1891503499056965155482281962551528767591457548606662073916481416550338403791712840537065689215247197747387958850224128.000000
-2387044005669095675747015563243393171887292156138626691115762665354289061651794065102044584593994330298858726362185728.000000
-902995625291958278417948122478565348808741630256533041675155339437775288827138564478262624327047477832951825136877568.000000
3200049794045052314401525232092813340303663447937182063720782802404150857371961832964685740736741161367637190013616128.000000
-8903521389118651806919787908299793614620026642267421977594546556170776852675962339234661947658546395637677739858722816.000000
4652186511114325578164401320797256567806556336322863182356418661955877956275557108908303513433576328962109682541920256.000000
799075191388414909086045505088728724049814683567984587895514319522338853481161003140695677316119898730366354080137216.000000
23512286133281681678564990549964300825631102757034156771840221369763117619477837104077159937087338362545192319840157696.000000
-20296263759145706716147224313546871361645089239438059474475273995124696937646036381825569032687277693520268628611563520.000000
4072925079224527495855531884491273604574150499335389149463548246335412136882765793108002650964908746890010771392036864.000000
-2725743362502682482194386038381331786243005403229369955495575722027994166939777315588069685626841856086252186945716224.000000
-4900804599608342266308102233188517608519693105864696065370615341809486898885353990763221489805801951482908281130713088.000000
7203117546097893535535090315848858017481791352985424251275999238208088474806815078364024500948783908941097407111757824.000000
6114600960398133360067118284393655077998082202878789639217109184870951218705707331959562743931782780960073467664453560575817940992.000000
110410154927365094835154999935015962334873614633419194011446097498806839723642157318771460383586364533598067534203182559910892142592.000000
-46945701771635468610516177805427031258256522151333568494930872446425347673065197334780810785016481531465335300067770906456493129728.000000
-12275210118014389689389603845129203027655805252220063880066023770172461245398804788103637423710570626926018051258338254362513506304.000000
-100301462973400410956383090182415883880996773505760614052298422240845351535066111286185166204857894286348079587275513160760456904704.000000
-100322580688891534013789825059817476972115456017506923876283796330111468997529285927208334762435525518264915746301096197733646073856.000000
-116576414051518823460163875033728804998541121200862165296455992966898158600297903401371642118280407280302975268373513875013603688448.000000
-170723853444462722045393721930322074419500696223057571623339420446512529366684582153417686705849017574869048004289445429019594981376.000000
-206792002829176130141429504346098772822565565123004546941721391538534688234442947976810063563721838117743794259126351606490230423552.000000
-215030901901562278724064745716717048011164762544765781509105059985864663438542581821322014014922470847789456259585631854434541633536.000000
-246934301698261290559760838538729195891012852005748914000910367530881188328564770069183220232920237709413222826107206271265759297536.000000
-254829028102606874363818434738248945868318770656575696985429645625291725180124956370880882516089620689035900907330480432028747563008.000000
-286439741531160951530851292876202368074967092484657018798106816554096641826303592272813882359493517199339369544735358571577960562688.000000
-259369018149644093234481190456586513608562754729122189201950889404523064535347715752885500402837906827775081379357509973850867105792.000000
-253457926765168142142861123678578886280825206636488176554719202945522376978775062749699705833610346936591747543085960549884311371776.000000
-222309937374169832459303223294674706814676191111070694930724836205918889913272281974792733656979767957821077520288245348678657638400.000000
-179448264539405870821091182086341730669163690574520869471567783095608147070585279606984993365242730333739134337778561650871767138304.000000
-333886274849224078842428152618464992404620897796153051924087321811852677686765182225458534490799954930392285742627323393281009647616.000000
-221764711287566847865667308592926857241412675544832225685956286560061594539519072376310849930762820889594287402017728259878398459904.000000
-255790200896814887001610069425934515934759612481614896442836729586337661300335245171336087633067581629939540109947049352215788519424.000000
-257176565007589225147035068945489302885303135197743240057858896027590740097361400369897495482263387013379482991657124485532913500160.000000
-342590634080512276314837680893489889550946519888272667532986319304968817014298845172300250685848896421933968202443731010022723813376.000000
-402451429502368504779905454781230756208768536425910799820002560521052649381305013633924164083401954171681023934957766602397524688896.000000
-498960988779537957334086676369095482142754526440782806143234538784190346263765616515854592461823042181283593540658348778147152920576.000000
-578322351996857443660236617090790294571617584492093552371842744255016371114222365187027062046881823879065769459034840879616407633920.000000
-472173354964390087106160889717388519189420859299956232594136423688408245592848469784101086070085465463008095004655517331239567622144.000000
-134919415131521133204420901270486147776471829870482364625439806409798097768628912885632784390899311846372218674676023008741648498688.000000
-49936212487015713400380358688954907164375416219906668661887391110381491175120344659024769187328967916828957501468687367463986266112.000000
-1020964499352349085685164842658660412754463805619891527319603750304200895190812590029228308905444653230440952041503941886450333646848.000000
-805079682993470753596869383265319920485980737290368976442923725835104505698903463853016503977932246140242884677761824071953716084736.000000
-559433315370983384963024537598640527490014213248231183441987422404718454290196072939194717566620867611122713288164326546971637579776.000000
-401532367727595571374555678408653619439594917604181725134157145659798539132245148907674091195233211553553051778148527906946639986688.000000
-355913737301434502995762301453396983016400148552700142300158687808174145554560012849929557367184940338652507685679474153725488005120.000000
-324166224311065085722269485467815819659644776784667261814248186417456476257557457454507750508597146985043224610860673161155443687424.000000
-279849342832013873413809289539955140074601336334853314024935904213181118480393337253495365193754685343161866705592905656992664649728.000000
-164514870512634923282388862902654918111984891626274510984470750004799051199079577338207935015120434482547158060923559581143057563648.000000
55773525913160970073979303197390388000840574563402271357272453718978488521590959166421360831739600645536187435635156452502673555456.000000
52143190962291738395627967156235329994878595471417609193287323996954659544625689284421005361170716063839445869562837436996268326912.000000
184851862428527495527344684970505763095781333439150653953201017385533989564643056895170025405359681965717191477216637419106307407872.000000
-55530113527152971865696763142154784291764241775578421847793939989023454596409911623508139034712141421697562696712390351525062377472.000000
-206803107214132842965228341401314639290094068540292903673976418253417584729160947368823673419044146212138029317125142044332198461440.000000
-115918989335232433482132611332200941568239767328271182072811208804746990412066788622603527807926227102622189589718127536615427407872.000000
14509423125131033828494399484391170047387590101446490436997990429341469097451489855336520476944891391618457816952585054954702503936.000000
-36016147283720717743371471177317399882817584494872904539153627847224888618211319298912537349286727364601191025232645925409233305600.000000
-24511772776090018197748715834829228563018458953278465251642068993351576455158802273045197462625389817680178420060069051980555747328.000000
9178791251001848381219169126013072152475279444756644561166569060573619005699455338793060698033958932653224640085348811367472168960.000000
90361895255292544436312132672269534941872682601565362615118702983434626050303088090867980111828743478441807562673335004316041216.000000
-191770110115150079016558139422860379982115633639518446393246599669050471754823264808147482467604821348150676100744956802339176448.000000
222172453171158823285771610018480760082809460710037369693076818453511028288646786151377199609528223057653324394385004036096.000000
-14835377760228602349233650034580866288450495704608539985038638006082269806193024406250457453161348781264477997017214222336.000000
-165777592343430959186182843089732428509465867391348719659510496532029119777774944171130007357032833019707179120073749037056.000000
19238059741343781679710587968376348342426050168520866127953262939482364249787055873983429575308487647216141575492145774592.000000
-12280189971311881501588231577333041609236890396104989553047040023067818175941026317054820679149163993876931136550470680576.000000
8909597002176408626384274644253254126612622852234754670520199171125008173333196807014444706681870115904702032002852847616.000000
-2385235422411864114884390791492941175279168423131232316712243715449923235510435819436517824960114357084330766039699685376.000000
630917599622319845964936651122874996454136314844548709125558189965483458476196658257329416610766945357086218557400809472.000000
-145443651536006847173762958558502767121942772329081372357096767026613388040284411680174327899696578550605606956738543616.000000
-43036338914868403091747744457652228026092573488907437913274206088370344305850837350237564894618148857150025200845193216.000000
75462174046964741296020705461432194889945398844644403920981990247946912657542988396295331524144961810571416517073698816.000000
-19826015516934352027814720756763005301917325184894140035811271932217226095781707887843977934663178777646634494215585792.000000
4897208493735054124953118978493288119163884091103432163869108575752736970516116319904154646422448371186025047240212480.000000
-24084874193021465475105044910248878454247893980261844167966965499077352200792795255738297776501627771843859042933267667930165805056.000000
72404461385174845912828322943654888501406206230808524732022878303719413735227862318751664427516258434250139178411946774653566976.000000
-11339294964910787808511488869764149070656107335808383510491602624325352649953871881041732660045359809083667689995454480057330827264.000000
-15102133158312486831351199404845131159296447548862878867133303894156117400712275023297069678770538019093540879063030662612316585984.000000
-23007008259296617881118902418745031906558682001750904162934234080161431064894298835986369973778876605758945618808229072066725281792.000000
-99757211953060811429081665240829541668752749231904342690671999783444376683929449587310118066273355211146201419286630032391115112448.000000
-23638771902730237789035417084012767517224136160461834061106565810862192900144190629597535679618207039181904877393428408496780476416.000000
-296003172670572682024740490551430722836125625964154358830718000379170182341734574212280478405136262432507331694418367588557847003136.000000
-455170423567165463510074703097073843834922161448339913587148174367685381800925837429723647398175888009726454527204322598359161372672.000000
-237258814974402047078281600335937626782201540165663737252734567612311081030484155280922875646961064034442884968073846812169381871616.000000
-352571310275354013072632677920150072850570170803534788889644592117500987820041998355854998748135022099626299221276047859684892213248.000000
-454335965023590099529475307435738452757941865571562030961404414244275331919462679286335064691169363840288429374570602366681856606208.000000
-638384553421838174127653085930183393887153634904688846510869481808008702571375464040574710471337095574588589339313447432172582469632.000000
-746650984681239957284561285384910216590100043604499646000620850627616966163868835382464791821867080830624959209089861861058247917568.000000
-883225476752420691620155665669682999788688303440036901395510541238575251827080386896364252054352332535718070377146937037710329643008.000000
-813611679769834262452397334845089848417769176659313594692015760041549178745199214571897123070490292318234463784623934410456844730368.000000
-1225909818673514273263349389915393148858653062564743892009784083337535274462343966379291826246280634340240575355787755697750107226112.000000
-739578458916008260709783126341629579760926534046913122540217137039132511362017565446182098313073282227359149783912155407468634046464.000000
-470742457408207936388966812344851406686443522896443174800837307286056234137490841671217333037960947376940325828407451781113954959360.000000
-287790287828006288223413628879294025986362796669109535861833251415609836150075120440279243982602606189212981148654203927926268755968.000000
126012079333456819103317218012885707684947452909894124644946933595928624256886090425111425870028996483421428379692367052567216128000.000000
-66621750802079677882770930979384784276379138980481068562273847637546089208658685088183570791454034815608792613540533406582720954368.000000
-456819701271562361701734858471944157835426191537706274194603411835458008228701857755310562947801225843370495646092847472654784921600.000000
-2185337125410559372788442410177004950123343397043948496404468092709881426063271418270655127653531951355218220281429518927700221231104.000000
-227066883416223306703941468526433286541578468837303096991026083213330204718205323022272858781105278669272046772363298907800622596096.000000
-240520883698316751409242134923830208803369637264939806247579883141390404662783235061864961770404667164207183312266104283936520667136.000000
-225440260346130326597807719635694432051283911426995124401332565281714837845947755642357494428620248690231831828754910998973915332608.000000
-176735687654308670221553567200021600256874263318164840772018725907487451573388454579951776580411349895166807679326206193110546907136.000000
-244293484873703924542976313054547975505624786195571631768820096424691450163436167907448717849017081111291136913933029774547111378944.000000
-335272541312599309481169059051438721403036277889606833787285989794834550189085460843656258016303816623448497887014530304118181855232.000000
-391956456882545353945314178121075873734993139093990732390205336607133861129129379585703974731954456620371981331599410031711509020672.000000
-368939490725944062018014469891110494679122170215763410956671158421310944990761272874127224476500648317160951659246036944199387971584.000000
-256224363502765795919408475697566986395914231447165669032465744843453513180600331961606480379091930324266854121045493758683986788352.000000
-185584958706153103985834507337273452586963901868554934464641344681615841246270872264493090388387853341824887747044089967340416925696.000000
-160586160355125980460105606800321895934324756349533706537584009779873561684209202607318570745912669488204610438572276615258071629824.000000
-55115724104844651133004019869921224525501775882674542746009574040332046689571582266038988567497964154304384905988683950376821456896.000000
-201990801002611180232113302154459199190622983294405337352446891562270748142880134638074789784113903167418014060242110497844333903872.000000
-174050234042916023222360146837281460737937648229483030688969223372878248932713260550311090380842245118278495297482530301492412284928.000000
-145158874681421516735679955437632458701489109350582196601881627514779691267719500502571259553542447972839375453414638134971586314240.000000
-181067372522742499911327902406521422579118188167200431148859110949105359996506759178426994783953664667870607801139375521242537787392.000000
-42184569186381372538195551146684551492793126403157490688644024278137135376717340644002951768749878483414967563841957277126012960768.000000
-78706693388783999294371349697383479285352692994087379471857084795888330325546966901078836019874331271773417262468869695060037337088.000000
-60448549290976368568473904502618856630247608051418918965246682711644539986019249463495754259607516755242434359007090617050604765184.000000
6018178916922088825375012841996456473437038615496932016688969152812069932850130388848557391713855065126485985064428876210380996608.000000
-7640305838649586001704050633625682425929835458775868732850543877964888897126395796398755590429874154579626751304179045015570350080.000000
-58397025711109873710149539121786996336439150849069269335140429467734139056756876283559060215540909791929394639633155477072924114944.000000
-27772729071922116763721509579606866681558069928289543260179573521784766598330952777191148747610899006156391246736234671038951063552.000000
-6057081011728445279709565474408920209955937266811000047795528353961066053729814761549414914567898995930313799953714116157604102144.000000
-371326340144624255686661392405755123356490037563198791050054698365070303307908277204964616521519410805812402301025318828581945606144.000000
-475258711258246126992358139062808390801707037960896105784169386755124157077841113057168608412600379962705307718667025432455547977728.000000
-279542737659089171627069911281625508722280930599424135617752653968025264742783528018492099644798324801077274915148672339017358901248.000000
-316230237071248757420873740782558876657304271535396134387287975623304572851161495266088869164198602152603451070653992375833428230144.000000
-46834772063201695262504315770126980088634767881782041740711862206318312579334881131228967638562173088696653652472806252832547143680.000000
-115808952732411256602739932334860719530179818578945176044604305035897009283486124185155990761680425082318108449245646557344715243520.000000
-170553402343024636865892870176515573611830849296134896036022680346480145951332744104403755942886416906438037200436050108306608357376.000000
-209524793137933035220050540201426528802067199243505270083054609148360965673545541909886783215303763991495262283992239784893702209536.000000
-193392085190037410034791393817211049622263254728268474883258111445806928595414657414280568105642818456189716536493576333556602372096.000000
-234357225117436694008455083939757798135426866030901372988488214524883828427051123116437774231274816599056535454339152820737010565120.000000
-146263366993311648463564682467939731642171070997184442782649401496609297856061039145339196565825324726953561619998374142560438321152.000000
-161987549786966692306306616776175801547515483248273572670273559750104378782339578580271890736349617852184233339057015403490639347712.000000
-161132676667997059290244951785715319285635329580316387367107765376298110284261676875419349961164971107560703341483973758396697411584.000000
-154036446253204487989330140562951504425789702812872856123376388333361903991181065074481176510652775365342787548796714379006200250368.000000
-214542743143228601013743930997006968197246235826022337307518358071936783793015964723734167994466615356292465953358497831553754726400.000000
-302926350307277326630189769006650440022882901515248481957138543302450669229238755622767760064260025463273172570952739045367049355264.000000
-280125584521253658984732740618891583799227843934476855274625435321742732300586205274769371709208591541622166491771324596429218906112.000000
-286389191340613994614274209352299614209037852510498268108744793486502525860687038661805269851287503048925508018070813674161773215744.000000
-262456075349750083209768421307563762023744398360272248370059258439363172612221299290933531169836447250444777413012083541458101993472.000000
-277378282565559898036031355649976199429520420989297697429039415676443575242718114518355822234717731895791252522406162040721583898624.000000
-247089423325237699467484713045320088502059701849440253430083293590269570735758300719606654893972236666865318091286739570108798074880.000000
-377777354752177116737431230463870761774068952228458609923773395695545001147773882125923144179968845308663949978132478882357436219392.000000
-342490536313321008638227559973961983215300326661257431752262948985304013924440005574514012580131536037643535824634318213634924216320.000000
-334404599493001481227709008631967331688857068184997833599322103723368430471475710048285164174040081310724978165546508351400595947520.000000
-365066230223430580527680512512979311099654310231989056166820716549444791871966623889431566923661812521742364642659406680360895905792.000000
-330558835905950180449277603472315589356693367472443830241047156162467239665903538067531171619165381531282804504359064452856287330304.000000
-280758434199109196653122452765334161797465550100113581778846057951457912465838055087531634756169853150843096814208732721207123640320.000000
-247403684842340308937656603645990747500700139364081615233533560444215419394829215099854038267923341723433633021733058969772973096960.000000
-214051118715337774163721944535512345092411151916540216006301947610525766458092568390583043605352950307792687934017489830781302865920.000000
-259986479850105591515006154929255445280544287500409388822425709274402804372186160072461469194321033703970838293612435080909475020800.000000
-312287377473128802778912848710944082902448684326674192078053771502883389632173035031429172442243320016004257058879349946485898739712.000000
-374266104977309137075436388368463343928603455589406151265360619825733665285904615436969300779157086423648000399064530467945422258176.000000
-404112888979600867219782101138796399335474450132908107939404171923340323061112718833042942327969687764582563011978567230474327949312.000000
-417881945289287765718485175860258904050140476455792849749705756153229033959721162794281553403708698519742345506737587130408439382016.000000
-422594899468511755426489614943114388818231892497893259044065696991986080752146928405740333924268859803863065577639345200307044876288.000000
-274975102990519133130688734849532949083432254427018939213957698552262292767001669098932626969764818031408181648511497456319337594880.000000
-276673071922281274780409234250051560269658847407330923321978588369289650727641517130481023444626011939459703622030909454066319884288.000000
-304352643649750325003433216100410696761501284894461876357162725935360889924812961769491804105065487256314075110989754991495855734784.000000
-13682445071410105503028474151061513922922547971661646620434954799764013187471735309352467816644434866829387330254163456253757489152.000000
20696048919813071344085254193434436233986098595891458863495990017211499688832802018293536232569822697163032477318297091572987068416.000000
-105190581565735040378324008332899117708918891117885327678266534990707447897194670914670092896486003806295721036054302741533472849920.000000
-233860269733936573071997097716896306212385329389236554949060157736266654411572362781867714235872643354083895244905035133508804149248.000000
-207967574829369581230055159764925840939540454165001343018967321806000873810881343261662087486258376403113628063928852481787612364800.000000
-8849863942143985861399176687601771595173032475382745663497893133656075870946879415318730069855532677384374672082577798117206261760.000000
-135134102097878209032799048761350711606451206146454787730814515289989693555377667808631970463770709715583437741617443612643167305728.000000
-323952176235540045275403948715532402893929066163179816013744864632142722265160320391982278979417093760381065495588596120187274526720.000000
-357053730404267285551193687796785628639153051959650165245547213943445609657757132721270096125129906860042405323158980846448925474816.000000
-421056033520759676126624552466291482391025989157848640171185104532046453890033902982306200053591315354810881423936284392021844557824.000000
-216112933518644745992801441531875991665756134945630211891024361803438929226806582069493916200414673261565056092270745446914656829440.000000
-223497459317163500686962133256152998159485173583285499389286128043498204531950136186424273851575976301854291875684834679286965207040.000000
-114736342892118950669554097034630381040946376561616182119234376209182125650837530862037663692520217797095762281436992799243902124032.000000
-387331673314406951938701667407703052577232961060912281521857868533229961081722918754093937213243562693516295855161032819106935472128.000000
-371222992445616455934991578890588617443213521156949466412065065560717826663351387289578992248064552296032366985462879030611848200192.000000
-343056816277601472237015395116645415007626187250607507159449501305521951193161165532980983280560087244351967305289685548427148001280.000000
-137845603980251259072449303858939585159104397798308032111656852755530021681899734894449441766398229729963311216817460636021560442880.000000
139948869869402014167453009226885225874816456024497424570839793784587242644412743765187856863850192870304727713747372066283628527616.000000
-207675549932212246348217357292440691553626789954403865253557709803497165708971342920066449849422281716740681536039382225574225248256.000000
-185464735592594394142325351935096127968657635516795565819872097356740360153065634128889377636969851092033062449497565161933154287616.000000
-275913245674785886872843540079687095573228037790581426381238296909990335645718177557865886683363393608424816467664876981320293548032.000000
-849435686124196976801584246147101450962874229469580511228126107736729085062192844373712351490921763629965069135205199029447558168576.000000
-164320848733039405634608965861531207567496366758911510714021607991101541354279389465636185718630959620787825551290307599820289736704.000000
-273014143552344733125134792337843998120003938287229993211994612419270934675883926969534452524404240288433105560858771857603131604992.000000
-226597169321176243924961977953844453027161661733607311249944311224886638839288501206886623958326504824385507468736658498059352670208.000000
-734638703270932313302455564690209892771919673889676924385133444634878146380089879282900287393654653774730761882663499750917600706560.000000
-324898288964688558166211621048348172536852837065125625151918289219178432952641420372594324292478032640953317438651686599787318083584.000000
-287204271363411152445239073541515560687562104762823281992129263151167237330575753407198300722044090730864956862320448881086986977280.000000
167098833732297736231535571577624816308268771714978441084894207432480344506088839149511564017445923395416466578069847163248452829184.000000
-1012099463042666722316428297027306648847490136096077527431687370771781595045523706332665978663951850885313125082753555563145714466816.000000
14665942240373168754081459962343354835745107687778044990600411345641374943180684592409400132513046767725092813311929138757693865984.000000
-197511959008709860970533248399904489416857667664222212144186147056033162870480675894182042094604372986795158115298840118880976764928.000000
-414543516092870122433779969696004490220819151346990919897270301150166132285990488458764256902232990501884290887693232852342367322112.000000
-565632680442941168852239965732304496348749695833716662449492471624713080563438158087080921112905579351416258185455132083106061746176.000000
-101551148054875246139808663768923357844149059753317762336732318994733062871252727602042811922583796398048442545482184623485276389376.000000
-34538613948046354828397817764614876024717098869797753185000396431122692273286348419607688511053158940803817309431625690466020753408.000000
-84001000539298834382834363236886912423816914063485080361951691009582281467141798339299545740472268689701871131592886641330537627648.000000
2169881229820486224054581576168869111739573518645076937655527554373141750595382447659469508768813436887495795005151850021408210944.000000
-76866464876457218064263381000893455145336092666925094018375110202347900702456362050482983902746722896298174026464817163821377388544.000000
17776360459490072773611350603067708558292941816743175915804336702780884631815258352351276580847655316718826818598176494553382518784.000000
-2798031676615092272731358684267121297483420616218192358062729773670115417641935367332909712924733626700376891001764659609959661568.000000
-41568670138223623348676281866522761427000020767772459808562568306767784026438324955208793987199636659069183655121734915487147491328.000000
16277891238846912953868029322210192218945909526021164917198230249870773663487241726906720059735471775825263587215245006388515045376.000000
49955462040442437140311551924462995166089788515779227181870490961975041574068706365531302340137826855484247537867603020432302669824.000000
-10423624583011984179554008864203648398691431517604678471459731310047956124434781166739159046754448591193709474930024547181834272768.000000
-223864358476337371291856880118129730436787800513317093449668848602604431353727575512898672388049992727136215773779009959235439034368.000000
-245850895667375987916057794385003851447818161946022771473294415636896679437057768866607496750061770668425261238298572480953463078912.000000
-359491711625252789609945396545415992858983561389128657354029636201397199073520916512132663617522881818064387335416318219155413139456.000000
-289557519263618252080252655513729595123334454272301684283737830142085290233803554347172510524638572899827280275916270525071814033408.000000
-170100252278219718511880270466278504773354713898297588561062945712853824985545502384125297127489727447019527122512929164522017521664.000000
14037852848480206385416140540160234425105548141601810289821711353158074422776650943908468406787451016195954510835073123513922486272.000000
30988500705649619008693080584549218235854134276465409978072482162977710463138306633549079437901264798913886700015719749615878144.000000
-203720864104873325148855105580414091772206380844491865474309685344513899535806165123541769384690015065758618017050743975298753101824.000000
-503798931291396989824549267321256791551566534113808724485838322280663438113355787844248573118437098365403069095036544069414552600576.000000
-121105936055729438432412475229025193747373419923924014964074303388339632296950083508596611351602296870790175709930809822396568043520.000000
-767261163864447461558538105221654050742707635233512992316710922240424589818565855931178254582754698296838396531088487529637082038272.000000
-458079901381738101246885509473121658233622064927034592214845472031745687807356662774378680754083005934957896403888148913369296928768.000000
-392014526034663070706542643391916375194879097454318976589790544558295324699870975721091164205301227967789806770218797886958722875392.000000
-183267318392871945590523245751983528461630265138629820148122894890476311670130303834115663636879624356469161306964048501524974796800.000000
-19870356116141389147903355693963961071036612035284709070105748557716369277540741999116940101656965678153334966116323637862680494080.000000
2621567904143079068638689465224422240809666175152780056287071678390937725038161621015457234349717892296401576555018963967480430592.000000
-270594713673945629041128412047342565776601677386000636628370565221268300657511181239517583667500064583919593714220642129009962909696.000000
-471148287920182943448245684739488035861074635421427135823071394397258073744395965432132209353987058455049418383655368379111368032256.000000
-519855903773344388017796718594932667347066718511846705032148942443092000573648783163870968370296747561243591125246890568496646717440.000000
-373908783960544554736192348837785059265112315927739709085236787080508781832973352877608167214320971579891764662048439154557201678336.000000
-20254362940084406106920632653429400044788264197657900213175210460567286127098456933092806061947260459350624786680197011521960673280.000000
60838424110288445780631876489773905294021554068231922029035482121356452715100360632782628369717734317530277155329261174742124068864.000000
214281841563833978201072625062980108574311647862817041717381328807372747312864112833504317459214175218002155010593152193934655488.000000
-221598474983135069967667290312561950667879914557447978815484993525663484010054865666831783638508240254867498079858573006897938432.000000
-56241468478259377525304135515010049056750548894750445492637057919188298061111302717802355214433458750216005956456821277801215688704.000000
-8365551065015942356707573711675939165669452166540631781744033411021590143016822889353694778566952311523135348868832714032597172224.000000
-177914672068841139463992177701098052095053084920624788037909844773237427630959463448940631469946059678779208513407249880653857030144.000000
2289108583776152056589134211309604218800068946530194042452604959740896014819395831126798221873451447129623531431495748270644264960.000000
-585573210146838708284816066494758340412764914427791423552516464892581835829911836014771958831497137656413689865810944986248743223296.000000
-86549733346551883133083382841257193689465474931858063289876827477336683762850508742326799691695990666603190829208037995185998659584.000000
-270141120809930351860136443745351662283954051495595415920710449277704780344199349563852063384735265534891723830392524158475482169344.000000
-104112487957859600879015487844051547252442939647899715077524959233076990912455957295293127691953083260391560565156070368487015448576.000000
-220087047250773262887277064913094485652817753093529527193268653394558367079260854607794552223876248832141084490301606230319354085376.000000
-42877085201893135961479585033125592820074430369073804827069922900562996420663487003210188566310274297851669898439588366847540461568.000000
-64967552390611125951460920304388931287084195554990990037031986922722355516145608304403418452190040423230892179880536468081688444928.000000
-189112885546646104863470774756024013455512672246248444569697363476546337790176815992194208663206045265705662841897291065615613689856.000000
-159084659010264938923656200392217316510077225571473406774136944918270725110983441818123288174200971401834256310113299716623938093056.000000
-998251134273568777941278731569735677294035735921378706484904272809575788016645290323592303889748982305027837561122353223295534366720.000000
-196822371647230728584502319882136599516833063243367588174272706108893898805019820223832315184801919082866274523292493430554579959808.000000
-33121974409310335193626848432980947064212258713984262091014348150172869672667849474183868974367151426747188502270476166201572589568.000000
3332645073793753294752513874954690992710313377452367565604540858875962151303613726716577561315692044843366558136167829990327451648.000000
36450885375349140179535384235837187049420190170091598120745140879732017873312653713711157854973181549499823758065215158599722991616.000000
-115224014687442196596483339086532586931207755470243832473402143411972812410605091341348170290584437070134331200166129326943197200384.000000
-17483413830530648801552760847919796855355782942887158135723279028663990981413002232216283423161177697003199202843042146020162011136.000000
11145876734884751780040736679996457885709364211483535980566919916384599929180481789583989868707612280038876654052078824572290334720.000000
-7307096701657367158857260020020899516388833327377118502947764858538639183290407535563862171826648560006116294025499687630313357312.000000
27751021397949829829246910794748397601426534182103004873652741628132172176203857132262509423939666926157863299865414713696363479040.000000
-17453341152325569989700226976751651994513630335109218483591822213389152676844143552841181629696138924363983500464407888253522280448.000000
-426856468334714199882845544005703144935859462920340790800065717520394246200948353512437179380507407639561898456453357962852416094208.000000
-233555404710128397600388946592587492838267056071220621358354932358305409781665942772086858006332814656754133461631551190902272688128.000000
-724419071260362253460017495964199582781086052071016264599737077403545254149582060539848459050825648239790756389229231582827721523200.000000
-186260903608510272747300857407268744981908650538090256384798734335856480787172425639197550911582623487612812469398509038724444061696.000000
-145901327009150469926593591178825947947638389921037616191747965131759516307300454758686358431227255988598964932380179796710498762752.000000
-119533524566748861950101179215106487035990810283313150485030513839460575284281021692282059807451085145439028110388803166378796253184.000000
-239988422725760180914601289134297649907435076507292906849138455015013407868210683287094591937009607180996975644961933410995095470080.000000
-623761111964989404719643789672253131876290452383332800527504389433740674144249371211793931442949689087410051619745009360160440713216.000000
-292488094727926682616970715860989028665816726078295777668014070259457403852199875124002314407611354746930224280694388495092876836864.000000
-1147834710965248990076384748702860741107153165676384019189198852832570108899961860838627904356038780485966666244608927854836152532992.000000
-633379620729791064427393805683400725215914192180748940627367681951541791285336487732468219362394214367293880711802037701444422860800.000000
-426263549707953548198140171056918990180569816175155583277750072442222268603252883014067438899122835069296472418198633948205308444672.000000
-292703913952508808779144482654867713236210332607696278476193921957879009839923819632632276106587920486346944910270264420723907887104.000000
23660270978775947552613841645788398111005643382285748220269235902586467770140891243538221206706394736815258496114439016581611651072.000000
-163635169089513825598589274910179066696941067155111220115470762547190932960848634202985063812205153116663564933918096892739215949824.000000
56704102408377885185689846593016459506188253234176099715851403966278750133431696678448553461617318182705842302717674199723622268928.000000
-92002902513330097754604907048903673453736996425408164399084169310991312150795343589762954896818730404427673506899821716050404179968.000000
-771176077659651192226759553030203281647568567463041227053233800722267500550339373913363088551853590670038627475611553562426867712.000000
8734334319898059451119140053232393508993230212027043966386018418134121755470517541286136488025822610218012193103535406848717881344.000000
-72505405216913320129846971974868507103749365779842523090340123100557637552803836407313798219416328462926788748894478718174477942784.000000
-336007549126740164181286483614604591352189341289874540280681449754365513300412109458875357931182681388349628886450021288645494833152.000000
-829849455550984348236251414586885564065285274928846560541410826853614473578098708783871531654752640860170008376292550128170354868224.000000
-494178847437282476480949041503751918726097785550059126908745574851478235662638571252040288307356200383248580448642636330025254649856.000000
-1458895877587282253151925934877931258124880769385341454925500247509996374733200149835735189201140755259905366953021234465221457739776.000000
-283074248669608196887358413359620297563038596069317508952963447399623345512431546620186240994327840131338872373687910754751279529984.000000
-264341707391366528539946866955230276196832586523283925144344440292658107257934875135517446459250810685586478601705561340308965294080.000000
-266475937323885755133835169795709984426406102976575325239381030922939064960560219475669453425151946980819102765212411042276241833984.000000
-261119295079077849381947146030379422821318843400760000961159260226646805922986016619817338277570394915280122076227170741310634065920.000000
-332903998384877963412916521304527555909663415533794985979169263391982995523606673710656368048246004910458584551575536419094392733696.000000
-614953439979238588169766579353575829248558609742045165056358124416537890186440362288291747693500879198154371338250608102528899874816.000000
9464658631909634304312046394597103414995487988676737303507454255319767058965917289023901820093722853908642071049234999978848419840.000000
-343060338045452288574187955148163866694818259848081662853147760025077653469241627135441039284077904991020886811230360132545008369664.000000
-22447373707472144061075524491314483312521963968540147457755704725928508417747751677734258690780991550474028951495450486486656352256.000000
-852553281247691185357312533471681870356814779884359023319389512631400066968157685866261307422650216575329894725331490044648544534528.000000
-311319568403854961961966595138637061649347752983134530879958656312808791135427858129011233223587995288710526765724362350508361383936.000000
-248678062785236855936880508918075800653419315742740779511012335741913944394326260372467783696860005095013156228531991933605709348864.000000
-78395103495722249080481391993077737002767522746838678654884507017158823705968308703101102455597556307370829634878221629461320695808.000000
19873375044144238441616614426239725958372861173036977123199352947121584839750052786659290718798896876287915200236174020505128402944.000000
-1405926293725895744607506751963013236626614252546504700761708800696256460015371538351159824879664471728906876198966785092878336.000000
-170647739348895221991272539273513275770562907081693869952997237200243702964015556881475622173733496049163029818960268830394227359744.000000
15656337363279459592266750972014220366694940768060831972653896356423766669409229437057900883082517074624155778294004866956912492544.000000
-30537214006123050730108041987536569207147317143029202292020740784938306530299790621391701864298130276011495097911569340713117155328.000000
-1046755074010461353927967808484503324574721770237402117401088781045824308546354370489675818005106613365934063469407948488344338432.000000
60493226683410282575377257450598479629484458059799650993182857560119922421037851024329577498050930031376260019228862865601479049216.000000
-15083230807962866314104456528748440126215373372727214255601207324498297079323572959752222158266845720966329488435913953496415600640.000000
-736813414359992292470879986520193393175510746335857506342671964072749782332989835648315759132126110053191451677880175524300556599296.000000
-131201670341694298120508728922113151140639647642642483713840507755423040379460370252784750699611504078819716212431364105976235950080.000000
-22054175379340961989729754978359046025988578381133011962414083710204504559328934968572183783746915437653622638032694110644139458560.000000
-299989081085346235838391315061966139581480214168400894614403365327631482118104441719523369669929820912345655682612953403236238229504.000000
-477610300716098120554088306374974098605373106008996212784002898969811956215650538821726400238469971023948718559654908504101940625408.000000
-256581680777712122074991213378220928233409961551474002757423185175588494341164500472312082207957698433347490708285580039199083462656.000000
-343190392781219839705688477390244991041096218946603466549139521086050339424121269785699369368196904876913076817784342124509154770944.000000
19635769273145170852291588233433291266853584446109253145093789183521350454470223191874484896822022669278655188134129422546350637056.000000
-153250443637156948171437441271877665835921223783156088237378838053029282968907221920572054719094677494928579160508733999598914240512.000000
-245787389741452219630816013723823347979127200258981668931241504546726798409626417787658145114381904046170437025953806157070999748608.000000
-278431838691526446664688155144594497110928394589779267827534269949366824640680020286382015316155487562836733499454056027204496654336.000000
-207295230508584157715492804778997119162570474263148950240426401430545200687429727591170503998134574736230783019918919325081074139136.000000
-298945551927161153745922904355336835581347782899601761788181557919832719759274836844674755592710659114869075306852694042279235551232.000000
-100753095730848840406307595018813631144278088008303131972008565126324549292820239972175384129242153725571363503299275857112491622400.000000
-182323479262337734726513108207079295939442443277041296846112383847082308736441642412351932881494906609262437516301456729364607533056.000000
-99865307107714046237785447553495208519864369044529485206518465407137345477609377653292675602349606944665288317564499307311698804736.000000
-27737103293939574585056412883873625820652347713561647973853637814045982036426457580897570819031126752921299373064210393367096328192.000000
-75973868812165456776903014174532028442470637772763504358840638566078333341193803127447314775612487739850833226621921169830154600448.000000
-134462646353635376916285549655095559306019069602693959777003483503390947448373024949709951050118224985152146073420508707424472924160.000000
-882074758377195829339888553039514934974288416090625968262352028548930269995506329739289765888711831239872743006564067109601542144.000000
4967641198720550028554422745169183723815755023704455311609056867502082164533434966967000671586082114911655730817742929050134904832.000000
-39642806340806946148357186270637270196692410601481865735075512376567052778380595346477339231780935895261437107327800630664828551168.000000
-12612939493182723574675286920018193601580205360580549674772514517069528790982162042061015057228510524134886151005745291122530320384.000000
-40660591428709632165485021794173403057787981252886406729231149879853731308152141992571947400924465465452138270768341329427763822592.000000
4909663951243475620183615166572816120879562823218942421202182841980270631784414989046988880138660459134305671229442691151479963648.000000
18250731111084031671054899052450840396607494499381153334243077276634895298159840450117327027279223517155377009246007677737246916608.000000
14518143490492066794297202567156310074405547873325032071746171050705475824133002381809023957238941180186973809349067960280198152192.000000
44937616288068465031133428019019926215546808071624901134032042559319537729196544116740642360482559512366316860071063115919974727680.000000
-382758349846769567307944508348482017590654127808540220486519153728187723852444318655043931300726327172707574593985448730329899597824.000000
-241713377215580122148780681501367408925642143901449977845287543918326851691219666911272872780075798932376853623097418547215518924800.000000
-363666323275296874948530281713515944905055003224071148326984880604110966558832305908959791278786769180770758886540026396589380599808.000000
-168394130547645534356164599438481027186806640536521438719452747505079126742692954884666020990814593117843054301939333284622078312448.000000
-153507907072109173937017847514878803185964058119320558588613405024515053366010647003048065006416763180118866055397600097443451502592.000000
-168131104588441814408867619469005310121182647766308640598730741666217597718034972946157424110680655820424210267735083112744915828736.000000
-377309133238968574975630589417999031287200036612566360343827914487636423440266967900397597823321530704287714330425993114288421601280.000000
-323379760635143006917134928849076765159104102197105831624077587043809773018537945107703021543204304116294751406076917748648275607552.000000
-62668999684369186718390810846759480180284845200985537736051327798339090415649099840072696418357966595148032516507675743309774454784.000000
-98204410694165133478708426745827554867031887760311960825257339925462312362003378570579695775063959876462140871464751001421802897408.000000
-604432398309258488712965223424587692607388469158958014346501471262104923363418522627276122229329534513984223318839218797293242155008.000000
-316850232952276979259402953396536167566279033062877532625033832875739857144446224833265415240820919988759423531413041980798379491328.000000
-368885928695281302906634440026464318157615933778349010313639032574943898472333278822211991763702497475354834236327817916039286489088.000000
-166052357168432423156813030654512312700182019859936854921467648707537080154825886906759025877160029954484189730250240944945368137728.000000
-35928806012410406861904594391165088896365881332519060528447537096019489940443325202824531815033426400256734307107287215713504198656.000000
23781886125169819491256861672623228907172965322207018155370926826477086618702293472172806669206158807731883508750505619756213600256.000000
-182329916794674953531704330352577601627912310711624193163825464205044596090325461019163325878805458238318352927249452538507493900288.000000
54258045278208917106702985378936828447531485752929086026215699224819245886546490263095415099023818708963497469273538167761709039616.000000
-291993704961491209236092753521959254686672561176899905425404945769002226230256398317185805316056737930085305681140617710884771332096.000000
-504889060604056293895586906473251633294431195240954602942309124796512020969437284039433991597592170082832421999457828238169712099328.000000
-653916382873162668802297910845627574604005499471731528382697811383693705857969799699470231569286043076894712261644423638668940410880.000000
-223217498160761384731601579265804935155171354287390633080946159035740346556452649683801612039283666045933656276265051414728642920448.000000
-12908680818649651318270513275154405686073564926130940885585258984224896826727397557696415174846543132353645862139348660217861636096.000000
-135336117932505010946664577659032493643143748133703471276532854685371592325172877852453298405639266744075814500863366781531234238464.000000
-127696754862746178258048334720115859917741577352708997971349275596492451038594757204527705926405470978416923561373263149756848275456.000000
-11211919188984404183012780952373207008685708571529416842709179771127653804987613691587117572298217165962246316904063188986186694656.000000
-287772389862018641942716844518069444790389841061871619668679411914236404413929870384213449139490209891073088682677083616892896149504.000000
-344725893124116200773646145192358570095377075453657187548448219468465485357919064153244161465676902101848194977213084173264450748416.000000
-259112189401249126685429148911326591023814848852554810151029001590332937620538798151081920385367474266490223812380588495764268777472.000000
-284317107720110855237314029081292994733008253620688798557538527952889858440272594104424029859192289107200600859777792438429464657920.000000
-736129290757215946845682658881733790844105037104610175949634169275208417676653525139331006973072770382577699379417006468077876936704.000000
-160780488590385380710687534694639325336204212856604392459882366657039755565824508571591650615527391241564334527900692011310301315072.000000
-304727178840039943235569358241991844572595886869027457436242208826862000446778639473533479793243498787317323001427181566812240216064.000000
-1266475796268227047873273372107101830480792773294499099561696288288552437615857183140392765110335434208000190549577680370269620797440.000000
-285246182467969916704637473120966099913606261583346197768997372375557157077785870064223007057275377530931677302332852135020483051520.000000
-222033326544246708414760518281612630214368758807318745819486826483026651896963597897028994156992183502991869950101083746423548149760.000000
-170043384524932155784395494790282599550963422358801792325423895149784766367935241330984718530054026997061707089199466442623748669440.000000
-85249916924852139524620359591496284468140096631386762788903562191127974621634235942834614018366469533093338855058342655829959770112.000000
-21217915210848117160457086099875804764089783749333662943430807324791751133703908521185260943090688546180770943756053188225301217280.000000
-321326276974858864842989590723599552016949793124055355792474660121168936373885648560327806208838152464630882311293407210197252833280.000000
-569726448709717885069920599593269114387616556150648922419991589478468559457591466463748678770308069514184427605996919972377630081024.000000
-531204272015220648312497928805901825730171077328422758422101374354218439536695428944652226993902749130844568096910134541804330024960.000000
-328909213136784096579634699547096243721450943466868253341097033371919832333879730680734622451695070853955539105934594115233736818688.000000
-166308012278992981941961236061122259135932053495814248488461902934171744277202093002575732433341445264679447021142200790487410933760.000000
21597947387610443368402345220623311272100458236830391640967708343708061877067523841584081906139414177149696897771183443940793647104.000000
-289109798305669727892942823901681869781526256948370335774045708586811632923633764172145186198092169792726831958274937248004609933312.000000
-1091496337199662515190053085612233965501950334576268904464286409825204448326380160103964385256719387428420555154572607577774882816.000000
22393418653379386840381221714970904300864198148736485578151453064368975430879047806511402896342078374245421004078363076822243999744.000000
-244686279262284751092603055631095428844380630318458466628079729937707879536325159554820831268245485451817630879722391665623150100480.000000
-249351853205658030694142914114182003059550134884732832126694005603267397353635470702904096517132400244810213897511640622761055879168.000000
-2889933710115544176313843727865633288732472566977746004269244573329385506136919551777280946345503138454012524377599285270750953472.000000
5052520594882507761996960191486388955081884539246887069210870273844151082256248324431491995896913110416475655062896782044433481728.000000
-1168054489355197665112328763491851772681693843509485150435152159201902196216204665645619566136981920063799101810535919602647902978048.000000
-170180483475383783026623055690411650364998255520083986330671799179630745535604146859661077626404047341261354272372135921514929192960.000000
-38687814522381244742387227842819419010640828112113456034001196431734268770105932430632961864732477346053143494877885216135042826240.000000
-210117669817265288544921157128196200425931897376370268815929660157478074139550946433761158008894243565829225757130328470537436659712.000000
-273183127938069432540261917044471410338084797879950106667671142948750927188857089568301724924568821379202636841854700051208391884800.000000
-164747555635078808162416224396200388173997937889595708951707711884171540130375331317754812487418538745679715365235026636092943106048.000000
-213270866632583438751377089409189232036998487397912636938655523457377943433498499427462639300815950527222609559062949798866359156736.000000
27914385085286445644284998531931028690276015321953123278702617014229687529786107855177623868815168922279843891973982466907465318400.000000
-86768828279036595884496182680404772720526181215360614128177247304356531358672369182111927553781603511803749844624590954508134121472.000000
-95756171901007197398493061978926419209199216794867367844727637188270777142565679519305674246496818055736755776586634092493622214656.000000
-393487468818035874515403647902960276759552091959172920461977770708092031386625068546396648268339989893126791504542783997881647890432.000000
-287066134907031046152504598525673269524847163371893255424004051776430291042850903444873030740609907698993761858989039164544813891584.000000
14640260491706589254379128736271242405456393888126477229690993140564155809986947064412853591458576421593034742868561549008694149120.000000
36270885226240799682627163041474709047539812058221997220206654987510322673141293745531831829079484554204080199341862484203691573248.000000
-31420763367771683472305651638483364457548011572164316754558959551526540458807403786733042058773448817942845434196429022977782185984.000000
-11846449099650851274863136775305038015761746261540422045334012682379128412455129939088870865056074777029905895511681863007256707072.000000
11826176814088924085273098719528839484963352234340595290358199190897582311684092946769450544518687121486682778236437197079888003072.000000
-461037681676186818728444582208549644224847237555294441690038779773140681516989542178808935830370140971868321992718587486447012413440.000000
-399967756140462681706290217452285820843272536573792322375655232591561356627473839534182753757047609164069413546218904170108649734144.000000
-217677494291158283940909703840702377256959220814877604596308401509311977439096382511127670031312946865124298436966464216571618263040.000000
-186745725043185951049978218530918405086977325279094434311097934999714067290191152147632196134048062440112741962275272137864195866624.000000
-687270050144309884156123266180457300006056732924418596243373215151094173878052402454373258314015552377058294006741477014519270080512.000000
-222608700425265158122189477509177030462033607892453206837734127730192675150535979342918968293634761402101543971127657792288927514624.000000
-253999215955632140348137336014030605886212200452014581724604203530517228917261762833985899336316542149383050492571026246673968922624.000000
-428313100291916068277796120669334060149964506922201413116749667908454303175835276034548771950407143478915495718875556311546497859584.000000
-285552836414116833435607778323684160015778207066825176728918509872516740532823784990908724963348758925935764865277940141959562657792.000000
-363803903607308941021367792894081881993328070785131880689276143221369976374586689416588220971334773023075584538050268733313898250240.000000
-322439672063048530753452225917641549902259863237112465261039479695776165309117626129355194920302707759606700644767204796162226782208.000000
-364989454528947411088652086206922085508690140982816428903769024374773623200063291908766080073285360510703944048470492699418158956544.000000
-6255426152474011895065961767612885823642356289230193714231766701769657243220312833498015701534673407320673699116244278383566913536.000000
26488833150709388337548158292902259524884589151391936635072546812025482003952359115950773098532368201936404971875044925155521331200.000000
-91308299522897539979016234869139697906971871597448762894528836902587476570506461254910633786608162422695490668650132183144288223232.000000
21534368104575609678991150341767035774833704636269003263974964366886578066266933341763782317364757195805517123934989602026948657152.000000
5623638378750106346024010246780748472072716818962031167791285411653529508584173991824261894337529910501771961541038186344312995840.000000
-45933250477225004729063343582536618137692831309414066577410396179539976875379982369773044243482621929903553246144742562541690945536.000000
-217557582480415219252592510621346406538700203737641241105535112210051533944665506938178706897839670616743016891433478224948750188544.000000
-37861929569487184366761178582914876470908679468428412198466971583917269297114350472734921803977527872059065887168697556652735332352.000000
-140590851456796607013113511041816579284629985816252215072919968274303447432163068952148781954313812111403853720911423218143538970624.000000
40095029717699499829971564798226616807601229166482404457060398664221830823623714246442754581799763246787041815417888227038500749312.000000
-19863986590021070609639116566596431167301242268428103858747023816182881650729072617029341822463491426303322894471249301685837758464.000000
-282167168234944287461702307431122646282120675802190296388794167164487447467717556964102846814446338065732014389249633140449889746944.000000
-77494207833287055147429334735301684668676444450275695393802840476073699957688812669517052655355616665811419285338411302433882898432.000000
-106432375837870177808793976662287272169820854358584457180138940286737306727144064664498024537593976808316207804083491027547724972032.000000
-84134778284401715225042933212051970033641870427146985717154684737223931011441888667137390606031996259045587296616130356449780957184.000000
6118642347836173164205558568036365344087634688034595666745395537994273537799508831988542031534155662706626136320990424223656706048.000000
-291487320985374990505245414818438351265340734292765326527033301039387700790536869788406676378264611362465909673341440771676690186240.000000
-621520692815110985565181257130375220101069824548733949163217752566973653703906235241684146625037445118021573061344376406145478164480.000000
-38237254197540580955565405462342176491462199463117989594460660550550747261575771477053917325796245615679997133548922811381413052416.000000
-918772931702307265185355900619930711498649963688607508375506632007637604893737324170211123245580349892533816717498729021815885135872.000000
-13867486256600852111781760524178223163643841717272797215413618700103552921928343293276704357301627721237366786016299813270724804608.000000
-408409151271177917314599629979886959115845658640331046763022636919154677198799272800284716317972919485835015381320238669254006669312.000000
-291668853214405974201861614169427766841773184643760054815768822938275409447802809772004422196698465720848203902372646598552598872064.000000
-352616210493814428200309276423014473308506186192755195650198183506938759012068325438489982240159929370614142832069998226618550583296.000000
-259253783360020218088062270303161047969805675628713088136213811051173421577834219934260966919107819316765268932551414499225192366080.000000
-32123891514815920935074339319825142198015449066128489408290555083574626439864487657807722058419116066923244440992463235855083896832.000000
-105061486921906525652615307042771490821917234171176925524517740828305448630279491969751987890915245007151224204972641643304425881600.000000
-592285148895405695932197680603559334353749850194465971838871256240028123810799930736463397412465741892861823018523515050886858539008.000000
1503405099090873752244211804291742344565138524035373225687088660914362329754529254291271449650140737199875207399954219374733164544.000000
12718630976518761828958692712410644462267787713312339161084803099492384796067527520220817279691106629689401338504057058630509264896.000000
-599742182154185925907947693133827716737151547571830595018033541695095133658031796789239772434277819941538562601903564846330307149824.000000
9480782425500094908739578204351264417209644223579307707321575874698466227695805800449060255897675494497767263959652290285187104768.000000
-76054792584437520659562401923960273799858139618812746508284836236890048453603457027928442777995905035779013755880597020971762712576.000000
-338812394268121452979402890015172346631233751447422571861174322916120334459203031137702606888683105971884585151819225531723649384448.000000
-195763200023763703756959455268649588942300337557453260299221238515373804158516681283918456150033394303500762535737605914790815858688.000000
11939472223212707776660177911616255365289153974301922029094535922438040139608391296926603515280465583908581839504771211589649956864.000000
-193795605755278255247670333350226392189621424460119635257340390883093904082904484094029542991304364455585973015966159199471786786816.000000
-394464949632444569311732282024094985342224286138934032600063751222398321196141951706872938598736841171128708420631501287782900301824.000000
-200233460482342907106298027853996537495304302304504473667969257130463474693873941858335032126380901437583607055538329230035384270848.000000
-196495359160207536507122091729064231249865373578487672485085052444059567073019463423312632470486711791981765743639505020908344442880.000000
-159592312683968340469419566204595654456274308647632952884319792528147307447983696281698373488923559291938312119394988914995229622272.000000
-141519922348005702714239046005409373774897841605351706729460200201785719515124880669868073704524049969340418496917991918774880567296.000000
-29735517728312727060106815428400245532825176473194829844053241646216099393362320965531825901204363834201552858679783184928782417920.000000
-72801724256284913548038080598028072547163144517981650103754729404115863124402869761804498015892608123518795901437129417112294522880.000000
-140926792289048591571589281854591880750995608213585929493240748475601125974057167410123453126670125217327943320604101253304802082816.000000
-120253756140919274848746216667060645274890376755837003914705195860676621006664691030892273381184017357398202749902066214294815506432.000000
-78109285565031819789851522838448095010020683182124698299942599699019903183706715006564900914271939350648382163127757405457672568832.000000
152958590342281843145867578991720279182160987030247051698033197405866247141815112398540003183497897964160328664698934134865028710400.000000
-42768914586607077879407043652480369856504154246249859374606102185472296372974293014875372193992651907189158058209671631182434926592.000000
-10245573902662627806165884590340755209306677661206736901213392386117941242611060496793775395650234007852280418426100876541031350272.000000
21577820012098553609695819206856374252833901227456201113388812124663021798949072710702099042408839525643228401074550137166323777536.000000
-282083605290277158188392120712118343687668345999999344532542254288168830629548337095615595947115042475050532514352860991272721055744.000000
-1478092644551763541782138553538904226572747230505749424161962339276528108788748374731667691644240362779016210980167125467076793204736.000000
-738501189636403741235274827968545323284277436726700982290695213942355895051629726959400674179369516893811773067594354687096496586752.000000
-286260929136156818894219408760908436186367771138004921705012150935363653430353236823980482798546404918400907913890038046124547244032.000000
-603481232292073215768717359992276521790139888745752515981929221692633186304912345873831282209003186346387314869758814931943606452224.000000
-278716198799841506507677076198022517630875620095225438325211123619134770066604980781864453758581646429400063856185588878418703810560.000000
370939145560958789940052130602825653722473764516018244435697436722145592977030300410859160674037186833248270515586163096354383986688.000000
-615345540456685831492407153902937789046105676041106580806098399012474366094186161704714284073476506704072417097147530171815385104384.000000
-134636421875671659850788910046201181455173946557371346061638592393789890242186904036711490196795096790170125572303150296042328555520.000000
-163116836858375429800181829688117473905409319048933375531798832815861535498409395828199423130426454021781544989239600303114368843776.000000
-450086693363387147171203192594315883568467397085467751666903970196989949266949824184536341031789240643490718660068613026700328960000.000000
-149039931552733417258594926685641509542546266870344475538485777603011766539516190838658308330870599900784158133592732664252025798656.000000
-683151045397215264528353773147458566709001688172038413476630019115041358654158976150315203038575431394759446699850424025939863142400.000000
-278111704960386117921046525415385359937753625200048961800488539835060426142500376569974572193056266147144890624736887539964173090816.000000
-229912927468625106645370037445742631328100071731830064853027766360546775963325959939637253115881483769846278905884892928469075230720.000000
-91287346391242936910873477362529269217218541074401060902471279305773460664457935406757903577972284962624794994569558928279985979392.000000
-605686566130403289401082950336932063081620697848705492695923196264562165662530321166224562873574011692799870413845190765388027133952.000000
-264165418824740974839019971818432828527683077879120157674608058853502315211334050164288936259095620753329565530318005556684496306176.000000
-87814848537254396609440320397361705055140784832107573577789099463524509636690839435776214866450152324648009960192735647155439534080.000000
-37260731849851457582072508013005666547190175901224089612255377657480059545497886459181411707919621279472361063355351072188229746688.000000
-89133463419194815654874077963287816851990973353567104642893961615325243835363649416936779643202448638663476546140599115897068584960.000000
34420090882854001964193082546887763957080790976604082219683313427149578607105930493413010201232456818688320136248473558345200959488.000000
126367125040978121963731873076495571877750833430262276521291598459440271840619986600662947786895063140621529276659052193725099802624.000000
-373939940813653149188003109260593622803079533078674892941532194565490259461594018258728729096576518392615832115992067769952926433280.000000
-360210217258606988599381786855473122209227703486677509154755076172011184093174865781136675816424208042228986407772312978300036186112.000000
-270189807164045421436547518204129148728688922352758591116595689046214256825134225911986804101548760567237842576571255750642309791744.000000
-125292009525747880451034936693202334693210371692758554879757276716990754387377782506604291245675657169745610289209918342335115034624.000000
-80331565959444681947025728844837337695700501425390176191357525066629975898500795922927207702547313873645702681882369232882953617408.000000
-1090403379801535861639320148549438071906074131655926428726907942537141866747962172383398130312119733234302344772657214876327006437376.000000
-431938946811561784005190469389120523315269895878937197908661668228988107014866741920414589361007132710511914098052267765172069728256.000000
-100576950576775910436741315997673694324480948130791818970554778600880419656046515717041229997535811554885896088503254895586824945664.000000
-99513468862768662750943588259086965665915393750593850574967488523362213785223439018732994098785201559235345894038377037668391321600.000000
36531687883114818440500657223516705853274456388719274204005838670324434287513429675602775511903763128984933183978719874670376517632.000000
7473705594978073815474298216565779212795890151152206140778943161772370957086687583596824017386265530150848507509615267072582877184.000000
-287219660359049763873149312507045748244975111452324742384611200482356392285006032722821542828517887513772092896844379440050612469760.000000
-1250906655808737939058476654988098713771504912450334714749387692983379824177071307794391299784175366115112196257908000050690389966848.000000
-43338469063510711928981649626329019663110881026305597586763520675987191997860866495985298232361242621335243460835450523739811217408.000000
-449874156442854672066212490180674897382460356962138843182348946529665739076803090877709668061528270439233860909488722772187596980224.000000
-634164352798807388355047620990777126441661781809271813071978460999825872651558955818683891269356284650110610929962280585283992813568.000000
-573729080161508548187150301466323262931051849770269849852338591738564452592023255727666788894288688749387740750090089396821844557824.000000
-287114440900249460578587889097465513925236485079274429709295301734343258180668468729204859706562067039500241274949314683684278763520.000000
-287019810898209216772418434441214174547984629174279912260646831943540527280693193845688976621467149002277139946040723162512394027008.000000
-77323386708445353172434498953044908921975578191927532619732146420910168449249412593420256002417511220694778474098255134245037015040.000000
-230654733173918127355877367345005397725044267369217729628526391435363334088270443276500866347860417106358526848641234842226194907136.000000
-441558216074778270052897329312318870143208956294338400681761902670903090702144166770174370428574788493621379941035019943815531200512.000000
-99130162085389780874918670320904181699581037965973341476615310464997205687939712920784056337538920534220060756082244207461017845760.000000
-226728569790196733752686836039171796115939570903155581992178855819545675315923630085390896727261729108312341547416135209582390673408.000000
-333383704742645641861400611194884556868075649941793822649710399246014909134457834773167240827677784624849622334705748443410391367680.000000
-85116496264639385061786254657686796822112714809037870125356203839773872690995983115251481503619213047477242794996776106440278409216.000000
-262614295891888952489446035464009980041706308707144566014110943182229405705949018901899365539641224453416532523693771000433650696192.000000
-963751183706775186997137894749265710940451261130591527618503045884252252380471483414354859164750974066741293229294897784333866631168.000000
20556810231953011190024569287343657355792072459432587230187673995473964516986538780643646616383938949914049333512750586471397720064.000000
-145011523305842558322871323879302700760553343976847018763349250913024732830818515705332057848769172932226774164622245738555673411584.000000
-646604103396752948124010876995600186621741282646187496610942269995230176404245762194360544162638586093656412496250161849006410432512.000000
-451530262868788755161984706568873934438451180837215931559914264282742080314508685058559179634172947266876628910083609577931027775488.000000
-209195836594147290014076727383721695227621884111549113259700020349266684819810477704533090385433514915944304839979184931038843371520.000000
-192139185609297757638849123172961342004541844378116349058059964343864068880870965981952068463416971291549541288644751420492550766592.000000
-145397788391317890169805149730556028041077776858617009223446643824506493899979491879017603018389715778929798352885556344044365283328.000000
-114072904368365978569710301888606572479339027715188142003559226669135943433788555231195116727158176476922018436118788015936919044096.000000
-112388928102160866084478645952500501771000157353827599651739232897834654498409900243522775246014358586468857578131923653977522044928.000000
-413733822719072281173215814781562415777919160321161368139962866092123198385056253344713645140608019446576623104909262058176385122304.000000
-68218326772637584736408343476147658919438321464025922147050469862865845619134600504799167282028925421255987485604105240091398504448.000000
-128730345166436576827043027775115526233433794112442698221391914395765755287497983307122901058195102985164819918711979398515811942400.000000
-363203806147029286983427753056909189348044879876306096657778322195902448043675364805122406975369188716177120271507525977955572383744.000000
-1255386960478265712523772413470725641700868115796689348986845291664354797068937020264784126202721580522728305497867430996170642554880.000000
-75314109528207604005011111608814445114410240958342793285512687679405188531446265688967442774591377247555939962836206682263833804800.000000
23944850269926921343739505899252376630967393775736320764942280497394122715151529042068764074761372684837471637434090861177845317632.000000
-547727101583205496375261668178304452908434839749489539722876490476998748577891011604238861008245714040282028850558509895806330339328.000000
-230891434601494454188081946215606408574973251599855692242667462829513258384869848430452404661572697535233052415744854513378880651264.000000
-177468287342241276487003329771494794917671565879631337912803657663462239393983849301759632707111168001637300183916249675772045819904.000000
-33674255463435738664894955700949980922823268198853345990908210892733731791603317792819639883677117281852489062235210886375362527232.000000
6829709474586745133182280862249205970927232170050609747469202448798643815948589152726011174736347018923223002221721779624466186240.000000
-49918396140851925690153247104369839331298963514734089543534616152006268493870593054519675637921142787857096198516523897605234622464.000000
-80766102881873684309522107970665300813187012159652002900123304773952556817584723529247998834869366656376024708847348630680040898560.000000
-8961190393027255459846180856001554491196706101984688591325009902167467530524562022380146012140217616245147734709229158545374576640.000000
-27632458606002063357712721833634996883198138946944875411698566756394222247278907075722427815646690963176450672741737734905245204480.000000
-215822730562819364852515722532036202239249219851365129843620902925480409706091191746461999175035503625388380155173948375522068135936.000000
-712459850373304595796274211602011851768015626556302154714557805208791368681570451824023342659485874140412808758371653471279882698752.000000
-352758699802827274328935999027007533503778371055396944382271152805397217516406555133232529457604152542225271249427093163447387422720.000000
-321067751389101677689744643585906456726897246047097366586319263812989751343208112131861754754032158714384259527873229539255022256128.000000
-90074038138246684265722819729261502051862831571939331190095755308782335227439987321589134330209466400801822776610816377777672945664.000000
-234797672070043580429200204111039143863645543951206752221813636552093658981991723851376193586016271799031820163676219889550981332992.000000
-283201713497233269772811378259703792357459516569451895736413174753259575488834540743864729403052963424646206763582411785323547721728.000000
-407210297388813322091918580527361411008001815080926550956256465555863421684511244552965448049180383253232950385217113223199182553088.000000
-566280713148938224757069933271441741888954898700490547640703643261058087878157082003998975630175948270152455530122319200530290704384.000000
-596236203972676977202205141769146485245188405530417367039651107404650865708641998718326772479775334742226023309598224558145237155840.000000
-993037203366169726006711068266391857537752795174521221883111205805653229437496007066600805916510812730349211726792774531820529123328.000000
-770294911337766725008009047513135670846631700885325899891466032303964317698712269957237919722264911183596233652032803856226701017088.000000
-318473226571408213638728301122200703298461963127524308399582251081810640737321272843200374514469135264710140397935751245674366107648.000000
-208685859557136915790760715708541399136689216183940988503163118736098497159131921937523017133300048173929493833912667790655143018496.000000
-363834649645656743803136886162185622870454533668993478126565268696497230787835316607824324831421683755568325281976811360105346891776.000000
-134729079325056857384010003384647564210567605145926062668354400153331786607204021257052733341151363081401580492204809954735217967104.000000
-410812077693974074617183141713199208672442903402366376642367637950561125288366429399775681604983690469504965706319712737790691115008.000000
-168468928746167110643467974765222474907270576526178091210396505546598819637894326991825802197041581082305635218471383371315673038848.000000
-232283080747467864836795407308627516463940611325006532330333270907501188511966772958120976649313873610856034632694548681509321048064.000000
-94985539774428639968843239561551721910349662575084645489542673106074886912581154792632115686899736885428541868770660279802119847936.000000
-355533627657499657105859033407825480941656268205110813745627017738827254894342192723316336621609861237372769403455926437309281468416.000000
-819181392704068982047529460226128030028131340703144937895058129851221739834872041074413583866567076151097360160445780643604177354752.000000
-372051018905660754456493384703319041330577048121136854556503585848911919727656507919451610797239823401066149837580036668167783710720.000000
-193216307412419563120742475680711256917728018938039201970945898483448474478128387519054421575073189938236884100928779592226647834624.000000
-63502122886570224908823413022252662485025372262189550351129581794045480742711731225797366055195965075967008692275234325329438834688.000000
-509563390036736886703532906311543640960212397064811115682427158897117163206029866110128505661786332310769561855871508080967641202688.000000
-170644691614372932391234989690587823219360777174300508911571355061858857552042765571189022588491980173497554232280726060772926423040.000000
-275010434855822375509194121017351466103789489748157684008157293905733148262047393938008871878540195905537018059141478388164554915840.000000
-172599877574563377476801230786604534642173070487248932395424438799998144744479293464074825414039164424307728787232215935591865384960.000000
-309200620228779011372174034656943698726019232330362636896532575682753184068358747618455400852537517675982207121976999619191333978112.000000
-56951169356962014030555386499847717255920650448782769271300359907565704484215382716798178565576345029976324709694491581199689973760.000000
43348154515000372207890645951324760528090843434881061369985854150851346433980631376206314046979386995393078957717558772363199250432.000000
-470684050410933804658470164146926747991010766801571571787472518234558576201161445742857980967274135176711533116271940696305848811520.000000
-219360189513581128834512092972586289081814627800570712809284608093000856103888183524924899004056910273163312232621875744119441063936.000000
-83737150782168499473153464287457673689482084545525236914798965534517389779401634539846708093341259545413877432406480439550446403584.000000
25801475105083967266565914066338618906561810013257479417851800781600177057987759762295493745444491106921013499879416587187363250176.000000
257309323127979789086666991665139257801748663039769309191399019655442688698061603069375682455482262843971488290485641295938166194176.000000
1864950838070124488443477304425545865650653136644363314295510151609770476233182549578481146191101862886352468621854799140803837952.000000
-312096806104852152120734188828535816633221658112205753131377833966891865163139994652246049391433887599626264451165824024929898594304.000000
-188704183798403324463371152442922308373530767652772565600838169154837994248645740455239441503726805087866656682748179010443125194752.000000
-498926818746565048721432424439421507860603350768946084628810633229884683716021117681951938271664243736452682944959730453731524739072.000000
-275486741551843933768947328361339643837937936532357107232191568339874110364680887881121389367779077584925623266538451535236759027712.000000
-296106993855056678110801401105519123919537903797660601969665013538543555328860982276214987989722384430175721326602903673842215944192.000000
-293383998619449988882760640827213086871407680056857406992319342972985402977537388805875030368228275898744411829707309635533493239808.000000
-246374033255336665844980231432958625694204390297686805175326419977284742099086610219317311462335381839907907561095931516674438594560.000000
-291078467981228329335402437498531582664729440982902253390995730974307469916100421137706658485870386905404400067735153778723630612480.000000
-888869828660975783028335689820339258450206737030087512832029258904041280195943607882503061223659577507354008168615213759088570662912.000000
-177864626579328724298227668571002469529906661083525589582465329497044171270093114154325681880405453856612431965564484026314463903744.000000
-507356022039613221333171632836872169255452740314993836384945725973424771724364713932192760364128671457115026278178000591902474240000.000000
41703306975494453990998598832864965744589194463518833069157475691886507815722282691104357778015009412083378508999872794941758373888.000000
-409171203683072752534218297005913551527484138231360366795968894909019117284465476225419324851505150689776136897883658066254253522944.000000
-19163760601151253393060817009665338961930408360237150218530872339330921344174209005118071682344177204276258741759631866663366819840.000000
-270996208829547324717807562488603011934455322431159530909687867947821762527233173771655661005375516274840571466870229120175908585472.000000
-169993351242627937623030741836023872961254656297313184292094150354307986229473383174867229319134697507764653004099765687253146271744.000000
-207962423783701912496779949039472505927163825321313716942644725923554804499857878011811353601806855279980358010470873081943903174656.000000
-195215050477955504440992376018729389159444247917962128606288196649517590904844575178484976119987529073244071927423093623459084763136.000000
-199567392388350942181893093080954580000544023525832886954579949941014156440511387287633463160839230533123076851990909405556658667520.000000
-99338604870850059016301620014406851905014563852563795545039570581634108740179225523510673555238012353616857498504052011825899765760.000000
-174106509964666288513806421607151036733021581275524200411570775352441043923952055257319992212285860838154708636024110629049899941888.000000
-497232421311606430020141118028261549411852249930970823261880389770157080560239171730256897071471406651592523383073082693101429981184.000000
-60914681021413495556638268757685917037236988529232028811936154838306851209102059782247912953329979695306052497349029144324483317760.000000
-49941080210805137069023225199030002762602366372548062224252059495578494283000402700912419900779401044859957796104831838225422090240.000000
-247259871751184900591913588549072266116137576379281928479198911700993086227921930137403963093412235853933195874543056425242266173440.000000
-475801362235299433135789759948014137784139741596950397641763272367837953889249689945582589796576695054289785651595062425085003431936.000000
-65196672393395611925906257705049393989286261779902917105042624420882414739193173771797283728711085411866620931970384644685218971648.000000
-188990228083831529232542390855374498549342317402979150557399315078222487559250284842284312154938597038753189857930403693003569889280.000000
-210682127101479926556212305637647818991854845893372965948247849198375402969673604322588031329122346502420881406802808042834840518656.000000
-78209207800385763649370602646499945886048594626396045794868692469282626628327734067554736522986084158355160002509823311878492782592.000000
-94216262850780417554293158797741573173685918555049142632813288048761653451727552780557434122753170418493831056897422204085058142208.000000
-37571331277684226718875712844597160644710131001286019920935929139462830936364616195753300266249111031055640997981637979009588396032.000000
-52987879359397004588355591084925612625008628783099341952883149422445333649287865444143656375938548246986264797899418130871673159680.000000
9186169424363462917032987806943940659676036990161811998326440262506795136780677083384848867725302665333394839958439800421228740608.000000
-361843033675746024385008022890384485008310570883821413965443488596954904440275808298652009615759223090075615835328048520031415304192.000000
-386593301722972512938720710032108790654622412971667700996640357816206189725945676303471092809507344358112522714201576796847960227840.000000
-718480711529034982163183280267906170827059381651564106711403886817777363332104199018359071118550600947258240483165060892459679088640.000000
-254772662271697523950184716568559135918754401847108077788171981628005668537901606848763399171353593450388210793146181159795214516224.000000
-202535048983679474724910749514612944578775565617491835030555854145173524051714110727262330238316922356579727139381473604832822558720.000000
-54270490499580403436608431927336861700141322874857378125638592477599325978786025309882308046822145372977287185034600350794857316352.000000
-461382882613685623037018276808548968002330965997956833173579243486366962878769289780452424124625647045293659284743931228229099061248.000000
-443676187792238579949064308094345610331835636474142011708019167887999277612665629199605828795598986843776308266957294236476553297920.000000
-302637556481146809812874869811782050676347796962489063146564393669544170544564030112237702111573764690912320086349218344385273397248.000000
-256405142256690737551843193371380150502059361752215719622339866039767440278618021115293609529782187132892473204505271997390678654976.000000
-522245795526062215382469150458890874902956891122239391799280139530831624270647729889193222584413758189311440565063767585893543575552.000000
-153293449070875374780222730032331401520450391057981150746050809604261885999175239288454226991224380179203652578530427345715651936256.000000
-361878169650839889137257128951721190432562445608041935069270604465096443486899275846491723355264178909548857274027224992700262514688.000000
-153003745351502902318790004500987254913378444560608931185092590948894767445492901948561777089512861990488477622425124437329224663040.000000
-280459930123937722413963995203710913972664604142937649327285081033812100445340883555685582023778926571144059409184291912570388873216.000000
-72267647174750590354623923171408832577869971110241523115471165154583887317633532853411693386067314277719668514845105526369519927296.000000
-162415324652903138585800692804862486168344127688744735259575107835829896378079660337614296096498461340378210245430649417485479051264.000000
-208586093201790645171153104365254915879691263077793675652546588957287279741479370838361282425632021593714268097418960109614271561728.000000
-221169142916677815034643332447579833675121703900378744179309724902671567576415171936833060309538873107548803630743424501373061824512.000000
-149553767823531615215970940212100813945678813020002434719489529019363670147429419246599534286106026355284630143037243000501248720896.000000
-149615153483924321711228923991333217311754590088200328876204215433281354914811583924414258214159824498982477974888740523035171225600.000000
-596578295475703261520785098940203188012178825637340815627509497203524983579298956261662928712673474452207624129966296447834637991936.000000
-202868783084072003574826644153333696119418166895367375555782085008403829371235771148837309420328860296037960368782350471441768513536.000000
-181566234078344230880962035123561009756088018044711626534713278911577012011854398664608845967204484872483933151445880878105249185792.000000
-14061166422557124775587616828458921955939833824953736275773208586785149084414999191928016174753747898225763443995348063165658169344.000000
-422475417625038017202711649794391644652654060131560343843468075902612378866068321485642044628591561862234344860311077190586159071232.000000
-330152568256064490050032958184429260683294566770354798678048404457346295542147421620781802608604363598692689677713378142991528493056.000000
-987421668698024113635953069602641775066867493219995423328262274208230717744990875737502677633715545371637407406579557275993863356416.000000
-226900259961213567079302883354711510603136641699163012144264510805738020415131331098346674303581475015180305928677534471054455472128.000000
-358812356709581031388899600740811514685886567656400542052959242004034082727673513714334496511073657191385938118565266352853747761152.000000
-172752236279399550636572277806625413439452084330902678719073965010637277646785761609553363460400316249367229553635151604923951480832.000000
-742773749325047610599444048857016913443978197954562750600011383941279036300113855498745696940673986133053609408103142134063791341568.000000
-61220882462399640091749353105938295587923232266351679054232455238649357209969147606050656446255086050966225089341787150464027983872.000000
-154538902338669203911775354392932832554351972507166375419829012806278280925733224329239205959876453488679499286318101451453369417728.000000
-2926033590547743764101832520231654648625481952266583103264205147409617549873266088816799074980994317476892515319187081568232407040.000000
-427738605043046004822153757563095776247657726700933180329968386314704481644272720042032374483095195751346749109985596030615247912960.000000
60623078445486868490517661126431945063414661059224968387730838186180969707039271696543206124390719637296703363953171608830946050048.000000
-94108273957717671061658496275765998688096446256551848712215835499793187234164441180509076443762099999527952816921866983365842829312.000000
-408073110308596973450686696060575413749650474383067497804758404630400345807086100805830726773706773436950819747990355111297838743552.000000
-290146415925386200715130800304297445688722757162427554962372657454411890716018978986480471741226646836912728812603741939061470789632.000000
-206743301636226046192648771274864081065565391371778872589799930243136631524578198269610766383263034400951050499699430623530209771520.000000
-625616462019130838614335851909823750160645667866714313922894376518057127457898262605149222127604109686391226651848125757400117411840.000000
-379311520019478607667935284456145885056731562140529368446186738392074813579045135681293759866350086613510377410265949650055386365952.000000
-84174210788873882591182463410918709940978178363387321613156254485367131955569742209938374357959574751008447447157310970963104366592.000000
-226312560040915041744484674776357329680397044960769086929057274713277459717551130259174868030196670762546803894796007202276818026496.000000
-901284120614356682508507010238809087633769465921105791537071972250678196337830951708520234332233033233066379760978840779697669799936.000000
-468150099085192859306689162786692468619848131541633083832796775845535408567777778208342854209259874568046391898397193793158791561216.000000
410315222312212081942854053821608970400486186279118456707493184889027937726199872734236617569898901681567088799354101325997681934336.000000
-468263335861282955692763713493769483747476965380914511885222051770863045623909984494842266016043463131874190605747292627551339413504.000000
-39604553412414668932878579218531819303079548948082740799130633865002276092675954968999872122872398850483111127433914074805894643712.000000
-125274916918087717302990207936069518869068859421465492783471222405923595798661687393335911315849489465760016050076464594453996240896.000000
7433541017205734747396974101874232794996822414370454722866850112338168957335359359764873209781740742287929803265265071996522201088.000000
-227157288569862162015295054312446371676761463787183207571903860722644192903418052250944634909782680180789726043413970771649270644736.000000
-719542412667630805255819851571189078357930485384406712091328396618653910834300862312075866565068953669788903275394757616433910251520.000000
-108480661215435298231026894687988768255978383923039326128248020568368616934761467199479697894504788917874868005659992150525907828736.000000
-180395754493232982711683547439137277148455157058718422089695914612243291464405144600003297479300534324875774906759596098983831797760.000000
-44762107545191618006828228093834644497323645330509994885057607061029943802449321430326863914034724003329712114683470298775382130688.000000
-199206370271299666491382451622207253622211900451937737768655948136391312177580289405853528471600471943305365639947966084647860830208.000000
-371208197370036112780782098007482774491664936966331985746965160735018134088635456778789820367344630967530852186415408458227448283136.000000
-121927849324367995382587226145693336199175757603527902814870464049879835593347318278359078156033023286414303365693808308323398713344.000000
-1833141807597402186754975123305401958606884901742228137299230563216349145050399162637874396892956137331943332962180012868261380096.000000
-114479372075112836844571303045209609747709846639109796758954869279001308335126714038329075377125701558467624601286289394922990600192.000000
-247125132314122825161322475056516395578206408641312897697446417804890321770983485364689421972239925697035928971825440363136677838848.000000
-69697623387428480030101143732098445328400681953673399710717095984684967226498279751709313900739009700552453128812969837797367087104.000000
-144920054176034904720515477923288588351640236571765471759308973714760494539630013096399129894094388737797746923263971565332292698112.000000
-210533663985941893943333487233306422289216191019701252697188553658190198006738718267289992915486720892424966211778416176326722453504.000000
-299240899631333687833268174448670736493765433602317093754141200787111401304243737873702075091167498949565411960417824046206804819968.000000
-555940093300307000440873126484643775590691698473739939571960883731394144338339685458060230062513709198512705277996956207634381275136.000000
-179396298997660046676299751741712224297650985491463607017314971593922182236446235312176921590030447822954042114442750555496617345024.000000
-218179382188163025060648698013004516880184344043605406341041430622205742594375426634036853424887652964014820587328759046334685642752.000000
-333793389310532444613357915537018937257605937727639952390948159733353329065842241022899464534731010918427872089952998608373001748480.000000
-345020353559774149144588121871254072945323428849375008453926702128300056544252175561877102584675707720844973933666437253639643856896.000000
-262101738844653077727294672333147581594370474857385478285729302198287058651851857165109330782401698908784166346796087239825527144448.000000
-162776864374036779469881149694497749386633445191087248016647528395770277728611921387534950966652903723911613540261691222398183931904.000000
-513741244520470850807477607299839031736370062730992528900378138604691589501139727471121008596293987995668430833498534357447391313920.000000
-844012593756878787111127316123587172262611504209462250531434586853797778829595264041516817080906952257712189953048087367088693313536.000000
-223548005120990188326014731776607837468824642672260440005827422307385728364079657032900892210668831328522477349568782249016678154240.000000
-706259384600724155137835351830028699645007562491818033695666556812359008768289060224384075249833403602711604563695875351045111545856.000000
-476966275354257760185433286785621649756387314479218177785269254766821253325631241301306927705595165991152587850209925598976606732288.000000
-412708406425457618583378062464423169358733526922855415554282309240224760743678855822359857658945278926474920466741621034737138139136.000000
-58243480385166817617517453553478574859889980867436097650004833690113403351985214738880838294217391370721979578136399781465025413120.000000
-264618087962105967706817760233461210004187623147264619462639269130796756751243392601617812647581035088928711206168974915424755908608.000000
-229191782601165257453121488206521273065548301788416973644551126003826965989417635485695831108160747995685539915716828253715150405632.000000
-197000404565817863269705416318337646353599680401108265585747346387756660471061386662744856942572860022330021619123708632780955975680.000000
-174590226279103566660564400018036621366901205082126614488408101507377648835628625305543246193540176229818043027526355919391359500288.000000
-162314100963544867125509094929122848986644389345409672481221323966401003758292107617595295427713160079258422065416492782555177680896.000000
-137556955252365109231875277524028277625293330013010643350748499669112248239110452458707738605570140266644759604255173416573990862848.000000
-528931175409660850047496070959970041472790592276684519792715410168199511661167745438069698347405959631321763333781953034964588036096.000000
-385117239568895385391230199463952904058301786241868381183558999352008758870374977046680336938599274458984370013946512981866624057344.000000
-343194114002308967998211118733487805442220504148452086946630025332389790686981227235080661820131070697001298666092536037328000385024.000000
-793795438014437320831430367635780985598693052790875691675600017853442930172735544524023766486584611702677277648245388451183335571456.000000
-451617337866205378325007514330648899224483543430832330848005550046900536907516432790619646755096641741693291614103498221224602894336.000000
-186151233597341382927641020052787529409426279300097564034494817567534940801697715001042677307837923259243780488446826239138717499392.000000
-60896604534703402692122226674797176224495158501229878995839218079498715938550413700879238936812292021834033747920615210363905900544.000000
-162580562567505195236715361192427117668072050132090896269008488885020749597737738515439891430367640580105216095743249351660284149760.000000
-429523189649085775644229048971321137118828400944982686198086422906706908883283960188986949081538610874437246772349456207570175787008.000000
-361103875887776005819783386693154683267063496248428360804954496150029337919997061014754223666282293709420321462638264725516115247104.000000
497676710783810343404461126153569594075066241080032917180293771581575792957604980160794486339949099615473389680382180258647078076416.000000
-82233523889240404628419907859655240239956297905857013892686745941190952848373172816456158200994571728848436230724242583162569359360.000000
171804586962285403063963126821896497758154256519475181297225209969768537654173371411658621574929067229763325277261467299375340322816.000000
-398643249137022507756731300384587571320787829908510404656867379647326226087990798625622010258943358265563142279891410865406292787200.000000
27296105284095210558865675613469431523103299993451343121057748219179806060013819294847738247848466632639459102415462176225996308480.000000
-25074146502173097331044140141129870694963569065837672943312399988738633205746157670017881755113342807459176561349682607096030298112.000000
-481159469837368927487715728793636003554033006063747853329871224817959655472202922397894252516434944972306269188931825310385494294528.000000
-103606746521279542205131065358064521039912552344685370990664383591051491681676225285372038118114153808112251502471732874382170652672.000000
-234664959313168802088338674842606909462347139058197506947440516964991452993525893691129473521485694567188962865381662773074420826112.000000
-248458176312857153010778786155278628002951020353134235602649001329735831094971216959392376051977179463108551755820637262221055885312.000000
-78208056628060843409935744244975280723410219137864798741673956654076469318593339168698529777354019558438265218023008400501985247232.000000
-117273315376394289326919441879837290869014505049955762044104397039731210492438641721221677289421829540131383720057902520367203745792.000000
-807091630970926995902255277910205198998080635822115402572766462251913491861067441757471866675742706700453870594283513714873775161344.000000
-414352955739663631763314873672937266836307636652815648345538786762181146907986357815666434329535419891816636645074821079469903577088.000000
-186081442173900787196053422047932949480498660932661720963661320114883764603862448491337673524553618205002745141283742525618735022080.000000
-400437373298985123333338519599442092974550321151877873871896769882702955476149718013135720776024448511645073324302360581357602603008.000000
-254543125945973741401155357336606615458278505417442479731330967418262187909749566748344319058626239363990279197306227886820926947328.000000
-164790999204832249707085900476702195551714291683251857448810006914155845759567179828511089678466229413923340358174440718351082717184.000000
-175672827312672653856567884097249109270045878253182574528413929737145143512517261340552501670806444156068554027965695290507968643072.000000
-22782036393657626956776240148084377023079893379784694088958987694819273605071363410975317813881258501956789580062316208867904585728.000000
-19803971924768795103087360768661676005401979260174695934813188807703892408112971562168177232974964684969425863217360006736500490240.000000
-191377189222315002512648301452345994729393216428290492637174277029725314815102489119469719471837824260969472603951403179874910732288.000000
-181055994323599314235446632685486052592302697309389389177501599644451194914375838191243186539273996070333031853591421942449028726784.000000
-56674267294428017086543399479341462096930925536182985820785681510905798791084410231983081363541999339915095353476440407956852310016.000000
-130624852772761303702798009259602557455172434803214158123852059608041817763014978363075691356929571888491519229551886298542852014080.000000
-489251634310896740083259182183565259275109269960149429724193501614084779716904652951665978170947052842897911215618293268787677364224.000000
-44879986897389649278747658708335867316912889948488608028894840887374193339182816787715490866348514767076444173603366762149824167936.000000
-237027703786257844570707607604657026790467420417608242174233785653003631935123770866515793232944025219371082274086619147216567140352.000000
-244385378638363785739220657406744060613618798597795995941306297706295212136944936176657700266116586338398035795624315842426396737536.000000
-96676050187798109830765562512332498187875388703133812528897194939409928474587397548768999418317321135571878338461194255676672573440.000000
-148363881706161084091672583396480646739582936168947522794590985935773480750451514642186231170344431837708241526647956821428588773376.000000
-62279023666360818005400418780840845241173164846435198876103998307049803473152015963591869678905420029773460819897891544587590172672.000000
-937464743717198741225086524940651603323158273340868162314234237788816570067089659251474056235970107408271997946449345399642711392256.000000
-194691801099253593416845400715912205659520030763853553205932516876491997997669089248007342050625219116486967237638832990108585558016.000000
-398893789862061714797764393745452264735740513356592396229307327557603910147858480988480555495681741583718828646029953722386370002944.000000
-606151400329124714019066573080230144683934745674094785152333133893425025746622286841233071693545463885536379181569707736952507203584.000000
-329372876591453583944515168011215148194206078228957192960566231771166455139549873984488492094539537848247942706165178538409840345088.000000
-825930259575781978445076137636935836659052015964238695980047645880130495773680456183133434741360842541467630370222327138134410657792.000000
-313957141404109361460697566342540436803560573863623031196255631793062923528629916056563032865928815425587552301397878024327349141504.000000
-799110464168181882048058990882865928447306363589668260888098991077696061399153316598798042027725895867516426686832855201892676927488.000000
-387806879402945694746485586882129671802231805705043728212906632915262743683542291969180499684747127648113126328959168857545704996864.000000
-28948910221563707952671235891091907071371704815894198890324549602080049655971073470434804723619782760225055662913381028997877465088.000000
-499548191169333878422311467907486465816439711692782094939159180923885517854310746702257106919413469236008656628176628727884277612544.000000
-497428778773266974733303033568770502272347648232346992597104603598814380933226789703254588478254929171482499117910468423237310087168.000000
-424267992667877493858561946138258255648459594967370721378381477933135856001141642343354414057360020553271608855008758998254028324864.000000
-233904209006318263434116099121802276325934994529481864169716035199587854186999401625590342061489670920817827259919591092814023229440.000000
-169291656392236174856444354845698414968296398499205264394761032393229129564977285208449107513922790571810493581386823877520923820032.000000
-227177253686178418252077441285824465005658963408967443552708332365494755450176665426143177670497190370853127536763454591302558023680.000000
-38102559255272102504971970843000977633065418271957923664015287758535016560182527718830788052767253290074181375130498640753079615488.000000
-208538220399390095521714343154996511269391128112759096868285520867306561213669959437872592932639560165892777428303759903596084199424.000000
-183147385166694649562004216850642939928589027191040939896497548304603965442950817396676817122215056868774950408335063113836804440064.000000
-83377229082455561569822725174121251313030893394248230729041404115109573444912089011528992456239100961712966269617034161627026423808.000000
-455483883247639085292026823287769281559313115010757807897440220281285037096741817413559608296223281509839557976686883923673290375168.000000
-311102608875838001779163340633172142726141955259229844241041333483371109602442598224187273416813045595816569940182713848468735000576.000000
-471815941206211442673796988840727715597667782249747483714858034433815509471040393684188718988257849061357839473825733407978905665536.000000
-258051418525509995829609919777982609169101918600440706901388662425588270205374476909963816281225599418124337838465498931105296809984.000000
-162763801738057061866487116196122139067204131237958737438636478315821557432013295876717209376486899289763160616226313762454305243136.000000
-192424589912755643523132473012359619699667209639288505550652512265312662973252433408816437088825363976467957950323923216807707541504.000000
-249015167683363326713343976911924744345297047340237579103285544532197175133704887829378158412808482389353626231076048376070234177536.000000
-244120656266145670723046591011795961288246942367373660766221774818694028420416889419701912567605922551517757406687591751528908587008.000000
-20494609630100658169241718338197494269203868038401603993185872317216697153920183473281161274533601024147339996211487942032381444096.000000
-417695988967061889967918671411939147687807499445852527215937766132422238954401132590267179734629622217957546679801292164853349220352.000000
-430638465889297171757890773672471240939365205366241753983425761832841949467367402188622014495053956538437626544017840261193755787264.000000
-190492233511137384844834555974270103871773256924974402564403307203722018722674263896645803254974529633783277320438645848862130962432.000000
347292217077757121756408493457029590046633049071700234491135203652745247355143626985485109447258867239536771336968038115229734797312.000000
-450470046287181749855537446443659327876556916781758192647203515810003373445331482617960289319697097260672452944769836702497238941696.000000
-122400611377693362044673743865699804487889998331869360267149120551036345597534025585705843441126119679541139984723568502470340509696.000000
-761652766200491652931565029627970654853110280908521208119837680699170832116904767903449937023021604367665921790164310887956987510784.000000
182293680029444914931256618383986977360841492522411073294229476954773722499603852053361413711711202129323645953465165206731284807680.000000
-109740611040090715587024905322370592187511572073675684828186957028560567646420846232703484038725441844573819169380763779399549976576.000000
-577171305662554049173649444634817099596354686163609964690584088284228443624012385309353439126821918679383734426396883830216312487936.000000
-467158717667629478312005706854061992067383016558593583469526874438234728159248821299767602969457483065543136003531163834054283886592.000000
-253695707988453616727029378810355334747537215192711218740080207915590476351030387436385991805411935379287232351114965617012180516864.000000
-569187802947235670674141030627190176102116876041155341051939055488853494750661657142902693251986719243306834783942584731508827750400.000000
-846077545125811911997510449343108478539588269674468184940376766440109876553487616325984902852409846658907568743621148535422925668352.000000
-454738888400907440923265032202043808152112883730871119088101004756292518088438172790757903030516124265957415761410647602004754432000.000000
-636641398799165954631353026095090442914657695208082624921971654291477997228969868569654517739687830667298591043439921358867091423232.000000
-32990915664263174205862023142598666466770519317357689025148347615637743799779510829257873859559354981730572465752079883154871025664.000000
-219231750602909253434237401529173884298904378066628224237377810688922666877445111126433217597253872478782887363266504077257727803392.000000
-130048194819893360037199164993832583389528817407958328384018172455136286370930541056513643356493100473302823474554626485812759363584.000000
-45362124971175966900926686802039849508668573053814596039385315881554990394431610688012145948403942777381261984264499167597374210048.000000
-128478257485923203927611604206009444693225547422447532448873331691628368503229923803487997151742517375808824120468947847748696145920.000000
-258851508549451963813091891944032643010960142734744816944990638856088728589558418116210765847802231378618659577222740352804717592576.000000
-416298597612850128926511787387804229475272770683893980148964107343890590133073123751380255832495849676839877149905145296487815577600.000000
-272801490104210777286071182712336052408998036083116196969933832983326952962577950901985500028410858655325798170745044842739417481216.000000
-227954636310678894453648368774126483232057302925160330984172841115989428526703403477442688586014757818458660317674614156889895731200.000000
-361677514471342068617091440467434914670011127419343335869733124342730546110919624132229725333362897766494120515371101042459575058432.000000
-252894850623698369975934615958158817836094958149410970855541529705207192821674483097809193914369490630510659044361615056829742579712.000000
-286810642658897956225304562454051757001432180035614089194836177219398890872430022806058000597478367174247564525393614671196975005696.000000
-98775120560041723255781884440465841516613438210492527934282793332295527886779799886078517329515609512908524061969141010643684425728.000000
14343931607623381925973565615164847775974785987567563339464378122825491391549371717404990710436992034771104108428925874645260828672.000000
-16825504990076060958480218755314563608400867348939822910198870870052817577856942510663713987038646933177886515377414650027376115712.000000
-133166576794822868696282663870878948851550295689156727451738216046064281457736518557626619478802887115438726154451548127831911301120.000000
-636208200277471518643731259487761298732880166092422224115608931475500706431423515470135028454697635745082410339535499283140471422976.000000
-200736396269836743478766819255996584296310392128963562815540770213656199221620246840881179333066637211973388836556425173908976566272.000000
276425921852813198443031656872263684572675631176699406892420256728552927448428380170516273683784961420405287482559329500591479062528.000000
-217453047746276076058207389339027888285874480413776114773789635885917171893850652965232158807864759984360839201873413466955909693440.000000
-958072504274776080372982700191773705934859295294829430453808264940117272748113150750313674163580135283150753874686730949188925784064.000000
-413645391124288146395664762268511218029938044319763653712817126629881975679341170299020045748835176143811145794679689471124194721792.000000
-298462487644033801235897897153195057710835296419232417199770225576940174606960670851065710516450671759760363381237400545024691666944.000000
-389186883274065063842557595902227141523156522381041782760432465995581396965364380197000109050543532998909289351562457092110300479488.000000
-896111713214745446413085058224958653102181325399319305993246479655157342340338937175975623337772776701588998850647675429095244562432.000000
-257792967299475370170358473718486715142089179252223932940535677461790073108991303054044306031292577345743558301219674908775128498176.000000
-391258086909258862092437954161925871315132204210089993128047878539457009222651362598114649777871585595215856568086972816732050161664.000000
-339375423064289952564213707731791580584417296190620127460645614458084356054939825689780594057969501891623308372493675798819365715968.000000
-573298839719806812317639209187851973718598947256412706067629112619694397513952372844777659430104664594921711121215742329257747021824.000000
-429080474696165025408383999209786828673799554484661749976814928821637626253870501555854237850733649589549357985683653158545349672960.000000
-468250980841926812682880899571756713993027126716364640602584017902435278798019522612835059640902227332788493191610489269651438043136.000000
-271223778535702875121388896614473467591727393092720293816478859635772907720760090991025243557005441416187237852908615993778105221120.000000
-765289630845229540397870950555861875952382113426616375029086567195171326416773777042490107548320079718372448463562256634039121215488.000000
-311660467858663545643419627635981906902955494345370132908330467939027325239672599273065213362848336051825998006129922469783219994624.000000
-371234130985120930847297067416867821022765410313957006462493153133670355612580588961374422657034521728582918536756486573979275886592.000000
-246491930158397721272202129933204820393153181995735114521250171825994880727054607154200537366886029139222885963340314712181189902336.000000
-488671345161641649340703569352970703161444087900046014915239708394291315696929116359370011846702052756278928189586783682912380256256.000000
-700907224399008470670204938750207501729067534525005259811562844669005404052851836772427700898757804021936264245587450651348729593856.000000
-260155341806499156752814967223123791661228855135857939953240914318484478782541003025765744569756656128642709053087556981384756068352.000000
-233813710034356506034002294405660297992632907328007467372026029356277462847580678488610190087861804273944935643164218895060447526912.000000
-25804826391277688131224162358133904983206361189100039280256959064033214880366389274809853602933743626426995980226992520164177608704.000000
-758429372635791084766024450913339348930904456880747897732316080481706721795074030253853383135438665046819990644553365409937875795968.000000
-163605801214949299062040242791208491009718231302612418888530502536999314844339709648356617409425236122157577697257633694787114631168.000000
-251639903397640574041171054627620704750963645551244428070791539394605530282140734219329028479800653510947600375182549778357408497664.000000
-256765399527839416390610096077336624505119189301432282294330101432952605707892434579892286533148618177195272346561772029946038845440.000000
-231609596939678255764212244935912840495587695103287869065608633374885431516196468458005349929572391424157768900100006453526229155840.000000
-176502165215497205519113223118719865410100995651555792698424238425044732654760518629503286642402235385702317954943289593761869332480.000000
-290643378389301615567984559318765820818133438172248976493039941283826649798015248755309460472449391546546685413082426020671317344256.000000
-272606510394836667304770666746323889361031376787255410247119433837830555330272925836014886449493563820086087760169858389960141307904.000000
-106533229473800277190403368081564535251699563825243892239143294663740110977121740954653098721545086774497094670151301648277429026816.000000
-220218736475443163152812341428731379742465714428084459184849213718742091459793142458280760001096362518982566491702088582375900446720.000000
-295156005962933119799914784453541821697132154783288777989963666196855221786171245162827105801707333602908066029311056143806241964032.000000
26939498588457326098746905251979320460507417210992185370006138824724521417980058885236949731678808000416526048261541666787558424576.000000
-422981483764584878936457027574120736202077284554842777987296430760935510761211122326336534866481184513541220734568187747629426278400.000000
-330220999742315882679767703688028222424547133258535148197489277036320521945827576152870372318175928285531115114366305746677653307392.000000
-486848009030356200435283171734814974625863167977518519869932637206133593035570455683136614059399492355900670389438403523424162938880.000000
-36052720628926512801153663378217138547148900871441594940359865990097833057442565733999681748892029862566613421957325305561103728640.000000
-36004319859164788417468015185912383871800269282324140884785590765502983929585198451888071105242764716006877634854986548375495639040.000000
-366631473730270698906181873847316903171802458324656852865883642592603783020437123292670876661705669416009428610672735034676330102784.000000
-609360201253260921668751743489919544435290585264643726306868525853701299360547109285160185483508166160193663877489026727472915283968.000000
-216674441969507704162958792726628967247334036234834070142166881182040637502267255908804058188004959222049816061270506267295680036864.000000
-772417282432468402055329881929359147467420839131628907679155247199545224661611223665471686418868059688179508492530364560173680295936.000000
-340353848906017767007830282104331726758168590948828665380652531189918660086222784309400687757393535501354937645906532688401275027456.000000
-298785715741683177470218839091042787381008235862871136387032477283930641822513935044359239441928114685154065180473911155615797870592.000000
-514744219929827330709768480917589674785133637899237411413554448030707930572679427791062242084602492894977399801169694213594683539456.000000
-239581277246254424673886274765979434494453490126287862753211302686140053488687137203738925821641532705017939473268071867624324071424.000000
-236612345108516211062976938711729384463913729148186690474093391776781098089841281650354546986589420352905183057413634887280373006336.000000
-253837006823826138753965467005683394287671595796101340316030372692516203451760531271926340778648446855935036368403021990892832555008.000000
-86762458959328181097376199151846144959404554997363864992912302397880741582218335077652028463067127475913066168035316851558691373056.000000
-137087927722713352352558232552688554124654797910324614473625051314780905686033514181245210612087036297737835614604260850908044197888.000000
-146033944484815157271756686650543392289723120364537147333663092753002073607820019267127405911231725215800742897807536885235164643328.000000
-410146268035091557957552777468543686758512416267520128641993281527248741975658512975971897950155947163558936250335647702789830737920.000000
-462822723026475081100577696618083746873992463168924325747388056041129743077342101918092685476028245001223908256974248450565645271040.000000
-605941468766434873201687648429649288208696749596116632701568912263088759623852006823724194849744837242826312976410245832803518251008.000000
-382292549866966653251575550728276322291055143190142869856154087276700441862445222769723354454792628244473815079813453190159304491008.000000
-189567232276203124970909207478519757421013791829161436879178375584229985402503287148911121975747360026398738388434578385737250504704.000000
-212643486621347204898018048074379890517261556394429694159175330664393782338871530647644789016594007061639795981159504759381154594816.000000
-306333783193364009024144241221991520244276847193817046987610155580694701077582944354648361941918374610771135333075739823528162099200.000000
-97304943163837079797353811553400674494790399374924618673726014388594555660594263169310635511590320535162969108034186065116670197760.000000
118362820728770691513857934838648710828020186233686822544378201389687044873784351942145191465399893559907430462297220965247857197056.000000
-154778089230520619040706763667503329165716648306425273579524291931065130910876303826483186411671977836959038264779059482763282350080.000000
-336032308638148181007109200504094115926953123809588588347769491510623177237567572563919921668059465091662420358336769108401429938176.000000
-246701484469623867131441434421328251750938998520081938433763406714874980478801257138671776185948990154089361581920852375159384834048.000000
-239545038521285070195093708859180852488775345794816327279947494032471521126086277677222303597369013649096968336396332690326434086912.000000
-230564864830185617647025473645131606666764723285475315892922271749500256413325057493775474352189856498556376405876353888783167389696.000000
-64097803008255259029749306623903167148610063936380651190247282719275408412625569766912575253697429753112500579018920912712120664064.000000
-223548144217038336294048895046350325265486765524478162651872451135754703625348154027255057339126753346138342482260199860763403223040.000000
-450345220962170568764741119806590199917200592322149750148451223793280053534767887085993986699754648295373671554962358977603265626112.000000
-552722662633986328368971010399068483899535656427024069049089835041441513660537671392749903854309702117226124155174372628254708203520.000000
-247726823006666137689665295972711753503776567569914582446348651000963295580442108230015176356340231921260036981132961821792669794304.000000
-428447801677894553021196470197740456172968759364287234556703726098271710176461195050550610712336508287367032056874130890139166048256.000000
-383526543372965305855175912490328619021351987894967110018152285009982421963236532897836347138603183712586699816537675015299191013376.000000
-318877182508729480005538113763167415391777161369547239502763705931146330351803907956416583122229742277560035443904669500004158668800.000000
-448093630699769103304151204683276632190638202290732028457633242298579845303679763133697496128458514045329240453121210378375575633920.000000
-417554556538774780658618367392693854781861908939453419176989629984747638178315465540764905469011254772048362555966148454026546511872.000000
-303145035970889235495278443752095438573631159933359006022185153742872634578993313476485858763224133934638405279861557251249067261952.000000
-292956002393502355661363291814890354646524853933447278086728393789129157171892921121667925044513759882957597412647635393353294544896.000000
-396377050598301986167619667051973310189349711924325869285204482879388241330158443311666242509129256972516772079996986511110822690816.000000
-386872123758131701672000699423248471141487235326400941156587421719607725428403894002698190031503216199193471614841643751573762867200.000000
-365647281350904149837429225882418277848924052822927846025646145543165608779117556282467220567404072912082592238846649392721064624128.000000
429541971513253244947491848717098993381834740282634964629377727678484437091195719278729294614923796403975003419234665333875122634752.000000
-243966448586934531864376949215936977036899352317527925621964296785910840540644769585080997993624755131416730427739365230165895413760.000000
-345755179776557521661028867427315144167613016251069194552792153460444455979499003019278598609584607816420658327322323671147652055040.000000
-321236033283319051730692456023720497295205782632252172072191840651529811786275926730375388527430470473488450997863658297845925019648.000000
-283481048573037265867418993911837821301269457136714550201957268680563983296646103124527450014449381239330912973693787879144538767360.000000
-185604688589378939423955494440865495146893937232259740008794840473793510146147225404125887915050700792279672245634854331392110624768.000000
-307960360908776551792962309102157257055320085040304056133188759370594378857400582862485707904376195398992576219782083072460616368128.000000
-201635854125326828465512256184774741229192643982967881616000666483641070473996663875546425230599945513088649262341913301701573476352.000000
-575719519695856206016083144218905346790488081435247633478693805125269760811075341473458181420899684244641253312064851168685094600704.000000
-92230357578218018582649629862389822966531180352944561848031345076692689360453339897486922577357066002194615196656765408417585037312.000000
-477430627704533637505040257566603152899434158793677217039939554405534738304777514767710184404829383444098096582167014849434928283648.000000
-232938645985111910712513482559258203231307419247474976972679098685566614658402843256434243912010825867896778698960656473601783889920.000000
-282523601236065026778332678701015784542006755407395904905216556825953057828966501914140314566106857762939858213377064726717039378432.000000
-236758160664985826656007211994488046860110341814493669920821142169934903929479977995618445679410695176470478968868086664417402421248.000000
-412169357376451122542714661742609409692618671286477933312060067390212645572831822287977143220089245132479042716195329839054379286528.000000
9021063885048849207169193454803909126774402733006318849072526085712670766646907492958493112005771902551972141805333389469953294336.000000
-227057002438622762473228587859775130262201024707939688858008440456553077451283551418286608150736272309578206853313239260253950836736.000000
-228241181999063656312959973336750455215260619258081723017361802284051726190163824778996981688289594070817464229633552414850632646656.000000
-453054828333899361672352672527714026689730076821430356807787863704844107616856157462894474065364233483438652282638619003682675490816.000000
-112489871534305716803549267297049803103341489140783907136572409338583653365397833351077879368247425301044423604722425140346410237952.000000
-462667376066631192112042418629441749232252826597718496483326168268425769531514430409858488505034809612431381245826877133793183924224.000000
-277719299494840046181187382043216164203159409505555062580343377534107335047071889262642808069134053430091639785557325834946403631104.000000
-164865851669928053586035220729209054748020028243056001401645662529781206120505630977971380543602712681884721765521430370215358627840.000000
-502445640884837119187803391443265445454213428613862615711616839940194991708971859347086984450639079632922754741042262599889881923584.000000
-46348201388902209988449373315967211717051813043741391874905478926996388100622206267783901673326931626012399875220208287105828257792.000000
-252531792406441478223249579914070226901897061237232673087769464146766075063694195811679211089816419735256853757126319951677868736512.000000
-341214382613129697644146516231547593001987789118777794571297771716179094398447544469176580227494590185127112361702020188623767339008.000000
-205544853078592607155074353482845741553816150773394595908171677030439061577199234121330543633601110728612903582132121162015425167360.000000
-495877771928582603862047845425331697666510577408969115499802064823367804638145270715831793649939483822846777698051091468341408169984.000000
-158417652576860882179160667612242731979253212777993807041610315363087217755395905483354429186654075356256725617984315889824122798080.000000
-251827976602809631206947911966006539167251533013182528088442525946165951222668548418425314103014779029842335655177302684438594846720.000000
-279796114554046091705578102904792126626656451589562954403932501302388347235594861414730506446077303505319666928999725544421139152896.000000
-260940452219216656908844497314015331802524849546881901581628065580978537484756803144985299667995070446434610911292015930752647561216.000000
98486803744836397878097274179696278009248274420554831750704477078181997610678644220164184865995901906739460777595624374349737230336.000000
-27283357746638469090718656363564534145240399149693945304366563843171372420231636019874846851596297986544211891221917188812026413056.000000
-193606999621198726844248895789860609079037475121553440648465901517692830456743158487848112661589952503669786674953909714735383707648.000000
-251480823688088433263233593431694272029195011101968453331977310637798056124475666633408253281308106607011103662421264797947396096000.000000
-291453726101346922922327611515727542344002272853039295994869592841357931789155718315651475471529317986575847242864515442724573282304.000000
-327527503662640751789619209408237112557652496201124615699210793136831956701374552735039304166452801925011893692050540336914922209280.000000
-286289316648255560305942056642345220786853682653327025468349130619359687126549789455245618237563705781935186499645479838628565745664.000000
-264407484052953449551746449033354833343421013147105280339666443742713319096395372256065787224874912861949939533393808363958193618944.000000
-321449200647547664621104359996157114256508473164589502264673294082092371364175626052967760639156022751864564450471804244661710618624.000000
-105237884649098202896093697992668601221706727734560781332467740338237219863540906548269378842296742891867545482254033731094885433344.000000
-203574898405416349752321715281054790038914176375077011429333161331907976569234845856059574192996092414523610909043825199867483914240.000000
-189116921583665548200717635193611706270849629479870322825474316278231700847136915448391147095744327685611199103460106356762746028032.000000
-230865404900952785019308963546727216602996257188889799027341049909808367786496686115674542376437514747213604839605638371705790398464.000000
-267206565533191710860995706625190149787721464341047451796262866459067876690502657657676279854535248398462034539681002653887842222080.000000
593042059905375102740008461526524001117178448678939102092098816060281264440338579744920545539248841106761576917332387902943710412800.000000
-27961903755383750466283868916632768870794042289365585389866709316573144909822428406374802475962640538100501413973533748244951072768.000000
-17138992500690569048473308298686909940626981857154865918282176548878078270004770473357596834916010096248989322404373943999430393856.000000
-398684654868717426150935385664649304313894623035633168549710841682751885615666543977790803239664979127358068958576144237857983168512.000000
-533539622677880869228056610589416441754485817521535831548576811969130344030310549244103487902476775205025153117124212602637985513472.000000
-354081461499240402687775754801995257197024313324091321504073162332846686921176379080457724404758584195771708964305226352732982476800.000000
-281643455292331808507384247059637639606179665323118260061179787343192473073031430946189346943894699460306978462211679807826831605760.000000
-543707748650257059240273592674547634588470191030985894665579202720442273821634288259010445481923939874434687900548119022383426174976.000000
-308606915237931422660949740841313954308006762013315296973746083943549478158857051837453926298701110465907859517314038457938770657280.000000
-434565926670881781435001204848379315717267539278815495623898386385303580764655376023535559941486821364307320341078536915274656907264.000000
-295248441891720018422160792372193608923525568187818004811636569927526315730739580961476331185538358211140809615987876487309385793536.000000
-260013997680422170995481611263261360318363636826382090433670278587530671985922794124039567651559771394043886612152876036515289890816.000000
-148075920524299923387455682741448078493345476622475281790262875185944814650916236751975999562884713505622912447400642416122211074048.000000
95060042600165868729820681825802261206481582418351320517830030693421399749700546498356135114959363954273451204194337623218182946816.000000
-667363122233897572501832840005459027860524205975698004981749808741118694187854771388532365887384635029124981237093823791063306862592.000000
-201002183599545593869502280504855870624727117203344171245652518925193700628357381071509318074879322180850695498033328191408766451712.000000
-311796707233635753151542550832528291378288119688795744039416933149088919745761317846128542631795049390270990124148506568245217591296.000000
-80537075316307193501553053459704647382586213899359523656511879414750782689967694079771350670733993733420894994225697462794426777600.000000
-419613760218910896385450929222901511281276478737379169989930980579084364975784341971246821663893268291258525518084342090953402613760.000000
-469632585349419825656266049381051893687626069470351587057913629748092427478477999848707307292964012160175842276811839155188059340800.000000
69289156523803467511044117018953152091632791350992718169181724206213101183944609732950059045710831979766895113683702471572313866240.000000
-326374765529051704097233393578548811606913213688214821324131556823268191219278800211613538452726632347331524890212487221739218010112.000000
-478218237805636672154034875626473357289975378142276212943162497621665859725551062738095188337987164701560348462447234339924015579136.000000
-153280720024709518109148542550301914495485954028351512761118845991416083149519848451562088218817731305120716247215707429446304661504.000000
-193804910121382474634501831486224103668744795749076203871036438257342811729526810142864199833083472425544717263891698627985394368512.000000
-541097479339791899624554767708296424248006464070826766216059736736126340554905773722773176480640569411724146734772107022966645063680.000000
-506562713990259215223060616753115802664378200621273445778141930707066094170863157793486053398118190782897299973960818989848992940032.000000
-467114054059508146110337963876766385859611309339034645265441274678200870158626736537604420064417875926172627165653422171468895092736.000000
-404693720314762414911390229525954684703853315582460406199555172772462870283051241418252463287194831490448772978535833906987585765376.000000
-227785942559243978512984757964218519141573829387082751506510264907807215479978319049518556493633584044010692814290746228058762510336.000000
-474148461390685292700605087346297711560828205615254247988202031489289959393633792481367299754322954055345362357023837884048987914240.000000
-344661856796686926048708613726211301090728825568761531602177808283703704250743267687207204392375019870015280742014741931670517055488.000000
-328745072850800864550893208514203600981911605896422556156030454950587158161515714283434276782565428584009844281581054656820868546560.000000
-412601581556102631543554206488354213591805773069580437469781089615943625416058841890209348135161001620733997113042337564818510184448.000000
-344443228915660789562363259324221205837190449108612019214217476051592507041425118030312758136341585569881013067989689951978419912704.000000
-240912666390027953968873194070745791943005380145358550470389749921288939312637797362046840804475563934564836304138406873912821415936.000000
-525186405177832418202710785354774022800637947595643686907654308511355674841731215994554422711098029949216414922557684975581937008640.000000
-664380783788895916151307512749302632341000811488445305450386014703418723852852764698486123494612079336635368875546968801754853933056.000000
-697911717994767075625898871212096721019200888151951242040407770450389897418435301542742767023740512290525121475624830174840817188864.000000
-159832976715886020931714253971966964339144316375190019563686229533365527864184841177960069965458989060713465718981472187109211111424.000000
-275194927157681957151063712128303144259151724418294523676705283073695615318019142106799742566649348033243919886929835994998663806976.000000
-334862284542114815998644203274224163187169924625458127761671330556449230472510048199714155595463044767832920519826747171224940445696.000000
-223368488629796290347418239679791088762733495848449445829705175285390729908199283569943203903084903746237305817381825771716617437184.000000
-296198925169623593440769379862215785734915225792703881331254739517644268371133925274775669086648887792348079220594110845195544166400.000000
-289345007471477240608414848076604267401712250911193813913327807660910790909204236653192061831732964580245867559292909055669532884992.000000
-204343557676656919674835087813671563826930603947743197485229350711737682041198130665823955163450875852913411903174537878666225909760.000000
-364652015920695062961494246040472795807604115032313831922753281454587426466840734880473716295365247774585866674700421282904745705472.000000
-288763534816851326654417388867359051301450156066046446926588034981301087606440971558526322642946596720002704051951306748356382949376.000000
-315838731246402456386245259352061521440722324797655306569962978518144931786218210689343194572559461078647719877699440221311270387712.000000
-273973202175523249209670044827316829064733547150823173368075740851533501749878641031617789019249681369809881057761379747489317388288.000000
-511988568185613942470751349725971603064529384600102644703894775782735469948726106387535931121491451280647950899475891732542386077696.000000
-671422940629435421652634667981262345729688850012287027790430664956996281862357072283698343523951962165720839423727924346533617598464.000000
-481587817451043650329069910621486895729759763384245367998923059677577161951858461506452240920212314066325846203195613664630362079232.000000
-551931829899947603327156349143709169824555825973493710558701773039278476529889490757638379446168093283106495210986489191361385857024.000000
-499776371636109711399328546788072856679084172063358239333647448722251428690673675417548198280987946112463061885930398163295293931520.000000
-440009439483646670423577566036438663765837143959812779718746450619435955685130130906601473196235108900511314763193271354335986450432.000000
-366526927368750909663592484610587227438661052885999784178061982803026294719968886613943569426549840578039913164968729401880846794752.000000
-649960785237027629716069471283452095577981319862474998848992590366886035603531784310233906346121240048129349755715438720715262525440.000000
-309137831385968434090005780436254142181731587129334754876127739798076874029433900780468308415210850197043788228344228983840614383616.000000
-153581373437458925015194579332865163277148944004801912837811761162862183060016766154895815252630822308905175993196490400727727865856.000000
-288873399020512870789894207656664704095623690833816916997145691329923745389118058038945809477686709780026913039713242971205309300736.000000
-245040967304532798479577046176411087043092410646139882153081791995278891609572894058992386056935128890247285933363991760565000208384.000000
-528094533669088481412702292632808110950300011973845321368740952005229174976061220704810284472286384023516592612630854071659301699584.000000
-467344669830281149176239493868652474008837632573356954667727808897356631038146704207839104624475761849061741435856338742423293263872.000000
-204741497299403479357782656513916751325067212167655815961855139282416465815955703597345377971898290561575815259040308850766292975616.000000
80609039933730776098968990150819734414137007663006881139222571358449797199730213511419695467899690079441293926751955316630582460416.000000
-506355942459697093547857354377024579100359609537153848043644229650335612271516832506247335779216069641266949405179538180076499632128.000000
-429134750136958851606407533132814550208506694184095473866356552563694036959816670895039026405478215686871581785255498880617874980864.000000
-350921507500850500667800275282960532213441220962123635377474230608890559440401017693736066219638758461920121277415928274398367186944.000000
-243172157087856934009535725112195554107754593462875504342587643018087525510446120862331050240752351703483565614756294574042511310848.000000
-360698218337950148833651744178642602974565451514162710566437174727970481902522959024613366561125762884644093359215533106042916306944.000000
-469264119125704749272235573598047159204611101085457342250729191680150057316227096412612359224721367895356148635500577340217284886528.000000
-811986215140410399358460341105526746378919733918883672440397002566691973283445382964449342012376790930935255894409711181141389606912.000000
-728300755153676609778767141064321509932587801644641482012312706436895116375711009927568510885484403472093936556523906779199085477888.000000
-329026686303121091593397966981472537392789358932347170057386138523103808687102316643196067654079439706451766436923019628298438180864.000000
-345584149595437726969621555611003103091702018394028075573477657284524665470363697020222325203869106423853641298313755864827401601024.000000
-496320251257259958316167347474171038694022771618939855807783534605074517147779191543129648062689678903313593968495189444411156070400.000000
-491259581948024482852710882224114212014266154200026137062180512193765902492491551640638785455194600748625160499963433230423472209920.000000
-328500787238484489218523715509250069544648123267196299355513910594579695805703800661813587735508935483611743392170585875789633290240.000000
-74927231306819139541978937290981842520460768224728899959911470712467651021638693075497946544093180761811365739593473923277874266112.000000
-435793206885231630601225770200740141474343469326579813920828831936596368175905433594000566597224753107231499825393326266403233202176.000000
-554871054366897527396664978946287416989839185112847404469599126359137366595953110184535374558782844993880526594504198249743294398464.000000
-204778226015827293371763533727213646649375482622515057411924142431834878462065623466237128799033439497815546903322312239170117959680.000000
-589122476828714947329877125842131765315039308492960713338187305845904275274219534887537270323017217774083360951564191656920133664768.000000
-316401893485080796230636232760674621075050378981318544085300595391665620699024822995050527146496347033494946494568529560173813956608.000000
-521066487430367368174040727969220673394969740771310827189026117730246854638923914236757373368933461969883523019151354795696389619712.000000
-230453500042637672043215162917168292455305054097640869843906337758347136469004403138752637006422929312741182959777905429236756250624.000000
-186821268257659685596412484447752964107335812494338740168943105756700474340959837765331100145809725740632873097593052742087224590336.000000
-164505563313796480323258200769835971694341971937490900277529586911083297441889151850023905596975604753007705565887915471186952192000.000000
-243942672733221933497118566102600587372944211919173008363776915995669168119649784701283338081619119985417958739586613549429260550144.000000
-757760912221345660660983831995018664870524133043482398975685568382677417781463619388881322885799669187374975223987086638539136303104.000000
-336063782094075636695323520038110783996345126626513781287899283308165918615165477467834758222993494702355664439918633335113685925888.000000
-481987001830451789523828256591035163161317523133618269540884155230242649435587831538447651296351033136499416397068302194051205038080.000000
-381611414359769133458213657338724233262907714713161417870630482915288183723703523120140103929334525338749557298817431524147682344960.000000
-281518773065113003984472594175521345630905260514021520290867261183649294196429476467792395233439808449536826306675564055169001848832.000000
-100349166982740614865281695814064095238224380818835463428745423937510792749656883876614997433432832923001234203540428939399849312256.000000
-317825628854311048230518732194001602493367259021516042585860103021830656970939341949838101741565840871563520389400163780357980684288.000000
-368545413273954601883522932209108830088627408168030738257328389624839837352733210540249335329221500387893845512949237700664749981696.000000
-497991914304215648206413065996039047005865938743126602938100917110514318170527058031551025458861014440972495818797813329338243743744.000000
-470011219017667158535042472925319233784954136136881320147682160343171626885467863427729500329013384284092231135332751465808440328192.000000
-391204022399793220394369174089399855311717519016776586139897636858631501545977201397223046067398823978305502491671024019525783781376.000000
-593994432245753833180745425036022013730177836862405743721339728023356548596200784503443005439063352806441045475111507604454615547904.000000
-383435995411229404731682586069322674151332864930049258667338574714797862391804578550452390181528722618064501692202571345719212376064.000000
-172163943541157119490536511673806982551327239923206970125068020168972330267956486919114052163158223364438561698965633208940830392320.000000
-593913644665983265151295650099129997432076984861858135192144075333275317603762659334680413142269214715559895188691660403596614172672.000000
-348533381654376900047030814540706952816525657274470427890212373437079455636465688285392575440206631621830950362452059993686946086912.000000
-387182806104719588965106771531665886493170070742491777263977999645591466540202420065905183127542021763648216056586627522554576764928.000000
-375862185425531165595562738186875049947178012640279185842411096150670886878500255439145791436575375154408747462884280622387768066048.000000
-436313113702404325255451042992493453712914158986753427898434514921679739003896720247893367299526149414838307292383829884067630809088.000000
-316937283042028670722923259620332763694362170648700941095332478262841495124378112447169368677787556269069253863783100050789149704192.000000
-263304823212672086570207599635953743716970335618265109572829525112102987729898906796898242116404941849526275768836482661881785352192.000000
-253152223782354747948074302941701094407347453857315916236266859095711199019918417314766062173238756364128830211240130468726584639488.000000
-277437916168914369511817240578205442474298957685150618279403297910778382011609499869482154558433458096620234660784643027567258894336.000000
-315765484395580366530593953900152942489695287937872354124091663955403929561878439504796498965733578738932370434807774185756905439232.000000
-450603601496279019408915413366391037845755936009118856574015146821086126654618843634991139715442639581617248155689997229508421222400.000000
-275081089788288070870772545006457610931426590285166776656524188728951584712498028514424745004202481004973592627762668255174484557824.000000
-426058851879262690264437314747356991792469260047332210059105181976163893328417314716734518446147638763383264777420134974100938424320.000000
-411832488689344299904931181669883389751200294469131010038419133300244688260996191086908945635801243680956004349390914766313648816128.000000
-485679713081000120573697453187568536128962492460244297048447208339691620269324293057219766206637521886494029232629924578148984291328.000000
-418037933196237566529988625045460744228742057353663187417293762571661815377541082852376397498641191096081945988377225172235717705728.000000
-512899836790363752098763214407195678787838363537812255442451620569406700560241700221132751444014800042615234858031851874111019024384.000000
-176273276335389922192596991892874658040774941366930269855188855934560064808975506365859062704192225950071623416204642208292886544384.000000
-689907782072740047768886123962914988532562906408822335886006776644049063136810627762266322086090947730055339982497713703827384827904.000000
-220331142836975797054261031293475807677442934861450813341890084975164270190325563095865753834957536158570062043933323879315486539776.000000
26023572272341969405589579369774706316389000687700718585926225159252211029573722095179161525208920221014770296268730414813482582016.000000
-393733027407013376611769060399813509965811463745020172964448115210496462577370175068504057264122176463991440447389924549805729644544.000000
-338992462243927772327808118835274890026465729157215523346700442589456211323775280103664919482704891300407559078507075836483452534784.000000
-320457259482019648408506044623310335882956673224242433708289766290395907876527759507075053601352635553477276287937886075099023409152.000000
-486745031205711949090433855805072857451059419468386863371263065446702780280798121846626638803412452946824763702900703666537880354816.000000
-273680739435731555408395528583387090886855893355484465173994938580794850260229088911675042733272883255335615917886933411219803996160.000000
-261482730837927031308652289048303633447155890679444246038704183649414419134005435830441512535834741081640342863414629935519528648704.000000
-465518923225796885535331101189964309325101008819126382751152274807678975673195587537050495442792168973004721900269488744992243449856.000000
-246965231692435714570157485369659020177256521382974826455789795021942126691132582062992577235890997266719479598428342263975717634048.000000
-400658539972667010752903608942078831495585929155506521887929656640246845611880759378804935922313531193005621365971747088384141557760.000000
-395842439749209919090146203947126365999065745839394546772188072065670315670296039437368493579430096303548792865515689377386243031040.000000
-492382830313380243968969921319924359654298659788656704779712182140439856953353096180262500812861255840478205254800342653826202861568.000000
-329113423705256884276808871453235696709235379028252977823990754924713759351347145603422918220437111394262366731983255348275885113344.000000
-890184698636909972379653766449292080022103004238319845609001022581809657928711757806791088429100086948270881590825489704258568716288.000000
-208347362307880744753381699632327463993017272975150042157697610038685314279684286912166564875583229543324176809580913581429081767936.000000
-450550534583291978614830387088061403098175455553462051981327846210129257734878094698228685716757425313512426955763718558158034042880.000000
-202276143637854610288236549709421883229036391784133214329960219977474291828306958354805167510816200612694529308554460030374871302144.000000
-462473093040479763916921028741607577442359652060787351222010597105863571061296745298248150795705082436369767999694403392501106868224.000000
-257542930761219952238607994677478713250506452879790860683549563682552911342102275564887301597566618970823792193213898641601321762816.000000
-390632212798534454926647369483611402258785729225176579224981483938183539391972747331007031322362658242800920606206702508723281068032.000000
-371586021045314428566063769278827517144058407347825339902697716520303681156588137306349434195941439206851526274081774916769559871488.000000
-537582251273078713954685166212843877053009233289624914897216942574316860310169375129679561067263750511546731571645109979476932952064.000000
-541819567300349710270754538199838810777326617920695489624956651925219866925853005340349059291744114310936981145126300777009890983936.000000
-519948321681295691615436478343844029484904562434616082597283917278653768595552516888801434848262465317021994581387043560530198396928.000000
-323806642413385726786947237348411365854233302439294489055266235072184416014723904111825793021502812753891268333755518702755707355136.000000
-390746578867945879519125680344400675261989008924506641674206549641008604367711258339304175362116849405861374877294011152137514385408.000000
-209609583258283510400924459277929189288280718530374631059833312070584174816679924554206589895916609516780466877351271743185901060096.000000
-566000973274620963038848380864625161906638732474883320299971799840062919539652111337706692924990030812882387655674287822027779735552.000000
-429724652593893367142218522425590453012685265379521189438093141068860850683655313858992265125389954586600707731930604536821729722368.000000
-546375722230374157964676085458454899894167951383290793929444674456395838558167341327970796221073542072493530156377338318055953924096.000000
-387554385888106843607691980145675008149950818913067521284421888723772793464373867708465539750541355543818709849632734148292509696000.000000
-266554912319895394421660774985134313226578006781174344269021024679981602941032966879427139024185942756908681370469832554161987649536.000000
-203415083262118227560504708404889470644538499649068439354441641471523644860964321738998066742900334691188076853628311696280676990976.000000
-372640036060399071334876509897376371973532927779699053976634262576519612259325732725077384942291465311398881269523222341766443171840.000000
-467838965660604614506737849625261359012731483385590871603349159941164086185657345773919818022316489117139638059680900152571459534848.000000
-572093430121116346584776828841647516764714816506924220331101981543737208388982824261511654854518808241486748823465121509388509511680.000000
-531299208548755413221662954352348357101544005026518610238832453575206393190959372683682253619187597502178639340582775293600780517376.000000
-89780168873763283736587011274598251688454673510751124226228485783757780693080148128763360326905451965526683430664665076267365695488.000000
-306249620850019915192692691289678905829335834575481255842052451091003913825986175352672535030492585795930059815545759569584356065280.000000
-576595443126872294919996135235119558484910293934979620489305933266754267343494269639682313850977516672643244915124978881080519032832.000000
-466106426386854533951227843872707337816456368672072623679886585913623283468904355113624240945910641986640803657590656621589666201600.000000
-427567579532395101780831223487557622129508216594631978812322724940887424682624481429723820293266265133797267506571456195677218930688.000000
-330099175316479977987752851704529255072139184015510642089520430651701470414112072157801782061078378066468320340114831286083621224448.000000
-253565658341211819069606914530497203983148492061377569354966489421518634894421089997331645412709327803391728115739366838705185619968.000000
-426693812387964440787894489206301838935692882759051560685028527554996497369866199615188318410596879971256184630435349538037410299904.000000
-583663120752119816716233192711992810216515264075082291827450554207874666943850286189727886772822814802778304141833061035127232004096.000000
-301057562651831612557233858738102316885826942091402779708058650362327108982940228471566824230111624586426440560973247987187619725312.000000
-316325000422884300840800190994182268511870278725663114222550603045381745270666879216596409858587634926764603179605219792153802178560.000000
-473011862737034967333514741082008354554796756170386414157624393441840695180884419924330198618316268945920948237683513875146433626112.000000
-626726219574173462662354299531270055701789680056912604761409394988537674117929537505989885388207092698895474394006094025955536273408.000000
-359905500786338669834829380630063971178923258661233120071327987909710470613195515394140521524207476166572134469883901825959562575872.000000
-319040128528967833566859767570929349349896299871629649869220077158694044698838397229368913232101817195531246635737036876130518302720.000000
-217746855676550311005151600564655248855874075823248280854815412146360846447970237503857786655935816225377823133380815050593833844736.000000
-379460930839526426829483378997925154194441435417473745429626336275628856090246764141313728129706601775701745801498137110011520745472.000000
-415712720603991131825224178659481981522192404951070322570903497873009850021964855167910462286915548997620510628856330210925361496064.000000
-388412102097443938256300826663459452040256656497926746710804899052908855579820510647074921526522660033955197607657778005734498238464.000000
-546849733560503855768235905042643464074397917438830281441440405268552136305868677877140825337182919129174687735359404998567231750144.000000
-343727370832240873918333442359235495996413156809748121139883551846892815716388519495996173791527166343205867020267483588119949737984.000000
-389009003833913003142326669489730235286734953072995061582869671742602664005191300016157031741746345143880529156213878087677437280256.000000
-468592082111715972019369377324711226503939741176553475899005933098691146895373815356124198766982983422604626139280364103681274019840.000000
-547282448027990926873419105840065275344693405514854188773622302517406700453472992072514747129963187981667640391451316545965361463296.000000
-168506084673213744439310831868953349579604010453778630332499607559938695139577968049729800803305842388407794411015328720396843220992.000000
-551155711099537198688130695978190325157900765726330778492332786858742298676808269671577031990533352756152952971557661876226847932416.000000
-373108752901574911840612808854876439013921877456936264313061754191518509430864840326534499828597345804565088938626604967895893016576.000000
-442369303616304376684280326725069440808545860677826490661743740886197704735574078835959329660892886367652845706218238794866410651648.000000
-486206770483805776257517432743977759744356046991649224988119547486546547685768958160471157712731373779747478862107287409208812634112.000000
-97654257966197083232671681493933456511096414459965302385074881766134497021335212055401316673316447226604333188777885218019062317056.000000
-459519049711419989834452775321518040102641337183517893291315958693081942482899104783970799011101200866512881133815596467044413865984.000000
-614226032364895141593954101471020413343036383821846010769286327940431960391561298261335875096641774333180905912311444518205961273344.000000
-239571525190947011507460392758954680179858012076540254871067554288510770557572581992267644068280415500629029841809468322063113519104.000000
-348791524921202371145615774262575553645076840787299114544771400495993240086760503293123573937548527991634206908778138826544873734144.000000
-421178566726725232101149313092056385422364951178135452564072716821548419267970445211816893620306229483055505793896637592938781605888.000000
-106483650842638782001424817548415352094875624297354133259058531480707636960286989869691861419939797152855833304732385258193981276160.000000
-292197356285031929770700357490825707844831182412329636986215226811482480916960249353964025072064398999824726543200707324991019941888.000000
-500367861517867351016287489897400698247916249668470412368874504953985411274840764686978799374784033083008988476580496190705999282176.000000
-347650295106970276237461076504766697382714138085553282874688155666482844745692167433271904378139876994656383774256586259662832140288.000000
-592739841637324697044903216098143892102538582931237828383972425356095514101944654822633472349310159311219688350492189919532608913408.000000
-160987228056059665526159381592075365099891233507083795033903614979067517133145640871277839510477182549726086515604889696483588177920.000000
-300736213009478927610737983067779466317400319571382593469253626921008236720421456034925901923959802614141009848889325085105359683584.000000
-500926376782193365234015524890290757240884568668805055436980418375851384486005585559285390231898864484161012544596451648121193103360.000000
-199872761614317924198672751864064276856469193318764099841728060928869358984373781017850015248860833594741146940680673439439092973568.000000
-552193444111707816206006670339742060977452946738174122474516358212300628614824853785434768690137422225428178229197249211749200035840.000000
-419919778743172611170567703547640909716933796854364070295085897206673669547133559678972837165227428224642058063376416227256638111744.000000
-519745463955303538345946306840703028286898437758468547355485900452707623131865547708251173782069011524165682901523163706316518588416.000000
-307112992834155766491877119796540520273170924411531089579223443011287466228145601664014915569114436232882708941503107317506890530816.000000
-508853187605631833308152685090720845988860923451081100814890442734980935740069927621321836089288413378962974962539346035761657937920.000000
-477477641180818106128474434283352009276170624126415041091946409374112098819429723727834040626638864763523205704896293414080713064448.000000
-584108828863726202824586121044190595755367179406151829528430153272440433444768509355681345813425056544733526208778504452169514614784.000000
-167745887018921817417151884813571300577569167780388534972765323160632358430247165864952453645114016890990879217137852397532815032320.000000
-423725486634873098260956810713989705462209811126503653627067344065581944558083939160647546933428789937259096889630064769543998275584.000000
-545657182499965358414158673258576908840744276624408224808870936875122297766753504982012717851695401216124155053600032039046129647616.000000
-233726183616784087744466328088328864759309031933585929580501283590588821860042024763852723106431797549534592282606660062965114339328.000000
-256433341805512785215781696277571165430066373117152126162196434881586363936640017669318023479036491924064332141425327457582448640000.000000
-78658358474463061638526410212715060099794654103975366253277973975375362807162341404956751772878107442685453794869905648474002554880.000000
-125446432576555686053223333468280430806937611526322396960922993109003197002880474660254952721192532855383518310552764704207606382592.000000
-505035994081686743060964291541695701409110706953099667716177867356441659329792481614382834062730601269193040310412311889631745409024.000000
-428018156736219956674693672040794146318648104942540765866335651599929338672291946359734807142928095133664096505248210344418304065536.000000
-409501960556982466505988034732648393908018018610645888123500470060958762619269544493663298334713436319799126488706195517154395160576.000000
-306917377702331784413922543670958524635014479619735626458157782680222422719375633940377273060185742086323687787226507208362683269120.000000
-336024735244860165532272655144593826502069285790552027434144433153058564608855037554001495024288951778633331434686459927074124595200.000000
-255588324733568251517002760308175155388665383533925815836877521362465195176895629174788423305598605452260573624869476605314528706560.000000
-196842061134899151077397612720704911969872763434666077584261906204567648154478534615180169828008004503258596875754256127955197493248.000000
-568698058875213183003528962212622479782615678819676423545006690896607187884807053240446042699642207901589952407065110622774585458688.000000
-578147429033364964812526598235066293865030557371011454774026655207966685191128479951008616416408142370004324184499623342041833930752.000000
-267158070111189850202235162050096291430780812408762036065927087736289347590375796232071983606165795452883754641175094059709593812992.000000
-94032277946177981896596841118504916972749936115119806271192757614869920032978742280946049754923147018801139557179096682659105996800.000000
-362110891679397449604489794960699954683142130926182972691940205691521920803207825590137568360614526421157366116561576544760108154880.000000
-472677533365324677349630467248707646986746614711737401010605418262101922783632864036276939004799554039107917502168331529338058964992.000000
-381603445943390691143438332301347471760442052806370692186313874835877414165434395166508322096979316811928534865049912104200773304320.000000
-267222644682241384149111947784157964035285770877120031804227826935749765719725887774024661675889609435914017397150539873132463783936.000000
-378939346344921571840678447267216679461428985235381372378505779738283678395230387802273257413199309211827000636860500901275447066624.000000
-24976969999597769079957190038333214169571096954785457742768396686593638409853928436970608830796579414287953564393458690067343081472.000000
-543136723575011666065989906275947307155117950237997653945244904071599129270947174075071170661349985659243935243581133560902026526720.000000
-619973528180348302197682114909561472247961351486745185523492451342596501035789183173390774575321181614974024940414234053523670040576.000000
-460711353336854275264345731648995646727331888715787396172884411054804702620502644251893949656029133841732807671916363446585269420032.000000
-269845242747238245209101551099520512865151589224587712745561749081805732995195107280126192342863695175514034951636935495885585907712.000000
-529467609432965015712347861698726021246193051987469967333701568413744445844817863748010930030590536741525203743369976518680361566208.000000
-245772036519333026610332572617357361151854363612432758576069090950954138399368530257564380104076921056967512002030634474405871222784.000000
-466853388408573167221084499909038742481705335357298193742307205608374211138228687081463281479386065229014233363185052852733184311296.000000
-353000467361480702310508055945448285551492325726167193239390255815714652485418952711253385354125703859384803726769687530299061174272.000000
-426398313397070219608370278924029370638799717525671577438367205418370186185381985137500462866034724477274166380943830193246677499904.000000
-448278335556448172287659321165254559069136749135348028319467085930613754821812118708050567243753507934028735654865771751105114406912.000000
-505171488602512923546732188982177011452113087695925705922666082770789598192198836311900939024998142996379985552279240014332807872512.000000
-346179741692441328166488805092484970811489559112906296530374011694959291887529339826941712574723213944930444140515447446997643034624.000000
-446860364748251270880195188164782843667433079663534395661008332302992995048074172133120692486956825958559361670396996519893800058880.000000
-496777613147117182051555664554136325698597311457565620786440439960413204682676684251092389066538245635944411803774493383658867523584.000000
-345265330309956770953460040740515820070816387883709162568578408083821568850595973872903588751737066027462050440012032369968642260992.000000
-474312823872346340754925923650102884884660891715689145386474455115008374392210774249503695489270194243648016245455095247391063801856.000000
-578576026568927208479816211014703392300655718425632886861242074714432057799903974663556965660943383772759245061033781984091921448960.000000
-441839971642557684090697162539647339244683686743710508971316130276880921727239129640828837081929771928074629668494468162930450890752.000000
-299378403477396846063869096240103546167490149562767349419436678370856450567955273235204143647988666732597681209277820149722616168448.000000
-515516845270020153029158106334382804454579973491054307896371704866709127049677258900889040060915383047576905547480496018400898711552.000000
-171989660220116698182771146382271956287471309302279525559216359446201719716422845179961460095108165598643009082206295849807539863552.000000
-578218895517890804503654749808381437307207483857455045674843723057304572690162923599671954917927706711249490539731321656310121889792.000000
-313751656859936043211703795132476941425075015516882123698925161675622998428136267133927153704838515365823200037550500867671412703232.000000
-318888608775667012391437407417914473830578123901847537038710820350438814380753696003270029621373439387889507611033775344129897660416.000000
-371962061392887493597013439461530838605404120645427631602225334878220537153062775480993821124066141107939933983036631204290040430592.000000
-264043518725745868384799378918990369221702261276464696906909821809873532748498998669368739995904202635373389231008711908569498255360.000000
-435261581463413741695629681199679869424790254243638324824621153896615760732249277298877786751934490137021430234641512886752325402624.000000
-485329274634213373200153759323508972081597219321909346998756549464415512814018339150676368779139996228857909591798529014407194738688.000000
-151608691486672507337937312965550418218301708797861772374388033463026048055340296072764181093787478281300251063972538202513660182528.000000
-386602728681449033922869272168562885211125334345797234265063997788689979269680651658829339492880389187594671064585260413302217900032.000000
-112779580230617618798895671239359550844856357883813679713407607459008721289700248828181298498692579422987222776904304020353047330816.000000
-311088604487448395226614755602653892079259194000280618089842287670120488305488399920112779862209825863311467097375377335254385688576.000000
-503832308710206239094069847217232767305403188803112646422098449144614827820082812170124747292068144770743560338977241872853675016192.000000
-226696308094662331078011568164157655279748083832798063714956248887172943263731012144233299400327076931926361168877378502460427993088.000000
-526749766684590276245261101458504653893820020810671459405501364847328706034736179739990258047018813633220745684169024351143907557376.000000
-429808936451808900557066604159326291046321521947044765503376699085042287932656832904549614199418909109759655194835500003601143562240.000000
-608588480907882255265374879190199934475162281295700961894232763063999849879222050032073836398973430437746314151704081556062701879296.000000
-666013451073648135569369397697708550975676959155833994673352220961235404830320883846827878290245129538980321213659558249688809340928.000000
-389136310308463001196592772333984060158370767999906466184440012789291070070548897179893294383178938897082958907775415200069569216512.000000
-371318473992557305440311081032589630251475501406702595331417863075218110903098968077806770157758269379966657488974580219348506378240.000000
-487003269898533216907845885564074926672889697415753757247529194092245649551532234076106215562139257573345348242742279188085351645184.000000
-236016413105081612838970540515958269661671385276513884495251602551296653572047362582646495953399917834280680354319923722037982396416.000000
-239804836879912504275999867921820499920111597928825223185717976568432314365358134906144980980868642858517396296931066343263569969152.000000
-358367278704847737150876610520101945064345338360568520033219550973477508881576043207167811846008792055480640782499001694731471159296.000000
-253354639875706617586430920608736204920921043298096718459929813601598434677441329084816881706826797721140344423527543343565535969280.000000
-530617727893402833066981621972689288060325754891844765938816996089340400040965728673696395117107681291552033583146353447795771310080.000000
-256844872397640378046917733820370494497563535273541403585526238342966664734502167707492023489184220640357961101409681414324741996544.000000
-255088873075441206554289820640654908493062008284660950762237763297490083938332292659928216057404853491972805659658328607779341729792.000000
-382525603518361043656573703323368927500537099013283072241382426133842423786685264240095541100723993215128021082836881751460531929088.000000
-325097017652942721432881592255348235929335245098720626539069503608643647642030594315338584867056250475411207885737562168656239001600.000000
-181359968951200817715016946636983270120409152225300357679013350967220739360264894606621954282639081019855987978669960879170494922752.000000
-393705842359196924598738917146448986917479166117355388833607714371538732762095332719214174334152346654909874764990096830395576221696.000000
-107229882115776623685639605882554836398470952036253982379256343801259132919435416859497118771781013328526629026179779868565528641536.000000
-540026661908055382918319437741653419392789479586628606670170055252052439243479729776295122615633802220750728885342058522671285534720.000000
-413544846227727909313487455451966549105366947619416270508804335819306492186852250075742540853742949083585483730393878413641445801984.000000
-411472898409108695117370897432743492706715587043124543868349468919420380811362298408672271955324460785533091248432890873628546039808.000000
-226174170686570780817360898345034700224066992024539678609751402662903311045042714472056901779476197983199742581358572639034217070592.000000
-552778998985751830816268870570848368909300914589371049573990529247027859248031854182269768495943052812626859115838031308874951163904.000000
-233634233580802638244226091946515733069354045928916783928066633842511092955701932317926230230459468842905197078663669176881777737728.000000
-255785049550747268675172062653566873895850475434730660082228059478173833834384099032913135980248368521953790448954717513344681508864.000000
-323007736299371055651817358580999506555507332621220486812941328943565848198427449090393248528787277226556549006051468683194264453120.000000
-361068364540422780060736750116735799753040131404604490199722504070363067988195851648453516777019362568416573089818083902342354173952.000000
-410616008907148874004939818215906523660861603341185052196415022219213211771060335605314345281525837464033107526089967347277175455744.000000
-404714089932973555321316520955020290639295715850721327668004970461796104716754660891806023664551022127791381422398395887036701605888.000000
-395694396901918194338835013023074566898680638632650801796673148140085634504421189030667898021337512797207528728434728407247272017920.000000
-290543438514116936914521842780702554817426832036245391859953963269112523105409855950025113582968811980887084565361098719689900556288.000000
-244928657066766798265016793819675469657559344106517329393727485746222148664548533917591960151785110071926677386174362751962187825152.000000
-104703320085806453546675041012419421727435959396768968370670214667034798202295675776118022977137124691721404493871273958670203879424.000000
-180749980590071579729409256433032939492391013328609481160207841134783146019969926113091423320200492402569557577870932513965916291072.000000
-452195177691846506801294017983117938150695674853632973151846228248288900241817855713645531452519352625827099248658981296325603098624.000000
-231112531666827402116888042304580570013956924005660347315202531669777144205132398809564592825451463428894313195837176695092418707456.000000
-455684691258762870201389809453982608371728068669544997252805411954742907988411119490552371863152441447256519930890370175535299952640.000000
-248388826585007219697957203333152273500209780955067940516974064273511147970832759774088703351360620841231670040274884897021544628224.000000
-551599904973118703680209408337258825265570166951750099447628859363443577277909381746788009263690576475266129611727974047186371477504.000000
-94364676354246199852639678811420397659422963843467014059339537398244569611916529101117095940091856971275211936661591809664695140352.000000
-389796483093861793207231833327726154311382374496006893333784333823551258534914168770978710347688876039235765591104637938623043338240.000000
-368850811250204993537398767219513305043729712686572098485843032806567150351743580404932443381031666439519937446074034203553515438080.000000
-596895869365952015100952693069147301485620720161870592013572384260357294071222975886927787465487722299716663686830804722437702287360.000000
-558565035260897817207096801575104199568440046680616341270625860630097541078862313458947112494160200666315188491873470161247948242944.000000
-296788208794607625366590731437820406179096141730760841450445499229047300496014452809761474159193502073743168500703346050949311365120.000000
-437404616748956635946231673228063867523692378738625680295403031998676511294883848293509845973296548916802304970211450732269801570304.000000
-394726769722980535637655923528591531033233942261535917625019760319547300620874045216143595333991801917782915442394691855226119389184.000000
-221952630966819207067469650365976420110436852479582199183385417785846888117631667822264328474454763288007438879081973068678901530624.000000
-368246310293302965942790234669276204770760200286355706792362599377970704977835593083390323641917799181209938017218910060075328471040.000000
-377455408000118283894376981050404381604691367480111997740515616629413844234736405505494684581537423262152098946053304446148843405312.000000
-371390333240182182229125430779142664243590256418055789376454641838631548350029207414704965053741211744479596672101631762534940803072.000000
-464199910155892141871579329794303577709267678752703772954785836558096750790861273612760650959948214172435722265156060234018321334272.000000
-350750724566986917213433861929635847603141337449090150330177036042294393131957781210759628489251835822208756967242669283226356285440.000000
-284275429064455263014727090898346782446720499063711396695537120126122585852483472623613146180778339330840499834447695247388123856896.000000
-540117524480855123285053099196514299812655370114098560154326334420825897469323854317546300678009935263571650119446928450802214240256.000000
-433387737399758502548094172908217630226419970897531676443848666106633164809636735960821787788043823356060011518790514019648806060032.000000
-373051555592346053530189461403718267563582458273476887348266973705032735658386343822579672481163201314288294300312692316166703546368.000000
-159302189932407378286969181116497859757136891087199662630595658675614845032153334556855064166481522428398507943802260806258319687680.000000
-409659265336122819543419386861603879814148043779268028058615501719589149507899702410642492533418712242958879564414616375018678910976.000000
-578225099960045103397720834325381648236935030959118721265664911824176192613947628022234938702067580915239070228257103007168371621888.000000
-319680424743864263046028578059134047295110874452278299351054001231241483430116582051192361327020879093614611926048313856875718246400.000000
-243718717433068177970585447197296322035394074358669345598591526923489412293849337572221329860160295961280804793249137917824845479936.000000
-517284521800901752691297054235505202058316778441780433070325705212692232175556337305284526508338390411253789011982269395020824969216.000000
-405361165203956745781766118315662237846150220004788704747541494769748740742431000830254019490435297567302559866145587953436651945984.000000
-483647332319381791732854870850899902751841134742905441222970174462740895889909830376169990081870727719548428408626724838181408079872.000000
-429792305473477402078125151817348868322249221472530963199957937040121812406461637877528814793384893533067776410668323352035993845760.000000
-394029862490789768228250971911218655986246719771140639931164969577564018102141654370364512338974440329281683025024765689873632854016.000000
-260509946743217164458346095294189045375393103905684797114808500292406804250145280809617250126448560123194763827963345854851658547200.000000
-478413473448008871253856015505951542925198946418380269780050622251733163315662945827795652846999556148733256674134339273450997153792.000000
-250880700859308660996440446093594085334550027040478224584665281142997483511943070654954626034359899254626907501493029090843118534656.000000
-277571551172180726169074533266383931110334644691735444187936023870768045591967097955672303060518066880418542457090663720052594835456.000000
-263226569425567705717179307284038743372379878983181241262346431647093416600063252209095352770666081861802360869028157449036518916096.000000
-294960157026389354382133495590011110232976020801941409949572357711391145659205994418071743330597608204084559916935222087318734110720.000000
-148932003803387173005106486954372063535491742926821350581912463115888036648080797136382082865643355940073606345421689125863793098752.000000
-324090949859470023546767927484120183484076694334621656207331004642484412796779729634478181422000025354046393360750389085030913671168.000000
-248970848456765814001886046986751071190936417519697298738293912657447549539150203693607523155764247955447597042360224372535169384448.000000
-239194661256190478632781236850621955768463435996791398903155570717608715179920068311820049970916384266174256841978876865973336408064.000000
-320803325141638294997426892788212678428895313822689453642577161360734377486921224370726021049177830577376922096029467343232807469056.000000
-245600313731988827975115246631526262808714366375532992569269542273812431866781549357632625145386040719404881832198440342286789246976.000000
-391984112733631065982491101378814612514319796850562495465020795659975166727178550299235306609422692459966761881506586235222613819392.000000
-312317375834005790457763932228929022858880250048445046713722302919816202445865502741134842296554732644922289844062599521927123959808.000000
-326734588594553863644500498612044223691168871655150437902669207210598502760915864573190307308883651827768365535646554206920631123968.000000
-348730878284142872237911693770193878584295158590783175716982678106490705404778394530663638397497870226944203019053039387530825302016.000000
-400939792533726794743358252689986180464606041493484159544030211556328031824096440747173674419931053430830460002965286266164308082688.000000
-235849580144517891572894278023399783508465815125481473765457384705116306526222163453020571713025186697989305423071154310634591485952.000000
-520928182284925871561734166825471492627824630744804102674949265257317398942828923616881442218798747170773649507530821188114911854592.000000
-52305497246712567361768719744461351901770210765863363192381075011911405465768687272486337160723114223786845091645020205684937981952.000000
-444023519308801607109004022458211467450592974558404248077173917215885441631996690839948237726395366826078736401349691405445990711296.000000
-294821645799936776289046364215666689524119761047353866350674072764723432672281618066508389046873227406826021110023547010213233033216.000000
-370054217178509782286364584023305658935666207273015079645451325289255578000716307751530905635075486314028467517226964849108895924224.000000
-387512601776410114098442106723096791666474411184575560295054213578869741318600653558151969911564152703351942485100687215750721568768.000000
-384103282318194866212475152316560376006822436950246174963307699746778401648116484160517228779832746562780780949477271997465241845760.000000
-382740887445300794796220520100478543072777207088752199705675239994402440470586280267115230872805594334489131446228855553297857118208.000000
-405905306605400470904172479033631373119669473113770136714054182188649004896910732260432194693310657080282369993899123049902500741120.000000
-488463238959831039667917764823868666540528626003320925157547620732107651279724569753916126899040843486424262453056549332338350227456.000000
-203904290437638571108482921650052400228005518620681857954695642360389011439077142926478567043791690053249852167721587422284503580672.000000
-305731688838251508711761761449433425751300791161797640635330814149213086264473373587249028506857299165791829617630325389540032774144.000000
-280892834751759716898259285521810507641852906757421820388456923256440691749465454550290978831418362724357620940427614929468245671936.000000
-305483565648866739486258653948875991538986895879537153787484782797322080151300031195425565820374228743402147519401312887134639620096.000000
-351909776834712131458349018101213712323287324603304766469192143876674419704162472824959996941727153356961705821661249907824110075904.000000
-397134455537236891207100793358310133008534013961825889559179932600666452160004516844097180783866473740668406225237462178336866304000.000000
-546651386670860698056128998865907404680496689914053805693328143477901214389579813982096807315306224745051467780381073159349344403456.000000
-231905950133618908055259156246149979872198987204407824996271987110437315594891698904895364522031801833816857842841330240418266218496.000000
-231185062428422237562850674402890142449507894471371277293246002744679311498130600410672229507258617962275326017886510706727772487680.000000
-248608345457532157328509181119573365311466517311586372288517277015217077428804550830422707542198251064704869539629073073656454709248.000000
-201208471725657400155637495164041931770917524381487292437051942212949398535565955515719273911831572701222304457435601855375745220608.000000
-395973307699050919182884430207493032170274394890066780386123349937669328326003388248595896531939352744178614244365339418409222275072.000000
-449776978166647577981969249845436790107149027491830326858968062960832428174208859565127895769590838595450396262425999105366899556352.000000
-249488102002359825705826256298614506944705108512650224488504745072382369217140560010107548218816025961352797257495390220084116979712.000000
-347665839901689066043053086940936621120512860760125588251980385952312848529237807545727969865652963297577291592654537662768166731776.000000
-183143902843383470856157603151360292918073187041930701137492375109778483486846873554992552460509297658247311135466472779743403966464.000000
-323767821864014190372283608629249120200304717805450630394674012942512106068663136766647786910640638702516547290218882811162232094720.000000
-260094815586051814426455703217817313333863736637341565981752749679386003758002995574151347089623351576669628145576705640608393330688.000000
-282208734033418171001688631406657582697859542153018567243930758070175809864964261105361919220263779152220543768066966740921925763072.000000
-406652621293857419454426940418906667927920255676316078992974817516343516134662046205335384688509019437821914434955270476772497424384.000000
-349913391522478657083877830083733404851300884312569418422133904470628268922481311705954777572458504896142157547151067855849663758336.000000
-395548741906394818160771297693886475010205057289714183566371068852774948059927126810201872140152910173368374541273265378345795715072.000000
-292867316224227860077423179318502748833491965254823034957157382360585129467857952708086225803630044244391708113564213876758482518016.000000
-194250959674505076318858369017041258604403646324910784283408974178156689594322804126975904156158014320874352043829841280417545584640.000000
-417947593855701337977589119502174246507903552002133572026956567451860077963194466473943729452012522781152891112916126824926642438144.000000
-321656000210441321225654517582285058167927282965586497065793260041228851992934377686146288731934467185727657104506746779833989070848.000000
-340203343868492002306152382914013801689340327930397631714427943708230417228449094845258696978640047693694818797043565443019400282112.000000
-356366910169442414059724340084204643183353092756745464562566146974805575446791029958263081166690499033849408061457608575966035050496.000000
-488215788379182964549551792311240888432815490118049808431744114651521454879500828752502528611277956805201552667114129380065188773888.000000
-439167629832901674474484913862356750682288899525587409252521660577742122352441331432179434846762565684959898283883996464623537618944.000000
-534395803318587075942351312197889617319065204998824248426155864394195884848551446417840905780240041524752107014129947958611544113152.000000
-546228411372605000411612218647451382244117560945106911320983747367831295901423472867971189529133710192510416905408647817362128502784.000000
-232074508347676236245580622462450185821250004343902637641385306079423221340381692871839415807740613376161082410193951885135481667584.000000
-453177461257616238408988834120585984173576773349126252892491010097926170600476203351111737887477121177935401267204971770137657999360.000000
-239393914241776178621328627421823164952215926253972790214398158206149055670345836198422021636733095010930975545633809542445524844544.000000
-241373117599257127069679454251288827164681708883836434022867448791357097424326356398907783889727733426357040380174767896432249667584.000000
-290063119853577086336426590593535675055409518978547274933588612334464360063008527126148668644719649551280495208067437364441815973888.000000
-392426223526246621132311438520635091097569112009366537471607649416557744276123213647527149528786274352097172435928122081936450519040.000000
-247059772345719747381593059724092016953300417446436697072091790653803120592395524925151484673444577034256538951279001951580318597120.000000
-286297016789498501428708837113910451831690483099803704465213605527594239863773412469290753313210242644069011426288778623152560275456.000000
-378093323352455983079608557162166984309678430940643212731283841826191564998553739841934637964229737171698576852679430159359457361920.000000
-315858075059974254225783732777413909231325133192200781627013931009944342469853300153662467751820468525704645752910618921156002971648.000000
87805566563165102240757644943645234224864109753095113530394728313319354161717550644078381270295495434637573468537510685861084135424.000000
-297926289526742136336031284623314331060530090810399871939713284058002897644754224153096812354187431182870691583806428594354719293440.000000
-188759285745670568757253765986307252672155199862667931818575916350015176809420206109564963259330929045294314295597571714186097983488.000000
-273272073124027224259796291609359357284307818827059470620762720755028708169973974950410667083904703023981911056301150333977615138816.000000
-491067170943585193326195478723062666863246543442141276113026562261090472712048615648013376501941463783257195473561057538197470314496.000000
-238659662370194208255217494107403556167315440993304225319893401290823900894926426471689496852678721799109737336664341988379839168512.000000
-307007929356152217273907507152020448289106440930260473320345882553405865320521477122049953055765514663144431035608159575286648668160.000000
-255656404527291203831449631648924019978154968241725737033364091319917238636915763043468796255391594464011837355127633278251363729408.000000
-187233898618485229427465274882456817749258144490825554742216610180079182031608926912285187320864132173808817898886770398194212798464.000000
-289244346472898916437786991294292075537159373311942306516723508003578461902124965020718167560219889351890767901848457752191149539328.000000
-333492799206626600467262040306598563118455976656477595017569706335600259340631732367177026994946159006762594253819085569719342727168.000000
-116190864266019424125555070196747830677462113995008163249573037586439967812464250016786005139803698304693940020479400146199566614528.000000
-391246833224016883167215485007613544774868518943323813619637750606619183694397818824485549463860240789323262864087261324776914812928.000000
-539246467259196717145402746656802805758280579189991022459183874815980228567192533415601687593365133846962300566339708372070598443008.000000
-178160344252995355668708018291760357878899614822563298833307448295578822471734463587017112813683037838624332404860962712747031658496.000000
-247274749845044741770468281762092600083758878313427155418871262403130138839308526940806448938953710688015310074654647009461890187264.000000
-277314552178767592853306218314309090833437564706159730972135282093601561402962352351012235815659169246725714635463541399119529508864.000000
-397289804884633603868313013660195306364526086254924606154792962514590215944667233871116948584745171392868440786201496192609731739648.000000
-268795539734209124298136815422569047377351705052253474602054362899700325461933871918676321193390625300489971285698800277798516686848.000000
-353861188973050366462686524030132680917656938650803230588218522587258995976600893699274906788166040678623489987045194358555699838976.000000
-307157184395283000854125793305644250361393799877861612730481644432843183813162895150244167113626374620836327205908957495792806920192.000000
-527880715526303553410702519854543028257932064124961354651816649663944131963745466154625914194148288470465136394612934102793976807424.000000
-226750354709026228428491095746244701664250678664278933605065866193538862581945690221785861120909248857565394940183931809921648033792.000000
-523856172354301910697830174991649452308044469331986161255644655051480642237694605999951060974256122822586655765341843350777143230464.000000
-292502453744658935487555900063213930999368727029059630938269894096183264061163468714465944950985848006170173734077228172220578136064.000000
-333234623139117332750019725301753881150044017958334988705026096254387229327861903950404383771121985811200090408693353234115439099904.000000
-417452984223313660507850092229470940547905603656416454874832970593978007439640559383070233389791153454098066221425036655527653801984.000000
-222359544027086339662355284560825396700979199676595516884017906304066674054191397293457871176881895037961342605161663539235793141760.000000
-402736063175611803618405637563703916482331344276144877619378639661197588818875736672154073168271094199264327174942150535670635954176.000000
-466359771460424252572130745876338467091058288828845650881966111471047309805908950603733702618164066250176034241105890649517288587264.000000
-272664024432272051502173047093632537166119198965740677865015593743102736710084077901659330893149022526199659982729151481207572135936.000000
-329060866656474993532330623913283768408763318844580556278857376854026563336246424084218600994153174571104260523373769683500259082240.000000
-279983785688648480843045086138700364027670828202678016116540792404096432810369486248060117288552592163922314775740381845069831864320.000000
-206759158842869901476964954513610957472389083981079088122226808290550943107565921007242932239067113922755804000969610770226845057024.000000
-270722987785080552727897714252505224567365232681985539073468122468041646407566931496760414568949743012625257833007778865084685615104.000000
-268029803709842504418551396501909992229509539161018828505110566255976384648180351321861422106708659802091022440145130395734303047680.000000
-533222579334379248424411884024823052924065392935227679319079090311054199453604533822487134488128017694005725602641350398959880765440.000000
-306886591502092443641430721788326294273039755086187311001302681745311684924081388805253220394354538152177519661509072112348630614016.000000
-415635356757966956700641535243621288078070405915755138396054426145954773949181890078819963722550012458797247982209915115269626265600.000000
-216264142231893626915485378528123853114463791948067034017024926670826021517416747625480933346491669725710227941215300840609074380800.000000
-287940243465438481520567966677314171223075555737385308695688419051706889268990472531205375007062762830051268934710664523169396686848.000000
-287119088566357828123420184943351076693394156787235585973391377241978681962634105517178998896456757585404310692928144788802542501888.000000
-231325304589101246327270755135934865245084434145777003067071204757696112218954167338252246877121020846156802159286375870104944508928.000000
-330243202432563307659692019638773473999126061618375685848624170367140043257409753944095419688315472557046231222829808808968245477376.000000
-312720561994706420651733192224645879570835899853684338192576454346319704296376712629892599836062332323180006364560811226128466313216.000000
-206419403568466165599888112072976293311008849205937056898422086257107793442930924921963233637101070343485035353114341150829376962560.000000
-226882572612678511978206359328558047081514115899056311418759714517652745415904754463262714518427066496364142889503528646663051673600.000000
-261315860339345811278614426253549770936785346401275731444669389637790518554147208516013172917627266652695032214479339416717176602624.000000
-407186580661383246698347575318589121664058309375902743273471477882398862562544099182258019175522692354984219064320830698069161934848.000000
-147660087364585143609338787163225717716452657121448199532848205948148386795173547730832633573688396046640386396382206193853341368320.000000
-245985823417530062924698646297652948082674148849780178413300036626908309139045350387588088365089576863575011304737666095766155821056.000000
-261541183748584553750587134338147946548071946329638059947147833935813997592707610250242784704891590032738844516545652439944842444800.000000
-540551538949698604377807498225875514771472098344051960189353385749881437433362202346615313546939455975483360780609016826962921914368.000000
-67651406950634044787464299034891891142371412064413425681522415607665058547473344638384150338310990404665342613432053411675149172736.000000
-349358196484747438534453465120078253492714445607230494099421490237117419824780302611811060933217641159656253687025892717619094487040.000000
-349441326709318483347244245586526049314257791813461692211452897353914927709306499369303465992388425720242349830741887800933957500928.000000
-160589537373600570524850858728186352527791408934495101803936104564944818874280841023211465264382334052353241542726278811291591114752.000000
-534013356454575006407902401280318602120123150773740944685695094762962371421362308191836491013965100840770886696224266480804564041728.000000
-360475258211630980231953691934711103739649781376301577549322680574644832178760064305530150434307346904901988179342526854394667859968.000000
-255086300592536513416608096887049442524957083517869620194583981095609978957653830092526388479323479698704766830859945986850507718656.000000
-408338495619017320697162022396609168639521589050693891413803894840220100367289470441336375596581261792305817040315315256230328401920.000000
-377383705169532427936000648253599823344998286374514214425320653848821566531631432642512439869230284713100193364790012208889687179264.000000
-310051453916044057630789067618461736813795912071996223872038981975212032221223519594190556593960537592279011803138502976789714829312.000000
-379901840797920807131469405707094897005598740235610696662089951236534031736795439631635236025862741820767168167481181262508441206784.000000
-286536930783060274032199614885301180628351507418213866966660930990902314822951005685986129313812118711229991599543101246477455851520.000000
-259080792037334521952717339673333228281028565770075131207365160479117288514064375557138170905041153381875794365528890330067893223424.000000
-116258437901519850463513140736565698162759323027634350483924634490296617162717519636909203717217124125684443195328650771100594077696.000000
-273779345628415858059681697938446358805734652248710383235534419789443412773694574165873043789653482781447251720745990579216359358464.000000
-230118146978157792055455474156345877284955337223899207777116559991380536858075223138938643472868770715886805179371647800016470278144.000000
-184263916059789410382101445028261769735772377121260799065236253637292866893933235365810625781574648707169883738224255509921645199360.000000
-275549646045650599459446160816103329704855861936414183851693575868023566566858284623830266408905585634592433125684013159009849704448.000000
-98125674324866041883258548441675731880207133097149689491539711508043416920095861738685518157083749338665956488501589190222081425408.000000
-508579629466496964085433854521211650174935141937323925620657848825069047948867765569125623191073837807280722214232061197479883833344.000000
-535213389921903127201292767754524690041228969999900637088046002666757675347434896403663694276042056111783221270724409542150337855488.000000
-91449236835393292515357904875916481852740974308704408334002887336299858931669530587260211938393869164276994775099271714169809797120.000000
-509089656759389969135474238693901899407389301957541859642893887819620706784647542065071205232657823748988557850734845265133965410304.000000
-278844202062851507421836856658320355360534692435729366975674176467207090112300454842025575197624937839835026330425910749744878059520.000000
-313717837083991065630252756431395412487517859351641516009660967541107078207279740102988707748031026801381383856551927017644782256128.000000
-402274366733143383930761525898830769649410417121722723474118653482387779924404654838012704906670656626836611967613533463280051290112.000000
-358917352938179022707640898639189284796798174570395899733258600049278225252482012421739821721845128237556793030150887143151526477824.000000
-359285963573907570469132305699530407363781881443936919212445479866741662018904869913457923466858873304801157970109795625926366593024.000000
-420760578355473104665071789082222092745993125714063890253950057933893104521880785996083083640536389612186323426708095033104542990336.000000
-491383587092486451022105379084543248501669835108138924715201131331858081690341965892729228842954472294834547498348377997379008200704.000000
-160365575111769269744725748165082029930454406489373604440362759658596320414190345789688514998546772851319190064336806200955174387712.000000
-295149373936977630337624787702652228678914270680283340109566609901590454760531376367313217677203260615728278512661718804675277357056.000000
-54768492771798051176809895083433082329434559194563713324603657897225894492768553872701523205009358461644799226542212809593779650560.000000
-302265413965480863326496505075264226762387531977726511228367025432329786118225047772286575914412139858604776229016894495012419534848.000000
-432144910583518149644849289066322711746781775744468378761124204203801938922793349336999610360227660200704679552697927108716459458560.000000
-464258832902212273982979989095697308764161928098002715099039054392253287106014738611945550912083576938559629229307670515950955790336.000000
146728000253461273741335180482151703779449110969488847230458197101708387322862959925473270239957975262499591625431997097626921074688.000000
-391792444842682901523395326818506532588245131056506335919313716973375212995094938415581204749627466888660608486228855854919485227008.000000
-329505494527796795442392004996533696464265205808839180957163556868733475694039568751997366232178588803799197769740350852488193114112.000000
-426156001660032128262853858100209550852796025474236104644988956531607779942700006260244938963594321228354795703535644532857370574848.000000
-347880887961381901410025041093213292614101808888541904757112871859632800560875496834219313782431930909960647827265779266567071072256.000000
5651941810559654369063801779724461173136223149191644203815561249485776283705096635473059972035633738136555933587478795725821706240.000000
98839328985338501505167519874929738433628042026358689017615228602664520977379157542499295506081235489359471697488891092047488876544.000000
-369334917951145592002290360242140221379543166141176827670376311471015916143800572161431784739739233822533208881628681169997188300800.000000
SCALARS UY float 1
LOOKUP_TABLE default
-2302020096075148705048147870630283500361413528980066318752878973257376887415303698509953714826709865482947645044424704.000000
7208944995985045769821409519191100483357063615462542775616602746332396007949184833896908818323939411097431505891229696.000000
1928664322955132995458935570884216536895910814266592402030015445181924750239106417923873590558966494813013425076043776.000000
-1117160655535131354591336612773363001613962294543292202043015740000302597275189726584959186140250534276976441137561600.000000
-66311449207035932385563245827047199812146298284937630867015506759545425256791679494442063315345834786022224440721083095495108198400.000000
-2591889070451689277413004862196903863761944235962592931740387513198178231766075848646793038724693927153086512303702016.000000
-2118485766094678036611196677039730274616781699796661398659577152025079600612415924034789851966070656686511799679320064.000000
-1596837494469034054853591164406184691054734282432539430661897212880089930076147839973780900977037610964554967389569024.000000
9960994545387892386512876016429471523983086883472099075300084873472324920705937498209853655303440751336562128056221696.000000
-13695524485499689916894058631237644050435218636290074148677330590558385553147173940677658550437728317026159099027390464.000000
10865131395818778991651275949619045089035020157231322679064485578587600927417077976428650451913158561516817092798578688.000000
-3249192042269856023330891638738308759556118395027104697784995108327058538800941578601977642118782376758077352069562368.000000
6224837168310925976801860404507139404574231820356280043705025467429587231767595011128851925300842110475318404858249216.000000
-7257219671649297176060588858880106119297348716265542689822976231130195518154650943668091535325915489394111522946416640.000000
-2364508176944512886935174287870622413077642038046341976195336706607738167042341011105573498439139717311130792355692544.000000
-1224269823898350158817957382354030734312801706993084676415143477303481421353941590668734643117572842369376864933249024.000000
5128313607348398340895407203646674877758292330054035227620368743711248923411453638010110872232252275444158718801870848.000000
-5372677620032024028123615702499586302143086195926105873728904079662097133862849234816065335458792605863135271312162816.000000
34568488493013737240119091904468612617563010609927475677866016986475197292577515438565117535926922049669265184313727214517292630016.000000
67356080048103090413743487601183798937208759388853053503015606234976815597787772311133730731012120663428057492711693555896399429632.000000
6230705065449592998549598217711494668499812188791963579095560554223408137166062977571033492869020519101863736700549580756248166400.000000
-9749163363319232867745466494702463471512279486778047236409581182767725548891131683934525130267035030672064393145689448425497559040.000000
40080620614216841185545891241417264683991945150102908445444781795730520040682065102455533111231731865956833209159314121902644002816.000000
51263884368570103963754248131166287378574223315094483659838580286972523657922772854569275322831890769569693802560432151069435363328.000000
72382990074386411324511571286587819113032538658167197888643331205084862192602656849982218565878960776567550600657795618493257744384.000000
98621619623756339207128572850448968694466589193181085587105568859131242558841953248090850962669427112361789056322665915370753228800.000000
103108293827141968163375501745240363050510783100678642207871387117882631486789697763800101052741970533539603582896614613239107420160.000000
101596906256057224787075233056985895889935143629156690071298113805774344302402092617624319444369266830221687115712160942374292291584.000000
103204612597227437641782548552341713253318752461467140045189974251377554649708018449125409216729477396525262213149348289162093002752.000000
88584985356353368699570485779819752234941604322220878155933707197138149717948552814586966383465950827220305613928381933051378139136.000000
75632315776333448444896175716580371450924584325988435120325323136653299662883758382458361316956434683797653820940873115696325722112.000000
83646080258672336444262397806843556621377700012467381740239443993520529161387045115081272893770202832716961923010279584209871831040.000000
79955266137582985652560489782053684115081034989357854887831548216606531476258308774547004762881078495243873118508112508709347786752.000000
78385074106713832166492996221275334636213833062931507448277250941347563423003792154993734390963378658548689750900266028736089948160.000000
75060422082836205702586521178817732658440248683036350903466901029020376933808366800586357574471239469122930355657142678491425144832.000000
69912228160021653200688687900515349890685188656937559936654006045899839908502929906110867901838915058517542748553096940611746922496.000000
57175260599137096537564361691582650295500379007730154845075360409015257379167731201578323250228889691940649888721788656959679889408.000000
-16219025169629028639140063454377221334299349769614907930746051494961174585578044447317831049430017413815576179717114449219398139904.000000
-50393861560244669129795367713407554487020015757836354469047254338896816395649667350082902047367530450437976180951202582433105969152.000000
-87197247858609311164366675734933795725420126066607048102147737208296234840679870011465917953593386164126302156723046661106555682816.000000
-125930398848270716858416023550514252914502980617143566452958005428068804032529337553218132410401926170526622191789820233886027743232.000000
4503649593730642122164420020674131247874774731319166487498210697887911507204669765741928960673468880541472904881341809129684992.000000
-127563216274408387817063509765906000371483331396587710934262577338328830294433767682297078858895271498815812038620062815854304165888.000000
-287205042958972605986327590419482848378317392068614278186871488301297339388389234945651673404017404605437720158670455722222586691584.000000
-368299707355143175978661526642413335785065724242082081899135853966259898686677073346649235094800679547841389677876521858733944340480.000000
-699905058974388431490746547707724298044794749260591005668730000556874934793053026888455962427174189044459865544611981408240981245952.000000
-320211653023629887243865852809270595459797099709225108674433199796965920233115039306311135276088419323772911861986901609255255670784.000000
-349430168998488099933204299128993491546079485993277138887502158353931142092857820905240810907255557268760155459018063708426036314112.000000
-151272122826631771989958665548861112265515786382434982998110084596484152478594783118852094691566893930447471217856924530140841508864.000000
-52471410463313432916612024765009298342297988204295276646910875706957313431774395765345291627032281002254043024362639334957639532544.000000
-20778780732977912212514685525830275428089400759944128613312308839550052692334087433163602938751305549729484763398708509938156568576.000000
-31812849573215317440736606393761464851160919332438582516929855458667561235995077228451605057982280536866530317902197084939870011392.000000
-236119479486942146854281805674865666255995761316574804735738162741316163975572275265659537890505321043786673338819628488372206436352.000000
-315108399743153601031067571698176980072847238564740384951355672101416584511388957301780263963458089424080456159358326814418275401728.000000
-308683939985272662537570624822947083833675666176000245205302979467108309817688184228280362243791319143185052684757089738338378711040.000000
-312153696974804126690389496372293029911019123560386569908865450368258640513428636906351949829950392926712392287928743793388303679488.000000
-308662538550454460021874956927704525187696644613188819981454490415703664630513570894335874259362015064250141278551488899841259470848.000000
-135049816376527044247409046158233304532731784461503046824594753733113061815056100524312045950055359948449477308163261180232656224256.000000
-81824055591451158779029117600400203103623547254898469960667104324373939915898358101566318768119475245437399388910697171711594332160.000000
58576516151961904938854148752428168657328603957603615894079341189557866788775037291377894435903024597307854996933045707249129881600.000000
49045971898148015779618492106328106101654359441906487365466104326089139306853818674103519718140263106445029497256207887293634052096.000000
-27794678996913762276843433812989240645891724352636547792059155371406183037136841251199830829008677827239430485027890464775376732160.000000
13139605927418257495269643544457258426866705384959753413197901147733609385375283921038881413322794560007931249663355847425369571328.000000
14108797323236221620152853755229688193728752039476711705675239171879888027887359034992408448695365753701707857760234068972897566720.000000
17553701823565899021746413465623025119586974520255313946273848698705993266859388053198448573807222152174875423674961590819596795904.000000
10285958502192047895680058122267845215031127511506483245976695249132933876818053538636555566807583292321571909132117577350451822592.000000
-1754674381205610867714896069155104215249812486447175294296320714661247652908467515978870420137595722464003098975141888.000000
-408982790545711969338905529481822697702230857135202276725818973779581011608924979833236211499848471642790941048176640.000000
9460966111930244695945870985699605146019631846953451536039132560084693879611722536695844483763125627779930076626288640.000000
-8114327524431151753928800508602489253835182921989647937939337086207687727516607130574469654361014537997225640408907776.000000
5287096029278833105134558366128356499606384739012395849593740762584866687397217252659469306716526976253857381534924800.000000
-1496812838219698735689008175557316882795496894156821352374477099433852107267958327336298760676922404938434598724960256.000000
833953516195484912437786760338789077110485568885309183136563499223661267694346848995057004160548840788370125221789696.000000
-4206449852184440171819053614517838761778392342766300297037060136724331977410213926169038513773665478874590283309252608.000000
4286546646353683110431957065257387460549872237565723007935573167165959688969072306354450568231546132748203443544391680.000000
-3293603353956547795229414235849922583675831510077056735993745578898907430407838320461350657409598716390444372938719232.000000
2546294675756111115039237907434315600387228550906384824277133381558837052352425613410000488639773869684783110766460928.000000
-592211575117820462610541664331412918181959354672829021685855362514044944154730103680427852118217064818332863607865344.000000
1687008130813699772368425585645290487101582172072286604102106403225784504152217372148605232504094932042403913096232960.000000
26645160115173652384072904957317631130906025140655161739481184669169590035115921433067927692346324426981440614517231146699174445056.000000
7303465231668711404521807973812764787505320725528344096114917332531911378287021450590325639141843363912869879554999687841472053248.000000
10207177625249706347297165303577825281813479563655440407962235475022586439710453589404858501311953115252016534219352751222709813248.000000
14422046997428579493975295093453071208714175593615916714950462448739670394493977209333404944140240381898180684475464560693655633920.000000
29262446219831241380655940004178307471890512789715088526789484975110764501572136693500996964116022166028478272751121672360081489920.000000
19171384318964457293286290082185447821436748007550963271298199654356320914176683903944301855121883913938345703942243701441228177408.000000
-6342186673764131391151137146741722588182884997662317672759393286377272291243827415771941668398440812658858224718451209819987640320.000000
168893173462620688489890985351818875626902833822146452519370484161536448946696893338164788183786185481701188933864413229733927452672.000000
203280333150664957785676654630492811223116938955156055569178265233015585986762071165457638437186979706019095286489635840634015186944.000000
128527563169812143538160079366162952713939357561617666358343431285800965253676551439474991075097118767312289879684385421801388244992.000000
169952405187778759686731675508080520191572497173896164611716887236340712550645392206835547602856851342635548336451728596174618230784.000000
186924729480364547191479144583982588604047755489518507132437385195304900191383606482351449030525418455211599278787071303474936283136.000000
188396760698939890172919415124000907022020714301991630191052593758200399427566280596699710923581390013855340068153950068326187139072.000000
256798413192082928076147634303823565361839628388332138105878335022060634897367884849843865976175798693562883017317456059637969190912.000000
291023962659385843219556860485595187485012845318135355287059436806457046398809427432486187783987627621988739315167725438403782639616.000000
306865927781511963879770675483880228763895191558756567045815978455781317999587823101254932673030656430121114384187914863922525503488.000000
61808453714147827255097469810218583400070163497896635020906716136592217135460220051414062363889800911351018958044397144179606552576.000000
19049788330698855909155466315479826685792902020167681195653073302418513273059435859511829057459053928062325205836129912824335958016.000000
-141144962056673169676649861890164160742898246500385416422271561623561327602788447553537143120592325485316441709513454193916942221312.000000
-193956609770983276783787873265714900567541374066600095272432009961321075119605669065968835399396824286558557586816942123678005460992.000000
-175971263061666533966371550960408713779064491407162505738486088448356063139569167816072413087903786967175936313894682035572099252224.000000
-218370551175019423873299933528886284204348692715445477212132648402041653373114711235265183048700575338092508683141309240078361427968.000000
-222171388628580842353510958506346115253282875672217012808339582948068434056988789099832483845516857528853160606523818037477308891136.000000
-685559070890445552698837882497325257167534719591352617313420169198638512407013127088725902532377243806163348046262849946894873919488.000000
-474197398727397297487055895313505072220866390838683276754163527709788934725143452717890352446761314859984672380127836909142699671552.000000
-313235332797684760535522948707237478552822198350730314370686314076884854013715144928494117662871211797012755835195887797495905910784.000000
-254373836187269092324062803587356779141581768308056489906726108669893241287110655497098547326794446842660648646605710257115975647232.000000
-252586893992586183566681079918580786359497261434467822512549755394463712711084281772491077814959880325363868728731702594019648339968.000000
-243488333608602156716863389903281469727410232581694023657805925830204200165350934435746053991102996758921999459281454441588997488640.000000
-243224737823174550719653348353298578129610164377135728197659518249225275634564608177969275124028154783836151752090599925755729149952.000000
-276649361041247669880338153616866826528518691265588990435292052486083818998509479663478263275301140234333178910761469415855667281920.000000
-206077130737205706006201673049168605555875163106599087522991888404140869867819445344437320951840407438429154542394609547118353842176.000000
-241133437056810698647867324285071331599304043974396199299289475086446384292956771452426998091557124316903218852619777812739953524736.000000
-206425911158569754677622526826868930348884004549234613530816157350974926111319937492105577481714323192943606233644682231209263104000.000000
-192971626982702187051335982151198856298780216408212831559084625406458636388488928911588292955564444640564967352959842924558693695488.000000
-284815388458311168088697417057705341108051681226299386587587979041194729961222904548774648645150337013739954203190543190042771193856.000000
-148589582191759843625825052387031431031600541664559568665063493252214205796912133608127617857508384888032560202537135501377844281344.000000
-71714934125111359573785520756207408240738585687098680141773454598378694030463391104836958148447465597901584883566610010665847357440.000000
-87770533620602984384432924140797436356641721731277563862879418623492580637218218185754045711850814698671040578024957439898860650496.000000
-113321931203381305241369975557863725945184973580622498738018505923767305187369861799479331534766633972469559772516553745609412050944.000000
-164952502545154611710873257555871860273626754679547011511848071992202137049492283482064690780323669122170227521091277944810362634240.000000
-63880908693427916326547634501305607430537846971668327754602482950601642489813876825107475831585500152666849778928147236934089965568.000000
-88573664882627752070610121189680278449958051762939325743036057008416912656280890350279036568761096002332753858909331457480589312000.000000
-106509817785039022840732872912369256233811226786802693356831556170463720884702199888099963087315672726754299904827594966874101645312.000000
-75861894763482892158103792785805637725671356469449810399666481303004129719724239196011906441467570070531112019102544638062396178432.000000
-72941014027746797247553311064034639042678731251122862321667953834667959625887478018540434053369751476390178207868145101883991654400.000000
-53679195644388866500597528167640649625830368765978622529919720061849652512622619812578952072411472183100642475566058227231134580736.000000
-27921210721738071305852787049711134579790469266837740770726105623610839179317054283168595601196449072516491896940511453324563709952.000000
25608498315583452197715560628790904335771281793405833098442008086646511893168240216377792097367984977928729692084770164844949143552.000000
9480140492233297934360002705096027073534337591635433779543391609144944592336514893207695072344509836060801652923484716584467955712.000000
151967430689832372442901357925272795262713736251319396239919885658643047393900059663053235695892249329009929238248365771789623623680.000000
242681495003235401016500786856485498929746788671294645862218311336426081704640414281657876122365523702571241163983375948331318509568.000000
-129992592455020882797400306809110914630108411454460763838402579355595097344078594949469403364490933530644998997794725425383804502016.000000
-36444605385112442045952578344090580502573309996717672836487219418589032815951021208275683245163518010866548959140615556892691791872.000000
-20210292380135842296715795205955691430908413327661866020760982814517288810128490170042527762600376469187114645653269018118558056448.000000
-40291386067443654849674774315756621291664750867890141975322417185370225535045200122208962577187824781905405392832250454309009883136.000000
-19742173592775842143816374096142779739327037281693760065174234681758843381499959531022674817042489714780039284094459802768996564992.000000
-50882897259035827542588931279058831362717552383840584348157240074673700531790984112600575337801160603800972131745328364491456380928.000000
-6959894590446855580739758611486130380830754873793417042776962538642555348851699886149331381708812326464784389329165457308042395648.000000
-40570534739426661345386909321462696620887624771800170093335097648480180586024967048537068682710725233530455373059676338135152721920.000000
-15605890245083412195485922094264664656799040517666759642176657031237528452738295439529550291821076739617307833433613608330291314688.000000
-28903180752170206627721365486322980817756282191940411506124466932538461771267407593420670290974500746762993081407938562602582409216.000000
-42563303095494649209303463226293817146090081482145952900008260711397584291844699363424628237842634468510274519599285538425885687808.000000
-196304394695796832907874942668620741929863161209331480341486889376526548954455789198583927093046840613478795356757416538783266897920.000000
-65383863877959798237987531391681696920716241570944771124106730941586924906455829570538017592577482182037153759571947102146339536896.000000
-17440063863664638874694933780206222257570600941574439084759737968032381632219662402800013631984465017108780835518934969323914002432.000000
-65822086592647083382610774375548861249562750384678104472258501516534127077248577792020250771869136824686581667900359565841845452800.000000
-29294029116361350428715076906172393095979612427129561147505998262153216796996623194536358502440474795880590866833529818996277248000.000000
-32253241391654945718385467299990335324714913375055958273679451704814910193204923637300919569214537574301400289551517626935441096704.000000
-92123121330839528733590035937907728175981672677115702146224552999169451081615506249803310122266020508091128271230222972621460340736.000000
-62483264234309157328736165130150939483864834178502956191168566161614906926490793548286842277273295623721052235917533526885593513984.000000
-56908483031010052864958019966800572030637714148350485507505459348874315228670151600864570435277430697377420584647923052784906141696.000000
-108623952038292489013473825872515291088154906024097178852379376442204071707394211283595283750429167151892931429290018891790192476160.000000
-120186795853292807845034302833722443276935019781687384866318241599320185438327133991320409259141134173292997417102146635637129740288.000000
-67865733202935240878639297398638993176073904009196981599995684321710112427068920071881049809016585462833334913062185605800635924480.000000
-58918226233262455830183569446488269979784428127477100251266665811163283627791161229493150754445970025275883583626634649582941765632.000000
-56281286295987397246175967255873173999122537339179831406536596417226437948019128357460572055816224320928762959257353584513030029312.000000
-123770006422882276481419687859062179065742617398071931243887722677838063028830623157994607110498860969186378946436024233587195772928.000000
-168031682086387163357205047705725973272007852931561052906273276551228835014822316871576273224790168908512681108814815954775383736320.000000
-201414727020199438029960006909081165172027782108156248908005573729694558026100231117307609534753468335150537064510412147090924765184.000000
-214158042968280513860797779800292926544460969260841033837731515397457680670076841861150174346036013026856117197265580095688677523456.000000
-180562947106987876173937116760974162375738009890888493332079178877748496484549211483801643805651838331775464016895427652474793623552.000000
-153425146277205217822687468003182461164658884659178892745279338859257927120608706624570209137833319305995693942662130545261010747392.000000
-92559533319012052363770403276627921032851338837757659992455803491938497062356985740567572714589918065275400495509387555118461747200.000000
-100768631053479382741891607039582719714823563399877075970085301101133162548758264865967686977650956428082023849481591902587364311040.000000
22978374124090311670775672222873689313349537376345751868663748269334252806152133189550444154405044747511321488040728041223798915072.000000
-247700180548520044907957440346543481375078906071195658434771136173674520330403606862649813879221676445244110090887164551695580528640.000000
-302893106056134542668136168312109543402052497556940206420414531373082799217875090005881290798791795758035865134371555662088250589184.000000
-209094169508251968582679949376003582165433098138943085537286694911351382709640425134696528833519664837345793182897149035393421672448.000000
16212991939327735443845468728896702501375517585595789645171921379679925197573165083693846858490791423537808714141719317898617421824.000000
-289027174025003314925818521855306936432427783089246531220789942451441746947869932200349837480822646603424278024349246026971336409088.000000
-74751910238875429986794203720037816323946365993240050861000288680244566574216419569712917185066285039585970784172400460061170728960.000000
41969636800179654488642394651423645314687524142938796539314591020573690656970179461090193588841228750036040646923149252666536755200.000000
50407674349685394994523601527834111876727902200698114095657760544556365645241573674402651221196890303729034035264963442563367305216.000000
51941446870666365723945922035356915976256738510862569767654423016176381960653582997773296210562679170359077381912126571827532136448.000000
58678357421114127784887345683167017600881643800416276990030807097511719146675594158206500994473731798575798712198858258843256750080.000000
26550757754404262550279047272548441953754205012679408842157754826067751015843367140383240478819303702479871244356932652752464510976.000000
60438984350714912200813336695763774560919094206884449218428401687290349146032188645446971220398456005323233493837096461445657264128.000000
32110972833675279322989896706350624838046523435888001830205235228981488083714119656419426044391882794129102198911862863566542471168.000000
48444779635389500037785153462056457902102247069009844058150404936052453577522074094366712711690489110327805297592573287100105883648.000000
-15415898310940070578961979432786075984762626523538995345655709899128887403445645136882364701689358560154159961703096934783598460928.000000
-32167900469550231541586876648449518743143818498339582382956564857058777234422231339805957231940372153643511308521233315513352847360.000000
-20792634581740932364973205749589562638743598242474747588049873525687929405974694767446181236518000811738036864810414240218939916288.000000
-333656147877058301585499837385239594040540069525023395244306527181160458626395674749021640339300438982940874285567841585949759766528.000000
-75094341357509852767452352070285214912640087964837960693336641001008924533703341864967402820353090732441374338468239299747287924736.000000
-147086897036438205497245150665120371846303996265109090472877224915424826163530616394137889159864044002197868901086704545732191322112.000000
-2438068249412712024173868675666144456481200147897570989485906331984913101680633693689215220711016136463232875498641957770686889984.000000
150128024267556355251604580876959179740613472262462036997362790901902336436448219104349708978216581919674238968918733121572942381056.000000
45304149499155220553425695402227217415588521253066686470262943217602196563295368450105039631671570455720969362558835034884686217216.000000
92533142679345801487790362742562205750805846848530906136726574059654601461697752472365620504394206659789849737532922975730899353600.000000
7591056966987484104641255408715672090734571722011094019617723486231085637603144068771076975714177526299504646216397916322750529536.000000
156217267197306259996524705259531054342723818973434435021768426727362382492377416072942121656815149436089890450583883180546388393984.000000
-324822959014746162319331773265571641172384844508878319127688612752401557335019196892076469034281219540115741683256512813337371738112.000000
-30479034183020883994350976282938247059842286019373463224905393189327409058411490360023884587316409618469252806670844958867456000000.000000
208935064991371080432197421699707837145688347502550743959699053615804052437182717532970827845560591986044274769993450686669163331584.000000
-95108687205457051913118891714243760936242085308443145085659834962929337709363577352408740822862198377649113470526095652799463292928.000000
-6394483537437104439509439026276262787489825745605132105761378729970820240457644472964331495022498502055926498900009281169769103360.000000
54554794067535607446904632421553923137703499726194580883689279157870645906494075834032722447570124125911559973268254435667410419712.000000
-47406027237993978631835741714281254418648654603012829476830559684635882356948066872550153447965313180636949290507535311633094017024.000000
12972636610299975259103086383084983340939401560540877044181821647564133821559765425674344473328096973202237394223499575023135358976.000000
33273788866187585089643645202004390880452523490294563272688466552288993442510885058089010514559612169852228014962043739942806355968.000000
-101693366792553771893161758084041607548684067692388710965377761433070313978828261591429796573920093217577473995638432499139036053504.000000
21289872876378091289161617012941350657520435962061164060839862537344431212068012675029243248556556302971155050071283363745034665984.000000
21813366638868533500379673081164838173784475687326098638287673579205470211862667376204387757307776963425170945269590516588932497408.000000
-10911820106618726841548148156870898364137978401174792915139010746757501564977043283884091153675810320465243208427165653786284785664.000000
35731047971086338556292015694114862956944374631464849297323106116966535163636184607747757204512174963042962524084622695326069817344.000000
4741389493385443899427417746489157737422820063600913804572196227375878877918264836346361575775661744191762262719263253443544875008.000000
-70855393955299831377985433965131747844480383121965388304190711583022581343494112082678506910574472701552039344328744447047995752448.000000
22065745636191842436999807458075864550354231665264961701078576263484262646307346853434226031484984749767190836671843744931186212864.000000
54275832740937898630327075161776496575814988882916529487821705737091350470213676922104571379437793821463467078234627167830354690048.000000
-554167019544878260232792715549219960505299232100922018435632887513154039719392235124521753271776573175041875681461545316690952192.000000
-190217918448562051025801204171780917716439345910746820105502005946579245138417399049070068834423989849600045296634415837310829461504.000000
-17856673724249085227827895609680614345362019258940342933008456560782721452191491967370382131655218885729274118346115050083176153088.000000
55202301787936003955672883038337393015113157668845066533959768050323368264735220787169892517674139596657228505727053445188665999360.000000
-22849396375528564085759265900475455214919934256981475685945632515871885537385658575462378461414637497211093925422950249993863168000.000000
-18712892817853380505518065492528083650594694514506076989980162716938416260916563863617086565835493278326502951599167530081326202880.000000
-49752748875504562424571980538169498484612531455345130904620130022884470948358026796094627395922123558526387627181655864689551212544.000000
22454161936494488201100704619632658333892716270615602201896535185453741793147266039272759805841094586107837556065747602263129456640.000000
147820994636530343724888698932627103013002030060937122926817970746640306769048857791580944517960562487025986507208977761483681169408.000000
-55601303684950766142723912757629792748812006752636637158999395799573114920338906867965446527978862463655298263147554502570558881792.000000
-207871679595592783395604758701898762943929780044665719912766901336566546695724483941449089043063727337177458581726582906082339848192.000000
33927938245171346157064273524476139090078690747448524930536689310352236377455117894781273569293472765973387174862987445673056534528.000000
-75488691788530860674321276133739964866203210682626204038836167420511265642203334477260131654645457996373326499120769483542735355904.000000
-253354340079726026968336473751301395636732407366222218171951272210778877298119285691825069525346246273246089869233886283482888404992.000000
-317840030379004994228902301242435522934348159868188721224851399414863819815033277647612359605609281597124036278255495836245732360192.000000
-45694707896708982359815353572187268213670910669726427663235215374493362508550663789196703066388676318677745903210213567411341230080.000000
3373252321325177604874483729009462894029239969332735567766525464218167871473277206623391728681287290353432526657087290511120662528.000000
-38695889616062632604291805027134481221437878281933199581085557698467228878332560821396788309777519160590718033747044869620491091968.000000
55571471223007319561462011604948140494578854464393287442673438879585153769794485471025286530389791300458667144438551148344658362368.000000
216714830510780469110218725090970559280260836446737001696259167503953275693465392085069410176975110862125487712028030532598053732352.000000
-192810839519310862862345780378672888729094585158648195902743383347169166815179339116987383127508485506447088601880882811818859298816.000000
3704429084888740581363119496678906363991120405101865585459049774842840699557954818967336114183729054638910130023787006856320253952.000000
-45110342360022721226937833979133260302120109772558287677935456567054066950346764933699428799902019896783072869398448184476664070144.000000
-43905486379381772580346126687463945317772098271464461482794874474496105805651539147665051158095774186617994527627065429544415526912.000000
-8520558155010416590768311717760862309169547535641585156283415717092507562750146842080145099454098825124345179828757176729695420416.000000
4627248482173710241416363593845659381080334926078157966400819588629906188282190080203976473906264304812661286665819399937597636608.000000
16375989991086973727589879528776532049474668857147288502903857428694691745581984177747023330004408379444918188151469691551757631488.000000
87086897380119014321060167427621094941942827051122086183180427593672495829328070555410676834617174860974089807004125706949371101184.000000
211257191819448014042446954596728352834781370357412395118892109410619064352732796726104389929206308581347800696030649386738384896.000000
114321173459022382786735452580280407594940361531474599337990577548335695494467700089366682947995330690091615160237006861545890643968.000000
8108962981462097286567434684793806632314197886900713171357317091224467372971822787384240351685061905770540980245222706462001725440.000000
76143707143996055644356695472753475898432993430781354366139934890984742523924874716331221455128629230360081701023081672460984123392.000000
36122270846058393443217322349077306244537048315251233224243130559591428880340636953784752261263438676280641188019167501938728108032.000000
76394376316195322427828124069584326047535761384930797142879871504842312126868908672206700192864219228399199723606635540884760821760.000000
-195754442068436481040072782367387097649045305009465984035737194637669428548807626466395287929950555486124387779327793826961870028800.000000
-254638816811159945923591603831779634117883119671320751265606097448404724879839510516476740881999527635912369973764638815942111920128.000000
-61257868909658055043616989482133807745645728862253762639439755382883464936012909546026701355572985919009555214664367259594522624000.000000
-60297064501182588931212751391714459079632940789888489716737853203585246348368707567159116499781741966433804516085697702813497294848.000000
-42006317999990823213929003847919504343726389193627383845115141361328705799724637289323962822295364519471103833622093951531369889792.000000
6723171477809850275576368514227916926000565278623766556436981369496229735405375647955344696158839531171871318887162626591523078144.000000
-70625519907619649873731798612072694316621207668817029528866781698355226022939210448276867119390924849906712309057677778407703707648.000000
-77152740831063407968562013769132015125882759451307016674440636840677117525655877159557055429627162329362896083784149614689148469248.000000
26203938070347240113436158240556823272072506237572606796118966143806566008423248094161771342573509356992319068598275011180767477760.000000
-198806972926247810388402470664389571444172442061697876124686427745224860018190378832215681172577292290906726841561583180957377101824.000000
21159059643250567234492221871036343802301501948601659111093833596038155541848512086796384813917993609024943791201928204042413015040.000000
-21408380922103310573379245025840485743399254219288968467466290359399387667548858056942164157670968779470140950447615656416994394112.000000
-467312462307876726420522313414854281250471291598325461804553168596300735904850634848315179613800523956127461242795265644430360576.000000
-14247483204621684753310386813965840850114659224127072115801611227135828233814664631251670790403736268897111601207853260155834597376.000000
3071672035349569994061832447284133879887757333532978525132076767770332797590114021161450350489068661800446638530727590325848637440.000000
137104879210213772668982195183915075951679134861754810802121470743807596909990094463974805966880578414321912443188191988288812220416.000000
27770696808218206271961736181357911846893898682771246842590936835868658383742098010628694479660814376029870479635808752455672397824.000000
-83429866494625888246120501062623770809299931873221844118147051943565310770609080360069115009391399471204303932237135762212649959424.000000
-37005793865326620922783184032993725555014791788357999826484053690440938389713181839670457795273598216302855198957991208962171600896.000000
145213633811400020385350128698584505940901492679917086800568504336222423810044172651418966423481352748723783612223201462292874002432.000000
44721205172809999003662838749356723085458841006325419485553681624491389294414367892173153779288371314050523819159845149190802898944.000000
-178676897451252652998642995396206407181611430560860567525266722102990354738262522857409721351419638960739319822024472196083844382720.000000
114178513592359954019698413326888370960299162682151515394370267615668602710259472707973980387720148323381749730608859132382219862016.000000
8556933205792349952889773737173858859516013593038279478504384442706059133851180760254119654826593280120701250958646066682682933248.000000
166109218102163034056716524733687497003518252605681521163452840710033477653069355050479268278532343924407200083131483838212921622528.000000
-30147773556328333498173774161383154844909485358436934816466757979862298216953533787384081170652873395194620465954269588312610045952.000000
-30727642572151701161723063349548442453844071647610139269667215190225344508116888642378211827375873143941205736483568651044378378240.000000
-245648833421565695452268374548412132702360221254572475897367029053694278915738053694026384002120540979596502176730019078154682892288.000000
-10409584330945913799651613423261815555566555175189206321901021456165806970761188390808297076601276496045963359732771731838785814528.000000
59596748738456848863967441991090869812226385048524244836159283640591439056984776705328605290245605252803167053196901232177655578624.000000
-84708586707046894156731727492079945334129394911077696352059713992704207524198943973784681668037421540374277869335805065987706847232.000000
46728515029406416820977478454203975097477547307608286626846064776184356166174684996663486810118993572218769343407389270016088080384.000000
7894054275477790342467348989961613781733561518116602697541633283446686306483760272842927824735785730804921018701618661518844362752.000000
-6452379396106343208664207517355183790096759981261031793595762149331479805810457908592556575673385846511054232085265394185845866496.000000
60046100802546374478258957190080284374703428181866427187846752184621922106253617884432075086685351592218736597141272828787489243136.000000
-27868430534157864370327948084237216783762567092761693065351338337889410645061758990267162570177402247580882304480891503491325886464.000000
194754012479954893162984078713550238421167059396357269392372925853278917611246785693011225193092900610726928741643868340747298144256.000000
-101883242268752782183332957490259485201641302160976382394115752007974500839236364567512607676817338667626868492453008607608324489216.000000
185310090683726734203658033757281039623122358863724010752099062643373856289566145275260661337042560070666702065821531144904947793920.000000
48811254284108359768605009491594924933130226238909310573442871352428750349885436968429388077538189802817288945040104889488047603712.000000
-350943338023604087795198720980072375961838000245694848868349342028726569506070594837576322782301643465601009314594983141168100933632.000000
-66946604331353016480485629148390276289264046810767585441057365997958700258476579893473708611603314037254388037779912469113481461760.000000
201448959253219715327290447683640427556990357683019589511935816390010835516880470301522719544349676364220535276083802763536355033088.000000
-40400502483857961545195936910442709215417096544465251962842793817562750486819834092387396689997039121304292303022808235534521991168.000000
152929715563023363354963351134398083152196103714569473593101163509156640623610714236675836232176227270432192608736726511792490020864.000000
9083967155668501219504695638727312292576516614762043906322914181620803266820241731385356164063198152174630418922730948663191797760.000000
-28320773817147806938531492909731843630730419842459134998548239780483597865224471890309266320154392337084950181025031891817580199936.000000
19238322923729603012974757014794618663160756535883943647729163069415601860899705031939618577976807132485995801639303559390647287808.000000
111619426444735527932599786530884711343883712040509832880965350244059073602847510020281817431864308887897982400451875269770391584768.000000
23082241495827272538247165002948661013828374131258598202819914778907685840018547898844846522193078947698386402451184790265441288192.000000
-138835703008846620066397688056806680879899869504616037090735962837170180653503960687138122313378151551761243754913252359544105861120.000000
-35272867483273463912820604869687564465755895898919627146884823605107801272286491802228377765112231302500153885350259344550737739776.000000
-24398279134762610259885692636179317790445933133557064474908896557348476428941330207232424417882662034580783337648614145829023776768.000000
2827084195580235659094353031487754698957873563672690027913362587678287709845107100859583741027321433427475213695729145746093506560.000000
52914796594301595712772712155730190237837615815013864373404336522981110217760240796303794837735456222620732156773262160500887650304.000000
-21930303467352869243223094119191839177904798010507270692672340509066331873126758798609662701782128237009347267042709812463326461952.000000
-63364229549591646201037191874574963065581096636296913326182521739919005530422907161265058713062110141991492457077087451390188453888.000000
524278061296455367575140543968371418376392924644314865373374260971329532120129363931976949903689257345607118632436120997186240512.000000
21405406917915771933624282929795279624793261168868062396166749439896386569409969696860001597538119295806559788415269605025547026432.000000
6303436869395941824027830152181031952571928550343829497108763788435191034112402251373054421375237509290089938901193640641149534208.000000
156853908719355330736541517568669437635866712016035189843704885091433909558588523112630916743659905304710850901881108966216814297088.000000
-87018596168089321232599467248695053897195857994567637591641117318371881442694824617452637466894173644097407959848126846115313090560.000000
-122005519981834103939944066793268604342529440514689973599880273401842634098977891451578680676652239009346010275760385859504572465152.000000
37526432191838316476911793211107063536932045923476988129523063793068045114451799861963135340210573720911266900834732738845912072192.000000
84522677499030923417647264471556489181924381776514433427462362486088546428757391402874580663944839246483862501623780798535649198080.000000
44202537284697933737298640378610775211676397379870722829145237159776522234569686980913164160445661329821469736454718781721476595712.000000
-72788589674320888783271563779281930637339000128060459018704902478571010428297910760631458803977084614187130553370562576202948673536.000000
-294424689484016443774662572711236353026787334694953231961909089606301272203126582364986305166980963910068167184361026077880873910272.000000
-129185603848889116400547485549259351457139802714471834475966265531980919739075171644678426391598140686089857652206340200718139392000.000000
88430269006306636362150116108478459095297753941089401512125869108763616962335038060218663129555326234094939500893634714892895256576.000000
92639087793197856446094326724496568198872590047942857610953899964346914507323052359406501564525152654589235541869160113688897650688.000000
57506373985027737937999255377636364051893449517957710468354571293352466516900258287456431204501197950940024184553359816816269983744.000000
-25842911890954666481776077969479689308947882555647678163542322077152351996518207625643539411766130019731898480653974321700376936448.000000
34486841329990300057855121686049951880203055352229499737698105789819235106619208440923561030499981301022079947470983526019934191616.000000
101314588020918514447764028166206673604439166840474936121707239650745085134816016294707117124193225760572979934867569085815801774080.000000
30757430727966960844427189741805448463412329149431000049737797544178813931216777026247455087640400894628772292528576078769442258944.000000
-125044065235307887764430516626546136528710183757988987665691386894948533951376635843726593841529286148535853738991482157718445228032.000000
17947143374039649784139961826456074780624603966126833257048501936213825388878784367388311733850102898576649228563213989035781390336.000000
-18079435304126904736871385046453728010728551958449126682167450261829953654471144651472851128327676389515300372604702006077701488640.000000
-101480129279716872414326243762113148101493485469518305374068172991948099418533793075493082092117077654167708789833648350014031790080.000000
24981181522259279402087985707227908389517086889454943515930320791520157377346877074995119438923141778720339024090073157350828539904.000000
6711155230261261032317591893287585602501708456870623827578227029715367686362495734638480230011377056477046594669304742351252488192.000000
697016800244987746302605156645085911713523285533109565903457576102040557804241483101484159177043229222893303392148479356463742976.000000
-61753830608964513607994346027090428050664318227061242602587913995728328901990159884061685892099665143908905776639281028220913188864.000000
-56228050728533139532829279708433401274235978296530238352580907573602302262967897564086577861039975772049121485357354265052916482048.000000
30553033679535071492810432833703549234889216080972060757682190847400560931863984395567853362953988322031715662324044298314982621184.000000
32775104127208275080545682127425929193933654883722114919016536487506217011541634115507600709942211620081107667055223605838468874240.000000
-243850552949851333557743005572223104702007327383233273453681237268101431680304355965886381797486201371768556338608158256059050360832.000000
75995130507740038521073376935771545066970495213043313906532891359132821961611267206806490907232020697865123178450487966655376785408.000000
-6566335456620465811471258946654993866591190364631452556740338382677304220395847953654044597819527450982896427970252079385068699648.000000
-24251603266556129026751120606363076528605000856931232480241068129077083297848749530048161690144596473026407790103469181436570894336.000000
9932492059581599651614731484468408957036983342974366245342849957835635468698007039839866369581604304513801447495102026956492767232.000000
44459017820988482155384780752422278563580629721502595885778472169721180292953841973457017364278813811085413880413282151370317627392.000000
471186860462236209031834069420907464213308505033400130366898969877810932257522774752407877408450422452677541286544775566613473656832.000000
-91852597272527624523029945584912816940797792032830163460231564946146000668349612983758787713744274619567109968438472166841677512704.000000
-146488605696917704971531653670619281129630579489697554603224117028494312312062305001183658533612571395909314510182795815364203642880.000000
16546024660562881200346621949830490884099583933451060476167847189618722914924214105686508226367628254663017668292053332207169699840.000000
30202629027152760990064297949906594628211853242028193278589335355125558511830492222042648699607001553414387936434326996684065734656.000000
-130879397567340968899949051198411757239903544227919862621251775528870556535925755643638620431580028543085534025065490907147559501824.000000
-50977172941355834529455928225635231516730771308578381302669823560194735477649297124727791484395690449043909259680847298079601197056.000000
465685021265387526982649610344419438626076309231849703282515527702468065839473835291744263668814357790486255678613307890456925831168.000000
63480774164728432246601443849827421078924643810990299280629273278526051533267296705585328173082983701775311045022948111347517227008.000000
-84975051885521023811652210465562450532493693149409449746017460498466953502251303224978661275944899827258943317394861826261066448896.000000
20762334612676223815350325730048182972161907147244611113576316833940421163791846229694947107440257268497873113028365167761630953472.000000
82690226415328916089596027957318089652764174145801400074789692213868125030390920341108996119111555111548078564729467155013282299904.000000
-57282843114025416124668294105183332153977871606666950747358391255008084069190606092932370632678564634281217371285601419023666380800.000000
-25855039782763002017075718283180636991529333602849710500237054739196566253451110938541231326425107049938836842168629037799946846208.000000
-40460135753258222550796167676261066637502062797936494427965699453657548297858759435141408966646000446165704874987067368828894707712.000000
-139283377899882427428111180243477656251616678235939046834069667197581411416058581173911217852338000659826732610890660352183448371200.000000
13940688007516654885626466343074400233990143713253030664850188968654223184475756433251332457414521905978340682545483705157517574144.000000
-41946014766741987207895626581703224541013056416263262994663502900633385197104725409744590861321609339611990108223263603687289782272.000000
18352728820577116973869416634815082062605858362221505380430221488299095031647341748215136817105172851736902723366971493804977160192.000000
-180951238628127663461721339003027275485019210244398682047286130057560569270178000428613474302095418401320981292371086906516935016448.000000
40877968213211292786801398244234204511154165497331585958996358812202710678407705493444986320689476216579413328116727337556595703808.000000
90995659171091670238831026898933161255162994355568459989252267752229863824499670946407335416050387858898654917946760168569716080640.000000
37530460748729912369361810984231193128235760046545664462556230055280229724202308722442072474182053826147314970213631472699139162112.000000
-54078263764617820927111560801390311798927796371616011010037592041157991369789759510012780612134897234167708389938353929066131750912.000000
85611629119317286294951303743049460897390072342905310816180935131461596805664987195598756746166660831485920016564317204609622867968.000000
186112122243648743307237566870074942999910972533005792841006180972154252655220923307366703926598804378907638742187851542712073322496.000000
-125734820623349080923693783836278528731557649454090419048562620824562401949551547960657745602123543225801329047202490087705761808384.000000
-202849667919851766043330713894974984529119881961130864574757933671321759065814879429663159994785267988338200434367920230082925297664.000000
93385183782840819796787274046270606086620371933648609055092797011450131118832953444948833225832938420683606785138351602863509078016.000000
-52475298865823185794281309089302129229972765447622948886462011401598664941927197487708429625737436676238255231885383442475532681216.000000
51795655745075893358661720436350332670376945397746162428445734184024344774518795171462425326592008667817967424407426266398126505984.000000
-85028495093202640864015741519481865669814712737886365725066595907134215954603781244601682787920034294692205315646077262579504250880.000000
17306403560077959800224759296191593143937981127707126701026544868214437311006672699533776191296826107950936800565548508012143968256.000000
3308310935082747193978413057296515047623953614766402873813072699049843901422654542954173956439453680309998032523065065780348452864.000000
158361460303008503523406431981299908005911702516260607685484338775271343087521544889750136457718651500557006098056785341069094027264.000000
-59785678437648174140661268395421991832066052934009469765117060115144202499874250682822938646646958043520783887606411424572200976384.000000
63730675138702139175043467551812201179255752698980302854060347713778463831274808205244469925346193288827110083382663629718018850816.000000
197795738717450847833170707092742850350422902563801422654017030389591639943711853842970541363456092989328962177112874999077171888128.000000
-6277828838753334461541578042647522677630440227062494655017384018718342569535838888469886751257349319438017203294420842137920733184.000000
-3583029190385394382301083919700114137179915697713003376800205205455406147122249855495383721920373489529787240433563018370352152576.000000
144580746134801059186830812177853075972283942483354288651082738132397685059823856791495350196687234756194813920435566631089982144512.000000
17327668112768120745177920225692725930684715482335067901536648372619656295528398572472562056012078289725051942457383984776370716672.000000
4018646887222132947145138684484397622496739223812479710278621245886483552765797412779998225763359138791125081800012393989305008128.000000
-545852147283477745312692048405581107265019710046002907015647780872677735868912035145165472478971993021647677057751850143348424704.000000
19782143915946915330446316160694028234300522107195602623197383048505474429426101241111114221061879564996299643087292153121283768320.000000
31971875899244929073522275821521410236480180810482122075996364470455671907791273569915509415762416904657349509910295434519973462016.000000
12077965046343283167363982687595189137227488211344789429219190275448230989199907157089716807567869248936258471594085612495784902656.000000
145388491772264553082073954553133311972075676558124556244013478514735454552522192546510511989276235422036271035201319908073128591360.000000
26274242531777622748070507862954654633757278206461901736255129235715087950690245345888823409780759308567483315222649950753592967168.000000
85740717929118349209322940780189350031265312756601762306006884823437195022765768846737940156723849778842300628607691264694432038912.000000
17006758255872775332685708786872101513515076441124509743234335397684816217337176545332318390315222857622791549354212034734461026304.000000
-93108233179836307066783228321047273720697723775923516865689665155202196534300640020597328086695965461165767771746290160425263693824.000000
-75748211514317008704210628768504317581463624415227745514371769990894688660616084471189748217725055861958208246182386997670937886720.000000
1332826313338190315395560639953116422458064918478848689497331798093638444801204573123614788801827348234007797165942162952049131520.000000
-32295433715522263535780805443445947315923501414629796273096826781847053783412428585590498067081061483517288048449801536895381929984.000000
130124433597420725133032969182432567970394058193820953925614346630201219752361327659175234932610028063242867526985339881000831811584.000000
94071418715215942811323201590221181102634868436368157242348461953331814976978857509325389082186610657595355041291664530947948150784.000000
-99703562014420741862136911430097605262623004091104604285107718379123057038727439877296093308892715537522129823536763529175498752000.000000
-88916580707445779169569134202411357470547935488659995785892119965322456717554716090979718428271304663816936396943784908031235457024.000000
-78189496750073136558902372960274050923439767524938307956554033161812017739491052841200069693046727393842482874129675560629311635456.000000
26622119240999049632542932795140669758268963926299872126075827459820778731161388882075788055099852055010047690030696002211847077888.000000
12156053011160025870580843605934689767621736820559843604354599963145590565419976659756347329834180583137532899213752809354019471360.000000
9761844162991061769643620475773880536270517142911050030587476402554530438596627867895160704814033738476896373776415789899178835968.000000
-98094006221116821097767002429488586540345567342310912778528724020749094545352871149745560512178383026062508873935768163796943634432.000000
7153105449335252662419519067581951161537884416144905003063884067685138473974529045212108999272379569312293521226323524192078659584.000000
2879416451740923651839200772730382876599885162891766103097897429465263966977360774860967884348379049793186794923533733563417493504.000000
-29508323370918653817774934659069307378722687525453824793016767423094537466186980783953509798931547228173306042307402876133652299776.000000
-50693608325784261031120144474365734316778189838282055638528060172677459582345605396589769709312250814862663100714369346329041174528.000000
-193311503404350504861661575368658477025582649402906965004651714855684416961124955505352364912378477367806276718313324438780884549632.000000
-157065898326505786346120088491924381288836517161481318923456708593264607233510029469753428513691969131513067034301948192258374238208.000000
1341093833939347751581062419325384300264766033795653802217448841772338286368043146097780680072710009826767744226309414001127194624.000000
218953411865478470226843157129313094957024755882260783616902543636491244549988937023263827327767874536954690662255060091471816294400.000000
-15380810467049388442210732065347964990455275708287824444755787118517329445542222127571213123628549518217602481950087515545440092160.000000
-56523564072162671434752148062399644328569918286801394386708526823160857212400972659275893229696311844699475922620741763093952987136.000000
-72162237325690059081692859882954467490543440437175886024599732677327959200295652483960971615118553919826290392447036121392779100160.000000
383492945319533636609033620212417048559899573775482942349211754605261648462631626943661688010959478747440649338800713920683725291520.000000
-81209959308060775871238169525891563636736217453069621695266643013323955610643012293084909596476654962787864873372851523787287429120.000000
-16764436449678087089287525685037063627797177832876491987291943046520629036662947395134964612959497630515603608273684989582157807616.000000
82055805950594327424916010154092742466889869848596045083527982193030537413797703582481529976510449285928263969487225550689628323840.000000
-10509832407682245404339787417222929018229181153722230104989558469843048164563245039069148598537615662493794349452947828932027088896.000000
38959981183665547769842511964374675428447006230328053663846287250124636774399462307016454869111607203754605644395083734584175624192.000000
47633929515584122169509056037554116240646427949127866379268417138901849130398930943532527751883812162974845558807034729880629542912.000000
64203102779159972323658805511599100580202871800109826614342532541730637999696097268107368630642523794842391459620877886109700325376.000000
50609862883480093752370978261235307315963863743766097465158542196918938918209786905124236246553411910080515329599435319705975390208.000000
196881416173917083312423088113370883737643034624215398790598138970113243055586272797857586373538057475411561914574183072211346128896.000000
195761215189014918500044515716392028264116387032737862945081795640457362449274719600844674957334165372518484915479110916423425196032.000000
14146027661608631106781494659726476414576035138948157683652598584112996176291450283198710079147764187300802402466748627551608897536.000000
70337831806022065281730944275472644049142082816549276101767958805317228290998013669029823673896072857199103357682891012338310184960.000000
2866853456597010829442700527296824616159718988895549000489182202171804142916239139775229501192074616178594309265665056560839131136.000000
54870162814803190750422271378488005799214247067738837796562736314081933694554017372790565279369627728235209865420649369981385965568.000000
-16317782899080080751413694389159223624844821149217343793817213213225567772388736082084566571832296277746622186459050772967188332544.000000
373907632102370101064950901919315546133087907162509122180842713910272370430311812239182637980807062302871707681426494580111735521280.000000
-60435046077088201863011104269684201105798132203731476975639105366400776883086786990927109192871963550944078042472471807014190710784.000000
-53205538264735088636651044332142410408132605138849772382238458947617995879410311795412300829853442905024598334936147071772420734976.000000
-73488880259354449117289590542724837909618676139363476636059248046481505361847179154656805634706961269773326737008018364498679169024.000000
215003035773056472435099941480971583347789737273712674075863571941855418127456382064963305638565590340465673172630681173986967027712.000000
-71541294905448564395558774431468161912359548842311765666404090287839035173619331776421339907853258917782473109237658938795278467072.000000
-74718075410056076683953496599192547976844318811858712289243461189168020409500132724052510515947273419376092712971897086750608064512.000000
-125127042247971912960687605455847634233392632853799847043980671448924688808295596756575946615202347037793879744055416537027929178112.000000
9791975355022925692787900820802370591354963805692692064394551754164128620086607885390826480502476487127981206313700168688434413568.000000
-38341329227498777865036768697995010497948493972630869340278219824986759498370619687589285606691490788887278398274776808955253358592.000000
-8647181414998760875009784764192448601421238335859338642034736953907101046374863128802755440939997165396528816028821458004347977728.000000
-11123927605378453514025826434335727318450666248101198714233000729504138582866643460356050476704583730587415978952192081780354842624.000000
-98346366351544878153688040962039074719945806121687614940233853301505495037879879323339242032476228973401327767749752905550518026240.000000
-6439483618049621697330028882604265170660677016561634630737175885032896425473585914869007872402115590849070318285147049506191179776.000000
14184988758151247406360001856806953723561446049142509151952744762368204955655341216912255885793545649856266302981666905872870146048.000000
-33500936076500142051324709879014987667760999468549898366395031368581041827184876677884583721292266893303446297936168967700062666752.000000
-9138476340189378782958756983609335972425030819060576696596788849868589586157148852923431824368304696458044230943555203789429407744.000000
12646459145027871749334052062806858424925241409659215572352990940960259788617139413405639866238788266043198389633894804586514874368.000000
-17279317322802656847628909601868977110200136763455439600435561919124699883188755312792282950772678857443294205693481213358426292224.000000
-34278157363718482943656787837495879268673341537928257943329249957917430160356821966639055768771304884566196632318646000238200881152.000000
41747734114058396821111613744698266120805469535379495241229129985612317155840408579179984979201504642224523549648753280855543119872.000000
-6720399230182467269797228077300061551698884418704303571934247597776783398485089169722694648766662280218820495087999350934782083072.000000
-40426020574469545263108782610222186187534441612114157698706399530084875905585313096946687162691259243966600565195248255456054870016.000000
-2645835301836929992483582172722788283216338009725008831344498332297375592926984307902870806615608735377148959608060922036576321536.000000
15653120636608822580058134077660955882100871573336063968859429779060003559277768411229223676005697626573849905202315523541182709760.000000
-29973061834506360995377593283738256838056821751479968269020985883835501768729442452130807989364093703675299473741954166196296220672.000000
62253342964127227414929043993935268399284588965917263671555091587714015276522940495546340132062067017515717752879512697630860771328.000000
-60066263960760354665217436288502363163608712057129080434489006142314641361160654974697510039634119775613318718829835370800951066624.000000
9491050549504177483242498134115944065046495669902146196973375894247636044429589514019653560490589355707544689736110872892754886656.000000
-81422112456361494404814137859756848490913880386854032822846922037339693631687555535663291041127411378955631254983558943915240325120.000000
13673172495536987939291373827223913206626849928542311923358231371839499076719041891389449333269263134408389129039400846280187969536.000000
65985897828682983566473699602098613987981474740681881783158813161925188652922706569676800580004930409947695323122330635755547787264.000000
92430374200300861416765239483334541738467182996390386947366385692539115296563778426882368941822335965164861096970016192369868668928.000000
69602797931936198227022432884936322433740098821299826506777966336447633503666225735648583632857634661651636052322750591976586870784.000000
9801451427130148499170782664610032277007098266793076180541953119265136374788841462554080134457811096774130130995134405788093644800.000000
29466636730026455883539346212823216556464001856146481575732386634221110232629705261572628266542232687191567903710869290896884498432.000000
355221492382709719221653639031563836964779497171370095263771366454853359643851686316247897796637980902257056925207290202009309806592.000000
62650371171300106513020054425508009975746332527123064666391300626790384722009396342077363387510096051879779461325458133056103645184.000000
94940382225837921002393426261108546541104122028740126427825550704948439072761256086645274029376280187497443044140131080741580701696.000000
-24659404725276793469741981819284257057936411202581575960106348399062770554299202348593933311507331636968351554654193334433527889920.000000
-33987398933556629779265677981363755868636122822785614799639131695745346079159308724324346668247061127068702849718139809587898875904.000000
-87393465202605525900226559324988608236247329259119790533086694598577843833927512878546365817509911560221075343601564484434822955008.000000
597609494249208133968380934147406792831905443436421500241841616039513300636091516731753182825225774922853668659207740705695850299392.000000
-241329761320146143398947457807809297138098830212905202834222512337303717155694955242001487516473679322029592708622896991612549726208.000000
-20955038304198835915088862906111427157811603627138511666861714604121808426788208489553462551204566582549326652536143193541665882112.000000
-2718589250621599514867124842714723354054387368847367656897221754417490960524458714486278657969966266812743145274762613100684247040.000000
106022013139507788453138589760953910602351830864885106348342341644718800963612785266375999974114269806656755181683734350339357278208.000000
316215897786729853051679836914941827500802729332277967666412625135513922073975015147989941858837253807783153929836796269979775270912.000000
183092146714917133895634921911269944284880599679222260321729482062072607675977895283702733341963380672535750953210926347481683853312.000000
-62894584252710988479791974180216756837107093599507017219249966202099350998170108727198408923402049801111418078013797685450795646976.000000
-18101539057662420833635691576110260964919105473271628455655065076754200362978299843906545073182153849906182181030088487416794972160.000000
92700517720748816192963718812296626593447797930566554584363620748149851596301635802310727155751343946095736559266200853301547761664.000000
179959951389706328058536978049465528362926313699314570701403328992392635070026725064219725415996265551330966534019556307193185697792.000000
-54250387762397973441218949674566061573804545060632001317824906056552945462746298553935143261752700898293774755677474375083204018176.000000
949689064694541270382680244035958205292724856986243301531296194135843725955020554814432570685813969206032247103173850212134289408.000000
20434798021023451010198376572431472914172858312353763757362982504252718816958529749691912309518655632753530632185633271198276124672.000000
-79127834770069904251896408329905890219283550780815330045057713687275526090358227441566730741734268347423965379718647054277648842752.000000
67876637098581937369031901787992199167764159573857601454779585700754016557513455883366291527174737127467100278765266590849896022016.000000
-60291288913131217862649672266598579918497695723000578410644256276274136737267146299875459884000573194622076992094840961313370275840.000000
-35748364266448630235484232358699650706608342633987771627337186778998754950830706969531998608594692161199008608497811929996415991808.000000
-39572337172376907788214777704013343447012502355354919503672023024875309209140385038468367285880368837491132822713201078887155499008.000000
33270117747890926420250697789494693167437817027337591773591333979571792020720128894265583198031618859402163824925223363506650218496.000000
-36967511587031523914777561806274664085440094190507421604111048123921099302933080905571277052910412055591182092773388981460201897984.000000
100871395740495814319146568827224374148273109617549739393750085108065560498440991889324110841653000999567781144779121958631363313664.000000
79860029144025402986430779043998013117078597112502728919401767349909757985305449276012932287292686703975662158991688739735532994560.000000
-213113565744053719424828440778335786041592595428674241995151813707930553081126001838860119370382704083475186710545534215063177527296.000000
138417712567277465366426236436382956885957880402937889047789793948080452422446665822603373410978274744789279740108818775447118544896.000000
-65285130977808505276439787082546740896948117087729923134022125176747037642019341237163424714488355393256889590816069190329764413440.000000
-5212112488883278948747299464779101140118845105112921528464540302814325499830825665996294510738044082290340529982424343875768287232.000000
29974137748808041025756620950902882219346356897747582629771482394250031146850779136379256358900013821503653118615179194434330820608.000000
48702785315801980549401194218087766085099903551883272793338927097756076720721692068359350263416655583748267192834696890222930558976.000000
-112513418268569831261905505983003110707240030431970875607143989151680503762764720495595410376217571566499518771103862025322464542720.000000
30721946809014231302996074399272098903606104129649936841819479497844513361164139579587440048466457286808994641123192199748954095616.000000
4944025728625643192355208577680426003725772053684449768169878154647865560348039129128405029858460072815071303088975681620558217216.000000
-109876141786572207875511644280940625041636683517598806894655091558911599058875420774705897013767486269891618614659903411258346438656.000000
-130273927316275052220497773938218375289325689897151520355988233948739864713082935913754392519335272234934263934431626258843426619392.000000
-196225644803518413976689088246516663709214380308945514778930974379579833805703845777369557560919385074715928750281212994536152760320.000000
-60138341664213128365992264763612787431984105304649575882756156701682941326019211726301809295860165848136957498324005088956243771392.000000
40537395286328148687324868590341219349529809081104002787111347717367131448631783273167883064368171809747848229839085856901881135104.000000
52572129835286508203627773356242488102932973912933228550732119121485952807464626237949798041041420216457991903442980124603579367424.000000
-86230503429458924818521433936752841921867612243471807470406672506841633825186402739184211679174567885032323270414094600890010828800.000000
-160085706713672560423832895800426418252533340743155190958381355655905738877769281908144654663279674489764825957077210916003898195968.000000
-176958053967392940578688879871126644687026364498300751393999116998498276390088640474733582628240278878115609691248213702120233238528.000000
-31098239326513258629652498768352352361634762501877248595600802682818549623137628233536285734753654717124555631305273025093125013504.000000
-20740051317627686599709657243535375947494759907901046958225370484241192621484341866176751658742018941175617755456648897615089369088.000000
-35589260281407914761159476925648462546101486590021355566137246341765558687513828282221160902422086733052138943808882230724554391552.000000
-121184142359416280662038447452305911407462711836237269772826145062648874538438679890879202870484849119127954244355538245266601672704.000000
-41172616290221422890642925902208065236980369865137454390227452225464005572359610486406384888220915565884627585310083866872340545536.000000
-104423223604046659867411644189942803176236661257824717619277869944403658732791881413079023819977156893789973696493542841415502921728.000000
-154099582548635938839157737772058404838227766962714371590193732095009172978659948292100279738197255160915240356917611448490728095744.000000
-81272258241058057317680004438940842414851830088807494175901859841834256028196306589278394178146762166426906613153805378744743886848.000000
-34185420370020702374712044344116523487234975861997036783443536094707357900013342707509213036611412837852205971188535872711615840256.000000
-30858622629631375880758854075815619088173023337365545189603496227747925180302682827075776622406186539252950892684375246724774494208.000000
-38708391135084413443168858234770704673965377792060641769091621755732668179247592114098471201772614769071452618585196542033634787328.000000
-45023263851007410512287497794907404000015324926938627384050020717352379763668240841205977620290445864149772912188601786909253959680.000000
-1505796021445192980567784545588388942075043122971786280141265982145126279875481936667213949939906783279427181868758164033442414592.000000
-106681759146400873799036553442299996979841369398510931915873932034292974489852061095568268766812594298585672844516048309179490762752.000000
68816901539040283168269040822138484965458063996482537092291239841242549737236859699158928903155862175240127559454333491058913050624.000000
1926382725350847589780484943879535099048908594154606872083668872083805622708824731025439439597951355143948987370679327401734832128.000000
32490326148399910627005373065100518687269957903175704076085969425980152001805768121663966327434161809654120756867373074260699381760.000000
440986759319116528653052681378148922331063892833871378845947681406616438815261426890032938189972683112069656906815200263978946134016.000000
-41887510672684109581225539716460368802168822253960111652359739407338521107823607568865817408154032265755387946414298905602292711424.000000
15355931493080725652405854076626036898039533428755959888614545213014233211128638158768194132323988605879165647904867382563864313856.000000
85477110168257676492875923225384421061824168847101918169711472074654063630650837049933629840340875318788857661072133996577982251008.000000
-141863465835065808562184302791586937370276810070723187667741990272015753748693263228009170474372288466145361963441521049421784023040.000000
264711669943482068454813818256301154729127345906560974538081437609472998823486731145642706909524647268550179812540974386834137153536.000000
60250095588834796108528220558468770554483989606817138499950269080104765779796214419804685213493384886084282098829585800771760291840.000000
41921220259720809900624930829095534962185281187290558902027548033044637404076566867405515976444458254016784800221343750171683454976.000000
12210810153602585696083771736006180011539254889573703904217742827564858387246051814094936075942638457825490815911228694198801661952.000000
1765533367703120965994831455044046617816121728861068930093644952364697126270761621797388636563301616441834293939244465290985078784.000000
21475194375038655220316755937046152041140644038467516186540301249217879868093064167135711960811780140316723808153576713138426871808.000000
273978951493404597186470191272379607218274786178665659085935071469971336461336587866893460230653631798724224542397773349893936513024.000000
-96739866175680324064894409695107151427507480109496382460458928673646891313630247663488413750000769922097839872277221971651549200384.000000
148484355005740199976889220534646001811664226998121239166920487798508262791580669860160944487349685392240383196322074106154434166784.000000
1506545333982438901140718793086684356692988945683613083511892811845881652377590811618801779588526968480310691788928048728832475136.000000
45267726539056124271048843016542553089640081682522496363946537720830104079489259873377283362066646953222322267965949046007913250816.000000
353464438302751705099358055074159050788255739533318651927380718803013207061898315354920073590478600062173825469855432066816368705536.000000
-9506715080149766359308127102602028992520949459108127665918144463222961905537064297259807516598762339801706621684564175638516203520.000000
-96912456542468789589834901801857668218520065123551008093858952711134142894587736536541857123051533325395339382978562740895455641600.000000
-38697924055587628239857324550176313470459920531326177248850412853666974861876305123072136232766066027070181303744329428922242433024.000000
94889445436790153773320792697337828932297745941478381337154996311110963692903210553180245605039058978614372350800042003060637040640.000000
-285067599210971450536226739504901915740548227209447356807599254383895932424207922060252663430626836815733168355067364393236446576640.000000
768121436259620895821389346742721560412066675006931199403778944449533639982583087024502689273331786842407398273668177368358863241216.000000
-241397765824296619890377693415827279189254457825196887754729071761129599219955726166484071182097856593573144739529045741287256358912.000000
6943257082627283055768794738837546275458589383217710946136266065458847026498572801783629088039926772404181352988525054657719959552.000000
-26280710713682167640682968194843984051318969062613725837291616471221548644255457612987789188272492058347178173558237297281465319424.000000
59896963469969670547746067534321212287825143826152970962592624415360430298716990992910688267575911798234804600127283636526282440704.000000
-309539282646796247624070360663175898044732955890978697862317809987049274776378611130607657485815733420615143419003082223233531904.000000
-155295725365828616075767052505059263684563309513508676290663736102343070112220340433952344676772975256821318378118970882984098398208.000000
-33546214033642485163262851913048716583696561903416386767277280588898531526765547492623900380988816808006996724153218066250737909760.000000
-24998037310207451747704465544244125608474898821219783375604326615108975850643797202261030743077482934082410081911133533712456613888.000000
51730855221636555073657270727185803263494600937900703582805599824340567698361101263672309436365202293452049340087057709318400901120.000000
512886994724726159470214627284520880133290867955905221730371090965199856016861400700619145656637360149984981888585547625154910093312.000000
37816383626961286576212869418347734792333941063808013019000672302414140628315816224736548523160080538017416097975742012777530654720.000000
-469289723183526235942907445468499947014803378186923844285229162256059228570858038564644552605373337447572214248803041140493422428160.000000
326173518661637036633908768297570550758718359828225563031490577851130897494430252868353396583675406923182591044729382725024059752448.000000
8514947942140269208164942764867121924590806456530808751980486742798938798046638817931120713336416672079963713414778051837074341888.000000
-200040258087579509770743465197649305083904463604102021673703178403988195834869476142901727809892557502912343812487209422767324659712.000000
73249329870582198027341129942674248503324632852329256443099817007710028750946631225821925106348212679163710879659498377786028982272.000000
-77139408945245700476080631641119365728493729445229957345137563947526423232031554320479013379441568780163157686987296589553353097216.000000
13690152079632063837387644231095286297181696558141385053872284641733305108360028554076052966487972368208719359479247200274039701504.000000
-13517040502201201218669480496018622487427007696989752185813177525495233784962227783735305551724449493024135835391002863992832000000.000000
120409111727027634561291360946287673449028822637282992772577374832466591519311425541257903194592912864986984913697160632042623336448.000000
643912561543513615238300038705513005293110250443545502211756528682549923648362699727727971839052296295972281517416343379813712527360.000000
-475770351091511187465071341052032856049119132243849065485182468837228300680490517900123062267582155573853219168799381555778288615424.000000
345531300054260429263339645494193174075496084036732604239858158486234531017220678489747148652547903372362878092563937554465330036736.000000
-14396035453001563444038349827783929514956201738917773459956965118726403016450857213169928590154420796119550857195192224879761948672.000000
29138611315814201801536220377001908073492724792758524385514468458852022462123690970421224119768881038304307049636060563099562803200.000000
-88714583409486409224482534815771601341922284835738229112881350103854982351627825641094140078125258134799831498842189105250326020096.000000
46628121081596873016860542523300118075359391683654004283007873566141673013156218945546350586949280616573077050390720118486858727424.000000
-10319534631183519429140300124261076507378540578966488424990923888309564187331920618487538590638387333981413852188471771934335434752.000000
208776561606948733431886404703772845119708427183302198394489319501063503923745570879765875198651556556330205675452022111292492873728.000000
-187328825556583983179843465009098646454598792678996849332106101855990286371887746778449176722670699212279815123834651305158660587520.000000
250666076788207596563866911118753282622955071351835094539235816189076179958100932807068736333823722042447933652577757780292950556672.000000
-150948988293611107326224288345691113135236165765252284883709261187324859073443561932965514899071295874778160185355510402157304086528.000000
-56629258386739870577909354576167489693822300822468476588606479550371577899319016676340113508250645705246704318544845107193484148736.000000
-45810589761994779285362072888454890706026208580879153432667098698108327471898320724557794941205714503569189155155517590857874145280.000000
177334081662803837085382161128428325568125336281241218164787117855618997841955039896381789330912328094984289973245298763489880309760.000000
-295413877012390705617526197061113713350929190881970554155044342532330695241458447438103142735736356180099420312831921538239484133376.000000
-9929748209216439015443912532582035729438492659896560527526973364424558529807275889729646064167180245336841514964951249043272499200.000000
-248360684187202333803721551015552543634466288270222997327239321609139997410363559474155506519533097047276225378589121440358229606400.000000
-37374837374837497748629280692811351736714393237123630982815623868741094213503862226150701678924328877167935567305603018381368229888.000000
200766008730205059180985769797484667894752337803773247581492802906292535176044931998896037021972097573392332595286830594840233771008.000000
24056328927377572506303587508700269172814139445655002444961558531652702471620612521827802637408035268681875596665818206888230125568.000000
75951609986350007634708838007518078118320185131161347144167976817137159960071383804906471286399122280149072801755086212541133619200.000000
143841271165414956072489546261392884231617090862216193199441057929844190279364334214401588742432874914096739704392609960089333268480.000000
-26470252463714231631527049812912958842778142131168171983670073526894335938136942490129067325553405888794002637871089690684086550528.000000
-4782458293205628954257719670424612797467365413613990258400637044253374404488527638678016196530863546033150545393818840859378974720.000000
-86721219806168794532073772524612795318643537319148307491625021456206974356733984379451241609614458113834406012869301235876225875968.000000
157781220029634185998257769954714169765093683694361919780758529304930777670650279055561141727123267074195373886360510706208808632320.000000
-60961624560441368995003482913461093281574204180449812556323932810605847440745678954068349072107727878373864320602528333990975242240.000000
-153819229169403904581312308535146361889756910850842644368303444697229066898957197247029408227340344117092407880300968875752073199616.000000
-44443091908563199495877942971453557775698561030949438552659489768747958097488742040534031760094988344978994804519313457300419641344.000000
56672590309718449583133752742865632722463674457342297108309332654112805615736015579324521147312036734221478948081811028472311578624.000000
-63215817298618613445812544614186586227162930562368944449799300802092514018697470866739410351452340201348925693790135336238101561344.000000
-21600355171815661143369743555366307695705874512975887043699974871833258042477400565326520135361678854312558986748910663677874536448.000000
134929250951506808207524315006416094184337175885081765559171489411679476083892648819863995006669228697958123029452894890080484720640.000000
-44744613791185395637227175233418424892655403688249880784443963822075852553220557422031908048528720402957873325244992489078686482432.000000
-43102438111589783603405711559695197369491664662904172908294601204495300932068954305813241481848463860877219432776563015994581188608.000000
-28863002479209023412336547833584584317727775470715797332978800377372491242213572265217898995365622112107396625157471590002439749632.000000
-6665911278602321514705231328184412953529544918992599446916756011432444488490472646680444580400697515497995198046108331985093001216.000000
-26486919590347501097750833366493341736732444925963900603129644182842663276222682859207330275712100050005009719021050559201011564544.000000
-48656046547993844627866843896725140626325614500840423337822348315775165121522768773472222665327973727505387798955919223008788480000.000000
31362473911076762973909224654426374902484816585663154433989988624801887759991976465912992408143597260072407617301855780443168702464.000000
230876621741880042018884451863447759447120700380420011166510860056706669193264615434638987470366896905516228722109858049049967460352.000000
-196960440952566632754402623911326219676549038963788383610603214722312780742791468878762095562305100813617025231904765205288671248384.000000
-159936937311070962878387702413690645142136074542208284639530541304575902492331827815502876944126996178963465741225119059473397186560.000000
-77428403235291640633225521649536574206324522753243221073367858538779239181943375729807487230235491381011151733386655003575094083584.000000
-25294868102349785855503981206467338780550232499926983438448775820941136191663008565954576849929018819135102512147168429368976343040.000000
561140959880815382084888988631614326272988584110231573210724210724231154870358910416826581455983311376316839604602392432820067762176.000000
228865474693977350860229791142138942948979445644307536036695584961412820365424811476034501394193587977540831728507425604111198846976.000000
302552636648863239982232162790609020357293904343081463856004154498148544423615406604370613083212451459876780159502498961680865689600.000000
276243764759351602989244670225081269747694431805872989101109641594156644280604967872605406445178065079953033305076152759664066428928.000000
228353341154731295456587219233818474124226089495469633149920266674129943716763242935633387135953704444312087669962229501039434792960.000000
-78965368230820755350664915165210523781736128422071740527080223330837740332455660053603204731328064023678984392527134822049161150464.000000
244551765281647163783508135506851338678373094196041997484238097743506304416521611199586862978340524919660188613992241706591049482240.000000
152738164154758885091128232414949010524957832058679862533310112207798753287513775365759337516233792275735871083918787065740452167680.000000
70156720504153435280404787190669259439895420295133318413079049397142566890413315420930853027888562241883945265734120140701343678464.000000
69178907531109826048728167000542329600543685083033758726198011508733566365514330990227348717812968743511620107280351813793988214784.000000
183773143022971314116121282750068286210500540357450072178992298250215852654415783906696453163040579561802781367007551491620758093824.000000
1418542632817097014611447737183853374277170968414802866261388876509145310995869560493910833733410711948103708989894576558758166528.000000
-32348504674230604570589675384800718394695317831602641444686230265795528097992524722258318325328016933940113758105812151566503772160.000000
-19768558868677447255405772395093857886819792998886933670898278996515881892990569988238713839216759070597049898854999585126204047360.000000
14157806518880351460572693805446082733311101873169831567235822705651787886000886358992183328227571965120883813758462032352555040768.000000
851586277739358395265207874228796472524585234867645425150969024236532141212408375962999426232849425884920371698452803159684829675520.000000
-206636240666630309043332791260911571905892453525790925464537121087263521468625651825069573350651936485066655374050903605147361869824.000000
18256976975765973551846893886058842187519226150917322623855219215055468362872756551859023267341760318549437669344602719028825292800.000000
-12533192392662932726662022359572952573675786552208709304861968253606094393048238481253424530647618611909099362390394317504566525952.000000
115117266612120916074585058588636332749372571426477278478276552368700027090639479281043741136913092056072433148487446832606143840256.000000
-189535194639022558115898014776305794734628199747480053902572149283350147493449931670180341179544551080349931198341535971464462729216.000000
-24327465394460428465687038655078077866128184284941046840476616665142718385334285656682328039289853846201377608459043779445117681664.000000
70145111196658345694903610214448697101572905845017651594096046982623968580341298741586658438165867191530770393302839694296157782016.000000
382176373571794239872637279217280827662664135636464122995200953490461875870122939586321964186231457839546688974727982330563446964224.000000
-71838924846566105199258112550391690043939337325609331938088653492757899121555518727401083600777616416939020324197787667121488003072.000000
172913564760122600709515218461184045570937437073153975717183625179252335557169995265611744404396798244717993053854019948663745282048.000000
605159812473267950323070628505596395434014545982598735539801717893504787653937565288472174927513011649563663883268462630742056239104.000000
115545580802255921504406751805504303734356246599211972349082483138712023447363419773106427190732047947397129305544191462544183918592.000000
-41245220510242948362010057592131593835249573463156789436112987674064096343842985170386770767537949255710890291514068457625185419264.000000
63597148338895466785429222153329409683851080713019060483957633191894701259332151152080344042995829495564990941915546222970913423360.000000
332943031532258787025284948682629899069778932029507669599061170972758246677610719958231355048204763221325411320257026828854288711680.000000
-8136287347394921690027886706025125482834257868743214351395952916676872521304715289904914833494363883231516301971638041609959899136.000000
21979042445448307992011490825966570987366811109294226773296928935221255352084289119723234697952760894276840852814241401192033812480.000000
243021583278191582134124042512161466435452939830221879958493072787778610746862600427283985160802092602283065885744411174029970374656.000000
-260500190884232118470198416825426407834381249087225118711134779158108856055201039425719533351674211805942407311866167629895186776064.000000
-89892339123666766275593484380254902991502101109708507221425868992704221504357491044620060371712128205055065158368676330076362506240.000000
-287785197039326447765546053184097621430503336612997883738540415515592598418973656657501769548065953137209181691796729155331333029888.000000
110655447122012766624681625543099144579894751001632624547001405577998576171429597494384285634098056940953380478942044535231998853120.000000
38145272221220922901628887997760171455489318349776015011240432396995683124687675356827485414071574891257738894986132559003243249664.000000
-47698066421132533378264603466601274405141785934211487352469318364167194504201910920812106635249766841977305625827100712478783307776.000000
-214451585860399417614109072586245535036857361320614517522850826863067535298499918048701990706255292189947285778336767370854701989888.000000
30830969632026294691979523644878019719614706208733618215655047842979949528472568867253343744650196045389379270843588971991398350848.000000
-240687437386079111054611890798571108695905370232820579607874107581534104424416801525228743172337271791212493343911875367459874668544.000000
-213087702886941467797904781419372955926572145931033844295113203793572075955484446465295157188792054076057261707239887033020463448064.000000
92972179745470701138549841068324475259932650154490399557679347867269774302943087296739440562550829849099380220966077477233268621312.000000
-134743819551339433637952351490178606162352007706324750588753515757728264100659810111202306595398399530787251121612390790437223268352.000000
-16727346906271938213688899865017082417639649768462861233188183473404188987557726535286192467963020336169001612032381119816041234432.000000
-77351419003775768826775739962802266465697385596333983353199508388787942441331279206351403657048110612268986433662630808450758606848.000000
-204909650434849436622013448948267662341638392315062976026862685462207543104068812287129815665770499750045396453531897037152187318272.000000
19397613080496831928686597493208272516766451959571361476158742424958510842236095295229989124431263087969475043466766053353059254272.000000
-14598082813176746669758638993256250255522342169870275391248248493893376043002191485021897340120554687690909597985033930503767457792.000000
24605225615411982408646930275355773254874573063017549250811102841661820894847708219015065651590210039270931491854060225185303232512.000000
-14863544163526203508376064031511249152983833686652641425914881980689014749691477112878577186276083635382180430354487343910871891968.000000
-79384672243558241506878876815573377296412480985799972322756735342032918454383412307206477201381651933332521207927292091186955681792.000000
11451111324393107774294091866556783472685703428508850696699665789262633239985311035458553715013809613546131786939253642137100615680.000000
34545780782272119945623907901211514787386875947630658074693505106349604449105419393463251335807196508393351695446092251310835367936.000000
381706126422567562440076489231240208983248881317430040949354243645529701913777161456043905842928700256665791479724246850960093085696.000000
34703469241692949754130089806623474514844131077296860223476182482697569638151653848200841572583555488604915056642492401420590907392.000000
104653158038169852649809935940383739642274573260200569751462791059065626755111241719073136907547963207756960732717278181230639054848.000000
4151320294350867042161633993740556455905045223048892239585793412072752356715328227219390774632556733006835458974632808550045319168.000000
-31738094543100790181454689620791654986464997483958117639528386231090771547444242514620904724768363594287849146748271088063899238400.000000
-95563145134447231016149111456573684025220473422209752475929688757783739293183912947337401500414690451914699692104973955476769210368.000000
-21848924011799242468732109318645320431962150274018547959395406298198407979142399270192541525577576648874366847024849586924577357824.000000
-292039294778866960865485251443764264173300931072455183670560102209610014991967972014777184472074363003464907868165117295297462009856.000000
-69458718424774911214646019825353177013327744802539923679493842089084216710643894614298135976866455698040171247667902844361372598272.000000
-51115509985421655262246267257263083596034323724327221220144109344677201341309180637470402286303033926039330764191409090117335252992.000000
324393300754218587154183809153639569459364970677414694110969708406077638520388141787133094821903200459632956956205493954176530513920.000000
268732353108526120046262049871528242376777086369542446780890579097717258396444222871727013979987883605104508670057574347018910826496.000000
167069974514473493945596422989668559285037746119563852418476250392269927304700434281021480519666279545875146439623419026148371202048.000000
103336387044493190918410219775581396225180500595816708348647143117958307468372564984577871158964103561319118497376042312451789684736.000000
-254684057942636443062871555602505119854357174603812725829578557435286781348967231907411824798121285012580625799605326211952567910400.000000
-9054920126615255198311135532508101649148973337359609634433085664048505628851482341335639536540401611062062739160851161327758999552.000000
-294756057626719472907610363242622780733699411558845022992871589845931664183226713234312236336186745504660317014909176982983522910208.000000
-241439129681852171716245235026527548845526728756703325532593595889624257641520788147960769620206096364308963147213618465429931425792.000000
-244730430868821888444537670612521032432229823650249745212152059254422995514780384024145543503679754115655791082592772491008779747328.000000
-144667047735424387012446360946787255517414175193375690970822313998634144107807178724115429599348476591985497140035021849402269499392.000000
-10596072820039825579580225060410030627678697116852800347865270850356136868371229449879729283584936740595240336927357884135024623616.000000
68092534742683306929430031159699601432162712234834967948055970802506044985702788124271251751248476989968932654032375792251076345856.000000
-1742855998978139745148176953458676493455075735846281636392618905904125671227040641351983644708402721244086850154941998188969590784.000000
-14637492278161558960785109483800696160644655073031933319664243768997943839683383976112256994712964704189917384043784351480079712256.000000
5143127015254717725603731440790150690671922638238051393629593814403709822390519737083494881638602969025809010725842482125541998592.000000
6378437080530479436211097595085294869440575043403646090206860469853928237971995990634846113101260410373818009277239082730697785344.000000
-81992026703423259126643794759862183302639552593813483703053626474199857941556873465034662529072208577797257398603203221554953453568.000000
505105789194451878201004682521223750200216403949938085801707461244341944449254436885448495772822482697376697095730362429658693107712.000000
88083220829946367979572042632088999314383434373939709140617695465479226192339622346361573371362715689855961860272627324631765745664.000000
-256754896342512051192323436506489478316315942697180237574214574898741351842843315800689923791948486388001075855084195271695145107456.000000
95629676519449770544402533487874517578623202331428689780998251478396424847654347503376713779134594091824410489462169187189855879168.000000
-22846012546882737677438682902071994170412832261094164639121630428319922510012175159006869303362910332006259586139430239132673114112.000000
18170237539625062390235078533072209468672905827773015477573695633206386201214718515113997084719480545264903718959299265784132403200.000000
3407857472054167956063179489106517657910092687545910849637365718118068386297545040873130195389167762967708444960699401837769392128.000000
205772632821183848225022292367338973564893840598561594286694125408732994298486559217292616707443125895097213509756750232206031454208.000000
-8101165117113447672429270910206298916854366760614214725659374384112870851205337961299281204286630020912784695647429148476436381696.000000
578896493331665571784261195625413521814821460244833018847003708519810987066450693292787129908248047762174811856445433597127984939008.000000
-281363539975426401841976766347864362732519740831646272488202603513153227879971741223375264394237782459829603109231178348834385297408.000000
227634283539754270267044536505857764303246095670940831039119436581375518755673584282051233037985849288723416321051268538323292913664.000000
299843853679722850355654235037060828724355598946011501036916877265765651421748313670687672376386562859692816106121659469459127009280.000000
-30393221511444754097064474506671904435382042927881767859991757492234805129083425742101503535950984186166646083021033903951622176768.000000
55264085114281820895301849525620305800795331620002121375718564387729782328280719588194769422984904617400331221104393334225488576512.000000
-68302118660319032479427162986469200790164526979647084064715453255653754094427340024182537617842048406289362723073016193231253143552.000000
249121225127405107979021494256841291084516880006308418776719954535826961161437137792638533120522979481502558215046601391241449963520.000000
1156707037842523578023356294893249147487991707000763994142389146871406544634412797515171040874215526177481146913342432458158637056.000000
-47251118774573859968240510198191440747335462043406303009722573324865955255361338124153123873134161262668894711543152959339743936512.000000
50119034588055806048417418302140034509995008742333646765160850563786825218266944631270169072371598740757079984116092136792583569408.000000
2970922409555745228457863807919013603265172864858612740511443693186195698294608874467331325436697981086781023370712441228097486848.000000
-234398539777941878414500126225439596856171613596652133793982028732428923748898122222461016404061143575008204380198687198644761788416.000000
42718563336329619622999001198213095961872427772251484152769835483462456314736144835216314328641039171002833022982822150032842555392.000000
130891370132958543716326616283285113196948720616551920331334233386771401565766225416512822988818615245698133064361483354480637378560.000000
-40786602943665899488005412197923512055779385810766913682762804423330112957929169613114447471239499472959825789459327897744030302208.000000
-40314900535826910267958469136007105546950535354937928409196040782146667392096702390694344772268887420826027191636885466123622940672.000000
-26779316565301494151756388057448927694615101806987817839741908827357307737355908511371232782840857763517795767464120841208424562688.000000
-31786957475527249075647502874790533378522687760390609305760875262895094706055527624449850774858590909662654959334879222669871415296.000000
-18584671503864730460724975226792258841234436332423784744943318012352658029764440141459992280741277311431544246096612263354144129024.000000
111459250555929770952948705470802265741453789530621557310591750503750170601159605599790676570582719990114636299282010913931916214272.000000
-14428299503411250641116739084222334553307326547880626158864416453153108247249924281662525308711525116277188433058192742319294251008.000000
-15524075690551623668367863231653770569572426901850535637377795415207404890374074445785031398902658168630026340960758965033764913152.000000
-21016145128449411886183729004513648299504825542325150655858472681784785031735984577944310291453444960355966299495438169441411530752.000000
129950767104672695184206620122040643023985080001606404186383981081961521905851929192946116099316314130373949238245206950076290695168.000000
-45979122641688488644166636389334127042556304470140527135153370667514878176789685944216328098684518077207924324812260139337307389952.000000
147128600365817907265593184059606429026680100170028038617443644995679538004648750542186784908876134394729180592386974462531503915008.000000
54804048862174149006860412391761841830848527796170297502334869101544170541313623935429827219969535346733456481070507997313063976960.000000
-24452357075692213738402805745483607607570411171022778974074302744960088900778325952342841070260266802564894097059555061057137410048.000000
38376056799073761625788005836100215139179917961395158072077896959326065774564037240611250505957153731533898954989997039369538502656.000000
8312381574611922228388102163271065083853112545980822249966607307462405305128058627435841709934788041827519581304487461779373293568.000000
-18433303025252373905251305065237928673648297034762602688441561710569070098407012621820650428507754265723730329358276459246198456320.000000
239246604323902673887089649712919931246191800240230033562316348262056443619946436104325734355522227446303914415044627155670439821312.000000
-332711212025150860204564188530540359053126973143341161465099478160174867379409947146763416477468136698994182535185513637372351217664.000000
44341771725897442895625495325478785262934565922479186764015610141154429489941517713608107527739314508166286842344377890075618312192.000000
-217624993340547520154632057760134169538051229399006863656112426071560026818192139164110774114887519863579631933540870544972333449216.000000
-94075069099133723571383898171255875184628563311359582175667897069314761081426656720263989650077243680671912291145929923609164251136.000000
66322095763134605273643663476799740774191077659335748189231490309752656456060097186208826702204991906968597874555638051029316009984.000000
-66646813641864307247422891843121784782982207533028737493763552408591348123682912856402117336561026049917415327332923854707841040384.000000
10696504773967300713735909753504818590879647509714300739891519279921373787732675136524159888239927105817103509160739066518932815872.000000
-227231058276028408822608105898143309403082677025196542728757419301443548924001182606498152806830824739765368134487049872518429016064.000000
830232816449674554283749107672675169718743171991792747290101185840720191227207662417803470680334778757994934131089516791220154662912.000000
31143132260670974939918999537206439407004122605451968771298630384868568790540522824972521179230620413400435652641475171827947929600.000000
-50149121749752048660450162469544040793405269596263412071842717750430328561974623469773510332988646265897136065150695583352623202304.000000
132958305984293943450299616068380112052110241768225348169038804069595853449590511423567494390645680440638791537083710115376099491840.000000
229093722795320759883396141230987161123219434526208745369544643855584331890265294537963505260514913901118628733595782242755982393344.000000
181750072159568458578837912603663479157482785784242949360111665906270026563874881937338167796555633144864207521202125524274637701120.000000
9974774298333871348840217813685760417078798866930556211654070711247077372790833024101867044595470737265530294117779680965748064256.000000
223181759338081336422685067772607452402329092254311039885528394973577503158414044447801816092692539023430255915639062163070251958272.000000
918495864207251048650638274775367762272246623828408616342971651157400864487047504686199940220941626347246784524420634742775349248.000000
-16608721915656656389225482171722504046026871467780279516011962629786339857077045774156265918693035966411289254160524860387166781440.000000
85034293334345753313399592810277431974706010891769574979367150824126107984358287759653264347620478383895520442518957587599061942272.000000
99383926460481722539501273751875949018623456161492467325992872510810511719643006196592905721400562835765300066492576085519038939136.000000
-143509200632178034538534166431102330150445422477505272800915069506551556476868941505384031228169759163121314475005142419448117854208.000000
176125377117110568958298546960838780762293412957735649298319090210277819535093649327889758116652660124128312410652425736932024123392.000000
14395343190832825359602833336503473869294497188011155312226549716650148729373051530861346190059133965981739151010969714293450211328.000000
-5032032462836725801457328931038159146136892858779478808702843579315889284476294109584096303482339015695200319688585846210835775488.000000
9346792715442443771916622453268637789440678908952527489797802014744785838281923284174876166141942728155947699322079880703194955776.000000
-149056844442694540295718512455966289604659147726195540272180048089471901019482284952102234598003042660344938072164798123368006025216.000000
-2481559992183610772778851831352258373576680850489469348855424491307415269248811210087062053381292439089201308398700687381770534912.000000
24073145608902139819521618394758836343726921025743974310724141808510847593006902666658971206193735356692609620545850965767361658880.000000
413894677744426365454457465541218416395948887519072395732634875566483322736228741840711245390497324456461615869308941788507306721280.000000
-104573492465528282446688686087750992671818849439095346168213000184154274389648523517622508443976933613911295357503998505693350985728.000000
-30797917236616674421370616295483159664278688368411001629821810595940558831429765799522271439821957462469724189626934691576860901376.000000
187306810884139127192490848174323330009481002279494529897796170757088101701544503452124693288740612155955785900002174620146549653504.000000
-127540849127017909684802301467646489747301477810391692119759722756581491702355762479465238871624379364142169948612846854569298231296.000000
-1355872882574378465359245635577305356882748705792793600026855575689836028613551798208767787235665382123004394899230132057413779456.000000
-203685673523283455514559543722834087184492046812266255866717665585283410704029904633424994589024294919368075810731954552406487859200.000000
-195811428923625200695283246248788774059881205786580814245894794927655686147609986646681691251883047021422977131859250742412422676480.000000
34992145160656106501366990459297735111534121263667790595133714074253738600651490007866478002000473722006663816562214603680261341184.000000
-62875028318875682393274087041678527640949657804442098680758527217869941286664734724926398769487409151079048980030456253390658732032.000000
4275905540402728228432124077527871120278096427651650742497628550066573515626624730230391571312521399919505649251342512570710884352.000000
-23436604969353964294668458586710719913323757323213932931720403889136825686610115686125437813327824010747324643602055958316999245824.000000
-287643064791366607673147085644829452681804618924878996402256241775458005583870570610037281309123036711008872473122333834023165493248.000000
-285503718629590041693585213885829618814538939114227623855957033564188975813417068706512026236033512515018328705126486344350568546304.000000
31854503624566840565119647719149339323157374123719577202577911205767082808864819549349565083714853409128424171089781210322397298688.000000
-70397377387801045775901372696399570044097489202502337677383474289351093931317680795842144790830394268033209696737241058563460169728.000000
1904743757819943929750541388180388187953084046977639222337563017661067326436422260787077558071443028560448486150848994109743431680.000000
6770882699063140955330407205592312479810354697065523781670187726153143655505564155228176779425108439898329478597134640213129166848.000000
77097459910255046031193877112028411783131553550681558749141136514893091822343715431256434169932165979378695733990293004029702176768.000000
160597774811334924662919068120210964490069782455035227512912572699004072650979670086977826627200893709275120235224055989005692436480.000000
11255746392096770948957428768497445373994102270240174768578029098328739854338443761076563115377519302716223535338147826328095686656.000000
-3000539594555386798675337647969776209867127230342508968300719802713357678370399475966473804215084085156420144504419979943030554624.000000
-235651099721329552836908697915119269489085869378251764577252938430560949452652464326157536956831807581081355737403170731773241851904.000000
-91750746565015350315114817233442415713794638611395007960061568005827832833462587226111573793861118560602916339318779430575703851008.000000
11998800380480606924043242411428349565564995337919837671537349157018874650801263195354700980098147581540459200714074815508152057856.000000
-220173750511901714107559887906135575429574540046604193882517118754645780420776715083571055668777548951754059782198940940384298074112.000000
24532849252733786226904713195715118213872328728726971219258583369415798697435966640641207337148305611540008104731000193477211324416.000000
-1156153274123288285501896495614080330714658128452233585818506074411878834833900250449724576637619662562157191206992456156228616192.000000
-1709498559328151016374141259030748763493318577544559930741270297519871799660059845287560999998097175254893952563694115018099392512.000000
109978795655792004099673379483348958677091263303258151926088726721226711790381325916424135795471460578205006160979929696625278058496.000000
90929597748836173623454228122442489782894560911778681301464321215461137343702976525292977724511161999616059510457353363712242614272.000000
-81931297323659913581366120725665206664424555389903789801429451315195262890455113132293886305598151927312446132604589401855039111168.000000
794462480064625584738034213731974409615861111668192108208024099814114815476856734664154580585501999641364439996565947212981665267712.000000
-221431813834603105585255823487119699271764374248574892044748139056692986432030297223137748188537227528401043194623853706962119163904.000000
156368055284751821049907834055013275965855792053118542765590852767098715090986765895642595002325928796930559501593230189941319794688.000000
244760145537732333056842067308035904744620224957326927458802694315483901828055918887587813745047197606483432174536102304941181239296.000000
98654486341478887884306674348739343098507828575384561898229797493998429065793858127335193269654923196288322266686261468038145507328.000000
507360134517888625522202556388209907601507050738786539598275646496657037142506419997820432382868204594436001944421279312785107320832.000000
151653154094261104890360229831876725334758320788399267475539286186930735740960300468415991507194479114020467534632637118433898528768.000000
-90928918365380848381049935244128898161519220994611674623249136961032119930762788352634343637803990055618792411965079842392738103296.000000
40862761270223679536680415466496463151532566977418288104208429494966924810445896699494529670525481610474743764879091034501213585408.000000
-107309842656374548553477187421439162371393260829832223318358666895289182368031700511211489525876419449692132099077535133199019016192.000000
48246228169116958590299194543876992370806342645687183584894894214946209352062393405887795522549109583091748447770724852079207120896.000000
179489542340353430792376860884286325356788038202857735292606098681037913277753781316709255409657817275801074517002715336350426464256.000000
135391891832420155066578000865848530924782404442907096903423863935953022984203986330279363093291692064110971583750786761353118875648.000000
131924375377446888031736260669470838945490572347553162275780848182165125568559152490989016269929313173702983850937246059580423667712.000000
127996245671927699291741016536998431679111424177493890833585217454164026182035856942120014757842851449805140659697881744344805801984.000000
-48965843415530209630619828780677893443132624934270958504277096460452222333522667131382650941030266577940053424714135174655120506880.000000
-78874502155422159368625286482015013534591668543623691823766441982670455183551226584607606234622489685452816929206769442224372449280.000000
104157032500899374863240327660647654083750238986134432465771150559524612186417400096903769300438074558961058353523979429342227726336.000000
126522783534339574248847598791429291668606639665644293286935906967053310704699763424270668031117972301609299352451854141081583091712.000000
120186683894597981908278629492611433598448417872000026884452654723242971892658526513491468100814689256398146054118161201819428061184.000000
-38343713340406128726684035488393159820018738997799439841660550451663709166399870104145389444252905569074794214465549971190116777984.000000
-217308761229929146838494866453182320293994883687353459804917035535168151809935761707406215585580103854283419819339047394000456646656.000000
-33510068275313931269197019797112264715033631724579600645915832889434622039482147029890568871213581311567983331641951810804351238144.000000
52222766824387236426120537169616388630206070159023687417013764344314690713824039165648483513522179153819131974952563964264245624832.000000
56449929184606811656813067291952322954632023709976463282805851936915176706050028378419004618831600115573090891500147053042742591488.000000
630490700017776215199329218298705771495253368202826022570228284395267033664152634160599103797026664908693983400943383901967973613568.000000
61376870739310736388694616393110985580413510984672233327276902764732514588347358279745838599027218736587889701060280061048100225024.000000
-7714729490441631377138958368880304739017894967725898598666601807648061125753587906445281645419046352554958649551916950979577118720.000000
39763628809529010081768687218732647166013747345794537970844626478885172970497944246501462051426760003847417598968278818914897494016.000000
-386757461780454559612733268478325683724219626450594780811467489281585451042900289043742511812666318858043220097844405788110487552.000000
-48134429164875560078238497077721806232625764627014061611797147879240579226896389224807677450806262928426350852644003290313476014080.000000
-55249770748277141379279921553983643645017433306388395331084426935207177817662403770881898371920268412536609367488581810520634425344.000000
113451486920405428611203776102223078898955479184010726528238577854430013653431507799522592174889684319666068584853535474529259749376.000000
139105197679351842608492744480970793178193805108339828531036179393770334071140892745129656403954345334097936849684996643121086332928.000000
-23990808108552876404952504186328090462540351980097885019219982943074966611001452702993762749821083322453564791175353679690395025408.000000
-44365682049373894663092232320299738078889324481293599054856683501262033414687622031557648201987398655749825635809580202804520157184.000000
124900257117402009577324327948561354870812343945035649043902804699947462348515327788891202865019398713158705670405616890085690572800.000000
1611569172223448596326246597738895451485314431070161092767961123756737561589162077438598291779764451519584813342407872986575011840.000000
51807057693206029322817352843878179170581146384561620269752166830745411265281898004150261239997828740585933632154415336036765794304.000000
143576131387891221262342443022891810661683582938977674260929676035308519436640717086967351106693824115128029745466838820764182904832.000000
570581416058196064643162021491676285366279755834215287757150526870262509044625739095938890050474997572618577068547451354991799828480.000000
-14497527786671935703128335768483508349699126776137210888680595088408864661159976408581325687010392291959285718811305266734312718336.000000
-51796185485122919813809604487008753639420176680370240791864575223531023788586377151481955184023911400753995743941130050851259285504.000000
-141140733784187520373302917667715364254542463925150630921397874176437597571329500626100947066430409534766911277442660181267676397568.000000
-22724621032011830546157982491457347459703752278995990624484319556190361839769373428557165660023397707509575565157033370621786980352.000000
-75407263357689520956474736496043206931962046580355816905848156695638289464635526363855387612482036489236185792196902864452564549632.000000
282972203585745233029948420728196879408653146944703445551301138982557053714516715632896414716361907899512959525469669000572538191872.000000
177997469109768230331103320305971641312687576432633674344000275375156816071959237030051333700793408713440237519805435903941397184512.000000
9094455760228576596881196097553161650615949559322644243961325257995963930954553616186793662729749394746175621191066059429329764352.000000
-38365091823272239183764827601092217043462223354190368200237582958954058890008030164964438160976969812192293464618108070062154842112.000000
22177298913405069228805900775022051095915019218091945106495859280954219912350418861894226364451657167214444591282496200345122766848.000000
6821124876446452565372383879458046039148024253014235784198799567842247428618543216621385810411464906913752987250610293370903330816.000000
369535547486003081111547833240626476497778405706574357179160543480893439435638554023401041321316740839849866928578318969840452239360.000000
185807332532822563580047939468096235468423980144372070221649897302180609498404334460665559749681231289137814738782409344968755773440.000000
1759408821491887176796092546153568646862628466328733038708826495661581685424425129663187040095554076764218899594736198945458880512.000000
-74826602345605769723309555438979543830447669697965764917209269926937807166391265148789649800603052027460491535616974195406529363968.000000
-38093684779923621034334829781758488502717314800379433138453945248541597528399803994283852367343123134144781238153145196118861152256.000000
-87654702123511405103330440953537776674617548097671900144964375643559239226240648992538983370588701635628786432589144985520230629376.000000
-10408686579591505593612694712524295441289278651662010004828548822161357398447003499118873676731229995125688806183985415450911571968.000000
-50975904059357870334824577337999858251956203118383851603291585040194634447663530368071467051039180904347997592070073003315430424576.000000
156775708237569243974197575322932155975842786831365201963213643064726624028329724603096207555731871304294640427097072894856275165184.000000
-46450149424305353540399372153135354350045229328680992455290970863758136563771284162652166507752058216771056878480846714872136728576.000000
50093078188753024515555565496557594262829823884588376955134229334700353030552348936069231290259963239251567354214217300526342602752.000000
747854539224953678704690442111538065666579158916996225835360950656843390639314777514574074525912066555324651982749777004047422717952.000000
7933842332119291276448574555804438907084704845011267319958609273967715804552582969362604047406024586525258718648410720229344149504.000000
-66394355144649980947853966611086295375509003738070534913020230168685944113951370468378119986019662091119456836195947310721859059712.000000
-102963747010771753643882552179498929969321241797491112186576850763106733795546437622334307726759173948154407987069105329490341396480.000000
95498059647425624454179969575553252795175385245161368830993634399216285830263170019889131315477312485836279690114787383925062762496.000000
142095226629090732816341141243948966604139528272764910597334964096458802906800976630879166598352781481735380423846622052124979101696.000000
-31366222647936026630124414238619651659883752016558973464568587732419342163924304487411283733567262598180272582865330980984211898368.000000
-3161352965787476059426396246620316674475551402081604073101684564992618857753723388821269910085498713355947425623365145185228947456.000000
-44690201091453351039708159119450577260220253418824867811278165444642699856853840994343326981997802404852283791523242955098850066432.000000
58410946607142933935075365934711604360101286820435793527315685801488790722910084146150544045211060146896133795548095526335498158080.000000
-77431254007384472544724983779136622105401026956243257720470436589798728678683161780465038386584696480358634987669092707578069123072.000000
-156747716287104929861321388759934146985534953141309101516628452207890602949408907747870497377603797777613372483113719071724066045952.000000
-327571828113587973800951087606094863631430717875598987245697834147307031281657349709360417221469722546914812559585421518217444065280.000000
-50208373276368169572619758908383293624557872545339949627405676720075877435209028986084081714804200806806181107274569577431641882624.000000
53777270913701103153489428827857121035342747041527968133820931272693258731005826965823830096792519115114156336478128134796240486400.000000
78422290782981491481273137305366380957557769486440181965647405873915444087215655578233316627914132190992141316289380585406038278144.000000
99449900807336533952052674823532390564254035195318276295227031104562802650479804287954581471435589958620350557700855308495009873920.000000
13719482375727869091579906445887273107789270258215777308942932671935615155675245950212559907254835026207652261505342007080478834688.000000
54798109253697662409111070355490452658706847258660993228684665104532008981877467693459564762929569498486197284244308463355691008.000000
-51532223940737582214151856211700736701047915094018603357430051338838664933667123868020714128886220628024378686292931486082005991424.000000
99701402955589927334389697942351174232594198847690964263994017363466815216334705146790120245259302760391571121173210094798685339648.000000
-336618596352042799600960790061455794552558213686038172534275755262875783075347158931157829516355798340893541024594364013653360902144.000000
19266041167653348420633975097711994269452998077588195467116695807481329677251234072011069815054823915448450049751386697709379387392.000000
-50463781528928984891044805522849582415385842373910925458520817294693239584583937194353917564208896512011556719941991405092484415488.000000
128838556539793334791252640145865169748933343967052447983170061584974323243595479325048745201624607995292700110616183906264552570880.000000
372535886124397710893298694806683072747645664675534929523501595929864974005105044578661751226140307543952908948448061327378936233984.000000
-53455482140237161622035882829450717772656424445394392739209044340214230829876078658360000488725371399017723213784783205343669780480.000000
326952371129981154885394971397505004423679854831047855863864821019596470295519154892867210699311935828444299013964767606618019856384.000000
185454103177369882483671113050924234491830156999679356435081052296129177572716351528508135748256210791969572511707300034061654818816.000000
1158520484977797183022958333308166998907667891651124993179284206828182330730824865759945752684021385829437066905584020060054224896.000000
332215364477089424426833212012350900826351344041339176669718400719915834893700496673518916386798903149293670757901373123095150198784.000000
138316543310653435017251841878914389699690018436585904283278231963871904253156889789907451175308637518866323686937167835756910084096.000000
-4792459664417526855188728767427712988922839113103080687802444455359748899006173206563622684035979434953608596084179917186103508992.000000
112091137112825891618112097781923295226377364520239166257004413129146563018926383687902349910306284671084205222798932478122065395712.000000
-81279085983155893592290462590642885997968629209754289976750782568499804764454022691650156209664224888732099577029690571713851424768.000000
233954425916183896840830648315132193023246494623730565005319762039920855231196572276018953313690542497556285885038522233818795999232.000000
285110349272252033766693366999865362677252935019460440323153377303330939632797861610911950497594504716582489124631308041907525910528.000000
-49942679553611666156823344944211859550323653958431410397721362995661208237824426619425292261316036244638206184418471893356494454784.000000
-4076687020902519173184985292505189252969131416779154133827944278462464025135820335937836382849698097441837499878947329553341612032.000000
91552039633963573689410237874792253642807839928916156957849428050817860225160692570046107286976333505580362669061775230450599460864.000000
170361535792670280785191096008070921171817107869611266169242533988634040577074682289878291079811536963213339665832832503443940704256.000000
134742333747668539265432755999973466008184617757705798341221171136226335569941032190275738902308159168329211015142464091141762449408.000000
111450359199355848234559951118177343186808094873524377346277628103074624743429299345151158551888504551931035335319868414451106447360.000000
8321286430923514758009134224313131348612146437140812706977085532471457509347761088690649865830082241437950150122384309602194817024.000000
-44237990709209616766104979012064063032497683646985416687716851225617432834784050006066254179432908422826640370833907418957770391552.000000
68682757406749326136050972927706403964279043401468963455982139433434721075081491749981187572962896367717269713389241649221980913664.000000
113636868831264634934231988614390766642294592581338546804066558657518743575952151428186104644845386928908495026097852816711170916352.000000
88359016668243408219371411514559703733876090946300070531108335553633454192145484063716160393154173638228107755713229080863094865920.000000
-32677090325617611590625139587858672818603194935049390354467876832207907667076320791793150463923840269783438388467925944233709535232.000000
-30781631791323514808334715761164777392291420535678812655143400172551227407533458347740341070411356341182542520453442183055974334464.000000
330382581428610057933645255997699459100897374150369572341026506956324962742493641491518222092760175453891224452085491701852292513792.000000
-5659512357378169181141812439755299012951115576879755976525768214766151251957445607083727948609544301341814095462226897307233681408.000000
-149527178554625092549304236790704479436603545193987525909850319859411494670979133038592968784860448629889769908385180342851108601856.000000
203590202023469425499324448622480395086273684469040037262077673310885429461848916103887252328348012521108322511677914169582563622912.000000
118145821496139615122185314575610904164576327540051001806229064151306382422655922140629013284959175759120367204829348704672009945088.000000
568900438815420188988224195804987253447278126167275648935166985222456540740193232307611040483954912564146440776994447702061697990656.000000
-10016656919289769178277587408640055203895393047781254261029789668005423975860886409033368715084513307596655789873185378773810282496.000000
13260667230189409552924834141508815677704062257229992189276331566746543956549847432315397053055337129495890362236563843350903390208.000000
-104694550655222894457788109953211816367062362718407441739613651153838768147820333379837471016502769303673128737608231716656913580032.000000
-32707149912823061687252654172859710865775165962725116277276667041935904509001171354289064428551826507530599251801238534800766140416.000000
-65694886613891877013590487530916162448459618977260561217666404110008173185748835686622691448239169162819397711210868276567096688640.000000
61190612903951197036516759427808600751998533691202364238923806903010758550085509799727833393859665409333458791436850922897677484032.000000
111488334318504338469695722088368820269109544986966919512315975950074471942662415510084033103273160282769775357485940305104050585600.000000
46018083627263491005879648344988023531267906754578541914346937420230649905683478250053794392273275678861657058075137251639419731968.000000
-45645688822486487808890758117859733127145449210267953864204772508766525325989755829582750601979955584420987031409576498733787381760.000000
-73802250421794349804276291745200953790728206293251777321040451733295010712972856904121919933129098168849298327675551117926039814144.000000
-28522522519727394730217441983465594580812055887050735499221391382836278614364179136105497350210870796207724895059536194494087036928.000000
-22176595690929933551229718958713901959684651766216986665527302850778974211967877610997989623181720092717188503672942052118735355904.000000
-206742126596100952459266575428108992941644201178460810533232425316142275417968327515399242370534820011028114540111045709743500820480.000000
764585325090732363386463521580526064058907249752784608248030099376704895854314608306750846279976070108384385675893645637406687232.000000
30521220340921686183627347959968625692832556960290316550603179152993689197598828016152346159704811472569597741963303554097115824128.000000
77296290900987641827955807145990094091509674529027153675070013319696670825608996761613817883601284140370848041609583417905744183296.000000
83659699348791816256747197179692297275472301258099730030537373922650317997704642437930295973546811956926292994310608422151131234304.000000
-61809494990925842448750548876125726483411195505643912694211545603177385283251293597792335271802507467498607117378543498077814128640.000000
-148345327965497998310258409369540536468074944179413654916302487816785759403032143357466657471373039653908179135166864613197813383168.000000
-83200220335616674762604062767128576274169624753007077487034811592026016286166638621621133378677054306356014010221515216923280801792.000000
70014320382420453851098352746853477474145065660681202218808369510121847101622653742348371737645058170146178504485523768293162221568.000000
-141600681691150495348848278693374655360606956123091935520514677989662551703572468297029884641848989505289929024450756932758986031104.000000
-30702718791272352220234936755460416082301308829473328739666273005211750320131242208361519555474606762003768455913891344325902598144.000000
185692985837448982189962924081243629326497068630964611547843041618893733697935711745396826287949640303444232519455225145334385606656.000000
109289442366516700597247663141975547296980233241174797549720325291330251490097515505099492083785505974656669554638463261045134721024.000000
-539211632804206405824356056230647389691745283846604761879038220964378693083301367297938847095120294585751229986632321908801439531008.000000
207391041008926194312758426230681874200172672974964190095613038732213413419844967628169035065832935114498969171628320437087961612288.000000
85491996564806813060221109364492269473209927018005175123176113738047202516253343871097173280074796500180630755410207832831831310336.000000
-72406412600384219168624775960875783564616863091648808340027641116386741452707934264078378813380974649854153023062911450450499731456.000000
-25569856300787812230477015563736036705021315117088706290244005772009515830246132828447798181804772710106759634439732247860627898368.000000
89235313329163202040329273683175711603967211023622241621718759460368415216232171653354654135327158579251115706565173374764718227456.000000
111552872416450622728656725399296134423656308598656480467442642890793007949544879187249882648503032853914376779714221534149695504384.000000
-89313536638443519827684360297655582116606232566297390850551497727254262685918722408768029906274428425916629759472407064035389865984.000000
165371152933292881457265710540730764720733143594608098935538952081238428382310718485994179919618735234587127465181044597368152915968.000000
247473672958677865614862535283197400511593182000386029999408377747291550509269095924963244510292978924684514236935526064234262691840.000000
195401247391688806473636263853259322102905934192390039612924777216750194265391258870223406786958565948193047141563757290801682448384.000000
98117681862756742888498664706660937480392403531807127770350873342635241033733374144141616940149257142586889460708757440024230756352.000000
149397408772642362947013232083668830615947269737387252064465798854273804128869925829483811336686723081501055448209705492371187171328.000000
119721607054434899456740247229702934517880139068532627126049838736912879965415498434379670649842979437978538209767395986788373757952.000000
-19829822845968034617732921194801496853064997124913303128022554700423629163710763350630224219663545604004306454244789084261808340992.000000
609990506386146378205862713859247201562345624186598589829972012449118596782538681645335475573285374445167564543991283821852110094336.000000
110114251273419833739926743692113699609363211181903040213841884404179273188324624334077306709772914603677920559975256646283933253632.000000
179515560252946235205844934315378099723231305860764698418083013386236884622616501254468473665140685843496527831508958294337839431680.000000
95950875029222401689169581509674712610338631116601291758644184651548089975402176204498475381298995350590321715346251612188974252032.000000
-63905011332113600288823563286203073598825243532602609272862690392492243445350229606403352562122995853700785752222922507558252969984.000000
125665125144522136208237499848761238243301351946882526480072301167619363009240000565076449785387924306515828596834897726137507512320.000000
100482958082002878590451883209252822262722842603939055962035433792629065599053585086261117493583588182411957513427394818441436200960.000000
508257206698977478372386517675699132037887020261583503538356395753104339111369354358657902622746035094794859940025823104999847100416.000000
-141392045998046333677106849574439660893116778274827571336882710802826731235412408945225432567132734386764399762866577548754634670080.000000
-113683204853680787755828243962795878257708343962058119464280908643310649818531192682171339411162414828244429289126319249232821747712.000000
98134227159713966849445809995727805684545795630473099713920119836226029394805823790976131259453714381719359593306345619693104005120.000000
90892399659234028634695840999016816561331975575269767841294108949955632433535073519151371437042585384895520452205104377522554929152.000000
387511671502328775346426887287559874441787825721124967440096198823206091148033811515898010696261035729826825323611291907696808165376.000000
-53404213245531028916754390020305920228374998097317180665234012133583876492751964216550558712704448749184581745963125716416001474560.000000
-58460628367571933077229347555598132655457023908641827857348979497337548540825780166095089682630608545179859165379975303900860252160.000000
52130252583526129587551799078505506066088580030885997828832025238291366000627442490506716991779957465950041466632798162048681771008.000000
189375635308550582756255288030951927200322025119284885619197411907641229379137664220289970999055187803771620040635651080756544929792.000000
17103879783720413381284419248196415945312345567116102609442980180750077528937794546244719506235528153252205348038636278359439441920.000000
64407410758506047205756557073300112121204577432925058209188785951490643202116947559130443984647798948845912063010900059811896885248.000000
35000577413655557672749478360632509665053798512636808102013352998973492781895710029062971941458975037675097519878131483992450400256.000000
115209910523797666222755678970673552477346868567841710501156126904365010527463949059469905336600372284868018777234473906113112702976.000000
-29308867655141791647612652547366775058458295235608718447214441874845362075403281309857997391688235469831643383721148858033537810432.000000
96997437475649972588887317755887766977040988319097229708052025439551737855842273547242286895356478711577052563825876246246608338944.000000
354444086053042869454571152263772763091246241291064527004417831068668801146510656614688595644680482612828535128550509003687656947712.000000
-251550914882386742854069732770317696158299296664704734612983498823998286033912287351711361771392781287966751811637136338418439028736.000000
38227227049738667030701621427963929424329087332290516857000476816289079053944606452724638644896939427498761842496084729292860162048.000000
69927622504301464916163105413366581225493384157448223463459181276375599197437271058066434956316031706511707344147078913197206405120.000000
-112708277674740904511680088213276316282829233541406395126919530909645026840596424782445618566600210644141726279483783442674575474688.000000
162564203847090226017463210916581976564851790182145369218043339194970841757152832741643604525063531613193561145251027809972554563584.000000
-305020080458748845835041668526983269610480210087838639285488687887222706618941712866973477094472724885527438644904966624972659228672.000000
-19798440061123113820464262227827797707607915209043561810172278126440521998049273912853771285585980165120502869904909604058812121088.000000
52050805079012426873840164804190291053720266869968216773466709043582513437310082453786024984866953070716641142361188879772317384704.000000
-5115331417584443932333605845452726510168462991651659951367864812224719302037596887513809495285605117003976049240272833939215745024.000000
-59075606707033188258397120470617616045098179552077076847808742119781793179142870828378839948880644300538435724875067259214123499520.000000
-84054425386334636050234677119857779817245237038930182054399396502035564283114731084992808426874393922596435639910795106624202604544.000000
110983562580843760555877770833024842419868916897854652083132896436385347146635629345921945065709630534386219807514258291074292252672.000000
237667313099310635314050420541613973535271121390762537085884990760021878877904235607483548205554761445489456827017162382691214032896.000000
-151742588905115566552879460321169586990533075255315103598423152199038726680993296778199881766956703434667142254547732462726975324160.000000
117828254723820214527907730979096363791248809933287172474726498926125207923030699962439005032933851063554748946886785234601850699776.000000
5664536808044932150796761870277252472920680384221285385284141923794490194485160031392042036839962635339664943631440533892687200256.000000
196423435018992121726641169672351063925705798668739843247271812169002794472802970078082397418055338084460425071253380863271584661504.000000
-87732864018020890372794657887102530703013548017951081670712987048642115447945557332544401318217860335601843751310360713256283144192.000000
-53730597917122678135437232646920221216329302726135872878793782435367600031973694475957567017593862710164588916318402150885717180416.000000
-233565944296325531237775470016333500796155761133164342795666215334865613186792731043859956292779476311217877309601525875354852392960.000000
-987808947925961659003944633190884964653397558427022826437714871150361353159023040755266877455756549166489211573677185412538487013376.000000
44490489041507223355239855995465984549567636966889646051844194542946247254039429960799835842289218462079666838578699731765597044736.000000
-59259814668287002405639668942729609360646441961606888129424574239332437173698498155016438304528941721774980756490775556444439707648.000000
144487128615876944574480552108592254612625826478401612436862110835907042703742777184353589200792960572650250136691435704407398809600.000000
-36340383593399666686397466802580133065167596238813223905788493452937896550916160210555066462992864106748439988421849174489920700416.000000
22630772410223782550230932823416376872246765427930903267837534259917126483530648626171807058859793196529166234354583932759445602304.000000
204794974640652777624806692749951178254848923566068095857711945269082609533134547329424829406643570474990298077422252437978444988416.000000
95574953168732483552119448977477215769384266951370887005200569909886950383395668576627257775896929938237935345637449390112540459008.000000
-368594310443921529555979139612419169104281641393263326720387976664997458520662264825071412812801558673603004245627783820689864130560.000000
693154901458385862034267522034154437589709197083701760755640948783708632244639081943811756082944296579078028858855743969032746827776.000000
75729696269370595191380414816573665927116061869799752087887884000608212190228809399574523441608627593574098630656313221782066692096.000000
-161194354797569215181344498031336820847639612491080810836105802850213589403704027453825490492931164195216104238045232664918362161152.000000
40645333760804053039726423514713130734790934308447675772449598655658189514719102834379540407889906787040170335772304336456150679552.000000
-93484989828852384205660052377753437260884244855549362266585857027943950261711433739309744286988134469101365312809406247708114550784.000000
-63841155887038335910981883196258370791157175079064583986312861836005150148591656562666175787417703869438257994879823053606749208576.000000
96059129179184538769322164082775721356368292734236533369846264320792117936792132405099244486837449145302348322513174672483438034944.000000
-8695616078861900023053255731382820047086290493164004724459804478977976277732522728773201088359675873622073854675587508473887195136.000000
-101571329351633241854804111894570913094376065862738581893996951341772136251232663921696842217131772283585733841728461784656191160320.000000
-99241179352949804743867828552725428998711096440545438438020590422184789337758165414601442262565747766706176717184584915924411219968.000000
83012650545294626597646382592962195253547462293769467797062695840327375404111142757101571575206065058639694442672972711068503638016.000000
633525916537199286699440833825114656896295659398435655481155905115222957951743394664274077080526829988645898556035075706170095173632.000000
246088446121156784069021681092235327408552739083913553743388437385278676017213824559818561594882417519553553421350666110284739903488.000000
213889730306068977404464740991635596416932647529688170220063966820651759900461864620745785291478545619902743711885060793125562220544.000000
-356769399298186050677246963094084927677936778832394798292033973695978284357885800598436259805642181481741731563232546187199389892608.000000
230283243056844242879346847107923710917210522438655164392646524838932907197683765632050448529404341678753642305820250581182143528960.000000
95878313615295209296204503195562336341548271648501688928939802787359311346616312948503670600805989988832262351430176044777352462336.000000
-107510448074185559269592110466502148242064599073787647777431004087962953633055182857669021873956003003988047372839545078363510013952.000000
-350443336661078389000674767038611066543261379278856659717958259473182155014426446576154949467749600425117286689882631154347460788224.000000
-283712359628377546788146471331003094473245331554976131814095546340743919629071223746724722993041476975160751043462205712636051456.000000
-38910452393035030347268585818634076240532333117760049854441573431016348481527926054054481558920905244739006635135974384941177765888.000000
-36412260264504925228456838125009162429367872136780063399739632677704688706765093354894178305749336593861100812613196937344233504768.000000
89453268703242408157086116887465393181212334964342204528082535052519045702859968944063127483796625081769181162716047322503551385600.000000
-217428166727768619094041407713535675861806188148800578143530455582045232579004577264743946442680354953975276762156115333306199834624.000000
103979519110758819787832035353997985763159255996705846851958507653616402535671140503257347842438657823636717683709944350257975394304.000000
-32037065017109812044668170861236600251535364899839320046766442680809968148723156704842565665298829486802844615848583830875756560384.000000
110027185952118454405378535829372301766096390576582031644883071058815247897488306408426393282574461731096646061470652867750674825216.000000
-1596160354456503315601796042644732615175120597381168524354253599795838736442905781432927944863749696512147357934902959941525438464.000000
-8570622170294410944757767737069767835130108498205891870329611933524737898414550814334250959601017212257401819666614481324081152000.000000
-42640775837407187092727936065955446886070596211935524294205240380788648263607005087190997214513831356099014945728965190741791866880.000000
250043872841371441465855839096365746820951616814778079942158433755714258787676448804964072811362011213229959485725788278614841622528.000000
-114100454957812683718075924572485394735086895958727229600241355224971442799535430545819729622396814486222642939339086142687219286016.000000
-91546619228922101080848314962510897561116730080876084276673220947011951939438263463222101942948423867230647761374820548964591337472.000000
-148979405929421922459349237560494998910773659915066249561200273831526294098732629128074163526901349578074905808338516654769842421760.000000
-26134154558877716673444372903889324997065115713445826835614209321894274094255710064544970917062239345538323532150439063929573343232.000000
-31236871176336016590784767707256284871961022301867347644063715718931361660968324420401762357763365924800459566011979606001813815296.000000
-188628626732326537743542159718028073831962574997687922751216426748014642925763524117559361356862331640354533988126294184804562763776.000000
-141981601822987272684835857592779522133080331487035904216848914431311748491685747553416126029413180780929717339963573013262316339200.000000
-145777167896936619269831158216585378169208582210198944114355795147920662692657335754333706828639098387430894894566787830608992141312.000000
-179916903570982926798236024438264378736273403460298364799232243793452135353115437577507976340858632247741547881757309690028138430464.000000
199681784841482795459671940876968622840419506738984237320390053790974277011938567356505871399303216199423788828710686617193162997760.000000
567695933749884993702488344024974497478005956649194649421350699937929413868735287518621036045290030553826365815562958579007951470592.000000
-61600085133711313248637792521195970843376043773219599125088261714547756669887963679382754702295082392076703202451568001549831503872.000000
317854681933602923829986144582801348770560666616161889119363903623024960585179369385150573994488607071230129342510284119425857617920.000000
14605982507926067856620918878216672983691340769032511471660379626301424653065940656827380955829489457597715240589224790579063291904.000000
-90367160912106996346667905998865119266252456418815187186363734911450307679698196601646561245505860800349515062948723671104466452480.000000
69052949103601606789173790907700067841702698411531394650793749480691984306473105039485701069191162181442604910410214343971635724288.000000
42282195753155338268769103303277308767034471420828524663428803357253842536297137275618030909886798133258295764338476474819915284480.000000
-89880472913131912934956636879664281750237685984200694233158521056132228751919895074070551820294348379862122584194687489842874417152.000000
162571448911384468589217999307868063294260971638757540149609726260670922454739873250719409799340586156876736417383429073336803524608.000000
51346038421710849023680265215958799403980577350654149979383037374769345134753422201806847691986194479721978396781753330914589409280.000000
-79411603143019186987365505364136183240191672101031436076980727911753706607319732700617582516966873884271492505928286759105171816448.000000
-28921235314650897587455293207769173791048866983823849802424683257295143727904053881227956843299027394429155734219605955451220393984.000000
6389603358449471201524751770048294458377107053771089073100482258157442693750873342706425140395516226715432328572606610806788849664.000000
113243248173444944346462776444716656102573636716649544796674447898264723398522823536636525964756295065656783705872550245103235497984.000000
147970829395769826160130419917364243523311240543991183578571617685439496695646581004078825182341677389424793839138388898353342578688.000000
-264437185597483772344379842529842072347701816489727308041189671253691618611551519046556291494653894267737760166002359426432859373568.000000
-71421228908180085125353740428399190998242511569784052811586779663282550120799039401846488707318752445463521590621748859186341478400.000000
36085297106305525234454872595084162578281285707287838721568798776998606506447431328349311275307622977975494233936544379811187916800.000000
118272891383896873638361429712959797057092906830113051941317036006506765822785988471626922171708049287627776133553411950013298245632.000000
-23929474287703275497771274996964107466516422882844770077218166572984050783171628998416705565330901090926073341605993201073702043648.000000
46562929941292808409883233748276404182019738296656547088860686377756116488739852104310652558088316569047238050353908947597523943424.000000
89103441353924127752022730903166613224788307534401182866430230971861011634514148660910378852540938929180747940927945882611444875264.000000
-86600560861235666776652009908683664296964741694524505681429651340700016990350895845780223213531993317036738658923109514138064257024.000000
-238056738048958950803449078141211177209903441994347918666268149303716370369458480485446757379728332647930411993107986854156504662016.000000
39638754306417309748469811060391582235612581087341973620469603408089503890417281815693707085924856226107100376577194287760697982976.000000
-139266017671979883790131543576095659480073931769291001535188833719376372683491401137948544027866372053075803499303453713252879433728.000000
-88101553848478162724141742828422096953144286550956965156771770751769501178276735561711548262074178592419874912085726577285025234944.000000
-37097260481095218867124939415904738509319742046011349719106346522711176215307447922211358767463447572004327600911128261485693763584.000000
9135364864335520990210808400350379218024121529877329867140333267024660412251889206192533535007975914081796030571582756096476971008.000000
-119824575216384742509687476008343485435548562318358518137717985263459133479316750494235071610090424716694172461951878958576715169792.000000
-299965121478829123535942233268846039784726149327300840548058345110133147221518905855698868558833091203927051253319946026760158576640.000000
-68269185646484058719245235764515730741607532056516139348070618145018485521389259054456801845403797779703991376195581653481259270144.000000
105651036464546520812119874171122351273108438007278617899747715248126432665960494224720828660365621801870003668367787550872453513216.000000
159723155800260272053181743228667041281105622771108774143645168350816930479135961927086517118731692113159287932975789748472355225600.000000
3906325410639211161038182601229326093116373983705019876857261743213424598752502243503213333839280357328241837622406015857121558528.000000
-109954286265960382978035859262485662101752467486639576403142272506895515601395583281795652562867407885056124957526032736699627339776.000000
100380092677903832401358950340475209625998464359054090825556559234951379838055660997854008594351647111266911564094725543986257199104.000000
-94971730895763785350200868605445796131897608291997949977860836036214247694258592776349426222473222524007326138131202379868163538944.000000
-208408626841122316395304261253828730083140089119834297931016488219607279843494569356089632972185857758392595504119947219075145400320.000000
141284852656447577998063994667468168026205201552183468316615657598140599609544082364240055426292825739272120142053978670086389497856.000000
-59831677445526159032752370454946177179341272908460075914439887752524051900755088485834280808288417616902742614032083093018747338752.000000
-107167742062384420773460517699620150447122084877268226215146856356018066868271556760237815662300213839242555476950690133614945894400.000000
-38165291817773769683790127327107124501830032566898971235053400049905029580821430964074256771231783056614638883253058259706695385088.000000
-94980096688202416143028874018283316488381680258944850766211154369126083196599697685080575314081309864647808943727898962098768576512.000000
-8503333639560904599025574981480891416108672295690715409537770304494694795548990243416526736514126872876977244664989906992944381952.000000
-86729266920653932330983531031325846151168300609779123902196176241926430687179898207029756158877626213950661677641726391408717201408.000000
-334609818594211649248632813999473432436405265538391299420448719119614042197547409478222218931468664028588182272341867038934340468736.000000
441598579258698414158369491051033317314786294140468632115222253298438611936770018445878585501111807054244595375757140028505586663424.000000
-66527371598824394898206912132633893606616533152889412717670236509440682548422327954428880794101362486724300815653016671808821133312.000000
-47880507518244784737318604109616202939296336834302851487925786256876848308091550105949705664723504653910775112334776214260430143488.000000
-16293849236933848769765078321416042886678003279680470012045577860491591558227820391949058558349715710514336244585218182988607520768.000000
198159988238085084858727044656117052175327158140755131512015999506760963047203867762881457309557068041612582463023896897659806416896.000000
8162461326731684738846471737784160332433938034288121184068484478426726729396362887622614950731619407970101900920315133134068776960.000000
215179778987187195298368097112480185746818914168604134149134835422517197796897753319125216761599666493993658436655394233461455716352.000000
-223745944935204110538680620671097274528120361876469050365001449696611444612328225039995023487450270609477927833299086033407159828480.000000
39088025775953073988631899923827313300687006842636843614416388976554435535632829608821202100246423461297305368772376270788894916608.000000
133339275698674201411098953563743755972515299228778885246616060263713525152559658867531358306468897113958496033576522888428205899776.000000
-22538230320551535399645503525717433036922045611669492873496074927256326787029397871893048155448076283312485150328924903716226596864.000000
-112715281261895427361036680039224298839398472292066028859693285635762389674870934704251289713004253893210169529371073776313390071808.000000
32498776176256417905690676366974021954729428484559763889821192894353302640963281245820161871203227062344818586388556339522014543872.000000
-186081045589146203311422714777249830356692029111810119740715637578401449508875175403717121320217633219021439854234615270796026707968.000000
-173025889420238992024703479915695726042204038840247985079604692676067354557903865854607629744084261971741621615065169579168038387712.000000
-56982491997057582947638864111884111854764379286598463965722230825125754388812159763964879719553969148850883212535574377715420102656.000000
-108986855738594821721690377208037229782200473082011828299926773605991298563786736543007506348145135290251803130531747322758002900992.000000
142340928519964362947128405422893285140108194174113190500260919253925579181623009460312594124514518999618315149933065394740176879616.000000
58134281880188487581532115320339381110537376803797330348198782266697652247909628445055989813276318111622694387892944048351428476928.000000
48982040824969477761606332416946310811406970045453004986724047733626179935750202317599839665321689639452800776937092907998073847808.000000
45620311259055514039173739248325959791917418457610652996265893106907069900910248332816090261605454838455451773056918977855843467264.000000
-285776970024195405303237657230197687408736771500503618049524405682532931108421601018353040992482198735238318603857963170303953600512.000000
-241298875082171671337406080091714290833229783030053825830884173512064787173957487204676702728317411322912135394561914000894827954176.000000
139068594528737285698164648188716597092032821358378406555895917970026945583629896642065032467845769049775499159714413169284499898368.000000
-175757590829798103434653458389320907704737236023125733166510908135206817282543887753185005054792370713041379257238255616005645533184.000000
110176698510094760966892958064399126426129360487495105696639387620762905202423606184427354528116799593843640421227660263968378716160.000000
90151401859626198370575400054685769531829621403741022439100998857429768410591397947229413371531610340525849320888777229244913680384.000000
70266036187563990362183751188592383980869632013501962028658770192665956183644777393437642859680488280177216763927986427767761666048.000000
-46793979311053776831121721500580578933774935877899629393706602735358984160984563914510218105717001397358204659165746776963345809408.000000
-130813037500389776000562506393794024706176818149665985684598216330710048705151911773324929078047623495681995961988482699930867073024.000000
-169043763103578747410450272568715418374847034727597243724245676125568890257058122867026379110473680281123313951846191033759752519680.000000
-1201702103804201435666093472992752857459104027879953874260187896670823632159021199176087188587376510118157532877880390499811983360.000000
102978145991067457312939379013487568977093481275342362225865441830661738028514914537360595078038904806997923862651254608088818253824.000000
208426108517576110526286874500582955717422046850113550696037714198035533766808963338514591730463032593023956619465960315170775367680.000000
-150457803496905792640781417117345631315642845002847289914968536738964883269622367370010224150131936831422686892762569189108209418240.000000
-64245175043839365731811433042820079231059560936937452777719057334318805572164648438585785851005729840495527671201627950263459381248.000000
329580682687690850144375326479909670216716089740975628336279951385607123584946935453313875879024664053961184382542090626711322361856.000000
-125768121344535324031921128728448741471737885413810764230037321123358053494069304116971360447154126189562313612541182597075566592000.000000
-160030727443501328427993316647189921797661112551246740344687917404082574701212679973704227648540982142364931126800544960136918073344.000000
-33255886066747741584962736805031837257121882901288086885118203644408146433248372796636347292478528753264355041071682095920306978816.000000
-227195203711126698455146305385684225177672432639649278428818817266946937161943311642874112393941754371378766101139442564623830614016.000000
-116087628823947268469256799594971780769317088024158949865061735570095566260684493529027921394564003441559179510608197023775730958336.000000
163685968839400180105462025391853780171401232831458983923363839220983666912688451387916727302182102348257263991266797812556134088704.000000
-15014672452705776016012587842114442025108815635440793373224400660205469226890419192513924415126581885123317196013473196806233915392.000000
137114775606099864131970022110113444043245633377305460672004473416304391133154322670971743234599934179084895766776507030869574156288.000000
84064819108166043500955144503908155921166069509182773332676455805544124731969174310551551246753449981051348539410911958308078223360.000000
-72796817252351946305644985398706931933926883528696470200791555537957608443405772316188566233092449880045550270035566309496747720704.000000
65971258429566839012748140551778889120539466539700442442909009948689688813121630807688866565728139475459412135949727317004291932160.000000
-255566260305262586062801363927743734060394897998706314450503103510917053032494691024653937507455839922758133985250374333186982281216.000000
18790641358187981161550630880935118460088926450236216663586200250679779789989024510402783479096164001087978160092266248314940293120.000000
-164765941005806256662257584587783529675201521907613635256619346659626936664720022105399992129131721184727635014254697344705125941248.000000
152134347002192021288412671499558730244772936449128167551395610826115690426843837471207352752505854214841292421133839907464738242560.000000
829953042179589573079368725917387971306402191245848941201949901406332784737255105201992833604774789589434745486109097578268196864.000000
-20094809668163199197226097440460620676413975260087802018628842017572409107810273317645371440112639061224675772389106695154639568896.000000
-172201009600441873748353231833868837122874824064708621800419015655462135256012085546749984121274523607002767229977012825197937426432.000000
-54744079057534671928983763610955937118324858156506731341579891093371611365741425020511150486725316433586193782677737052159011192832.000000
-118122638908538541412382153688096633720903281763798308508234036193309951789310741913141776489714458859648307463801303260526320549888.000000
1926561542921440111843367318104679530013074386647513373117406465165581753507541712031412898638660874250803230418020943092013596672.000000
-181859163223512279561840209815379265892774038671274118131111580862562568814550350747344155496646957625821844851518154970997790343168.000000
-14849223296278629099374076835901134081573641245108722226327849096351698390264340085983130200541269807769709818090176543910197723136.000000
129832966056933922205076133443995831415245856872425128158427619011581812109561953785325164870519965107045740649479044600123602501632.000000
258310526527809897535485755362910376740477073865870723763227577089896077270741532295684326027701111758435582147633290823224384290816.000000
175775115689712877081052004917690101255448076984949938730748451481534299390534939588957268972279551134897970987688973091895521574912.000000
-185017057506311485067215606619245054608423378816259253510438177578257514885496319970824203917549253057996353571864539751184154492928.000000
-22213954599755774460146796799683113966042809598800029932851571055612740817549605652875558158331928757479313555598686109816317804544.000000
-90323455499336319671619239281127887835013299937081905760763447846496917676121687621827703713910664412557155622108421162148900634624.000000
55853829714453640189451306060699195128889723892838957645201353436302295682014884389736341153646275728372408688465897630198703063040.000000
-192419831981537774497276350365414933575336824822283313912953111539877175862669396049939363403245923384179134517253981752431267020800.000000
-104712678907020013097351686193527464866539460603357831298509885729491843830004583797490564750303881832239713258837256499395465052160.000000
8319678150439528543428905063970965422008953762526716079231459371428643032354163821271490150460087762268306563054446336558791393280.000000
-112517739075987604303839352040480648754906007832325445312008905345752527267985136680863915185605865214107323594688242183778250784768.000000
-169870078547702526269092019513089529701351117175513143518143690538782126852314774908008415249595352008741132445234882430925923155968.000000
-92029539271012851588386677969043846240453010523491433791107566241208118392716808287074324616678261787006146076543002973671499235328.000000
-148771683772286359757151915788089700069965811005550321788566097073101182063277263042671443885667603084497409884413045861070533558272.000000
-139441380366378442184565645379365210109351187036036283598138084479054038499822773089556538774412155318457042250122192487818815602688.000000
-126543252715923399063163865854724181782590089808459676795946800097078511254515778826933867599926584747914737533614414955527027032064.000000
-62770968882185928687293256595355382020826613937330325536297048563612754369341716189352276988802585334082927484316478618024326201344.000000
-48034155062364567996181612086177490154601128967628521040043830654892205049066927366482723825817328296304474521992313382373290934272.000000
5491196949628730232010040488051331407976145850177804224023988144387154893072439057395148127651729190158087523546941143164534128640.000000
-39281946673447045604550151609297008123610782931747064869373795463895763161344078873822256806606390242440784745300682850230356410368.000000
203843098659801668354097607115710895912209536450069826061185894124097813430112634459061282224768292337756101868529513838584530993152.000000
-18368116992715850264082639851287320804542550252450141984110092066686067895367394582436405718548261662786196810952926550425893601280.000000
-52045428849132704063937834133641469221751500775108731494930760667657825950743235558398389892993055125044254174811838065949854924800.000000
39510144876775673310357891418307083192121436428219759471294777290316649999153540259844972885862492685676914098820418436922129514496.000000
-116822064008393666838190098122133216795430638773410911343396377748370811551034272593850701832575254538251223569338037154851365847040.000000
-98244965447958432849526543627912684629885624205416192182148015428143161233663497987806576087946965890163449920438215779448789139456.000000
-186432519863029477263869853857382813973200495283413196679540260267064589263124400931328666533810693236168078700550384329295845654528.000000
-13259138087359552681286258196247182884667870643658724231606148281866008108162389119217337662394291277678194526810252699835048132608.000000
-82580222139781061114909112858728724738551247588378343239289309441902128136747921100472269225452462040845932276352799153741012926464.000000
117902438775714124759247822680802217762589118523009167403930408922653672207467193203685176252813680934532363660381238688525404078080.000000
-85959065416066196779456628087317840486311357820027437247716904504331702963746518847493025324019066422077156261398494835123882557440.000000
41059538769663371122939591250971403886129248207119908453963985360178357193118303578685470658390104661581275572415941733772861374464.000000
-184389986650082140528736559562274508901411588897311432327602391174833409008013038325465457705226618285570412932162551265824132300800.000000
115198016474594246415382308693035549909533454260761990726655154339749616361178776396004151567175098473446330835358183067435321524224.000000
-259319060164528601085871340488875358892385305737208510726625044121800179114512301576509125298431321088689973647315175105756739403776.000000
73144400360830610256124453658104233418543827013407081768282697886134211540825064221935405479160719650751321149024520575865176719360.000000
-267548007221649216751523731673116142488424502493615735436112376271448410355593223967844468793571725279478667764602331640583663124480.000000
45906323440287967743016072986202848415012926918863833939263011114283609999893216744401556916390707968805135904905678773151118393344.000000
134611848790499301141312346685727803385566053465822891970545730829530759666103255437305373537820328362166190897030570159412067958784.000000
-58401884717709545544292099980786170886692809058743990761186175110402623928158263207463841340450021002704370737740247292616302919680.000000
-27389302472174370380829511273126532459967981602007731655243133250745448779648461836313879562962807017300809584871868404006161219584.000000
-13170833489091302268207504105310145256618936962710175036586997116820069859265656480101484780402621516752891246539674833055968657408.000000
-325406527670972659210062149764191907931659804728629482465565874006158684295721117758063779315041982535814376282177763642900836515840.000000
-103915949507532059826383149205598591870043691639527806883037389880021966487938021814999642083160883879684968318462259060783483715584.000000
-5123002567010492563109240429241367664589847808389982466018777205992066196406769641183635407718650479318394184996228755992646516736.000000
-44113907505121192759795437768535760245947768879244264575023701616625209392096092146580375042400307590687980469008799275570306220032.000000
52145773701849467180672887715340997238196176597966443386331940541815647762984921348741210836293737443002685657358989019690842456064.000000
4460797092498478788058147330956894734079434323889097552864971614490068375988300620172168459935704298067507873530115480186657964032.000000
13524181004129591099305077213070959322920728547959059296646299661390974999464479282686416438714492701337325205608083211843675357184.000000
-145935260651809452135590461094250244732758262780103594547172319682341344319369990796413386530310578345511074476605109247044046815232.000000
-18882707172599682057906064622916361592319162885416612244870017178851948380291863677678586285781747057934191989315820851796654424064.000000
-135131489526628777620429621428876505428423585668193453472363798742551690953683545412974599976945626755373782943266800163498674356224.000000
-192252549712020974108300570254906817647524427090962367265243766755830944299663521001220316301981987385109467716344634743770685898752.000000
-54680188577344125300805361623245529700434730783903328776497858865802717688860921919676098977593113588385955838384003033246149378048.000000
-122343512553556764307303522643245109560348474963357640101252861482102707362437151068237695055802102812433438618362168240762412597248.000000
-8325830044429808612814239821951051436823184198004192461093741514773389925694050429811066446309543685546412104522066003275280285696.000000
-4363787021113889603393669636717204903803176164607585409151515045934186309546723361480171034443716157682845145213941796043038392320.000000
-47779250353478694294170811189855534131986240679343039301057435065833668210231255990997918672602402695391627332808355086230236430336.000000
-89308752493650748562764260680313809581323246578690313475424963096261366842247168391525203649535915093767189473865153582725624496128.000000
29272436237099300293547742067719001092553648876220261218935652610775575683734770355161798815672953134383318298201606620321192869888.000000
117991657666920786453240476436339309693304767339929490614101906938219314775860343261616659327755267926138045893396988823601621762048.000000
597950882136302314715992590881787625223300510425560992237991204427060887824948790919057462839559036288537417313322746064700178432.000000
115654147313827983612679845455957511591770587774516254538952219603417094928069203514056275127314430795758865754658144328275843874816.000000
-30242216954086226645216119590789985217124351046555231233273518713105181461783659913378984398019985824435916666449506184057619218432.000000
-55456775989059087225162411871337298094695876836191684986629890268476231055957668285680914894275569676963187927577957100572114944000.000000
80942281196294326980812528587696345828401942795687205484465769898974699056686068512678397483894704297651797371580012594779708719104.000000
-49954466777044233485622595413837080685421626502189581790934527021991038312908820554110916977983464079432306363465709737979446034432.000000
-65470526164274023616603945929663219991311297936761053636485005584882299754763442145173014016287997791007290201798239927833653673984.000000
-161925123684359954258668624914796715280655372058850380773556147683577339466703805399135780312279916009093091979512896122807616798720.000000
-157900006048047324000187511976128573645371340357832259780676805027460334603742199307636349983549472759048397357660524943354296795136.000000
-186416823633855315343368424846151351294648293195479290999559557302314964291651559388769281019808698449227261007163876631610923155456.000000
14975248153702571258707696336114368274123061879566861673895395859332741178662900874229752532235640547365222069692885560870054133760.000000
-45520933916419093085218766038982222991318119690161413279959867926274380628954497183458306599879918426171994718687187537611506843648.000000
-49119792731625965381365509644252305115829579817484389438987797751756888661342293654027909774128782736799013755222551355019197677568.000000
-97639621776212292774292232889361247178179885035051784926551102891503890613649862989645461805789548728952651008503404250490835304448.000000
-189436402930146521933581293850763424033469061231332058295196208555327330150479158670586381501176529901392708373917722139558718472192.000000
-176504671081425727593973535673918095650027144516127184998566858393058372713216119342898040306427007890021700416170881080505948700672.000000
-39110931404867968367286807826455141468734520583509320328374940267321140615931251814652172574781288878054873145943854105566652661760.000000
79041175704854919526706570564651093765151394160994279260938097222614323416185128602594833221463391579016664451297800152333175226368.000000
78228150682934443071229606527934272143226590207173880700392785486245567946463451847794016896716206924999536658742455199124617691136.000000
-11884132702867274275937045761911265630335532305184801859886186214488236114178505133816642951181853154914474463090048738587075149824.000000
-41584787071170819452065020800237147736334693509909800012339468067317618333861926861259462587110295385403402224278267437018431619072.000000
-25093457306153488966679087293976176175228806040626661303279639059866172799702038788164452729315738081954602698167308606961098948608.000000
83238336792052923490605129205644813915997920943246759019187269200507174375534520772404762973470744352672190808371310007128483168256.000000
36813233095245656162482061558204424204516351926446182440824606304173959032225710626206039887488518292774607473699034748804109697024.000000
87397930678930561348967008145207604198399880588687095201623728709560236504722203611072110506127210352846047734499256581316908417024.000000
-298704568577702962914687732421080622581592627449490822763183610776014977549797373929723878145877085213020426261599214308208261726208.000000
-127523076101494535581450729053138888496427329717922002051818731182115857921713244491745663004528768727396602872594360739766640574464.000000
-202290268468563739540893172455316242974193215844840620267603758634271821434784528190877296222226674604721159724432639394566704726016.000000
-33928422023980575541147526773755402708332501067046362699328786224140437408705620114605405588212318338955643464075636403605518417920.000000
-63696349022584997051541915410838618460025444476200063113248332073135550977567224826651546367825016764207087138833716357088533282816.000000
-321535673079785600515113376174448932427233577131819437764473205242388708957167959087147420062186250294405409731712575555755415961600.000000
-100564252065391292868476409733597180757829545693365866372301791962544316514113589362108682627144531263947701559501239528000187269120.000000
48134292190674107263699586571032792443220922541389572158315446946522119926614253091966102802111675355187975848205899142156821463040.000000
-202191096400716742457085055025330343755502847016406285846999285870655131692242145287618807967208967168599288051903511819403862736896.000000
21123202293831794224404796844083374566359802751427849037051538867639721092893031190065738634300207332417294575916845842201539772416.000000
-34485336600755985050428121005652424865395912419381637685970674432299951893623432344585263882716547559622375311214788301176596070400.000000
-224797865167208923892416058918766266901478123833434072776210567360421371589530787982129122329104857675542527879748856242932639858688.000000
82700377873564578446145459975460419969638911586119192042725343403942958744895990424693780689648268231068212331817082539243703631872.000000
-21195518101821929646636492477360318184613935117931942596817522757448633761707145592842236984224475838718781245095106739302310084608.000000
-186627116242669510678833683954949994143583983351882403415688398693137277398930358436605900947341543837038868229009939490927651323904.000000
130808423491647977718081034454208389769133438846387901608135851731762473967192940302540538169776747965666174488405320995202301689856.000000
47393091202408240048806458338714245474693367797548957537033853263977395938732854628662580080612179614120419560572276758278985220096.000000
-140045271961938195781440471002420631745814646968328973511941325084443285031383280276753123531671933182644137840869282574591477153792.000000
26505777422296383951519992869286952260359538426377248235674669026288915099166721271833898919797482397087168590436475912553188294656.000000
-65542709549342341622573243325924705310832250814249397579286588584078624744435774746278083705564219134308792184812252082369426620416.000000
-75075063688164434266183291987926530708841485559481579236671135711027207441482807243658391334482658261171138928360146545824243908608.000000
81292274349633837468970794817035825322276518960913908325782524082975377631384808775270073729793777636569440929641269225247268143104.000000
88741099805629998278747078930662843463514517195264889361588788633115751567234221384877938702458690241572252818197182742559373393920.000000
-3077222313729947184494774322785830073866095846559588333259684607468382845485019300025238279528559802289920642312883337628858974208.000000
-146196527512066002340563805726420643510343120129491287587412790900561571025893496243883970587292080804044863049667229018310473416704.000000
128312988936674518717967838977750699485848047535771057338414902219122833261306791047937956942357920666141758210870404154444803473408.000000
-3524025489533668105070460490143080295047115751615172611014564793047041456379036473214402666565370370084701479587008551800170086400.000000
82908551365660888925507150054773037543927676419386492258388138529375454215002109704170902784480441917227533150041401876132380278784.000000
-55310719518287975385672705993775162719681448831986888238313256105812113136934932656720744658499996922983957938161247365986298888192.000000
-53604286300931705971539359627094968818319473904805377428800659915830178387254162165204888076098119751156647029129047842394065600512.000000
-236104615274234380170027325826923914305165566128409999217117429366837194946999033030389531814358836949086179678931742300734838800384.000000
-26695669069932721548533791289340118322746353631446037627477813793711325892652634451901711178447412378364472154046656795516176695296.000000
-35067846346992362748413537142995129735552969755789165575818195309962457939714889525910576921671703443917402217058406332209024729088.000000
-154486660480359741834846667610797375265463828501275291206413931530033039334028436677022481231903378848014309586068809393973908996096.000000
5291846682400625831408688324851453873877874808424248858266492784130992372487433146417544094131287888805561236579871626898610061312.000000
-47624469739408077742294830066160646286315786875671081858714143849650344478785480416402894562397198186261090253828085918037390131200.000000
-172439346460855026374566477382822140107585095801682927180968523137099732503424003485576498118118678686107105420236242759252183089152.000000
-204251544095135722668592516059201966595918720536352240966938597613631253408212580520747756990640496543758238375401232120362131521536.000000
-50447963843927203993252231456114320538800907860961736861322867793550388079401824265789857232791482947900709651408917259272541175808.000000
19597853647790270545209894932031487605184998668123976668478155335360127408870190355125961088300175868062155602336456092194088943616.000000
-263275001762959570214159468959534731275916546326748491399096792184122547544260256916632836594690443294845485763977349456613892685824.000000
-217886499268012498485068921189587585251746777912824655945585360889465278039518261385639651960077510298193119928546212164799058411520.000000
-181889160544597589906128891900935234702164935457743768598772136801434138909233958946704313385478982460575334237437930068811433639936.000000
-85136178560586594075218036464705017410209628938293004713623381144019595876298235677334252847638100252242075703469965535515332575232.000000
-11257055001785067240819345228993310515656934175886780930584441584178670519122996307484323067715624331015755283678368884645318098944.000000
112014502695010306979266627802323268675428615826582925363694206306446583080332104580460744965927614124618067987863450402161596301312.000000
-23194441373717833785058119379326281977532883870929437445315141742752752716090478461681646389849471012595665205339752931125696135168.000000
-169561670286333886727709300041666333086672875460870005842216311376657863937538991974058299208151407966050030533399871793990381600768.000000
45980391160696091336111440746896436779639407742955388811262191589826346405782857751072500855454229523470065088913316777790783094784.000000
-129249501830438813613626313140529237043424370291081721147778553458867747878058897099856714607881712672992543823359407690794349363200.000000
-128061671970924084936468499225527552265609323036288413828806298171012533739159094761554969139889983272657869197377333128784215277568.000000
-96864097712422545479293663072313282249393332334168032040368704411247451932222712845731140375768650689289753227377237387753155461120.000000
-145521706910719792923339970888826286778743320539109512820203653253637107061368190039235467974163209279766962216458753768855286317056.000000
1271649114431648619082419477457542208602182746223846707317218208963185004613575265382073767791866397222228787231224300486870958080.000000
52393135052079642129292812026942779922268426240294686315785900204492623772338250654137267195385908018144876493927369362794623270912.000000
-110959793172598571836547114641269818132187840695407931230428092088048347313752811871640091793143340547950263845738459139097157959680.000000
142007842126145003115003232407940251322499429003933775175575135112338875557809388599031834945857894996992890995227473921537271136256.000000
-183557294225187589534006308401792799427011898214795129614010024590188458029592178607352964896925388459849422025356668293247336972288.000000
-55723326752363563007993302590526900737204321776267995537438689018170052186614533368037783604020292963533413782777529240337269129216.000000
-8593545759698118706642961398912333075676615793431942024123444413641414351721389804447445957705066123669495762971819236519309213696.000000
60869415433068853381058745436117872336712813424215608503930228800859350020210962293415484944319980629185652470930419948648889581568.000000
-38187110051120093251090626319737614723793102052992322568512827673707545888564942932842460328717654672936941862343509349423214755840.000000
-108893029985347236964741394541306686351361139326310716541973819074575066860833957604661717791624044504088833105892163675834118307840.000000
-87134732712966872967373786231502546435967230805885700820343868252096611597441607184085189616538487797830909521151479181641749889024.000000
-66817353615803816086406904243624617108137194258325798309431615443531023754237448797023120030763235473735778255177502429504300122112.000000
-176851781844098116905065697648406619397718210214012618212391656665055722632340477872934310645305424758164634838502265910015903662080.000000
-116873688995150526315040538450859381339162254025329758470100011109858018091618758371503507348518645553692787246129352587632407740416.000000
-94202846390655679437695201674860954586245332437522228868215618088535783107726202048689085933102642889916991925413393713093282889728.000000
32039027978635550466355682478167673243747142428622212418695704994151537254757029784073692185354022749773002473658836598633768419328.000000
-139865259084916330021800241087140046990518888657331445036809412411585662028996148714684278138162391991106198831003030894494504452096.000000
-210684775186024924792974579933155392995441163453284575787895026088698947937077970836622705954834662201210652301705772933054816321536.000000
10720030607963112095591603752157888817174825155954795567207589971980593294412889646684831030089105398922800396880839254545568628736.000000
62017447865316491786835041292304601729079609700769389736227395896640747378924878820041156073500095132059021170741415188578500083712.000000
-45057294133342524706558580078169514142128056595125286919432668309487268128749323212946185336057224208138079360790827403986035802112.000000
-146698067418575289818009419274320150484602960398635019570008645737335629075690793844871924978027065139777641428166003889428844511232.000000
-178674857687213980054828983712888509267716390336895426967403616824772132274104052603265079169247712563354694446737768823314710528000.000000
-136885838999584840069196537177469727643837755214672826233040952806215666389709098323072498489472407723505534351581828370602739630080.000000
-67544891585638791546058948778994668518959332715846027228620865677134024524185966475286011129572352514937771457944170323554328379392.000000
-6065760363605797224840604311402866890730392548824078069047895356628360193471574130449628668353827596919511467083879997530315948032.000000
-100406660248603035925676958056138164533439200111553442210223423871223908990006319421634579336555222057148551256729869060973359267840.000000
-224051776525072915123190589405809394093176091307026402914005358566316748111653977548491627667679342451726263622680904648701151019008.000000
-107809652536585481614165266429951238807470719066682312637101601317716275807981743283017640573765640637644177833141855820810719068160.000000
-177509165179790513019143944676023380346853383262159653510414653778372744351088672267137497575901818748384875204301208707435264475136.000000
74009718476822904767010082733009181634927516830184779483159742903454169952257159420158427887231845963617918449755376530035939737600.000000
121454061150506901838967011448422512918583884853067675469355897372711025397062098034832784194508629235632488655647653269322913021952.000000
-19251037047439286473591600361302729244449467858082598426541761747097050634094287413730952371946572996745420009666757690184723070976.000000
7861637310368286097298832218065296266299404516328547458608614064322119241690769647777466894630088516146727267039121262632520122368.000000
17975427129234774161074761665833799465307137947272194181491667748501825690174822259481096868016146947889574613329103274654996365312.000000
-78031255526047244400308237208560923053629444732303687169514417447697262142297430954290579140565970940149655222622443211072439582720.000000
-207319014891012261594124171795827677737555274104411133709919030347953233955790089241420178542295360120222048351811356152582820069376.000000
24718085716762425924216788787626100096925366232225739897450950517644027235648627568431119998965793567404950217547314787259691040768.000000
-152252679939290098016448128868266270661538829138302540731074421318735966572697980661261155695895174558246226196725508015697894047744.000000
54711646712522153915361592684589644611934182263873717367265162083931677086020272350962159014777782624014725541836746858409710583808.000000
-286319257774607680528594347402256560510699657899637934178074588896068476612479375839949627240461004041157577153528608600328847228928.000000
-32173814774610016154058936761192277513258849186428699863157523032836525630282061338220740358811613110199153404446781274582773923840.000000
-106578166529285077748242157103008396150765799217222290150288969802103607277659819944042351788880337786397954028458317889229522206720.000000
-114670514200564869469921857815236023088006862737646270886386845471574566184602298874858261759840493063675434364191925237124165533696.000000
-93035992233371308467463577008580724701658136649166942141319793867946374647082597368094808051860071415501134883320459400799422775296.000000
9346006285349720319581622183851616743638428271867505689186701650247966194441582598410192454658792128921567093118062576164774346752.000000
-29808126271725563620580238069567875393768114863004228225857967002388718334235308074646549742866427954293919323532175551862992273408.000000
85744264504024453145536040507724094408378479825481580178006708265495525270340054094478288433762325611500776798914671017216811466752.000000
-107213406238002282318029386932179400823107566500066458661995225913352022336199768526255271328888142364493209974777515933159900839936.000000
26164792233383332911425708427378284328974533344135370716783938684541375282656573230371897938009083789967337305007533036303569387520.000000
102310975267877847006895935093484362363460133701299948777959525958074040936187382289225969723863626302845233738703698646931410518016.000000
-58254575610096788225377685688551260871376599649322420700904840544601982208970758476321417971594414040286078501711779743913100705792.000000
-65276509101245351196813936343067727370066205247542607179988590198901948881593508204403101895495141805805860158877991663901670899712.000000
-183312576200216178439569702231952120430227503836159673681451953554493336958110228998154427849125194279690094552396278500621031571456.000000
143453927577256503213013078007197350602087349970388409382926539961332435639185999223293976395730521919040486845450958535589523095552.000000
-41903110588650776550450485558755737847716502296272868210889735603521611877345462686496189029188159345617669470855109507810789949440.000000
45411423687057084194878178767247565035906570493960040788948569061694606627628827866881670342065255243310838270720497918280359477248.000000
-136227394055239012507684720228961944361737972212395796314543370362096427624318460963438310575645893766788533450231784169746412339200.000000
37061286018397880981366336459382392587830109524862927158839767345351019515307455530719241810026205453162702954519124738599718748160.000000
-26631546826649143547564437094443535440307879391832041824148756912761272852443493513747470952142502850504991212283539732090782220288.000000
42497584045024972967954304098285786541549412352333044797130212925305793883586099437568866446899027881957866957228284041647100002304.000000
-190519503588858433982159103951341696328897813548982306716750259923715786498305321145346153553583435542058064915189078168732904194048.000000
57252297475895851970653367542256144879855181759801804422439145818438605674608951598996720739313541438294300776516003712712159789056.000000
-70094970015940539522715755625443281829734217403348755382308203816780170527593921092284115210940815023394144416057762841633736359936.000000
-70815456843281011349521774674717325222448831964239886259583162074587729196554293469049046821247203021353940959836075411620168204288.000000
-149285331267212902302338615579620288495338932575074668320167318742928080452243119206952818184953980317221056062984429578161859067904.000000
37984865654207043855150953952621146187760075291263807181319259266033608382234966433534935513223609977720186051575096973506549645312.000000
-124660950071736639225926584579520351655075510488841247789125526408061241008103391002755513314490159000182372029628769638821797036032.000000
-112157138647092323535154453094690727524930968727065797186450475627208858994933750643248766600349349165311938002035244812626349260800.000000
-288109302922739014020366132381399504908313010666442950706868256847215612537177798920975367340788466579797090863093908035281566564352.000000
-101228645356712998115910664082532101471004596291768379041392064422205705791137001865918195886983717801298938961790331509174616195072.000000
-64320623423477689089325744550841975076144310688789587898671438139669766885394352947462169173785772832510406119898569037506131525632.000000
-130570001199397553624284143729545770238884179896971482960478630853365198306260474517483809598193169824879106431031521541175837196288.000000
180970733654523355606206245560835499695959887919616443738848414505563940434653424336420380478334679189153262522741717864080232939520.000000
-162944208120740076388790540453773280757003684331761691462759829157618004504416523136833299670392434712414613770465444014739670695936.000000
67796854384880728286363109533786523405952495002264706317226614058327308581208205752029082743020923518721389213870638573711855190016.000000
-106945485676618065267944195688749783430456102261462779869075957609033311647086793992514846410189655355797850397604049327850656890880.000000
57345079604568463624815077761301084602624026350622460314454807970161349031171513009475249743649388331455648438952580422868196655104.000000
110578892401807456591790894007220001212610079162982403560904412074328077123553862085679399739857677780389124808080034828617863135232.000000
140366622161874541312037884783106808348348469842489507048254183675451981553100494114395026284328137653477987638438278355076046127104.000000
-155864684327599558561570838312461616994965718459048594129394002875058111427282921836734837751116741289285797733665831180225816297472.000000
-31451490258942914667336452255932627242145690637478778433204032808802208932661815607280697074742145088841170474895029270204322414592.000000
35599959620147458445208575705373397783322824530613147040542585383720644353981945568624502881239585817960344483373245185953988870144.000000
13681280616012084716723875519043345542922614820426514779569123455956785229602457179716591210976245633871625928578626927165156884480.000000
74739294234628839063812881756904874538577330054614212734232225969084954899225097399703506673308844594356125677363915077353327296512.000000
-219763896207590551200799914850629855338130318579165064727803453786574004042920471998940612322508094764565177154439894805277394862080.000000
25529582538869588405424010749599051124652255625816319190263908706928190471314027606816068718922554338294694505144951789956871749632.000000
-174111494234801288742735347711703006208207137642523636088686216618815839990572056408166389374569684505779045050573686289600132153344.000000
-88820642442826353550600301831838515716001146822892104179821776960986442899457429026874708005747269423007847570689775578206477221888.000000
-164009301248614564468113658734105614642937548973754151844164034864520272627868085643339610605414339822494070866019689840219252588544.000000
-85195924171137554603174200553524880870505948095513358122396669037662560267054074246583388748536993930818966803389505841078942564352.000000
-40387277258746754448622106580012829068978150999855458042705855443440248481400804183797380728137372172350258603480262180567613702144.000000
-186205714954518128582874192179480210747747826266483508020395069875048091590536135475063703027511244759340926255107706980359007633408.000000
64943630610924129874402095512251297831137404132329251664489956156636765171273550716822093664991691425648710805388899680299536875520.000000
16759269940935536975626912429887397317555519877291296122470793837476366065795647908694391490173869611630060927421344177509864833024.000000
-112784509021363521235835314823339472996286003783311726443455733232415358622635179103173520877848074415042436961827458221485997424640.000000
70843017926066534761666920082097897985366787154925704593030363671819442993882266061582778152735886760665073218308414489939761168384.000000
-96770066424314653707719826197115938635492378222844511348383898550610910383463050947481278501154312907009129870595133972040130756608.000000
41793683998478347952825949884903419773194460545994634020644720448073836964598423084592463236534451066974945587125425403545409028096.000000
-114133686352875209942533369198534658266995060645633891267652338040360346574696377996940645897921382537343584122494038312450537816064.000000
102384322836344719597792269858690090722390801598259178116686296831895283247987426374198186818317758186011442369535712465748657963008.000000
183349659754559230393788058722481446759142086046313930007913053903830540649461049546948517096822522782292206926440664482676821983232.000000
-33746475823927250078245869452435824803227006876683420026700437834899138441699170415779715848157328568857993888927304606607443230720.000000
169930617160544007645356711080534065779780015623693132926008788805923943675245890077780385478857874128979482012245739038535969669120.000000
-74464975063670110994759145151924856907190940095472640641777684203129036341288297261661675784572642110389398465075050447226628210688.000000
65944770928247462149194719019057183058447346259206949505381635250305833567502153484643788669486825238864024128512629213165472710656.000000
192340415638122914634636465805493913279682020478670302418004470436720218858707795711727693608695530017982151259783353945800864432128.000000
57260512431409785978776500139138736112501774938759054429663351348379998446834545073666090279528451179185776586559482147434225729536.000000
90553787599830609230621415473722992847799957313564655722108393959262877478109971729014455063206972993567780448204585779845109121024.000000
-133566136293477025345735484563606807388064203707739588705877395459788083018718343456532182343490894055263265603290955284818815877120.000000
59343699472342688031170940362247366332311035810673867506078002707762450996413201097585112441124831464565169137765619964765242654720.000000
-1797381518480628249032841362306306891575142267532843753520448854715877049617803511823666324557415312466945774227679216581495226368.000000
-54748517320657641624404939202343939606645732399606588489509309812601781362643424563544855269870509827635454450062160509655423385600.000000
-199991930153308632575268571617179460022428629382192192929566916135399906005406859820310948085703107723547472160369209879088517349376.000000
-327879848119506483636517095466414867805551516864265852025602827869492441746554808039927102859239055131551729962131837009029977079808.000000
-158509830734290560909896879969680040232120651787977082132957802895034539777221226989379883458494155338378900639531570618935459971072.000000
-205757296003240230809755024349038534932655014665255584612442844655837988198672372260060152412632749475442322329879147381172778041344.000000
-75992038052319467797864763347563611125729327027847209880562390205530615701092577247714364303800525162195476527845429910354740117504.000000
-13973708610988933483066182099050125648401931845281868479532910607764554915754847788093958381278772999375122633214146452682264543232.000000
124286338970101155096138415299079635602475990101999290050521479597382915942910012107012505083005194903122487053747466216088121901056.000000
-61513341515571052674845120469731306123295914006764947439097380842576861025058905464115027112712197420236257763778927555771308703744.000000
192602317779982452762557808471270940557002099692988974903419171595901106459358635823810119577599658661928572507931825279745593966592.000000
171440700707215449076586908064279413437126637004982566066729599509986853523269593687677734518705879175899860847920844020307860652032.000000
-44422134497676064256327675383611144295344859672147584573803268324031930692767161584601624891532049015665119429032154874891867258880.000000
-71636971098668442698043422711181881524770094010957837517177097009615719917635512320863479997541651376249766879962084416569342951424.000000
-153649868254754389168151206178056652898779056586149213036161064924331554291497922226640976814283434609450120668689811185388128043008.000000
-189105884911850907129763029929804221906620545633651920091260512768210193040308182616690899716185913047175482440801460494724640014336.000000
76257172591622716412307227908703788661951461406218355592783053226567996947331300548503975221306849941361086463858794805571746791424.000000
-109982624556840630223234936921030744103365466805742828278565339850882537627631661937458773172207793218248728700107952352670259347456.000000
7265986953274847640600046654756945687604014636003057824805157173578728056672407425355043523473739797054529332886727478142128095232.000000
99679685336245566114372270312674713873837549435768071584923722695330021741137242882170918617795957509135247095481376959095946346496.000000
-127757672838851464113012922284201628452785667975742634969932855538410832160348203991579746138707723511137690150328226280357293457408.000000
-130857771061292606054759189869931012473325660756925847505476795125000581917869655896144462530754133061295772365723145651840308215808.000000
-269092698330644091424550951328599078126688271296425609150419429260891761291239307845105461743972940655992124617159702931075441360896.000000
-146376250657079794289363313101456246821668660199682187338538141698436545318815967083506327889878892142379052233274105335445366767616.000000
-105625023838079664103511851273290286451892426389530989772269107909762302379205520776345132373908239698561480595541069432115087540224.000000
-162735753376946473280291185435712249421149558474778901586392064116303096884863069698056167710342690798744559784869655083266944794624.000000
CELL_DATA 2699
TENSORS STRESS float
454622715477325887409355245142405417730372269583011623762065659982444093815111203999767302707865390042619369630818946231996252160.000000 413926488391288530520703667821844028568846520502772168393823034479726594215365049150407425586678009681810485412870261542190317568.000000 0.000000
413926488391288530520703667821844028568846520502772168393823034479726594215365049150407425586678009681810485412870261542190317568.000000 168062512190685675893024329900086314193394222095763836885971962474617656002144720814191672198827423077869940313086180923275214848.000000 0.000000
0.000000 0.000000 0.000000
-39924035758497425670142891369198129988531049849830879647558127208807297432304767950278500207233151231961888510931444162245951488.000000 -8095715956437832069070835247238247706076144598756624801534741686440519407644342433230199607517144787686436532109337911604805632.000000 0.000000
-8095715956437832069070835247238247706076144598756624801534741686440519407644342433230199607517144787686436532109337911604805632.000000 2669008151822508025842922138022249329192340116466203258222464277829248749964826267425770764395997047191539277936098967742840832.000000 0.000000
0.000000 0.000000 0.000000
-7912662610803585544450927840517580417148666783046744578701050409085748200385196432585950498187628937843634216955926812632490704896.000000 -2022582837868056306335114679228874964922835614284804442515989493592444778470201831601612584369794505600399314678296688050143494144.000000 0.000000
-2022582837868056306335114679228874964922835614284804442515989493592444778470201831601612584369794505600399314678296688050143494144.000000 778551693692112868929552340107070523509634882667490588746514430903635179413208941513549673969101823882264758423846563798679814144.000000 0.000000
0.000000 0.000000 0.000000
2498084860561751586287863055518391410395744076955812209584817437888961497376459746756490562259728379535751325746799661018668597248.000000 1284659865552952799511653124786325917166866290477034805686318192771793009557712677491695826822223208368198762700072347897794920448.000000 0.000000
1284659865552952799511653124786325917166866290477034805686318192771793009557712677491695826822223208368198762700072347897794920448.000000 375152256325819726170800043510849468665553630920434097886597983928109965581219854511928663676286336886151851040196808002458615808.000000 0.000000
0.000000 0.000000 0.000000
-49312906572191716301058259445989265815238416659745031449204042135032893854631605578517935071353068797893343682049505282907701248.000000 -16165044382851186771855930149846053385968383949180055302384427285816869391050760041741955582217611875874285811555324490177052672.000000 0.000000
-16165044382851186771855930149846053385968383949180055302384427285816869391050760041741955582217611875874285811555324490177052672.000000 1766749025433837112832498773480483640526010605792328049628892510276237161882359707075115316470087992124704675143929184573718528.000000 0.000000
0.000000 0.000000 0.000000
5621464442686610341032088087338253669141359725740140564807309100501330829478342391950744607067209855241070412399176425460989952.000000 6749566735811317697167896825782732102139978702397370278341629884356704626950304671625595364787913156223826819600540358871613440.000000 0.000000
6749566735811317697167896825782732102139978702397370278341629884356704626950304671625595364787913156223826819600540358871613440.000000 2997768054152284224511450063359245822540064242605138117438741113698146158527726972275124099899992388671087754083281888497106944.000000 0.000000
0.000000 0.000000 0.000000
66254709321161289473693389541037621086552487191237277082388643972371377109328566051320555947221037110057905772145298784053624832.000000 -589856897709152780820910581942251705953595332301375163207440151356523667128503883878093325812120883242245336036523731606833201152.000000 0.000000
-589856897709152780820910581942251705953595332301375163207440151356523667128503883878093325812120883242245336036523731606833201152.000000 321224495485736475332526256897494078417523838950081148938797806144926597620011885634366644666098673410342788251119874816625082368.000000 0.000000
0.000000 0.000000 0.000000
4081130014069477971482888881071596176907548339204301818301154452658903005736639066624385064167569877954709518716918529714552832.000000 -2213042501049846000995842635274586788968457205018122373996885522601967865683710266898181118064078506324076428888156923756544000.000000 0.000000
-2213042501049846000995842635274586788968457205018122373996885522601967865683710266898181118064078506324076428888156923756544000.000000 675108839286098089864130222937790785520215562259146487260069833957031998586153893614945863739756381786467659152489353740025856.000000 0.000000
0.000000 0.000000 0.000000
30988250851202477946999463701613884579746300916475212952578594101787353807509429999059584964031911650646276422442721848575655936.000000 334044248949341529385878299362155564710985710377745759457989803020781694637845773693086131056608845476483979520477369286491373568.000000 0.000000
334044248949341529385878299362155564710985710377745759457989803020781694637845773693086131056608845476483979520477369286491373568.000000 183165282866821676674645850048664505990284176468829227075766024301692629042999968630449111149727538535008748442847283059636568064.000000 0.000000
0.000000 0.000000 0.000000
-5319431560759565339119673072390046573428080726914155065130999167059297811137457001426470267755643311394616306252611391931344224256.000000 1845365858013031446891185292489175655423047044357236117821290912053842620246294181273688169579277058001982314546592772870295781376.000000 0.000000
1845365858013031446891185292489175655423047044357236117821290912053842620246294181273688169579277058001982314546592772870295781376.000000 830998221846503411607559095619166155182841911848305846169888380179314578312222858868531479391167601873036933640716255087799828480.000000 0.000000
0.000000 0.000000 0.000000
-34870816637298196739346076408700736887342434521221539598825747512407642045894994863612425003053002338061981127404395985851383808.000000 -365551891830091170112375384331202170872842156800058304262696219140671896976951208301453111863601101143646077945118967501785399296.000000 0.000000
-365551891830091170112375384331202170872842156800058304262696219140671896976951208301453111863601101143646077945118967501785399296.000000 207687031090754891079627617841605214936769719434978448859252450125789045438923485860196693092191340559140139978672244110741471232.000000 0.000000
0.000000 0.000000 0.000000
32794260725315665984808977666544472576048554567245010561987579705588247511034959266632237889076984345426750883339683890401902592.000000 -22071594661941995689170772933648378439992185552012458287595740549666977432337693643521386699200291778426557979434676682431135744.000000 0.000000
-22071594661941995689170772933648378439992185552012458287595740549666977432337693643521386699200291778426557979434676682431135744.000000 7513489310385924610572151774461757602685447557202570800459288748695932239803102860565791235238984955763133078091133158764314624.000000 0.000000
0.000000 0.000000 0.000000
76318833543724588704416500221841780873508710115732908033638304872927090368883324344516442669577740714493762622457124766105993216.000000 -464394980983534210849289853980825017780249772839806395271867015386333148284284940837774764175821742064951955099520125548256821248.000000 0.000000
-464394980983534210849289853980825017780249772839806395271867015386333148284284940837774764175821742064951955099520125548256821248.000000 251326723357932277959671394880317902436394836111827330741500281330489701983275466545660764617424415435240883068596064656998531072.000000 0.000000
0.000000 0.000000 0.000000
-1836562125840581224578872635844659137204462661509911389846965710486257201203228242034849161679926197775353731541875058320343040.000000 38130814165522898725553624345492397477911888644627293548595942795872761695105606364775120680315550630541937254258696808348778496.000000 0.000000
38130814165522898725553624345492397477911888644627293548595942795872761695105606364775120680315550630541937254258696808348778496.000000 21340683338126194104127995539337691059523780147302361131472676310611590861649535729006490989337999265152177171644037779609878528.000000 0.000000
0.000000 0.000000 0.000000
-213520381739503613908372033388405344915249114699648135024222736901582072249567951851399648495927941724342964663940786403712681639936.000000 4028446558399836926735754059716284264873531652600232100078121639306461584006305451997709914108095113889753698049429758170644873216.000000 0.000000
4028446558399836926735754059716284264873531652600232100078121639306461584006305451997709914108095113889753698049429758170644873216.000000 152211883789990886914576004730029064357969548375627224214694365423237098949510954444497296286750187404955087209520888373196095488.000000 0.000000
0.000000 0.000000 0.000000
-33342095632495810191127895030740544172599782969610225107614871599064132221960152415350149696838760181561816355655234903349898772480.000000 -3620539551667543224783230083245459844642491506741123750419566614207850987698570000059335676606416879917144718979817764767284592640.000000 0.000000
-3620539551667543224783230083245459844642491506741123750419566614207850987698570000059335676606416879917144718979817764767284592640.000000 737029124352080804548371230926809598986214416622320292163634883856063327880594194392382876484524402332497239928028268596104790016.000000 0.000000
0.000000 0.000000 0.000000
-207609478644012337253256098544688422422985529491648321587991786008797674891369366734400584809681697972121247682913643542368747520.000000 -15504633001811008870176206991478789986462095861065379636521258426448766415438764399821416535503553759753203990718974718478647296.000000 0.000000
-15504633001811008870176206991478789986462095861065379636521258426448766415438764399821416535503553759753203990718974718478647296.000000 2242975015629248109320438692079440781040793430081454866917854980769248003772565406642983906736207159006519518556150184137457664.000000 0.000000
0.000000 0.000000 0.000000
150942026267995372784265996994477782743899985793034142454563431818127327559423147947399090863936813487553697988527721942173614080.000000 579011647934593316219024390222258534405340369070546783889317997545822265597342075451288220757408452425020413602953606200605802496.000000 0.000000
579011647934593316219024390222258534405340369070546783889317997545822265597342075451288220757408452425020413602953606200605802496.000000 307581901410744386577445800074741562249099575559637163113436159597089990741639192452679520791566386763532552119794848752308584448.000000 0.000000
0.000000 0.000000 0.000000
1206124499305979830507162129676529985180439594839907643726232704154015737066449785039308095573752868692775695485549480377436864512.000000 -198348619259590940275253791055285610978802164553073973636473249259884617882418579532281085396295353008463583333702690440642297856.000000 0.000000
-198348619259590940275253791055285610978802164553073973636473249259884617882418579532281085396295353008463583333702690440642297856.000000 27187536869506372817723051827268643540429384974787186020094186660296266224576795131468430925295695816047999714940802319366750208.000000 0.000000
0.000000 0.000000 0.000000
161283155485918781294429642281171379884247408394427625389841047659973147411942364111911157591623641793363183923231927560262647808.000000 -181260431088943119659723806061916331891689795578268687924418724825663740727910379407108473878587252707575535937578378393924141056.000000 0.000000
-181260431088943119659723806061916331891689795578268687924418724825663740727910379407108473878587252707575535937578378393924141056.000000 79676611177776253413162227150838833840975262315031781434464655857517812540780235421469208966117016503034354524359092621937737728.000000 0.000000
0.000000 0.000000 0.000000
102608238593173246318538100796561754583987564780047268565286528748722016266113240832065721659193156129436116264130217027777331200.000000 42359127534158936711773877645607033907442416688884500626599847717212983774267843018722213681357178828746348896969572320551108608.000000 0.000000
42359127534158936711773877645607033907442416688884500626599847717212983774267843018722213681357178828746348896969572320551108608.000000 10132270614550184987223349106077131107765497291300524250091798350430919724420554727986551360035975503439406964258977851757297664.000000 0.000000
0.000000 0.000000 0.000000
1312398505799607566427600310813506079461575309496868381991227275859287041636492405571753946163873235384417177720415328595790004224.000000 -1311892693730337259775883216872555279107700769203245690140237314659345348609811586323837239675756954128755611584722553375417171968.000000 0.000000
-1311892693730337259775883216872555279107700769203245690140237314659345348609811586323837239675756954128755611584722553375417171968.000000 561387377620261120979473045861001210057907405645587189901029672765611490311541795506732476933810178947118415893007581004978716672.000000 0.000000
0.000000 0.000000 0.000000
417140892982616290748827025778555276072091624382179886814769546157493242348270455010899828051629733642413686176728807625533161472.000000 99951340705972109266599205562765434962089937677934717334215069194413172262039990605605364299627562470892615526559195425386004480.000000 0.000000
99951340705972109266599205562765434962089937677934717334215069194413172262039990605605364299627562470892615526559195425386004480.000000 15380702764129954602800994889505132556328815055154612434957633647109883826020407181476290418137590240815213688405032137815752704.000000 0.000000
0.000000 0.000000 0.000000
497190771566208141671693253498141800605589147585833876297136280614350484041047554621434257307552738171486172454561295293432725504.000000 -223405453968335648125400285039007328234786970384012988482907675996433868411262929358932294730976322153765946751210202305149272064.000000 0.000000
-223405453968335648125400285039007328234786970384012988482907675996433868411262929358932294730976322153765946751210202305149272064.000000 59316243159143770523653689351154945698943045787819163018262100898028901639739705610379141531895574711883888143297537317300862976.000000 0.000000
0.000000 0.000000 0.000000
-27809562615953039731022044127615893189355442811491383453605591294517088799486041991947618065634531943346071188844988960594127224832.000000 -2923906569653745220900812055506266333489891685045305936325429364793732622326979788346450985223204790988741722153239105739337760768.000000 0.000000
-2923906569653745220900812055506266333489891685045305936325429364793732622326979788346450985223204790988741722153239105739337760768.000000 577789789906474765693324045627941783283303871298739052651602237990671522324638388026401971731673045746630972868081033618867093504.000000 0.000000
0.000000 0.000000 0.000000
296313238728957580817737206633041185469015537031808262277303989196799477399176158983984131446677304012598981379432483939984343040.000000 119280833672432198114413944577256282398984657051901703753152074448981029549292693533346162337211623892436430578588093266616385536.000000 0.000000
119280833672432198114413944577256282398984657051901703753152074448981029549292693533346162337211623892436430578588093266616385536.000000 28936448392663264779397186064680888482376363487381207875180924541014095674364541741514116951731095574652583916624262969841156096.000000 0.000000
0.000000 0.000000 0.000000
-146392537955050160225608534230850678713825623436121210774727526486086080492089180301229494512211187598676236247546310092337971200.000000 174873043443637232220365952893739575603717748377530049642886228625733048815278813138197339654795271050475864122701431639377969152.000000 0.000000
174873043443637232220365952893739575603717748377530049642886228625733048815278813138197339654795271050475864122701431639377969152.000000 103355271693143388663149459134918345619533247289942869423676690728464590992556189252596326508764887938674324095029758142307106816.000000 0.000000
0.000000 0.000000 0.000000
-45323999760013778348072156979236306343673009800674608038164162871090353252530141568442083884057412015497022678177807872429129728.000000 147937266897744571224809302746831134836050892230980860730039841597511736994614137880109361051507580119162912931372711173483921408.000000 0.000000
147937266897744571224809302746831134836050892230980860730039841597511736994614137880109361051507580119162912931372711173483921408.000000 84755075478892728194171057172525715347477803947487536893757764937464597781859820849365604022969938115485736212310033977751633920.000000 0.000000
0.000000 0.000000 0.000000
485814520392885445381758347313358885731839805958992003147382624812663100900578739780073707773277781732288514084595851740812673024.000000 430804532106450398677977803401095386069917697404910241716995746248498344092439244306501585775784860505977129374034269905574952960.000000 0.000000
430804532106450398677977803401095386069917697404910241716995746248498344092439244306501585775784860505977129374034269905574952960.000000 172981728999392917932586497066764027451239727598269885328562898384292100120610495338205398262900962684921406528849629155275309056.000000 0.000000
0.000000 0.000000 0.000000
-831739577974798629416340651396117552207840382406618639750852285667788660291704176254374254812199753356806019988213832534665986048.000000 508598146590041595413537796396104961917982897223568082089757684187374744801200092448021772688485897150962302685527981606488244224.000000 0.000000
508598146590041595413537796396104961917982897223568082089757684187374744801200092448021772688485897150962302685527981606488244224.000000 272528400268943303904405269180570207513340148321333348705312707072441785221239489623304277055511571033638284614530719031274504192.000000 0.000000
0.000000 0.000000 0.000000
1627646485861543761206812920692326076012016082940282288167126666423614664180574488186881241529418327350385349480995142297163137024.000000 -773412684348628441416909076332276224444134654697019933627884113137114112639809180372803527320903516762042992695622918760332001280.000000 0.000000
-773412684348628441416909076332276224444134654697019933627884113137114112639809180372803527320903516762042992695622918760332001280.000000 217597324462083679632622480535334916047773947110654345226202188321159938386052456358408599674466552812425492592626151698091474944.000000 0.000000
0.000000 0.000000 0.000000
-842415525730211259813547794850835088115662156032692312736531383682063725177829066092965223306495241398355859018349613606449971200.000000 -445886655840970906075199086256352588321426870248311982671437807678177659318364858283732044946484293083539344733704371896835899392.000000 0.000000
-445886655840970906075199086256352588321426870248311982671437807678177659318364858283732044946484293083539344733704371896835899392.000000 233959218149089814455011772231680101628950056286039628179169324699020435739190168236866064783985927779501715632877251726678163456.000000 0.000000
0.000000 0.000000 0.000000
-3753935919063921195932045216658369342891541633658629283736406834650735423062403902983157762409437070849435453060415432104758738944.000000 649180449252057591747287038301638524405175461122804735967551316545050778284986982232899537000457921692169328702101288355840917504.000000 0.000000
649180449252057591747287038301638524405175461122804735967551316545050778284986982232899537000457921692169328702101288355840917504.000000 193174544575170259020906031059829880906373645175950514148050954720739320106004981930780038727344088823248034708534307081439674368.000000 0.000000
0.000000 0.000000 0.000000
-17680582278663772452583759523468114926476814055385645596520568726560995524844637380413174672934864421335758193211077071464300544.000000 -9318426269654056699011412728674554336667145544811165778218812546534560305717187259794426207130449157967651992212598091782553600.000000 0.000000
-9318426269654056699011412728674554336667145544811165778218812546534560305717187259794426207130449157967651992212598091782553600.000000 4830351039640945951620025113776052631641860394434810370373480217872890903340738383083921198890632697362185824446713930681679872.000000 0.000000
0.000000 0.000000 0.000000
-624408277946050969305746849784549637308391182707041223868709247990541151417239363543747680020531752236797848304732855465188261888.000000 -339844934940063429720476911579359218008133504415488069952116400597149287572917122786800063162115058553304737841563980437775187968.000000 0.000000
-339844934940063429720476911579359218008133504415488069952116400597149287572917122786800063162115058553304737841563980437775187968.000000 178104225241063436264176454188881866292878720561291214782717734953041833007504197430763906356502862706759345422206365213095100416.000000 0.000000
0.000000 0.000000 0.000000
-4550733538366528863556281624296869501579013364413259788582037121351364908421651019010184213749564332661244428995630878918724026368.000000 -849013759656285342194598987686001990771958926980576422566718852763654983193140011012040335340057294624979520405561722521675366400.000000 0.000000
-849013759656285342194598987686001990771958926980576422566718852763654983193140011012040335340057294624979520405561722521675366400.000000 267396812821130577566427658974677511537711270097476441660490498712738517221178147673333570400491010612062102130608702222153809920.000000 0.000000
0.000000 0.000000 0.000000
358767383545492859628252828547289512802055253742397115278078241931856814629626951858998843442481452224230404858491572205467467776.000000 210311652384720572843071145991459126709477418335402711755790603627446428332343809195995697124399609011955462536831871341733871616.000000 0.000000
210311652384720572843071145991459126709477418335402711755790603627446428332343809195995697124399609011955462536831871341733871616.000000 65836306688551879057710703431849282518791200837215550413682832806126863459020177039007677793549159934388374214418511923939115008.000000 0.000000
0.000000 0.000000 0.000000
762703693626068144367207206139468722648472098669527872643145667579614381117479132921268807052154160449472258643043757506691072.000000 -495550289864060255764641526956716232142051987082919460401080689548204420539947068660821600220725158700089299710768324250959872.000000 0.000000
-495550289864060255764641526956716232142051987082919460401080689548204420539947068660821600220725158700089299710768324250959872.000000 296770143771836229831714286569178768959436162157763543109002726792560165042333163617269502804982538492753781863394099926663168.000000 0.000000
0.000000 0.000000 0.000000
31037718513388615767158170420446172262536449023161244839976225904810968500484865036278881558368944085384788907301506112081100800.000000 3031415434157771995769966237504879853904141289088197922978658094203627987936387240244755843710398875396526012086551524734402560.000000 0.000000
3031415434157771995769966237504879853904141289088197922978658094203627987936387240244755843710398875396526012086551524734402560.000000 199582108310601553756341272267573294043419158057242026899897449536537772130908057358075772759515816612066281242060700610723840.000000 0.000000
0.000000 0.000000 0.000000
151137618155821130169827823619457048311680335020840445051870219155687979062492222652062460124215487276820163001379350993633804288.000000 104343202553975336268428625069360585400938222893923090601339142922729564199138879759371035070601383704869091955131614321327472640.000000 0.000000
104343202553975336268428625069360585400938222893923090601339142922729564199138879759371035070601383704869091955131614321327472640.000000 23770908618021610965181631160403273808515299160814850836632550988099087394029186938406073430089255922909179106479636598883352576.000000 0.000000
0.000000 0.000000 0.000000
698733781840449685258780157247885090117891523217827859058906813189435129356031075790869050797450064396899874875121014180541366272.000000 -646965331612665040840429849167790128420631205411221673820811322455182916922671519053828066269943961103258272552059060699474690048.000000 0.000000
-646965331612665040840429849167790128420631205411221673820811322455182916922671519053828066269943961103258272552059060699474690048.000000 264568284387039140457669935730659256582801908275432903835428266477131430085615372234542851453663093386868868815957513877067923456.000000 0.000000
0.000000 0.000000 0.000000
-348931977176558642428711261534935883977005002410725746217549008555090373516705218718203291746161891426720894398394529290668474368.000000 11980314880995400982685350542675622681367695176584020677328821420337007178066725123830683227498366596305635984143787194035732480.000000 0.000000
11980314880995400982685350542675622681367695176584020677328821420337007178066725123830683227498366596305635984143787194035732480.000000 2404003739548309173074826372236704422224957500133521125445130154080061617063091379603319623305954910874382666857663357104685056.000000 0.000000
0.000000 0.000000 0.000000
372886621130765912567403831947115950569830663094434069787955007215613287026072657088375274347171805096526728371883773025065107456.000000 574097449395520908888821476508460323576591059320210137052227302081030239138309875509208641540949563142147109426434310472145567744.000000 0.000000
574097449395520908888821476508460323576591059320210137052227302081030239138309875509208641540949563142147109426434310472145567744.000000 274224263877605346759821242935599349076414941887529470950781067941595498977209475316314912513755872039514598685308007525702959104.000000 0.000000
0.000000 0.000000 0.000000
-33231442832445447953606292121574837339554715453114840399096273210317294165279272305263801457979223135877524694502852202128736256.000000 -210482447483726451653094397217779833163030824641253474159357548330814597838280936978399481109647677491582047547971861279372476416.000000 0.000000
-210482447483726451653094397217779833163030824641253474159357548330814597838280936978399481109647677491582047547971861279372476416.000000 119246814726036960830753632438339359729475632934652065316131196530677767764558160991413824074677972870755671372299533368474730496.000000 0.000000
0.000000 0.000000 0.000000
-13026645325140442081432869886503855182021489186629879524437602379294422247900800781254500021649720910543434248583671878860668928.000000 2129134044541614263969192689404096404030395787451429248035420479488418329891693687893493039387436649578736971256786282266755072.000000 0.000000
2129134044541614263969192689404096404030395787451429248035420479488418329891693687893493039387436649578736971256786282266755072.000000 618629843529402034336094510392252697101201169613960320279544498149112493074259695087414405419290046292864868396133171331072000.000000 0.000000
0.000000 0.000000 0.000000
61375397527682599637995565454402631209501669063037961375122698288193446623063534308042422767080973756924863265220375161727877120.000000 118312097605344662496968947141380067032660318537620663451707439534664459339703538365920458256846677762316561518466824848229269504.000000 0.000000
118312097605344662496968947141380067032660318537620663451707439534664459339703538365920458256846677762316561518466824848229269504.000000 58506343900352686534006141673850826967633231510620350065677864101314951365899967709764093549310656588210379812842897938361352192.000000 0.000000
0.000000 0.000000 0.000000
832705390768973053966673925066910534573314674626202425670460626267060538459301431495086492765912976965053677481086535825226727424.000000 -271770931008618258057984459587555868835477929674186040761288781714834407478829691138223517201851513846592224981386554106858962944.000000 0.000000
-271770931008618258057984459587555868835477929674186040761288781714834407478829691138223517201851513846592224981386554106858962944.000000 58139828905918012148035998735048984562944159101469481685803576514302661549414282243739729840243991705915153350728750542987722752.000000 0.000000
0.000000 0.000000 0.000000
-2894308111158068833559631216209608042100987609694014470019011683500673910012490505725255071554492684830171113813002625291911168.000000 -3219321718876771418860794785344465446940538722106024960195179337507114557844378314484468514322517663574234251194393287710474240.000000 0.000000
-3219321718876771418860794785344465446940538722106024960195179337507114557844378314484468514322517663574234251194393287710474240.000000 1844357024358007952108894892178870686039529576375575444586203589462582333917434112975954301719309714005341043419280174426882048.000000 0.000000
0.000000 0.000000 0.000000
885976460743469016377941996361117646854951803738490224334780917421850696487765720013576168226343344245277311984838282361962496.000000 -230616513676060709250464268548164933384780512399436120159300184585857811060015298614836443446213679989760969718140491630903296.000000 0.000000
-230616513676060709250464268548164933384780512399436120159300184585857811060015298614836443446213679989760969718140491630903296.000000 38799729414467026601396223311580307498692409979623659928163420003846574573649129789264747100335617596599948195651035338899456.000000 0.000000
0.000000 0.000000 0.000000
-267405602406048728255945483671049248484963051019670282902647031720328871632184651687132607372024915463557178897646866709488492085248.000000 -15864188108116861700877464005878498819971988259099998576591652684944325113839453892710373830184083430030341943629417742772106952704.000000 0.000000
-15864188108116861700877464005878498819971988259099998576591652684944325113839453892710373830184083430030341943629417742772106952704.000000 1846483340150818300802914627000592402310821780013178550560711215159910827532606490834859078312693359324918186406840550294393192448.000000 0.000000
0.000000 0.000000 0.000000
-295696580546407571677239114922208041177218686036682445440233889606624210025888320391065661338069468091016604678010594111885672448.000000 6733145422549225963941252433624627844768387189572466043168333168319618751674709097354908895467964750040318167423748669289005056.000000 0.000000
6733145422549225963941252433624627844768387189572466043168333168319618751674709097354908895467964750040318167423748669289005056.000000 374620829577353122838669851754977932090847937650011282626770813475938304318098161091070056013118322838256319708764777973022720.000000 0.000000
0.000000 0.000000 0.000000
-543174731806280831098404267537358751994843994334321794152263068786972998547726729054020333393075397898789458218798321002681991168.000000 -474609826836439640199823276128474830380652118495792373712093896015539434287462260504474690080996594051249098597623831660731564032.000000 0.000000
-474609826836439640199823276128474830380652118495792373712093896015539434287462260504474690080996594051249098597623831660731564032.000000 266436624186619586252949398462888081143979653639803688521954937260294336721411989149932773464768759913619749978704409746674286592.000000 0.000000
0.000000 0.000000 0.000000
-356701399416191503300283458022725525872900588547802552075465344204410333686584689997420584920824661167670194981401304628199424.000000 285339113633950300669201868631525233262573007226628367969378478165305639083920151575734230470404445313140281242616884526841856.000000 0.000000
285339113633950300669201868631525233262573007226628367969378478165305639083920151575734230470404445313140281242616884526841856.000000 164578319265345933421579844632288467716188662077479187509310096680295077887900477899037263180493600743858326306724751943401472.000000 0.000000
0.000000 0.000000 0.000000
-189628596779071529493109844285578076967967787123991975962756714283044788537141254372635190289525533785823380225316503912070126764032.000000 8279248716616077074152298877152871197000338102809165215693046937196622651936219725366641437005646865894034566342302485219475718144.000000 0.000000
8279248716616077074152298877152871197000338102809165215693046937196622651936219725366641437005646865894034566342302485219475718144.000000 714592833411048789009981565766968416397807333564588839546504944301773498810472105711037313089056820961607114358166478147018555392.000000 0.000000
0.000000 0.000000 0.000000
-97063811644807035112355819576515921393794403800335148594326338647550696226613479700038907276696418907729539797094894648950784.000000 -244385122045041872757547325725664194587293300202943730531282541966494441306501633587424349065398042311866841020386310711410688.000000 0.000000
-244385122045041872757547325725664194587293300202943730531282541966494441306501633587424349065398042311866841020386310711410688.000000 153403539918799884855868231423411273014006766967791644753503049517704622859105279015309383885271084189224584721164864598310912.000000 0.000000
0.000000 0.000000 0.000000
243496750616238737156975824934991960262738825353479837216995911622487787282741346016882717028749129044167125980077004972672155648.000000 -731177789894421926588701330324906072349284318084950425723374482224151418504239049302367938789310575738022261625542142889694330880.000000 0.000000
-731177789894421926588701330324906072349284318084950425723374482224151418504239049302367938789310575738022261625542142889694330880.000000 381846921588338871860664896771225577901337648357846283663580114806421336462231231084808997896335967095234406529992881776204185600.000000 0.000000
0.000000 0.000000 0.000000
-9564846174646518301686872532462324261371905452499538506114543239220961027086457780959770907906826203352364108611130312988091744256.000000 1365402167537918310156682499210454006646286059793421771445199011200754303070022500192546599268228450424157804148967446174706434048.000000 0.000000
1365402167537918310156682499210454006646286059793421771445199011200754303070022500192546599268228450424157804148967446174706434048.000000 349892677878346249631146110514664017784102114531309317801078230254922986219844217829647986315240387293900134025857013873666686976.000000 0.000000
0.000000 0.000000 0.000000
1476284355093823679885631791435311027043201783525934746167282639722141620938378168093678707628846196183393179717853559666327420928.000000 929283190860104897117624833066691083831364753526757823978211566046781134390170408359229366009814246580794194611699868615848230912.000000 0.000000
929283190860104897117624833066691083831364753526757823978211566046781134390170408359229366009814246580794194611699868615848230912.000000 311189780281578689061110002208391030778225844396442852645526764982157138947127815212148570173661386203325552848300911514569670656.000000 0.000000
0.000000 0.000000 0.000000
-4056121969897102234271508156947992231099307644648181542720961322570989271509782723528077539017638852215066061730637854231494656.000000 17947391055779759013036660282625150186222327713894769368098489468709845972112401817436309150832017129555555421728087567071444992.000000 0.000000
17947391055779759013036660282625150186222327713894769368098489468709845972112401817436309150832017129555555421728087567071444992.000000 10220244619986625869324839764436483938963567589928412352368030976021283648366811737457249343779236501057666500217927516830040064.000000 0.000000
0.000000 0.000000 0.000000
-618813977809287765896460474756125958383236951884392511456323501646611401743389936493777220552031540928405864058668988980852162560.000000 -248357483041927405280121038929533115339049885404475516570195456208981948792757845633229104401918065282954975327125288123803631616.000000 0.000000
-248357483041927405280121038929533115339049885404475516570195456208981948792757845633229104401918065282954975327125288123803631616.000000 118312226181335598154082404257935073499060240230987159591762259887756355663029501390495059341940995130835950277518616901695045632.000000 0.000000
0.000000 0.000000 0.000000
1154922975958318452619618423721420922660789214015398964189578675214828148497532489424443211987844594834762986772573562105587826688.000000 -841759045497997552900450009726578490551931999823005881039288041293404801327162671628159091614580981003067006912750580793855705088.000000 0.000000
-841759045497997552900450009726578490551931999823005881039288041293404801327162671628159091614580981003067006912750580793855705088.000000 307429332166514386932633886420377813288883247901734298787619678353849526449533844171645678707503237647017990611502258677950185472.000000 0.000000
0.000000 0.000000 0.000000
1051219227386372175561315442442967773047410003227514697492119906413343213381722732455972689682991642810637188739916374540636127232.000000 274156099546241498797453613562789943704053961043359328493486229457387531265493204710540666033013697464364183418283174370150973440.000000 0.000000
274156099546241498797453613562789943704053961043359328493486229457387531265493204710540666033013697464364183418283174370150973440.000000 45603033559592168639713376046252115381638312312500926304822319129609835111409724639021716108736581120804975108917206676500643840.000000 0.000000
0.000000 0.000000 0.000000
218290856420180835197918013941419225347939962429211041450361260984302747423530249549775550290926405981305795850379450940699705344.000000 133717424308321600592496208783672798885575558340149275737335147400052705952597457614654722527915192609738249923031797334687088640.000000 0.000000
133717424308321600592496208783672798885575558340149275737335147400052705952597457614654722527915192609738249923031797334687088640.000000 44002526000023906260055038197871158045800003711028084762150329282689431446609935437740218421812871426438732458934658390625878016.000000 0.000000
0.000000 0.000000 0.000000
1781785009460240381376625940550418196746717951221440220740497814539025390682822270159427711589871819680113679911215068257315717120.000000 1837518701060505316757090432443126642238167355463688797362338161423890463018062895930076211841696693983489497047720266670236762112.000000 0.000000
1837518701060505316757090432443126642238167355463688797362338161423890463018062895930076211841696693983489497047720266670236762112.000000 781045965753531647056648978773192065462675226414244375550115398256351396732445873848070852119606140479414815677635987758303412224.000000 0.000000
0.000000 0.000000 0.000000
222371158982519840414243891800209026728756705121677938945800576246385901553073249433872638826567235197035798489060951285355773952.000000 -1092293709606382124203755953940172727828616181584739610577251178016845430751612699008034938739438948985544528993244838118675185664.000000 0.000000
-1092293709606382124203755953940172727828616181584739610577251178016845430751612699008034938739438948985544528993244838118675185664.000000 587556227401738929730967260043767991133240502643213653177332007352998742430227446831484131902456081370828952231468141976769003520.000000 0.000000
0.000000 0.000000 0.000000
7297064122383454025384314224466641270938877803536327436140057403246134117483334981165251138635480521384419994088018847266913648640.000000 4646838600311061794688424887940073693084246534656112927844298247031139179335501649941309456577414685358337431433518915584046137344.000000 0.000000
4646838600311061794688424887940073693084246534656112927844298247031139179335501649941309456577414685358337431433518915584046137344.000000 1566441594620331567060245399412097100782414408768691046405081986489215294017930701716247884886547877863082738051520010858761551872.000000 0.000000
0.000000 0.000000 0.000000
121809259892751491117906655225835615973960347664433698707002698307545156142170476830486855697389023963781611943913496909493305344.000000 139940032657265721771017656432851142142566814134054546517085985644402837463172491644397125093530358919128736138870266996197425152.000000 0.000000
139940032657265721771017656432851142142566814134054546517085985644402837463172491644397125093530358919128736138870266996197425152.000000 62688588364119582000258463874486332891141139342914015610496258508775544977746569690638956926930450543155278093635866074309197824.000000 0.000000
0.000000 0.000000 0.000000
622679884515625174019416901114161714956373930501805306646525471592207887915818665212668543886230184631743977852197225895328481280.000000 789647840352507501645602157386536919409014689525534349728819689501384272732962311619250283033733799731270711070166412703635079168.000000 0.000000
789647840352507501645602157386536919409014689525534349728819689501384272732962311619250283033733799731270711070166412703635079168.000000 359875303968075942189912897408344831134405104738244001549638618461829696837049536725453394989426758871922324879973964553096527872.000000 0.000000
0.000000 0.000000 0.000000
-5242906741067536075126304147993726583774141501542269531644096874560057046682119936146302815741861249726866640563894034188206080.000000 -1188541045917167291750014926486383481455773081492628815621975448768467498797223609594680584520543891970420678786263531730763776.000000 0.000000
-1188541045917167291750014926486383481455773081492628815621975448768467498797223609594680584520543891970420678786263531730763776.000000 426411805057495957221295897371534625468175566302842697084423250748324909137227853678642873018756729435162010580453638876954624.000000 0.000000
0.000000 0.000000 0.000000
-6605484227457425636525429739694931213141811611028388580857986791301786132725874247885189198439179368954632610007636232205492027392.000000 1848981285157594460070283163358961245067830011679938859074330998161757734576398918738607287951142479034210373244276449832553414656.000000 0.000000
1848981285157594460070283163358961245067830011679938859074330998161757734576398918738607287951142479034210373244276449832553414656.000000 752859176629587655828989352898364550599304927598410363239631294907757528020346477724586570651526936715134955714375295846062227456.000000 0.000000
0.000000 0.000000 0.000000
-547118048291494856548633108352820279752768553332112903779362504257260270841160365412536111452218257677343326945492859347452035072.000000 -1003052749609621190880683068068196964355180465056939590411278071196304125568819788780257612072929814522806570507513910250218455040.000000 0.000000
-1003052749609621190880683068068196964355180465056939590411278071196304125568819788780257612072929814522806570507513910250218455040.000000 578916281950438626329188743368930708941035489651835464996122300327118011689615963887449360196039380071435525027851141957787058176.000000 0.000000
0.000000 0.000000 0.000000
-1061746337102635358878995661273801940288619273278228710050821381382464404450111844931745370734179941934280685401055500152894128128.000000 -668928339342515012125178191972118130404841425060683949799868902923458936739097098889828375858814405866951215217747981525346942976.000000 0.000000
-668928339342515012125178191972118130404841425060683949799868902923458936739097098889828375858814405866951215217747981525346942976.000000 360308601431703588502738674169841458668041398855345666489690999366871053535846934523767949395921159796716893548145373633589542912.000000 0.000000
0.000000 0.000000 0.000000
-21222246696129766722111165663549906659199151839483798334940746577566617883974831292184418973396513860507436381234107694681423872.000000 602664285460151639656944637987761530401705550311302306116387427689431656942910431593047350016078556699731415034679077866177560576.000000 0.000000
602664285460151639656944637987761530401705550311302306116387427689431656942910431593047350016078556699731415034679077866177560576.000000 336930343538853803398159017350526258455530100749089757416689939339351328687063334366604026088485057996186681548803110611542081536.000000 0.000000
0.000000 0.000000 0.000000
-586815574192048512748749473055843780569299606414971793436533769064736037812410701466412725500705188585037463184799523257345638400.000000 472681362851521087536770845172894813698844627433544886162390949605534462002935462742666789330957571383627181876953538512608559104.000000 0.000000
472681362851521087536770845172894813698844627433544886162390949605534462002935462742666789330957571383627181876953538512608559104.000000 260056841593764259477721147374844926538457021024361593827168404805720329242335270312115282542022478966036988764126903242667851776.000000 0.000000
0.000000 0.000000 0.000000
276630322760738476866552471567573585667465703195805084914308812191983642781588947446027459253114008260881902227477711188396081152.000000 -171841559462854739386154339653551397936297670125700061737356371229498364352686254648448611740850382615027517943517025272487477248.000000 0.000000
-171841559462854739386154339653551397936297670125700061737356371229498364352686254648448611740850382615027517943517025272487477248.000000 58803482739558374679845308618145230148639183509599207964800541193896548564387990488413707011457760576947650229198540289651769344.000000 0.000000
0.000000 0.000000 0.000000
-30118419613336416155019025854137867851527165246262853702407523204376660542987987055643576983939131171766348823549849009410539520.000000 8667360880610266471912705778365537086755417890534436726691167850830268742918944875459151969319925252734741131826649248936493056.000000 0.000000
8667360880610266471912705778365537086755417890534436726691167850830268742918944875459151969319925252734741131826649248936493056.000000 3736381210457848236369549838635143922932837951315299793425785661536591576442980149118624722966333355158295984295973964742656000.000000 0.000000
0.000000 0.000000 0.000000
-713474235389752356063625624449991550425376969903799896240040504035209271487300177056195841422209423677603216401475376864959660032.000000 -494013310326491627454074418783271195062424067657284755346300016308881280100074100225504157515604903859853138459858239749087035392.000000 0.000000
-494013310326491627454074418783271195062424067657284755346300016308881280100074100225504157515604903859853138459858239749087035392.000000 271112348477267385364396700228567088051279861700918624761142680571872416349651660529512451255762159228746528686533794284085182464.000000 0.000000
0.000000 0.000000 0.000000
-2643525079639748933165291188489956103080256912379951678087638283304052469386920003436827570495406225337884971843384523924187381760.000000 -934022669656591522561187071792957064198495001205478850767529533326157014324719432052088539465779941146365661134702811648310116352.000000 0.000000
-934022669656591522561187071792957064198495001205478850767529533326157014324719432052088539465779941146365661134702811648310116352.000000 423999234866553624957281334886479145349916112437848353623600729389299444541656237526804691738878393372781503535840454349714096128.000000 0.000000
0.000000 0.000000 0.000000
842877279331418091650582947458579556069310828924623503975383614422593080826721495651868146777706652964094389129032561433941901312.000000 -2151767271965040328340577438632889867364123696568474729304203604980609712921731908814658167317117151315160357548318794576235069440.000000 0.000000
-2151767271965040328340577438632889867364123696568474729304203604980609712921731908814658167317117151315160357548318794576235069440.000000 1116217923789872571053795346256883454934251112142653312111741520690592321252598116124781818558525531398549974668509159450101153792.000000 0.000000
0.000000 0.000000 0.000000
11896908130910017402613480679864444472295093666649866298037254068611885486386840178823938095169078205848725070836432219995635712.000000 1747462748745662674118063436825357055714386381120628897189821976929009358517499342403501683683605728377501554307539303464435712.000000 0.000000
1747462748745662674118063436825357055714386381120628897189821976929009358517499342403501683683605728377501554307539303464435712.000000 236782581971636362708101506511969234421302550456902264224819285055287736726009865338535327831676867333997691949370153956802560.000000 0.000000
0.000000 0.000000 0.000000
-40653430262455764983802153831760496798840038139378857975283974071236107616738101606604197939460014664577670239742829148288577437696.000000 5254192250407962973040476087506444177797608109355210608147734780683501310076853578342375371024370111621371824336079394819255828480.000000 0.000000
5254192250407962973040476087506444177797608109355210608147734780683501310076853578342375371024370111621371824336079394819255828480.000000 1241680531158966006934616025400036302367847604329221143637765390584521267362733607680150361387209277527530211449658732975822471168.000000 0.000000
0.000000 0.000000 0.000000
1288184747327978702638991148455237062407208033809225335519179839343404028564408292289786021240166421706518540556953119815031062528.000000 -935678238905623768351170718091283905316671523758931554574154912743371037616746994241277588201753268062365869359059932866207023104.000000 0.000000
-935678238905623768351170718091283905316671523758931554574154912743371037616746994241277588201753268062365869359059932866207023104.000000 341318402138196543634856001957172493935771986503760687214200286246848843864368654880111530814826522730755617443792742308277911552.000000 0.000000
0.000000 0.000000 0.000000
43815726578176321861458840923569713369865189766515406556450010994951881293968345781455771464987615166825488679882104328645771264.000000 166554918245928659973395977424140340889497285948925633226581542008494157527071678821929787661196795240785919822858848467068911616.000000 0.000000
166554918245928659973395977424140340889497285948925633226581542008494157527071678821929787661196795240785919822858848467068911616.000000 88704064523248277948809322436818050181113494412562743505182046126952481830118438678219978877065629304763770943960508718576041984.000000 0.000000
0.000000 0.000000 0.000000
-6253806927652718189845855645563077138537327284668823864410823945210402007244293770125857659862492244039616907098226125829448925184.000000 -1012710193122579693505470320647833376794843501233551567087649581749981390814587775824261049651940132554197516248406470504352841728.000000 0.000000
-1012710193122579693505470320647833376794843501233551567087649581749981390814587775824261049651940132554197516248406470504352841728.000000 287240390587830579526899474753121522160005237959088299164830564971166797690271314158239440846709497753635247738515427139447160832.000000 0.000000
0.000000 0.000000 0.000000
-805054838803460439020176279985290457004929937760592322978171796143389468026433364696200140467060880904515857104932577981065330688.000000 -634851541752794843950126875063445680855951134371111588746568645198136062778789826837512384307914624913087499205847633961722839040.000000 0.000000
-634851541752794843950126875063445680855951134371111588746568645198136062778789826837512384307914624913087499205847633961722839040.000000 354459553211759451132429696086213656374916472087017022395316620967260565835833823134692133905855578547163704546968113275385937920.000000 0.000000
0.000000 0.000000 0.000000
32909349838234370267580208100844614346536237531139796738716277758798646701296509684704602514786169415203569506587268368826368.000000 -46612139617219414052898095467669144709213891318743087765393582077931937427616650006660207065742360225056450565896622273724416.000000 0.000000
-46612139617219414052898095467669144709213891318743087765393582077931937427616650006660207065742360225056450565896622273724416.000000 21849002951269543889505135614993778217753478775639008640324522086771502208983557132235139028533675751640047371817060115939328.000000 0.000000
0.000000 0.000000 0.000000
5443859292592939398807559394365880233709624521033719636417142917295431204005231568854607317824529830032914742071303438262599680.000000 -3513915920690850070474824007029417548458686269580031922240218255292866936116747421627003792906304048105233049059502351513026560.000000 0.000000
-3513915920690850070474824007029417548458686269580031922240218255292866936116747421627003792906304048105233049059502351513026560.000000 1438578767149066579124996532152069537393922007346548337912108115512528528383769527323157385755610870582904919585209450311450624.000000 0.000000
0.000000 0.000000 0.000000
1029850922928440536042749516512762135205496722988403690382250337684305664065771876903554931979390787448332593416777055540946665472.000000 117080701234022124886309121497352138870912089495281321149773900628345084275193409992171743948557023521383373438459312514787180544.000000 0.000000
117080701234022124886309121497352138870912089495281321149773900628345084275193409992171743948557023521383373438459312514787180544.000000 8836134288063525546152255936498337515925344584072585388231233769661431846120492293981512673782116153887471951227431850239590400.000000 0.000000
0.000000 0.000000 0.000000
-636483262721847044118226603803098014343576458365765044610243322268125139806963215604615568598249254900939800624356008110931836928.000000 -125927189389878048157030719177559545993872325227584911162131903611889916855548545866431822407376920317042046928325555314889850880.000000 0.000000
-125927189389878048157030719177559545993872325227584911162131903611889916855548545866431822407376920317042046928325555314889850880.000000 41266883694674879317190540340568904760855789975561372573603907225853224183913123592531901851037475106688587831406988071566049280.000000 0.000000
0.000000 0.000000 0.000000
2277965486672586690266520349392257429995074447936211026127330540154651234950787339524997120292381105229757956268061250092816924672.000000 -924299321722644426199094000070835676235811004006735192277788258376562619958609634796206634302568923591769473577949661844077543424.000000 0.000000
-924299321722644426199094000070835676235811004006735192277788258376562619958609634796206634302568923591769473577949661844077543424.000000 232807758125979448460610095717124089363188937845514968495521548007017374851924046170867744013624588066556117206874870373054152704.000000 0.000000
0.000000 0.000000 0.000000
7486491002408192978337304735439257479208402757254042462426582526040669559663973124190013896386108612025685294995337310768201728.000000 -105990054201603307060536136804722909970197446150382010322445466404991936505765784549829721141374615521557142261134049630048223232.000000 0.000000
-105990054201603307060536136804722909970197446150382010322445466404991936505765784549829721141374615521557142261134049630048223232.000000 61467381332451192106864663604327057746130992608568029821519842710934106475953818434130400584216738564242224919682324899263676416.000000 0.000000
0.000000 0.000000 0.000000
82484360262355651405707380795374414929358693377161147126274512756848088643766971330385006334012492405771014802120994423507517440.000000 -99633377575093646408297919682811133928286311303290890599574089299781688384046153727281839084603056437984610120598664729004605440.000000 0.000000
-99633377575093646408297919682811133928286311303290890599574089299781688384046153727281839084603056437984610120598664729004605440.000000 44814874562696607892298784322934725551461404519555705321694469955611701676712228636234828752869186691414793456665379606836019200.000000 0.000000
0.000000 0.000000 0.000000
419195931125417918685198907331825513971614479581768826595571664336774018647148040488532572236291719231223174492402823954652200960.000000 -194676895562862905788070637449912008763598079181539977102103006202361640203788939797242522627131751469828457822410741537635827712.000000 0.000000
-194676895562862905788070637449912008763598079181539977102103006202361640203788939797242522627131751469828457822410741537635827712.000000 59504435142985297826515801445702227199069320080851746004907759243083336810529161226884242833844491158027605885337655997716496384.000000 0.000000
0.000000 0.000000 0.000000
-3896488658206821528724013322333169818676885569123435017151284471028865184759431700160982739837781765609894477977995065302926229504.000000 1416589494137307221602579071737673993849739144612065507023453093022260593517943876733751112919796416711780994101536805171759153152.000000 0.000000
1416589494137307221602579071737673993849739144612065507023453093022260593517943876733751112919796416711780994101536805171759153152.000000 649487830299920477044761617302482140304698016201938408905844985100546144225717009246352672729986286518908717164857714573662224384.000000 0.000000
0.000000 0.000000 0.000000
568029495753673450513206991857957725445693324620199223692931642273186311099761370231809278978732381229608552790432961008351838208.000000 -203511186976979718370567832044315628705935426673097271712408963564042032434694464143800781358437339473453403475653645367561420800.000000 0.000000
-203511186976979718370567832044315628705935426673097271712408963564042032434694464143800781358437339473453403475653645367561420800.000000 47566555804194079821700261540094265005568614096380865244607550629539377994848791063138253911747150327284561019923977634066726912.000000 0.000000
0.000000 0.000000 0.000000
530969740128338695605804469526567467877375620803223626090131920131215945597182241985508723056560798292671944766351618763751686144.000000 -68724302042237942634761859550184198030226611944421304911271007819959708766738525072461656865275772898961236584757716183521689600.000000 0.000000
-68724302042237942634761859550184198030226611944421304911271007819959708766738525072461656865275772898961236584757716183521689600.000000 5883934288262687630150877507983598360071442462636335359886032460008248643582473977925353888717530373815414061701765456786882560.000000 0.000000
0.000000 0.000000 0.000000
-2210928995277744878171155936978705086188819649719611865176708669771386414706328315110706901327313371022494924318455460842700800.000000 578036960491627131607087670740875399388179191887036462845941554573895941650300897607777307005875510184351646091605462105456640.000000 0.000000
578036960491627131607087670740875399388179191887036462845941554573895941650300897607777307005875510184351646091605462105456640.000000 228513129180545322730962970375408468761994279972575375643932087993433801739191009034977963827260081767553384323388313712984064.000000 0.000000
0.000000 0.000000 0.000000
134421948177280474009976390756240815064264274718851497048827945837888551752946033653182735496812159548867509047774089970125373440.000000 1217438289075675758007611729350242948055706801528465577935424848565075316566490169273766186277512387522854802120902776627235127296.000000 0.000000
1217438289075675758007611729350242948055706801528465577935424848565075316566490169273766186277512387522854802120902776627235127296.000000 665182905856903820071117614696270751176354258038200705458936637602769993140956848407968762134370286760867573585776081978907426816.000000 0.000000
0.000000 0.000000 0.000000
146062352004892084533940661062638157703569725883976173545555511280443051294010805940148249668013410097897699696772929910242017280.000000 -209319275403815441888810323852624059841051621650184645607203282939560498577302014844137537818889827048144681559125969034817830912.000000 0.000000
-209319275403815441888810323852624059841051621650184645607203282939560498577302014844137537818889827048144681559125969034817830912.000000 99595645886659730512187485316154073138719617454237544878653213710673139042859190071344944418173291548531657161466164089714638848.000000 0.000000
0.000000 0.000000 0.000000
7281863779743893697200333960065166715917672200154650965172391767221323524554919749363054522879582734611147564054445927880982528.000000 -80691787138613494523703982750668038071060329054482075242436240915561534422533363108654630948141023250026150220268453739848794112.000000 0.000000
-80691787138613494523703982750668038071060329054482075242436240915561534422533363108654630948141023250026150220268453739848794112.000000 42432574944119046525945656272648430820232874758350914045930658047034380405983809020543237852439025032350257355162711181053919232.000000 0.000000
0.000000 0.000000 0.000000
-1421671527862383858869907890273118171942856119963234810335361777272756014937596423401261760452888894030313737394265879718202966016.000000 242579621026784891915073510714761802649040342155197539943550599186386778786097164039402408072531486484867501232417247144563441664.000000 0.000000
242579621026784891915073510714761802649040342155197539943550599186386778786097164039402408072531486484867501232417247144563441664.000000 71333424759502679413378497901784169996328756170271623657752529776493121824866965541314761887942353270801563267712618740903313408.000000 0.000000
0.000000 0.000000 0.000000
-194733787053771990767461221528568139016151860429424445687716539250089063454239766066360509525784128532371354666894270182641893376.000000 4909426134798792678687208430956328738573336437946316048218044580534598209036956193252418011668293250879533521914747589347579527168.000000 0.000000
4909426134798792678687208430956328738573336437946316048218044580534598209036956193252418011668293250879533521914747589347579527168.000000 2744763940988257203097009366936597917258171256487459236315919910043618555880313537534609769831722687560458621635341033045384757248.000000 0.000000
0.000000 0.000000 0.000000
3522922212075695793266209891192850744760333691145139293549218199087788369237387100241898150201700449082505332182370484442103808.000000 -1215035597428971435570094919109579247777455818320208445690018751524702375235573067738564846795873832015625052392779418387349504.000000 0.000000
-1215035597428971435570094919109579247777455818320208445690018751524702375235573067738564846795873832015625052392779418387349504.000000 267397498232486710792288242241239659221739120931434636200334507688254711717366679730398392792174351559499494733095623551090688.000000 0.000000
0.000000 0.000000 0.000000
-1370077731501848993407961933660078524086838855189509730933576076698214999392242828637751937552768234287341504603043247470413873152.000000 -3722678115121067013823305923602065503489426627209441164458824598101264807010575453530602175081381515942993142891991910580794425344.000000 0.000000
-3722678115121067013823305923602065503489426627209441164458824598101264807010575453530602175081381515942993142891991910580794425344.000000 2146054497251174545864480143467962949000315885381740770402971249065390155659934238595144486364217756544947916616419043939109044224.000000 0.000000
0.000000 0.000000 0.000000
-1299107753911421748050326611626372044623591115027011443060513186041248441540296461339817777246589205366686733085504123969138694553600.000000 -7067520790788843460763077274186744476675058022403047667608155588834355213144258533446789715496137866785592274389037292875247779840.000000 0.000000
-7067520790788843460763077274186744476675058022403047667608155588834355213144258533446789715496137866785592274389037292875247779840.000000 76918827819627513071760810301499778371952729867848900242671880689155683168310450519308248267361632594511574298196179775047860224.000000 0.000000
0.000000 0.000000 0.000000
421251318899600198072302307420190922359594567033735852274650884826150395016051695128860079420908794245799670655320603039467831296.000000 590084820172613980705745361949816731021513948378114529686208172971628545075378605372284730841444132198773294418343098306030206976.000000 0.000000
590084820172613980705745361949816731021513948378114529686208172971628545075378605372284730841444132198773294418343098306030206976.000000 277567159855674929762556728989086204074440281027199773192445648662018615996142102043838096965752553608420949938810930520307793920.000000 0.000000
0.000000 0.000000 0.000000
790081037925028956861563203753832190515746821138578596275903281146309953156949315128529288022178717465444498820394801033998499840.000000 1344165967112738130552550631044273912468352336706460872058980890280230002714591784842420785358223478783508026695691283152622321664.000000 0.000000
1344165967112738130552550631044273912468352336706460872058980890280230002714591784842420785358223478783508026695691283152622321664.000000 654653455480015250572732873770631202263295459287199149235539886192243338292623016130892874619719291107105790102495833382293864448.000000 0.000000
0.000000 0.000000 0.000000
-342578772243599001361251058723817398693900417457989714289974717467924647714000202544337491283078393256032422654399437632226459648.000000 82766935786969102491250132008896074640657058017846663341476835762160303037651779221006775497299719539086783488682774853828214784.000000 0.000000
82766935786969102491250132008896074640657058017846663341476835762160303037651779221006775497299719539086783488682774853828214784.000000 31601640506570827488014244199407820327983156687371089239996109059396592252838275726082256225119468316969049188183028664125882368.000000 0.000000
0.000000 0.000000 0.000000
-361920629600703235847911231536539620992515663941147171388448022709868615804092794054867147304399973390699958548141319041023213568.000000 -361119877496723850712638777247268934417338437888913796578616450113602229698189102803355429062782159128854750465432881464017420288.000000 0.000000
-361119877496723850712638777247268934417338437888913796578616450113602229698189102803355429062782159128854750465432881464017420288.000000 205404069297420357746439304754619797069782622532428672100890823667049392161936467838218589105649390959473269776814067425258504192.000000 0.000000
0.000000 0.000000 0.000000
-3202405915963268979169301976195866185875151243048805516008312929180705322899304305618299277920718417344325139583293983341053739008.000000 412123421792846924620264520144527372395732399632982433092209513440439272636156002915692078854634163776703149587242446082684223488.000000 0.000000
412123421792846924620264520144527372395732399632982433092209513440439272636156002915692078854634163776703149587242446082684223488.000000 96906830299764528894395470041531998529798584729994853283871987401526759191381662888948843732148899952989031013896217142117793792.000000 0.000000
0.000000 0.000000 0.000000
165752957739442957598961954997283100257740400555786570652249832879132854966687408534945604629890379747205827336943085321701031936.000000 17777969530406587233051072344833687845591413519378262526849195864953231142365864484670412017279241950642361750404396209359814656.000000 0.000000
17777969530406587233051072344833687845591413519378262526849195864953231142365864484670412017279241950642361750404396209359814656.000000 1334769756007771014010871910867779958417637128561752713055832564804039278827887745532173014689117639858118976545239085669679104.000000 0.000000
0.000000 0.000000 0.000000
-13628187229078394670282754696562502102792171178448183191989933492843411079018207600766896903820434122394382431208831125496814108672.000000 1077341947967716982021785220593080251537487709713125084985474524584862921197193152331900411741531959149992317381425692713775267840.000000 0.000000
1077341947967716982021785220593080251537487709713125084985474524584862921197193152331900411741531959149992317381425692713775267840.000000 164680988413872760817050759671679076086282992737349543920694408082996693151464102263120607935636972534648401165086698162255560704.000000 0.000000
0.000000 0.000000 0.000000
-1349923472729645818330163870441337681914594775197035587515147640038730075933228436191847287382405711492369345984017691618312192.000000 80739786706602970828620356550580246740599834790826310027252625847718114175657955523454369051172178300382679122571330783805440.000000 0.000000
80739786706602970828620356550580246740599834790826310027252625847718114175657955523454369051172178300382679122571330783805440.000000 9712393862171205212206350365318972242072368595796033730673508163204291009090984594938659187741695728618550225033428509655040.000000 0.000000
0.000000 0.000000 0.000000
-3652904928194551113631976231025252828562940197902996230271030451618109252386419498896045507763431161680947293876871405417906831360.000000 3645553620433803584564283205833714401335285778207991897836505617955752052514737054846268121036241871780609646005894480357280972800.000000 0.000000
3645553620433803584564283205833714401335285778207991897836505617955752052514737054846268121036241871780609646005894480357280972800.000000 2073458543263653042328541541236487117522968384508753648944815532529674067394843727578780161012926364793321282018130083523304882176.000000 0.000000
0.000000 0.000000 0.000000
1441616512848776109543123655087288427022243099630034999171398117292236702463886853364374607448541618364529676462343912410841088.000000 -3269786257108981302193907448035760819337553074894480963538592240844179519090431505062517311063187450191797209974342608014540800.000000 0.000000
-3269786257108981302193907448035760819337553074894480963538592240844179519090431505062517311063187450191797209974342608014540800.000000 1661550996357265906766377872417020844905187881762248419955260935111131327608948645894629368084880698164417668609403872488718336.000000 0.000000
0.000000 0.000000 0.000000
-7957740261683169160188712095290742745260512217980315721949897977315122070081012951728300806406468935571050682700208364207472640.000000 537216890585170814291637447528826170094931697580035904417186889052121037038834918409492751806517851199348952505611929498282885120.000000 0.000000
537216890585170814291637447528826170094931697580035904417186889052121037038834918409492751806517851199348952505611929498282885120.000000 301069892344413906006720499424493335234635915929961046075634605975540673996817109530774079115438292924822004521213277164638568448.000000 0.000000
0.000000 0.000000 0.000000
137233424315516439628070017299419058007283987384779877571803914243220546955308523227649400422475327815445866770196209130799104.000000 1042353921446704951810710778005917751945954460643374157343432128175680031442811702179221626850426100810637129118516157173727232.000000 0.000000
1042353921446704951810710778005917751945954460643374157343432128175680031442811702179221626850426100810637129118516157173727232.000000 577203686284676281592651914229364351873054735400423274462892065098824128371057497108965241830981945147153844735568361138683904.000000 0.000000
0.000000 0.000000 0.000000
107738095563248187779859699908631693219836621227714974420757249912290078984378997306864498603535570281462278563184147493348704256.000000 136397192217513780451653411234067428702432601451296494435034508949173911586327453652602837614104095791465120758011220095152422912.000000 0.000000
136397192217513780451653411234067428702432601451296494435034508949173911586327453652602837614104095791465120758011220095152422912.000000 64362229730559317528152092420330982531120729188473039183517353858624542829903343681013493010698208932490848241383577976599216128.000000 0.000000
0.000000 0.000000 0.000000
-1090783851712079340669001066603617951497602282206336086217246805960700924723842587418821055262255920734719302075898106648159322112.000000 -1014450369899414402661979894545912432548047080707200311707909426017472805762195402290647660417604932273651096996527930647393599488.000000 0.000000
-1014450369899414402661979894545912432548047080707200311707909426017472805762195402290647660417604932273651096996527930647393599488.000000 573528118240671599417358552645395405366381203040167547619010846536221375103327328158190708475608152376789221598410235664610099200.000000 0.000000
0.000000 0.000000 0.000000
8230181740682359694078951139045480035118746594999096202746309784069487249128157433039329257002992143933198379903470420956807168.000000 -62777928877344601983185330186188771831025188655560603468783348394839712876477434370669492587266091154040464885743391001427312640.000000 0.000000
-62777928877344601983185330186188771831025188655560603468783348394839712876477434370669492587266091154040464885743391001427312640.000000 34249580717180865468317212236038451451568336361734275676484681909438660936481320848716735154699077232555418449753075925114683392.000000 0.000000
0.000000 0.000000 0.000000
628814176778233794692063045060833035004147640913433970194663446479250549812451141541596114803866114763784859486969668535180066816.000000 504035376253574818052628361951131171115196824363633930901071780479502703819931322706386766810833336817792577172351474457890521088.000000 0.000000
504035376253574818052628361951131171115196824363633930901071780479502703819931322706386766810833336817792577172351474457890521088.000000 192997705625440338807461377398871724081121497146801835663905845810585608184038458746263515919705753894648079529259311027474923520.000000 0.000000
0.000000 0.000000 0.000000
6518073857874195761703432166674103556375275834916851719311394289590211410965754351963131278090017920668746601541348660957151232.000000 6615116173864721796177007261579272439933794608345722782368790590013160867404756038696680840710015534088477641055185351995293696.000000 0.000000
6615116173864721796177007261579272439933794608345722782368790590013160867404756038696680840710015534088477641055185351995293696.000000 4274189381194699938623976356294129977129231403626990975338597448865015485537255736405406476328996937716852781129428895088508928.000000 0.000000
0.000000 0.000000 0.000000
-1325839045490928393015184115762963024067659406257444880039969107764282217128789004930000724875816118586610094105693273393356341248.000000 -733572959354773387499753878141430245677275685155882676105618537421481343750321911669713529897662196717154944264017326966728294400.000000 0.000000
-733572959354773387499753878141430245677275685155882676105618537421481343750321911669713529897662196717154944264017326966728294400.000000 385852532158271877755378954345596643202238307247466671374282629064547475261382718926771783501245920304559121829101344489230827520.000000 0.000000
0.000000 0.000000 0.000000
5216810419480037479528451442414122221350294230165136285033954145404389511330600325369708918238621946525516909512138840242082807808.000000 3423567626332983355292668145754757230582690475294681458623974872443857391534614486798371683415853944782604483612289546415352315904.000000 0.000000
3423567626332983355292668145754757230582690475294681458623974872443857391534614486798371683415853944782604483612289546415352315904.000000 1175376084867649397694476203314039821533959790009057820744064942780846180032478487501270626467469298981744718143816155926399811584.000000 0.000000
0.000000 0.000000 0.000000
-808165540034964487500243238845478123215988994133436912415684214385077078429172182351923652470927168212519012584919821063139885056.000000 288441592454169721941176457663569805534065233410335627464306178173191330987840005199152769157974841714401524750739233172692664320.000000 0.000000
288441592454169721941176457663569805534065233410335627464306178173191330987840005199152769157974841714401524750739233172692664320.000000 135548027127775023617066605040985128918514936267712432715466289609982519738627667717472620635032684983152806873499943083035328512.000000 0.000000
0.000000 0.000000 0.000000
56792568630549881635360817532239725837826850139305170629776510869844803646218609105872550535315421126676022653916480652909215744.000000 114998378256987971241343807452361059086601781257871479544430384914034328259486522399094546656339975963114471674929924734711758848.000000 0.000000
114998378256987971241343807452361059086601781257871479544430384914034328259486522399094546656339975963114471674929924734711758848.000000 60841341276923956499387698056745841337577834814941439252689400213842299975285556483304748970872716895780727358030316868703617024.000000 0.000000
0.000000 0.000000 0.000000
137055950809274166637735950629818135513170983760175330349957356535424516795736653450988375099655781971328137762427010691341746176.000000 245572974892642510509016782393708548907059471780481959267206095771629469982533023641034567618838826488517282860260748991582437376.000000 0.000000
245572974892642510509016782393708548907059471780481959267206095771629469982533023641034567618838826488517282860260748991582437376.000000 120685373746348448707152053280977465105738316374055051398819104030240950795887526247910366385871205278067960342775573491421806592.000000 0.000000
0.000000 0.000000 0.000000
940570205664182763400109857981820963765869582266138852817322217677166484839450153002298579092839789830726696718158220613310742528.000000 -1760009513177200210187765097799158821114096757397640383859898814354014833631844138186198929977209932823169785753614788185104056320.000000 0.000000
-1760009513177200210187765097799158821114096757397640383859898814354014833631844138186198929977209932823169785753614788185104056320.000000 870587606148223781261666777325870497528072326273413806035908954341028389200340183201855836415663987840419613211983368412534407168.000000 0.000000
0.000000 0.000000 0.000000
605667521725623625626257214246308562714873504596173083324468345669530235376387917966844154607962195293419511686840599760412344320.000000 -327565195483425935102133937125790813026309521001898493775965496660436460873721536015472451063348904987421803929977368590464057344.000000 0.000000
-327565195483425935102133937125790813026309521001898493775965496660436460873721536015472451063348904987421803929977368590464057344.000000 99236560255384239761294036624043088534106054726714265095026305981854619351191363974365615258193521894799286366578842114256273408.000000 0.000000
0.000000 0.000000 0.000000
387495513157445337738519189160821710069847933275776645163113387291673372092614753892249098850520419748768454832373158335949570048.000000 -514579680789757878869632042993440847246544627927857433480635588031462587185498808263390028961935880829457859522315152437951856640.000000 0.000000
-514579680789757878869632042993440847246544627927857433480635588031462587185498808263390028961935880829457859522315152437951856640.000000 237415343534806608028623071499103971174097996112806066485627196294181979460350489142233694696674543261447306366052065088962035712.000000 0.000000
0.000000 0.000000 0.000000
218388204060816530772408747954982481540195763259629738716325493336200832697895947827236304279957924994420184064423930126372175872.000000 -52956424381744834788631181245279185409772317064081253225942454437032685754308788373679560250525065319137103519214961663896715264.000000 0.000000
-52956424381744834788631181245279185409772317064081253225942454437032685754308788373679560250525065319137103519214961663896715264.000000 9232541691813985802790505117682822335902012768251907709945275159365330404411123132617216600063188122500608145617138471053295616.000000 0.000000
0.000000 0.000000 0.000000
17444805304431725659037253308842677958588559720765100748177371910755704074063356914454771484231603452482733596776994847022120960.000000 -262383688187415146547887006206829815166538518530319726260775629857140163447599697750056964016229839651308721177391009492616871936.000000 0.000000
-262383688187415146547887006206829815166538518530319726260775629857140163447599697750056964016229839651308721177391009492616871936.000000 144864298419628918510094535666782586035607642198798785992097970971912882441486916766330290071903411280446410842381578698179477504.000000 0.000000
0.000000 0.000000 0.000000
222733400528187318074301267883244191644577416327049249216531916671879784630432092056844884741851844378365087321836125706143137792.000000 199685143621782417244250007347537752631013735440477353523280096286876354521267260740400802728838254730393720772493675875534897152.000000 0.000000
199685143621782417244250007347537752631013735440477353523280096286876354521267260740400802728838254730393720772493675875534897152.000000 85352250557835129293283884002666515371563266799123991894957657167285143516151325356980541104836866496948170459497883530340335616.000000 0.000000
0.000000 0.000000 0.000000
130874053876785493402717730125204501226522606160814972297341615465650945218682321231718883385376906347292748843918433473104183296.000000 93597056015265130986302107901124049438585560116880595764022060536642698795172418025904575972288987825079686746745278661927108608.000000 0.000000
93597056015265130986302107901124049438585560116880595764022060536642698795172418025904575972288987825079686746745278661927108608.000000 25955118124214848071920087901335979987408866003685608565120368095747859666249420999919204309344161419719314085536210368386301952.000000 0.000000
0.000000 0.000000 0.000000
867742865953593942226018028584472265273646330052968504975332516806518112194901497734659528106104265628150135735397145834602627072.000000 2038717186401222124377253606352926122328696821220325019763416359991196468851679409337274012357235413490238530055055193117795811328.000000 0.000000
2038717186401222124377253606352926122328696821220325019763416359991196468851679409337274012357235413490238530055055193117795811328.000000 1039981861374130730123655452038311379565525414738070725383743243044336024457419854853508696271721287482602960043959286094693924864.000000 0.000000
0.000000 0.000000 0.000000
282136982270594706144819954755883793693333515357118651157866134178095695163292306816392106161371196623420712294431083732265861120.000000 198221233587173721320209918825397221202812557572238151546913117740285020918281137196748774063996342170490351036000632625036263424.000000 0.000000
198221233587173721320209918825397221202812557572238151546913117740285020918281137196748774063996342170490351036000632625036263424.000000 70828733855079103261049900142938145379460959222136501013336057496147644791237438451229457263087462042069220012953037338195263488.000000 0.000000
0.000000 0.000000 0.000000
-2806680748351463043912421509859322297235127053128408555678765354417149372476583029824116668844518380219760694973679373390643724288.000000 1664148145874766501925048584890550795553299512216175493796012909400996621132579889120812563535538327698949780626468765427564544000.000000 0.000000
1664148145874766501925048584890550795553299512216175493796012909400996621132579889120812563535538327698949780626468765427564544000.000000 884750401698099445467163278263631207728148102814628615079578443917605779796005283164653946443038100939763061257442647078007209984.000000 0.000000
0.000000 0.000000 0.000000
-281936499478187153254205490765862499245514601758886503438775100772789695005859756555999860264316840722401294099917001283600384.000000 325137894045150029431346928821350937690508483332576787315035228154972414926374776042658465041501465480200420815003523332702208.000000 0.000000
325137894045150029431346928821350937690508483332576787315035228154972414926374776042658465041501465480200420815003523332702208.000000 180748674746221835708537388728847254868189317593258119976160731264094343178719808849247371460737539848144057976467783208140800.000000 0.000000
0.000000 0.000000 0.000000
160671656475575065623583528022539436838259680032715765888732581321186771296136054377637164025642927738118470423381457833558016.000000 -920648699777724622765008660473765805837699424257290450131758770331059722417015575430459280973394263918160693621387650171666432.000000 0.000000
-920648699777724622765008660473765805837699424257290450131758770331059722417015575430459280973394263918160693621387650171666432.000000 505664078075194488854322673796261007289704161371683026547246857302629451035217216715953390037472282996088537916065033555542016.000000 0.000000
0.000000 0.000000 0.000000
1873895077248304249897415800879235914628516549430856535121726715348267734900686473371262210819748153764419092234975361998266564608.000000 1558043926051056659780801829388258559729537363719244334664124007781957730392900126343949174756784032341770715960547095683851616256.000000 0.000000
1558043926051056659780801829388258559729537363719244334664124007781957730392900126343949174756784032341770715960547095683851616256.000000 607255128392999219329068391469785159053805967308198690700566389545351471148995060767337665740581120694407993937591560087275569152.000000 0.000000
0.000000 0.000000 0.000000
291600966962870882491175589001718491517738766926114424082654236810723776766536021769292700352723879785010944132306197621564768256.000000 -86985771596598216816332448517575776017999739071459736671829800112153649254454448227330860368245866511252571163816110069538357248.000000 0.000000
-86985771596598216816332448517575776017999739071459736671829800112153649254454448227330860368245866511252571163816110069538357248.000000 16348519814839504534651806381480895017562869378485199079413495178750351782700133928786852113767250310960993231335545360357523456.000000 0.000000
0.000000 0.000000 0.000000
-213837386748236800879342556130761343912363007558016097681348815342168740415795149670177873535539947964079301151488701215025397760.000000 503727977359028734837876882581421106774282111215257876844403037776100469232077655283829686183418073876013976971228865716289536000.000000 0.000000
503727977359028734837876882581421106774282111215257876844403037776100469232077655283829686183418073876013976971228865716289536000.000000 290749427976991989320536006371200645597905241705916853489518002179087053689626616580418092621285564014732331242804849662092115968.000000 0.000000
0.000000 0.000000 0.000000
-3331459615159869544364978454085925426166038706265017735957444045205008539737883002057992493788744895965160141127184788336962174976.000000 906742322073544715635971526637783576819560188667862312334416456002952620382398302065060302123932633298475899988750659304955052032.000000 0.000000
906742322073544715635971526637783576819560188667862312334416456002952620382398302065060302123932633298475899988750659304955052032.000000 362397290012997796520537767232360634361049299387058019764022189678378293667356355392573971084927231408057573587713019939850813440.000000 0.000000
0.000000 0.000000 0.000000
1756145743882536234216896822036579645200481890850900124516912506061999295413980945578282607052307627670460200334184456443419164672.000000 1389920986050985883602319916606814956611182210498917156806831485945903681512564405713264568507721453379209990785166774334383980544.000000 0.000000
1389920986050985883602319916606814956611182210498917156806831485945903681512564405713264568507721453379209990785166774334383980544.000000 529043114615340466938839872725035184953797963641625630242044993634112824839144529534762463820864209071338107310852068039553187840.000000 0.000000
0.000000 0.000000 0.000000
-232896669849501975799769980265278742887192472862521056147953037583691263375363843521828736724976845755193950279688018922515202048.000000 494949988350813907459368655333251396402645731534433657925152447401840952372933355138802834108691687429493996615083828429245644800.000000 0.000000
494949988350813907459368655333251396402645731534433657925152447401840952372933355138802834108691687429493996615083828429245644800.000000 284135068021623283906766882075561935467978412405146194213354796215253666237978827426054467076597148755831132022831777849104400384.000000 0.000000
0.000000 0.000000 0.000000
-831629002753876292823249329585322583390073142579244876446391554242051472308115523845348585370524298552660028288082667337966157824.000000 -1284037217640144135461110995428996545490224215108812385182966408602471018555130724157110875870202699101180866146466829212196012032.000000 0.000000
-1284037217640144135461110995428996545490224215108812385182966408602471018555130724157110875870202699101180866146466829212196012032.000000 741548511278077006575255788460600074683655675088579304807374954033943622092707430952786270196465830484210588526898226682044350464.000000 0.000000
0.000000 0.000000 0.000000
-461678485995899970679890151874912956602192053726730626685460459180852873438401787659584743367758668667230063660137505648053059584.000000 -518034425162508406809382850092306144740043428351157685597054490369061724627970316992695584541603370599636359989664998555895463936.000000 0.000000
-518034425162508406809382850092306144740043428351157685597054490369061724627970316992695584541603370599636359989664998555895463936.000000 297222586028137562939142893762848685542475097662459161837730490313516112084196737251515947330271531041586552290662105595200405504.000000 0.000000
0.000000 0.000000 0.000000
-6587599149106860056203799657236140345735495933070030507846216635315850890178302153973602184961472442695983233763248001113638567936.000000 3169102872081275464214692718337617508502352569408447476221022681947678246207011529253289836393249501512492117744587141649214210048.000000 0.000000
3169102872081275464214692718337617508502352569408447476221022681947678246207011529253289836393249501512492117744587141649214210048.000000 1609253749974268023885297172872730862476376837783660813899174545315326879150566931376945933618209255512754158132457481406532026368.000000 0.000000
0.000000 0.000000 0.000000
-177597364683784314326388481971006906747105056883063012435771434553582202242841018741169678503839583565716250364412612193130905600.000000 -483001201384012215768408813143073045029356238215821737100330142857822834812119172328500761402413632236117446752848151973810143232.000000 0.000000
-483001201384012215768408813143073045029356238215821737100330142857822834812119172328500761402413632236117446752848151973810143232.000000 277571140872975081628677436549327889317451981132302152742563745668388827234478939428304043456456504321021647227687793734086295552.000000 0.000000
0.000000 0.000000 0.000000
-4107158119789397425274751715901014978226057955391158351288455137167755626418853653193300897141280829767643422055109167289684983808.000000 -1259734994127022898238978569877213664790447936463509804789180642658788713193524023303251073047152405589930186926108122712958304256.000000 0.000000
-1259734994127022898238978569877213664790447936463509804789180642658788713193524023303251073047152405589930186926108122712958304256.000000 539595874494372492128149304451874210546839229361616540680167340646236097488017936339682509951857388719274273460281298315674386432.000000 0.000000
0.000000 0.000000 0.000000
-2113917133057514942130150396648773361003073054543960262129818073260270028373093518613883083505173314569719943782600895523503495708672.000000 40359074440318306435978024051765363861383089303117936574418579709946029786118555875628881595706413689619950108465794387128122081280.000000 0.000000
40359074440318306435978024051765363861383089303117936574418579709946029786118555875628881595706413689619950108465794387128122081280.000000 1538197958319831689552881872995348240107759803863494195403363230890098632424479774214968892663075038675759162639372413482083287040.000000 0.000000
0.000000 0.000000 0.000000
-56333477434512935452851042783166846970643845655733567465160433021898918296532498946539661486375402368031903910829707772585247244288.000000 -4955281879794520114149886016550537253176395786749039052157727338171729398987222564730792184777573868905275918619909892355685089280.000000 0.000000
-4955281879794520114149886016550537253176395786749039052157727338171729398987222564730792184777573868905275918619909892355685089280.000000 833885186640111102420955099297031586560267271678205745851058091682147828874679386831940470098928233758795291167067374789364547584.000000 0.000000
0.000000 0.000000 0.000000
7844529602518912248919600739374056108368247251009469582037260383059963271894396585642232654284042211077357199451803992065048576.000000 -7646038436528187283767888641274360808141810026593302434897848634969687649456885196236653867611185681067696645473784342637445120.000000 0.000000
-7646038436528187283767888641274360808141810026593302434897848634969687649456885196236653867611185681067696645473784342637445120.000000 1807977504186458875046528903740909482285499157368272407752023070475484435183000702972053946670928082634380137090029308826615808.000000 0.000000
0.000000 0.000000 0.000000
525962905537513588647159642066424213261630224893888574564791026643328118736348069233465148948931254769457555255608068274781159424.000000 -356434394885103265314259525833125759259011147247270842882874993951543500648653078926106329400454698260406561908944891181466124288.000000 0.000000
-356434394885103265314259525833125759259011147247270842882874993951543500648653078926106329400454698260406561908944891181466124288.000000 124699754683871187029964885003973541449139973831616856515710465850337965368476605620934615493410298687406300906447378079796953088.000000 0.000000
0.000000 0.000000 0.000000
419323892842100847113168323737237601012782387335682470943989399263064631291552841065306631430155792774373173427993834384087056384.000000 1411083481467672396800448340645875424071857070398009838382716609991650599119766723579374500465088327973163262545418070071137271808.000000 0.000000
1411083481467672396800448340645875424071857070398009838382716609991650599119766723579374500465088327973163262545418070071137271808.000000 743158951323618071254310361373293884819713863527493196581755031094543916039087508260242850944818985671175765329568188551697268736.000000 0.000000
0.000000 0.000000 0.000000
-219045387916056101758702158596800950295330679735048526109076445160796296394234190731406100931112252669686131798703278030803959808.000000 -193310591448199959498316662596075172360654829945734641362660865984453013669335910492045754438041400249972086765754922695269548032.000000 0.000000
-193310591448199959498316662596075172360654829945734641362660865984453013669335910492045754438041400249972086765754922695269548032.000000 108917515371255283985700984881748695684747699687125351146780343931001323909379624773894856403875473762608817821539403385773490176.000000 0.000000
0.000000 0.000000 0.000000
-16411763369742196692344367439480741850122878250319069495495847825666040097900130688642035430370725712841190002345267375870505385984.000000 -1239067915285266993967931746135029260018783337536394818312699582533855863614202182058229332153004500749775962677377373855025201152.000000 0.000000
-1239067915285266993967931746135029260018783337536394818312699582533855863614202182058229332153004500749775962677377373855025201152.000000 181093298599510884528569828846670786942814083743521960493806325861953581359436919578738606732507581922731874642974228688532406272.000000 0.000000
0.000000 0.000000 0.000000
-41194390008783003473600844128834402887477322558595613820273336321812036773695542214108699450124539765007585418536779727765504000.000000 381381542916048171864586482413085865217836587430222607001506196042597781761496042067203557287684723146133310647368971280181100544.000000 0.000000
381381542916048171864586482413085865217836587430222607001506196042597781761496042067203557287684723146133310647368971280181100544.000000 216637620681316679941219484919279813275606006116986989322225047617200746608442161060803204715533350422508285937324287142247006208.000000 0.000000
0.000000 0.000000 0.000000
-171947114806673350988643649434581667128822206751994277059773018383610708439727574717576410736150278189678831281756123092985315328.000000 -482032211788698701990126478932501779215946737510838147387422285483216255253088329768627665795880384081146568734512354984772763648.000000 0.000000
-482032211788698701990126478932501779215946737510838147387422285483216255253088329768627665795880384081146568734512354984772763648.000000 286138728559155566635897494705240229689451257470925854990495080967506733477376901203889815107996492889137921043781992448595591168.000000 0.000000
0.000000 0.000000 0.000000
4479186588469310701524258060580153679586621037781836007267530313226805426351938363032538265236395264303029272606130527678431756288.000000 3377328531888107276458564981842311403568895467456232548382047492857995715448766180847977816449057858500848539197186440499579322368.000000 0.000000
3377328531888107276458564981842311403568895467456232548382047492857995715448766180847977816449057858500848539197186440499579322368.000000 1253488264732158732526615119581749709940877761974094599688296877408858670305828021177479317254691588329352724167874942732899188736.000000 0.000000
0.000000 0.000000 0.000000
6803411735380358293025173813872980185250805549768968498876111916623353168635389367173368599209801483494841430223810203897298944.000000 -74012751767230768148948292759192824219213429923142662505441599779791532756105594784207541986632834107132327311484187605309849600.000000 0.000000
-74012751767230768148948292759192824219213429923142662505441599779791532756105594784207541986632834107132327311484187605309849600.000000 40589461876234706343530710122808604049741080629986225982238654584636300923951505666592372919825016845588036118643425648821927936.000000 0.000000
0.000000 0.000000 0.000000
559688866431394692349409814125075003765271673381662373505150040939839930686657729751567409206529108751678037022531480918939402240.000000 36239201435083518067971871139786037724122248181433287101833571060141982684949605373357405497879584713771901629561566317412089856.000000 0.000000
36239201435083518067971871139786037724122248181433287101833571060141982684949605373357405497879584713771901629561566317412089856.000000 1566094602530456558167567721029744365615818512959295625895343280447084454576788760337052434616920333593265416602153636719493120.000000 0.000000
0.000000 0.000000 0.000000
145554479658247933415138084048479575738680871893846385385356759080889276953054688654703686474673630427388143059866757035987042304.000000 4394742866883059564463935784249085727156599653856363863031275952668920134318001607514970017115453175129363675107401708802670592.000000 0.000000
4394742866883059564463935784249085727156599653856363863031275952668920134318001607514970017115453175129363675107401708802670592.000000 785799079203093952102619517663962526736404632117839614034593297760726189285336180525666697129171669447643140395103564079300608.000000 0.000000
0.000000 0.000000 0.000000
15608899713182841308886964249610224651762712014469869243715170909726578621732009053555161193308460960804125473722633381650366464.000000 -2324566252421797419198802660168267066389262488304874754334053977393665579435566381830307145772133184144583365957017531217608704.000000 0.000000
-2324566252421797419198802660168267066389262488304874754334053977393665579435566381830307145772133184144583365957017531217608704.000000 227693148793880060860025137879249006477802406567037441792641757457870946908851680411464739237377696854584680927842332217180160.000000 0.000000
0.000000 0.000000 0.000000
1395982189134673055107288106252755590616555126390194366193098518379406774557505146707711764217342479354392887522046264997838848.000000 1845040985262663442055046363195702069380954733510295282130275478281696050121064682123185772261853843168398769920342613945221120.000000 0.000000
1845040985262663442055046363195702069380954733510295282130275478281696050121064682123185772261853843168398769920342613945221120.000000 875112037295960219036280094822480686193900607234715989530674035670461782893221405587834473553451443035814550795332978328207360.000000 0.000000
0.000000 0.000000 0.000000
24760290237365858004283946803344303210763406121288910848612012850559665458146722024755099418617456341504142740126219522430468096.000000 311852720857095489782521210432266760374392715020786630162166133996595545227124447395579500820053714451928858599658345894428803072.000000 0.000000
311852720857095489782521210432266760374392715020786630162166133996595545227124447395579500820053714451928858599658345894428803072.000000 171346832468057132103218232369594250807462831714030219582717794632327652826853588262440514055268689810824886949794837236847476736.000000 0.000000
0.000000 0.000000 0.000000
-1567782487035249475736785779509488058392968765955805157686791672790203960769609317988129133909198596591540030686693919522868428800.000000 507668519862093052208649421563667557408646165383754553231206765025215318727379440399867534533377361050813756273000117824657555456.000000 0.000000
507668519862093052208649421563667557408646165383754553231206765025215318727379440399867534533377361050813756273000117824657555456.000000 221598127577841712976212725870940137502216480965097191751386443576439236075622712351030763091698458745478103836979054874145587200.000000 0.000000
0.000000 0.000000 0.000000
487438743187230728219121079889204321738564509683180592169996658296318760997038030182029521838364724777351469931066261950089396224.000000 -51677757096455663845887047890775433304043221379109382017962046822675802455147402999049290418735295900324291934874100723552878592.000000 0.000000
-51677757096455663845887047890775433304043221379109382017962046822675802455147402999049290418735295900324291934874100723552878592.000000 3635542596329511804549159079788050526143249761341022995526847187491459549489327508896723193766690265768998639500071510365700096.000000 0.000000
0.000000 0.000000 0.000000
4438652024000516827461242274636926234197146854106454987800544493891708299910973176838751060430100883567680357268019082166272.000000 -6528337993639018057421529444098360202719056198351058553103268058373026056141161082760496747954231652035722857213317999493120.000000 0.000000
-6528337993639018057421529444098360202719056198351058553103268058373026056141161082760496747954231652035722857213317999493120.000000 1994507400078443043470187159226711872522176626407847245423739740743139878717182254763736849392333492355741806769206206660608.000000 0.000000
0.000000 0.000000 0.000000
32521458215576188690172879403209387438788192687447724703783607615395422769605051040073719179429752346987468848706809089459486720.000000 23649288813734582219734435754612350123618809540440298528225405487144108102079916478159947840233839431062305326690717127015399424.000000 0.000000
23649288813734582219734435754612350123618809540440298528225405487144108102079916478159947840233839431062305326690717127015399424.000000 9451750281293858513892747831622216500698377737187386109817807120493500677287853731278759493528324927053075369426386125624180736.000000 0.000000
0.000000 0.000000 0.000000
-927555353464471910348698877472251072544966160100787106657104847492345324068732772772234522734769357471975353309009240994502148096.000000 -301375524777058517383714155009245864923274971736508758322831558736308006085731342424600038238723302636825335057840215448495325184.000000 0.000000
-301375524777058517383714155009245864923274971736508758322831558736308006085731342424600038238723302636825335057840215448495325184.000000 131054482446324699225115978551059106685390152169753340092678809459811968816987507928847019626155398813581367031233812229550768128.000000 0.000000
0.000000 0.000000 0.000000
738254431123847968324086746771939660926643922586591526370715149420782823459313151740505276337706548920385602477700765617223630848.000000 231642334863907737384675149286412463726633494460736991983782489896589402042167711552871632134681919937714941595880421328844488704.000000 0.000000
231642334863907737384675149286412463726633494460736991983782489896589402042167711552871632134681919937714941595880421328844488704.000000 45628656175977909158400484442315203844762651399199373888654101637317086677845414400354689441017336434104029715877349636368760832.000000 0.000000
0.000000 0.000000 0.000000
-2696094066921916429444144743104835578508318554112643227342469725783703578526422924093931057741180369570795196859406186675437568.000000 -2274687938447662459806322549861354475159717618542175240641180331970099145263003902119321132990687560297655053880044230807650304.000000 0.000000
-2274687938447662459806322549861354475159717618542175240641180331970099145263003902119321132990687560297655053880044230807650304.000000 1290783361630818985449799267620009495728474400689151462691099988226391677484345199178818153530399180978215101927815117690372096.000000 0.000000
0.000000 0.000000 0.000000
144975903330514913399992506557629164879037971765164310925782859913827312748975088655008374818087548055939172842290694929227186176.000000 -699495444372444430963576595276411820932892192643204815803776528008862953713484212521256659413778779730745635908286637455349645312.000000 0.000000
-699495444372444430963576595276411820932892192643204815803776528008862953713484212521256659413778779730745635908286637455349645312.000000 375625999842670125494736585989374824551502304783390469736056681467578961876408219021195917985915279567064710430292049038256635904.000000 0.000000
0.000000 0.000000 0.000000
491966320015968712001842174659081783936160558529621611580810520870707172841858083411402072607911306040864544489243851140741726208.000000 269156003532652423890192426404622460635150977748473456091273089596569361609648428655451684099883514021142252163954775234686484480.000000 0.000000
269156003532652423890192426404622460635150977748473456091273089596569361609648428655451684099883514021142252163954775234686484480.000000 81642593120506611939004166886425851829011360129159714831064540118867871154548411482387751049636314061682893144278504558297088000.000000 0.000000
0.000000 0.000000 0.000000
-633008157823457643537756316343514635746975749078307339872170520229684977013121485172878519354384917861561207207596955027512492032.000000 -1403944667862223397485834818014220053377221063561310112241681421849494527390013894549148621039959196014007958245538474852966465536.000000 0.000000
-1403944667862223397485834818014220053377221063561310112241681421849494527390013894549148621039959196014007958245538474852966465536.000000 808709446406894101879016972937426514916787619387493784183978059271863455264454861355265461602959308576812870460346671124145242112.000000 0.000000
0.000000 0.000000 0.000000
-573496443578125579709315148007640439718709107745124821404040295176505392595896965287353838805196856020618208036824458145956888576.000000 -689680980171985021780601584862448101389123620249437711412058757492325365929880805986445722704643902748830791941970943935546130432.000000 0.000000
-689680980171985021780601584862448101389123620249437711412058757492325365929880805986445722704643902748830791941970943935546130432.000000 395885349160877396899660723275562760507769988280362250091936341696032962180254841169662561259835822272809014568619440054705586176.000000 0.000000
0.000000 0.000000 0.000000
44633785865330822423371276777344447898632902440280395853314862133798806797082946522630585856295241909704513537975838387961069568.000000 -72886997900834141097729476881243235583748379150422055681952071166086680062163551095821398521547761408317542945517628416516423680.000000 0.000000
-72886997900834141097729476881243235583748379150422055681952071166086680062163551095821398521547761408317542945517628416516423680.000000 35310248847953152148961094228162694436791654047180066612622679698441017159483379065120731791378998964072224014284438098883379200.000000 0.000000
0.000000 0.000000 0.000000
-12105009692465888888348046295041518594808599166408126932663332390037090312731462580300336734695498915179647681857908734164992.000000 -38348925923264562459083238426734055083853086389781089910743526708929080839935566307918102948452322165028090562232441425100800.000000 0.000000
-38348925923264562459083238426734055083853086389781089910743526708929080839935566307918102948452322165028090562232441425100800.000000 22358594357917927511454899880479483257881872192626476433992581972645595544057533446861694520677584093051220519549209292046336.000000 0.000000
0.000000 0.000000 0.000000
-20757147254487661685422784678729128669406143153984580958567923446316204307075189174718308409287228103638614534574391357000011218944.000000 3657441930057092132095078277597610126228334687076250292510882157347244275012121699161411799374610714557553018646147643374347223040.000000 0.000000
3657441930057092132095078277597610126228334687076250292510882157347244275012121699161411799374610714557553018646147643374347223040.000000 1102978533461367177353874381648475461762811980446866407234897421055207867923199119023703466917605578116956181002276210366560075776.000000 0.000000
0.000000 0.000000 0.000000
566986113182947213884139354002230114767472600626666831683155158928738678215915352722478030057620715571863143661469171118354989056.000000 -284025729064991256675436951346148690926804688868472756372472975909921435838174825552019735279732321216229198535946319198005755904.000000 0.000000
-284025729064991256675436951346148690926804688868472756372472975909921435838174825552019735279732321216229198535946319198005755904.000000 81473924159207804924765410295911330193717422044292173942745029855042279866633906444151495229486660776056660693186654427280310272.000000 0.000000
0.000000 0.000000 0.000000
374863574834123796902003095444106673001260298589990177676913184601730574730522870264880855622279919566747178095080631038566727680.000000 419567477274008588519090336953876590053464507025910467640969596913587983250539449645696825677842857108504364686894663617029865472.000000 0.000000
419567477274008588519090336953876590053464507025910467640969596913587983250539449645696825677842857108504364686894663617029865472.000000 183995585797788105806905865908694905715982947940121633206455528046295505127147261355028511194791306934153258305781419379297091584.000000 0.000000
0.000000 0.000000 0.000000
-1424334588205823220585690783685043228998896581520141587195199722658111702531577041132733547545706944527302056640229212918296608768.000000 524535150385443347785598265922387511626022255994661961830799528142104374976685189488713500727459380435249809041481407116718637056.000000 0.000000
524535150385443347785598265922387511626022255994661961830799528142104374976685189488713500727459380435249809041481407116718637056.000000 241983790767009061949885620951855917598175100376079553899505165276444889653760831367368494353505342364361670571616590725885460480.000000 0.000000
0.000000 0.000000 0.000000
150365846409972813915002579139889609912233426279930969653795920765126425022880941554144522384060980125542821461034799523487023104.000000 -417067201351379695976210740240590139599291044501510135595080476433488155068315429337438099059393880829907793091241511346189107200.000000 0.000000
-417067201351379695976210740240590139599291044501510135595080476433488155068315429337438099059393880829907793091241511346189107200.000000 216232130827591524749108533114597090513932478084003155535508485861209394848311156391428250219444720583426394070915750633127542784.000000 0.000000
0.000000 0.000000 0.000000
386378735124578502429181841896893431565753718428267370987203606525276143300444431610960901447398728433441325025855990419226099712.000000 -88004952962808279891550761495147716282996963881923795545513918555605216561493445914730305558854240106065757281212670614293184512.000000 0.000000
-88004952962808279891550761495147716282996963881923795545513918555605216561493445914730305558854240106065757281212670614293184512.000000 12927262041110901202839676321381919163927872761963580207897067860078478332681493808345795000786213034906018063434927983327969280.000000 0.000000
0.000000 0.000000 0.000000
77856846151510313336806599809291012578756805884138783315548599818995267438519008345825057370796099099917355643395993857255538688.000000 -245805086714479012330403711769647342452389652643144452699582637494060266627495150064683575710481510370469630433099865871922233344.000000 0.000000
-245805086714479012330403711769647342452389652643144452699582637494060266627495150064683575710481510370469630433099865871922233344.000000 132318272008340716887991530232886060924498632763401216527416057417959301421721792414836186809886685037097612101125762440465743872.000000 0.000000
0.000000 0.000000 0.000000
339858738927721475787807353434383594583543309395982537009423615088043895534000954710669186831137519080769754070315745704673280.000000 -193081351652661338389425619904171280350735823276701138623764941797385676574702138801798423934766229819707488398666998990503936.000000 0.000000
-193081351652661338389425619904171280350735823276701138623764941797385676574702138801798423934766229819707488398666998990503936.000000 60437302314655253412797337204604636112934864554049516977249812030812294620253159793934455551792505601743989836773396758659072.000000 0.000000
0.000000 0.000000 0.000000
699323807646453407789172919234871162357660414120020374754145341617007152369967104166018749922713672306932674357537204570767228928.000000 -697693965008304577130131525868565033085824998310494905526181102708350827701901491737904306638712324244050216474917600489793126400.000000 0.000000
-697693965008304577130131525868565033085824998310494905526181102708350827701901491737904306638712324244050216474917600489793126400.000000 297107953108337881207250786216985609947571563182054605152154306135257968828601330556788663969129580958407616404913253060920213504.000000 0.000000
0.000000 0.000000 0.000000
435073075954904189706374978319634038037173835354981115573940260539354807051655631846199533307754581666113937322400865089182760960.000000 -102226359132883426157275195321316655999843712928548148041599163297058184288296575662782228394324578859779711454123573235459031040.000000 0.000000
-102226359132883426157275195321316655999843712928548148041599163297058184288296575662782228394324578859779711454123573235459031040.000000 15987813892643432157637963482909932968765536268515828365198529942088049909149660793860242129997946901819670500773551541506277376.000000 0.000000
0.000000 0.000000 0.000000
76975791291757160369395624793739313852115970848522609291827031596511415611186004746679059960882042916177723750548406966157312.000000 7365812739636608062383537320700119847824967658279332432651872660320616267834577588283785184357307143810955637667857730371584.000000 0.000000
7365812739636608062383537320700119847824967658279332432651872660320616267834577588283785184357307143810955637667857730371584.000000 7653135610104141197162719853516916701713600479301317166180502353040928228216858726470762356940224066628072539300391546781696.000000 0.000000
0.000000 0.000000 0.000000
992548242233111665534248382652578279009448700033580549970060667178877184168628507992110822042823812654301822689207339690785505280.000000 -577840872136871006077556429419604170124263107579534249559569633291067225023659042789761791105195044242662854690222666152121729024.000000 0.000000
-577840872136871006077556429419604170124263107579534249559569633291067225023659042789761791105195044242662854690222666152121729024.000000 183968697138851989350233917882097108568798687270135350317040294638332699796942767317484427155071069771867375171859909171340115968.000000 0.000000
0.000000 0.000000 0.000000
131068966956569847695284254607728011039206970981087638070208438908815362228678937293743752803317986464160305197114812431501099008.000000 31886766164494252566777574286164762425989379763706340372750167410228682955011276289222102791640396296255773893789160096655212544.000000 0.000000
31886766164494252566777574286164762425989379763706340372750167410228682955011276289222102791640396296255773893789160096655212544.000000 5115762579262376239812092355784260199831860174896866771863697302652690037641820857814447506564792060770768414895408153834291200.000000 0.000000
0.000000 0.000000 0.000000
38227161682236672592048625578324148686037225944808499219024211549390020503096046471982841193082787093252031786003680617683746816.000000 277663985923598877245781549650558124983193341118072168575066377284422362631595575055841192961113881162986078836391715991239786496.000000 0.000000
277663985923598877245781549650558124983193341118072168575066377284422362631595575055841192961113881162986078836391715991239786496.000000 151062871490271732662860050903324272092731665356163181498221153749201157272421175964676152911794156156075325702516197313742897152.000000 0.000000
0.000000 0.000000 0.000000
-735642699042755338492395588248699525693088991771952447980546217329270868447412780080624457910630761977687486555217522324179779584.000000 -628960977490000420116251121411806373371637140537685961631295438636090037695452458059135031975485251100411579397945871937589739520.000000 0.000000
-628960977490000420116251121411806373371637140537685961631295438636090037695452458059135031975485251100411579397945871937589739520.000000 352452375823699965353132131378567811659265712646403471350172059837076927626369918447605991200567707298021438435396073460101808128.000000 0.000000
0.000000 0.000000 0.000000
-19819834524030065322206284154621519264270221719905914613741537975120220072369416932374318450983671056975404586792191605727496765440.000000 -9283788555195977232914069787030632637907694138129122070490998533799447153391310539561991479488495142087371835916229010058171645952.000000 0.000000
-9283788555195977232914069787030632637907694138129122070490998533799447153391310539561991479488495142087371835916229010058171645952.000000 4662761631722637060234105859593662626500274205533478379727535384750673000854015849538895321161739631571543444883521192098680274944.000000 0.000000
0.000000 0.000000 0.000000
1191208547483551374814047013219096550735990745759558246728188917026939102884085815741482549178853711725594238507488729448920907776.000000 -459277833067551434261946909642094596330022109531116846591534540405816367926445879607604269432149158508419682113169752361711697920.000000 0.000000
-459277833067551434261946909642094596330022109531116846591534540405816367926445879607604269432149158508419682113169752361711697920.000000 111425865562702034225635889463177379226686057764399929489773279251241689263188153412844041553344705708354059498958797527909924864.000000 0.000000
0.000000 0.000000 0.000000
850124829771615641706932930142589712813916500220468032054738351437417832448778654264794814925043266919103868580454757926770311168.000000 1688831351638916484895140240353509391879619558423267385560328260804523551043954752143108377707411797009585610668440875070455283712.000000 0.000000
1688831351638916484895140240353509391879619558423267385560328260804523551043954752143108377707411797009585610668440875070455283712.000000 845037986390941623737712765932120897829235547486116675042786599159084616089903230055753707038978010898591574098742218837888860160.000000 0.000000
0.000000 0.000000 0.000000
242835587029058254703015863324439911868944123105994419919436779890817895911086378063147370974725698698552535806269111528996208640.000000 -162787092868166426821221421521903202749479612742361261789533133144442988583782048175201846874209179044130846301821016491199299584.000000 0.000000
-162787092868166426821221421521903202749479612742361261789533133144442988583782048175201846874209179044130846301821016491199299584.000000 55642428444150026382267740494821542093646091881364615381353472215539070250533392483488167348607123768066604498714304518723469312.000000 0.000000
0.000000 0.000000 0.000000
429028226960094634779021615219950168659252572333415005934187250541516279887179764906608457718449063109288804625697083918794096640.000000 -91995313451594170443612840399809099759654772267198910026471869758617932715777681765854285281215660523763279246584858442859544576.000000 0.000000
-91995313451594170443612840399809099759654772267198910026471869758617932715777681765854285281215660523763279246584858442859544576.000000 12837953456640517416706451887600737110459815439697481562394411503472933896142829987632193471816926183122247992551311629252296704.000000 0.000000
0.000000 0.000000 0.000000
-607949765921608696783431909427290541811001231858860304855641971516111659724307111490597707864685488714303302520949378515086606336.000000 824463209111333257841715452990046682822744581173911071667397361609680628273500820314995811314870408204366297826430827205538873344.000000 0.000000
824463209111333257841715452990046682822744581173911071667397361609680628273500820314995811314870408204366297826430827205538873344.000000 475817546430209895256024392106117133528883794490961824679580053773701731246009632202948913473919042729793148908308424525120274432.000000 0.000000
0.000000 0.000000 0.000000
283116182609121093658212951349826930348105693187992633694717506377844512029790047730289362636390950590809526470757635002487275520.000000 -1591680240166764898753961396810642429106572671238053476124823921143875138813939132598348295171720117082598228870323741591857004544.000000 0.000000
-1591680240166764898753961396810642429106572671238053476124823921143875138813939132598348295171720117082598228870323741591857004544.000000 859508970369576512474185036715868074267359370632058650584417457648569540637573706116818617527189096447845519915581235221999124480.000000 0.000000
0.000000 0.000000 0.000000
104890572359048874092597399966399208189130357474111596622370205916208704588737666188563120014992829231815194218225807143643119616.000000 79268050150420000918892611072973998165645551435981461651511853422375833845031288319907799848636087640228251888855316653431324672.000000 0.000000
79268050150420000918892611072973998165645551435981461651511853422375833845031288319907799848636087640228251888855316653431324672.000000 29518132814453767635150269932334380695264078371506655812969285447135874915326702051312963067150361411259693557583286960878780416.000000 0.000000
0.000000 0.000000 0.000000
-188705374306412809038731230055973058062927100230193908488889990513370391256445239804143649110560455130684780094429610763091968.000000 -45674403226969458859959120310812696943715653720076804598840734438445201812836620505770987760672744514044087533224142636580864.000000 0.000000
-45674403226969458859959120310812696943715653720076804598840734438445201812836620505770987760672744514044087533224142636580864.000000 22996300890496765134467365481690893638284345680864504863616709898197882193760500868414809919663197652888027215681827782000640.000000 0.000000
0.000000 0.000000 0.000000
-1024548466494918884480442836171894031364354725927568495189005829018954429065325693491320483111936070525334212105143507667728203776.000000 788024539331109781452908916045783061088128267670258796747033216653724717916097076760349075831772353967856422490564388903542849536.000000 0.000000
788024539331109781452908916045783061088128267670258796747033216653724717916097076760349075831772353967856422490564388903542849536.000000 440003966273304646976565559141234966377297934754222628168198549532335142852507032194431444158335932624811129056362845385523200000.000000 0.000000
0.000000 0.000000 0.000000
-116815372978485072469275311632512367049766938549278316743314184474973011136346236708590258496290338570231833796483699237401395200.000000 186325395706350753737373814614708437219499586660974940571892676156033843960197719018354826711203775110773425667758787490006171648.000000 0.000000
186325395706350753737373814614708437219499586660974940571892676156033843960197719018354826711203775110773425667758787490006171648.000000 109002553039336620967448014442097730342324700512649679038366353316456209785545489959960552462530547145964179564420207420280668160.000000 0.000000
0.000000 0.000000 0.000000
713192693669651971548891341041303403916913133010716389781480553081612107528913924187822431728624070134421017663254245008581066752.000000 919332834884871070131731856752546653081473497911880627024297045513862615885138318270949758314545644299984728060540445677127204864.000000 0.000000
919332834884871070131731856752546653081473497911880627024297045513862615885138318270949758314545644299984728060540445677127204864.000000 435325623661105623140839410840002789911339707441709653864603997884935269974626595847644357519632167687302613330654287921368006656.000000 0.000000
0.000000 0.000000 0.000000
324298170195798757286398247098056343281420094712478281614276080587005798017797119051548096788849835337604066791922798756238458880.000000 -93155796990452016041262850589291478033400701082122243396095658136870333193926749457208441736315930562815258172758765130854957056.000000 0.000000
-93155796990452016041262850589291478033400701082122243396095658136870333193926749457208441736315930562815258172758765130854957056.000000 16930497350049710665698020801672154502439658033475954123823597632637137739847391276168101874030740558889433167210272516971954176.000000 0.000000
0.000000 0.000000 0.000000
539401158244814355769026688699385340649609498067958378614165885900093197516092711396504309591323194434275297757649206756495065088.000000 -440795543353608485539056844947638689264584649008584944101951329962260773031371590085068792160849804570566177482331411592461156352.000000 0.000000
-440795543353608485539056844947638689264584649008584944101951329962260773031371590085068792160849804570566177482331411592461156352.000000 170411754991113290893717479765349669842751366793629267900499761039396239360754805524345143872192824731904539102677943779642572800.000000 0.000000
0.000000 0.000000 0.000000
99894790690341962441010148453805519767928977394345833834805376205000678258202615127197604401770508907754904535192983162207600640.000000 65031368237268338353358086653422170779100704528933209523833224359537992695349513005123888862015773897822633947595342610482331648.000000 0.000000
65031368237268338353358086653422170779100704528933209523833224359537992695349513005123888862015773897822633947595342610482331648.000000 22268461269126430316300839314149327262661541834249758867522248675373209359409004264941482208957749069366215522528996590895497216.000000 0.000000
0.000000 0.000000 0.000000
-202068439253561607173040531897488925688728318699923468304435358487272050840959365416781254461265893718892360150095645354021269536768.000000 7300618177637708179601766336378177903885206575193205096854100707324183587611193068442068415208333864822548245694733890212627218432.000000 0.000000
7300618177637708179601766336378177903885206575193205096854100707324183587611193068442068415208333864822548245694733890212627218432.000000 523960582458341586098302292417201419127750435469227467828635575481958882400144142499330432929644651789690635863944200610021113856.000000 0.000000
0.000000 0.000000 0.000000
4121810995930132275049826194151704369367270210960913791713934589877756712542889790615540020719468512225295712587726440355594240.000000 -5661050662987004471523942093400592018706426177535414270125082337066931185531193279324570973037394449526659872134246888806285312.000000 0.000000
-5661050662987004471523942093400592018706426177535414270125082337066931185531193279324570973037394449526659872134246888806285312.000000 2627816428249786095755731276596291353185561531978200048410997724474102346885955137255008446471846795474734147480164409412681728.000000 0.000000
0.000000 0.000000 0.000000
129567321368006250564832350120577704503757482048482419725398857603954171224114389869595586267119744112323243832973593039415017472.000000 17046601965764875716150220761507870483426830649744845081858581242134320748989922098034617366367694919314795338630367019192549376.000000 0.000000
17046601965764875716150220761507870483426830649744845081858581242134320748989922098034617366367694919314795338630367019192549376.000000 1518810513273000743217405932315149980549989380022837946287896527756897680045585657330232337309631572351531859951491338104471552.000000 0.000000
0.000000 0.000000 0.000000
501102708462837015921021488892725822356887855831653073029621256868426181829156492302017897024783160477404703672571908284070494208.000000 478590100334555577598037780489841582442510982480322065481214622845205502753687039736337989017846474028184510063313361693103357952.000000 0.000000
478590100334555577598037780489841582442510982480322065481214622845205502753687039736337989017846474028184510063313361693103357952.000000 193652468631409227985648385089090617810514743075537533538357524806695197467929009846819924233613881724574742733377494636025610240.000000 0.000000
0.000000 0.000000 0.000000
891027389858240064535949039853037827732260896541628963484255720453655550983549517515089290709316489640053695019829552835362553856.000000 -301497539824696546935801684928237810479654624440482083823790371062779847122329544699679647811995743675143004835202177833635938304.000000 0.000000
-301497539824696546935801684928237810479654624440482083823790371062779847122329544699679647811995743675143004835202177833635938304.000000 63373458862734181590373699335944112116012345822461894744155404594375867712475715149275019433161482969467064993220937785028902912.000000 0.000000
0.000000 0.000000 0.000000
-306262096798795984076244189061686580628767628750951866166037100277209454286581578958804617335973365917217898389104168710713638912.000000 -761376933029612864989562677390143622977305417092549965028062620092607747172321716471680729760462234670225726881085962204479488.000000 0.000000
-761376933029612864989562677390143622977305417092549965028062620092607747172321716471680729760462234670225726881085962204479488.000000 2427944531152843326058572333688402331412194631161196622112501715954044904350271884396927905303822827068982838799458161632739328.000000 0.000000
0.000000 0.000000 0.000000
-14232161773216100673300841213473730840975829482168950894419823821221589573381451779412856105347415768222689579703866160743043825664.000000 1789603833219625920775586353299821695225531809917900607644998627069787737131763556497653640379138442646384760209335002767512567808.000000 0.000000
1789603833219625920775586353299821695225531809917900607644998627069787737131763556497653640379138442646384760209335002767512567808.000000 412974668423060642964574397645053866760803786356274044284873078136768077658690667947017488514205909684559263843246225297032347648.000000 0.000000
0.000000 0.000000 0.000000
29548221982309624206972816835818740416075376289140014761580815888985449939926998373198461621681652654102576837581020001688616960.000000 12624056207964148589461592807460666227449992338283725080930705097284679835243218559173582424847406932680442043120469265927372800.000000 0.000000
12624056207964148589461592807460666227449992338283725080930705097284679835243218559173582424847406932680442043120469265927372800.000000 3196839150111830481588089450454934552780418205744053521443505526189054066408050211514232392176695511488598479436146309672730624.000000 0.000000
0.000000 0.000000 0.000000
427812781097164713044201912301664612530799174940653766435086598161152074098797657224029914260223705761278354898782322341147836416.000000 -133439699637717151785858851863685954857987562600309481099906394661049683599103786557830789472886376576423995345528468693707653120.000000 0.000000
-133439699637717151785858851863685954857987562600309481099906394661049683599103786557830789472886376576423995345528468693707653120.000000 26435502846471652757677719621378287816880529556968325502920734886644494371182985913611632350121557104759409460323107437755236352.000000 0.000000
0.000000 0.000000 0.000000
693771772226412849465269011307511718355731030650774690971290815330357380234639154600098439355362903354261389664631537217482784768.000000 275842515016447490430256418350231705418102142582413007960133837491475371872874960882280330340585748882235865300650831012303994880.000000 0.000000
275842515016447490430256418350231705418102142582413007960133837491475371872874960882280330340585748882235865300650831012303994880.000000 66196703618887840691760400912168804677682570886695048197663977673516544013480060609852524003755339177271150615539802956619579392.000000 0.000000
0.000000 0.000000 0.000000
-3700578555747407786891421638497090358752249410098080949140427365824479808744270915188591753763562622124535614494070927672737792.000000 109433461320930570004621132816617525297121788069061137259132762186367103815243261883362278053301298492959022879053893827821568.000000 0.000000
109433461320930570004621132816617525297121788069061137259132762186367103815243261883362278053301298492959022879053893827821568.000000 28798568991262597472112808931446300082626264199991607811741416266013043782401611003882371358626850900654301341101099810029568.000000 0.000000
0.000000 0.000000 0.000000
-892933016193712475138461049999322085728612635199093234540734530959259665813412661222262316254928284298721326037887835744298336256.000000 -159790765984724149052153947690159401656466219227583655285487580286354485733931785609862772836081321821976210565852843619429384192.000000 0.000000
-159790765984724149052153947690159401656466219227583655285487580286354485733931785609862772836081321821976210565852843619429384192.000000 49110126081590139036530117897405372977014098947145599758442234792072350348760953856710114574112118451541661979545956295035060224.000000 0.000000
0.000000 0.000000 0.000000
988115753204367593579022444910116338469502091365961035821604727548684547998706327602193138821575607681782461007547317826439086080.000000 805359364898386492313599299989500865169118599625871957070767673791076735966604385182293280920690819368565047716999802773902983168.000000 0.000000
805359364898386492313599299989500865169118599625871957070767673791076735966604385182293280920690819368565047716999802773902983168.000000 311012111568174141358264533396863366301677221522262335646322572529126071382822721023538015889935198967513609505954385854164107264.000000 0.000000
0.000000 0.000000 0.000000
4255575063043769825599135065247234477330501391348813051262999269159228432220161650524877174206486832699885497644277819043217408.000000 -1355481933741358463919879572507876376367998983567534114555913922044407744041789897306554856646657317518345319730192613055135744.000000 0.000000
-1355481933741358463919879572507876376367998983567534114555913922044407744041789897306554856646657317518345319730192613055135744.000000 271065816581517532220748718070030883432418777493302043010236247192726557203059512130604969451534901736966685889263324115238912.000000 0.000000
0.000000 0.000000 0.000000
232491411582757254625185926428528220892651861459116869634474540894467823134872087894848086421499876284682422187881205339787362304.000000 -495373751727500724896192692444015879472982010485961206511461313860973304886313827404925512171857461986641110718656145134178009088.000000 0.000000
-495373751727500724896192692444015879472982010485961206511461313860973304886313827404925512171857461986641110718656145134178009088.000000 253157706852925156691560134771403757167961711575579697493794191678925965892761868601645293343300433938420512908171715303260028928.000000 0.000000
0.000000 0.000000 0.000000
-134347373878407830475184996282230190793913967276122504507674692793034099205230926768401066249686115122741715497949608760429248512.000000 32790029975110551622729867800979101125682752249985692734549753341895625690351563919900000748277253942619196191726465691022262272.000000 0.000000
32790029975110551622729867800979101125682752249985692734549753341895625690351563919900000748277253942619196191726465691022262272.000000 40976100775091701700872804040469279780139224148738172320370898522766045760329897879015827897001345227485995185059705258495705088.000000 0.000000
0.000000 0.000000 0.000000
-22313409214030503494551049013936212651688168068843474510586346080515463541965340617416391598992651201967205761620700163503976087552.000000 6756963585736346532937292994660161059570704263629024013627843788717182156050040330295548515130526439204050377056098978571296440320.000000 0.000000
6756963585736346532937292994660161059570704263629024013627843788717182156050040330295548515130526439204050377056098978571296440320.000000 2881490747780142216313489895119639314147275121186974802810947522815399203852451971317466340457906253959705989950301070322781126656.000000 0.000000
0.000000 0.000000 0.000000
-30634377904831707500181349421242847346880239349816313039603643728008904906078586633282519264646064824420644805991030336360422572032.000000 2671862799793849066073105191165610899213287278267576946053302378939754933611616495735002243448981736911530902266169385430252781568.000000 0.000000
2671862799793849066073105191165610899213287278267576946053302378939754933611616495735002243448981736911530902266169385430252781568.000000 446131818422660084427915589529750090281560160609087874949549490159185069819439149240540485978123029007407407080657567164657565696.000000 0.000000
0.000000 0.000000 0.000000
-5759563500507070872491648098824346121357422509061602262688607747770948854281336166036297559838800240494294327087932812505907200.000000 137012238181920048119178503637201128435207706310487405594341907680064696645962870843405847707147803396281750903169879326731534336.000000 0.000000
137012238181920048119178503637201128435207706310487405594341907680064696645962870843405847707147803396281750903169879326731534336.000000 78750083588048790362893722437591646686598906128189459737134112544538018944403098800882917211860659597516263365898217739067064320.000000 0.000000
0.000000 0.000000 0.000000
97954708547938041286635247470556038142526630278865554179378159804347874703899610047688667381872563007765454534740637667400089600.000000 -495393403157286583540340915171102857617514615809598722953947109667043151146075884206341137455622540562590201005491926349429866496.000000 0.000000
-495393403157286583540340915171102857617514615809598722953947109667043151146075884206341137455622540562590201005491926349429866496.000000 266484304039405769453511146181586975666101516633383667461886897126486747654481563832276623948562541031921222748449993233868521472.000000 0.000000
0.000000 0.000000 0.000000
804419196874283665004225910215288221584468859134077042923574918917810451682401530923166573976591292524280617185870664691395592192.000000 550243015569188456060598311955600887069187376279941126419123659229858139165001756700691540192178538529763640941001477315782246400.000000 0.000000
550243015569188456060598311955600887069187376279941126419123659229858139165001756700691540192178538529763640941001477315782246400.000000 192860597744086324742344778611298337457224187284098184628880715500490525807405676699591359293689370784439758853711872420999069696.000000 0.000000
0.000000 0.000000 0.000000
-677662615671016399681719677076269076428563774103788103304810628820177029259665438876560032950025229963940939147795387270561792.000000 -1102092686378617800960379469856186579526498735110079778444521124706167910816230322733378110291279793492792411633617230834434048.000000 0.000000
-1102092686378617800960379469856186579526498735110079778444521124706167910816230322733378110291279793492792411633617230834434048.000000 690796402151705459018887463364224924509114210578757385240461339041516364253720539015974289532451693832979500130947130449723392.000000 0.000000
0.000000 0.000000 0.000000
1782147391798528967340146972585619843627938009612775930694922537459482734145000835310794512843151437272842676929138859309451444224.000000 1739118218374875193776265103996378965280364391129489359015478871110946857250509568257489435718530251184870197829306255623648706560.000000 0.000000
1739118218374875193776265103996378965280364391129489359015478871110946857250509568257489435718530251184870197829306255623648706560.000000 726460834172484856901570987234311318223245263287158769245546136323657865811951430053826768245090879852051138975972342020647682048.000000 0.000000
0.000000 0.000000 0.000000
-74299706413449241978671352022480643208243883587556401097687848198209705650094409823197660290984275218350130041651498902074949632.000000 375761560245625612281367390804388846838129588871667876016976833326561920572094895506353097569540404868575449352480043315494912.000000 0.000000
375761560245625612281367390804388846838129588871667876016976833326561920572094895506353097569540404868575449352480043315494912.000000 15358068982115435048670513837396564022047651918794341674565174798474909742096511683009306245761110011255504441942418850316288.000000 0.000000
0.000000 0.000000 0.000000
-604212854156513272858796179947913621241027366927405687445436964672715178320136638497807801182012665081161251824717680015835136.000000 -99437570773291800754065063002146736929956917636598668891830702381656157018003562984011415721987413416024946151377925855772672.000000 0.000000
-99437570773291800754065063002146736929956917636598668891830702381656157018003562984011415721987413416024946151377925855772672.000000 28280156215477165319547748697088321344807040063417294102307379409681240394420401054979639093564884654398881056283533787529216.000000 0.000000
0.000000 0.000000 0.000000
909870868261701407601458610374777302719612857535673029823878958271209016358675300963591343734598713722250419897140493024466305024.000000 -233003867970821175958815689639916150257367827921091969487265686791321611963818206568599857552633444879082384227997997728406700032.000000 0.000000
-233003867970821175958815689639916150257367827921091969487265686791321611963818206568599857552633444879082384227997997728406700032.000000 39777583994843979790603048791093783208696532361730332369852919488260846516833438705608357438756413910527865303532919848221802496.000000 0.000000
0.000000 0.000000 0.000000
8839895254051643288808006210992831663634875175260139486868416888299453497362332660088534320019712991808608404814065768482209792.000000 776690579107385694044713742648232867873778570379957520925890786843477535306679864733103806485522344644659961292720933166907392.000000 0.000000
776690579107385694044713742648232867873778570379957520925890786843477535306679864733103806485522344644659961292720933166907392.000000 100365732361264005493052260184577170235883112258071186652809665730551567422410918740572507699978044729340087353228111648915456.000000 0.000000
0.000000 0.000000 0.000000
749247228454460202597280406935206928576872227709540938390398960068826580699324841273049904309019137159055261832039008576926121984.000000 582356121189961210974755301656427245659075396204635101833800563800557265122281890074584822528676395920153373192227366039675994112.000000 0.000000
582356121189961210974755301656427245659075396204635101833800563800557265122281890074584822528676395920153373192227366039675994112.000000 223058546758184410781532974369135742154240748874485660179725199404305159676934804745307299920250176373278503921284486846130159616.000000 0.000000
0.000000 0.000000 0.000000
-246732996531432032814265350708114724368622880816793197929074921827882786741065565248310476150351424731487872218171834964530692096.000000 219593015257061647542085680673908487514040207772470658846874561285431676896160269360358899667614641952667609750185892908399329280.000000 0.000000
219593015257061647542085680673908487514040207772470658846874561285431676896160269360358899667614641952667609750185892908399329280.000000 126989566967779795595288333552850246767917890713635020757957705170134901158366920980685480453530097434459716159670701994803200000.000000 0.000000
0.000000 0.000000 0.000000
153551807130159429514111969959194956082306590987019938506188956787101162950913593097169729591263574830962698575349965314058092544.000000 220402413375974300119531554051910233128039113426555318465338181499609350576177845913005974607292935588158860314154807349437530112.000000 0.000000
220402413375974300119531554051910233128039113426555318465338181499609350576177845913005974607292935588158860314154807349437530112.000000 103651435637426830202288703086441369290598061898084408409754443983769320799317910949925316651047396979612910364096331853779173376.000000 0.000000
0.000000 0.000000 0.000000
-4828641867371214359549501642842650297839280704187940191185070787268961115216937804901292928494243212721915589002109212413908746240.000000 -840266807442520683793678282907990520943443632984109014108941560686799357592253703071633927697733301317903845034267304773640257536.000000 0.000000
-840266807442520683793678282907990520943443632984109014108941560686799357592253703071633927697733301317903845034267304773640257536.000000 251478774171732934575635300993098447623241503896329972881466728537662110486030873316156913425128169392050910266594892508947283968.000000 0.000000
0.000000 0.000000 0.000000
509407422361680145987527094891051676375780570250384589928525681912594831303471968626224638660039473598562458923665430740232830976.000000 -288242992520800657382885801398459628116572767608230726966611274324509991497557313233180207377114366735867263253498741884576595968.000000 0.000000
-288242992520800657382885801398459628116572767608230726966611274324509991497557313233180207377114366735867263253498741884576595968.000000 89896265366801648988787864531982920350625374505244231609038385933837339662377116363087363954653028624500779630353744710642696192.000000 0.000000
0.000000 0.000000 0.000000
-332343665777420504564074925800724536543833477286619899302085951082291293684659722215299079965808960971840972203969688668089614336.000000 682664052860306895828419446526383560436754513023831907937571043586718547677375245518412448320022493195567692125401273073244569600.000000 0.000000
682664052860306895828419446526383560436754513023831907937571043586718547677375245518412448320022493195567692125401273073244569600.000000 393285092032765401190360036573969208591774287526647478816436621710943634361396457018109798708956071779608049269199565850415202304.000000 0.000000
0.000000 0.000000 0.000000
-775058827256169787741638317798006745953410688442457720212329844491642793069415985734713112589053202014383400227333467538649513984.000000 -642585385097947756301001801521715297299056803213125497273580403804466560916794916841580591798345596111440232555950346546156929024.000000 0.000000
-642585385097947756301001801521715297299056803213125497273580403804466560916794916841580591798345596111440232555950346546156929024.000000 360914443585058559485813587300338208325440459001699856334994649945592914545108448394190491476901124644020427629345891902017241088.000000 0.000000
0.000000 0.000000 0.000000
-96599442824639587253145420581994249181092214399730877513369892232250996527970522245815408157294822070174275827093136828530688.000000 106641894726286359663131206367963699306667475949565148817684553633751034513767793371114321440653105808213307631504672929349632.000000 0.000000
106641894726286359663131206367963699306667475949565148817684553633751034513767793371114321440653105808213307631504672929349632.000000 61043245447583106750005441220028998244051382167862352379851010990959220991743654696404070573676954287746886287955416080973824.000000 0.000000
0.000000 0.000000 0.000000
831717946873178302849110898752643541823258044992451449899407793136796911761449980132447215903405455068371472927252136685178191872.000000 566752912302534126201062245649202341087878968763816420438823062442055816425551306872189770998427833588114909451166828803898998784.000000 0.000000
566752912302534126201062245649202341087878968763816420438823062442055816425551306872189770998427833588114909451166828803898998784.000000 198887389412581532613810717626080287597750081115512610224612867684168003776305278030212458345740097976526172579397181031789363200.000000 0.000000
0.000000 0.000000 0.000000
5337421311667152696134083199099275844290263748020194984595491404757295877873370484218955382859340363368604790429150270242888351744.000000 -210568531366183054802828502328760253817620223039458147123145639053571358005301988115691408450340849049300377141819676300469600256.000000 0.000000
-210568531366183054802828502328760253817620223039458147123145639053571358005301988115691408450340849049300377141819676300469600256.000000 5812124958466543685715294725224626976868647960589143140682096349225411400622491162248797560733461037825602060146400001680998400.000000 0.000000
0.000000 0.000000 0.000000
-753007407645135892463017888852261133662822908788847135851065707618707102376829506605509635019584357295631048193924506084119150592.000000 -203220105275908102975861896236276193092732459581616016642103442041824990393393460168958865538489562192268554368214379060124450816.000000 0.000000
-203220105275908102975861896236276193092732459581616016642103442041824990393393460168958865538489562192268554368214379060124450816.000000 80853682346966043184074142227543617792395559629964836855139675308758169651178187192826602083788510107336731705447614763702943744.000000 0.000000
0.000000 0.000000 0.000000
-399957088120083507494681426279197147303998507554742214838238512680066423778607854361715743364352588087031380851420815603223494656.000000 860377253223973223700482349668888494762758163701194914382791219951003875968153372710765786963298685805069861644951629916511666176.000000 0.000000
860377253223973223700482349668888494762758163701194914382791219951003875968153372710765786963298685805069861644951629916511666176.000000 496020401480815550199707256716961770100061829614089716891170095989522878840927683720628006284647555486357624949671666180482400256.000000 0.000000
0.000000 0.000000 0.000000
-13931077851907609125403105796694857350107444635228143173256681376113475147244418365095532430452240802155777791091979103173083136.000000 61555211788434969116502618276104339888719001699893913798315409895322736276604251933552598243887132645187816667462288070959693824.000000 0.000000
61555211788434969116502618276104339888719001699893913798315409895322736276604251933552598243887132645187816667462288070959693824.000000 36267990365745313297466019151692439321910474468622096145877107968015858648202351448385563293683497050956669080287247645164961792.000000 0.000000
0.000000 0.000000 0.000000
-205546342386502948325400742230966976997671814756897199748800711250609847110524251148831803993550901044097396871582719084294148456448.000000 4436260704876131117879819454740694958475550175574182757164920691056654804375589283792582444015205328659444586129576799988556496896.000000 0.000000
4436260704876131117879819454740694958475550175574182757164920691056654804375589283792582444015205328659444586129576799988556496896.000000 191570670791348629835691124980060324449837481360120054410091527113496907969462281454960469603324251049362445736440779196141142016.000000 0.000000
0.000000 0.000000 0.000000
-3308234604649067211517137785726034481491032460319809395809424805052859683873755099324157781242856909410967248907141329928874622976.000000 1153457852447118108609650830521400923821655726528984631225845884561643647344081901855633816499646450121606535059445622815229739008.000000 0.000000
1153457852447118108609650830521400923821655726528984631225845884561643647344081901855633816499646450121606535059445622815229739008.000000 520443698048472018634223270337431233761602423067367881124042231296931640968028749415723109065028015426687872941339110502303793152.000000 0.000000
0.000000 0.000000 0.000000
454832333429147185099844168464017195662966532263806954988241226692710588173332631886043242623332033274091711335194934168210374656.000000 -154942408663655593929883909598459344444874210764180366960777644772981905193912380370404833733670176256839906279521920251248771072.000000 0.000000
-154942408663655593929883909598459344444874210764180366960777644772981905193912380370404833733670176256839906279521920251248771072.000000 32699558582328825613539146148764312903795811903351034278496995412365396356007541542763473234464273705902911539316799591948484608.000000 0.000000
0.000000 0.000000 0.000000
-911649010354060695908378128567039768362758015851233190409299641078816296951343663842719070242894655840114219287282657231722512384.000000 -1041175867724110103566658731410539654056106119839621860535118758028978435170115185140416557523851738946352976025130134393963151360.000000 0.000000
-1041175867724110103566658731410539654056106119839621860535118758028978435170115185140416557523851738946352976025130134393963151360.000000 596289013686410049951058224330578253365172911582811126179755108183949606522320136811789748911054711336556788302526315674856325120.000000 0.000000
0.000000 0.000000 0.000000
-106036770826504246930808677796603162220163922865499524371541656843947381295390088706275180789986149701469850597385064103075119104.000000 -145867214566509408522276873871450898126562082323818532820932484905009392911034120229070801593659708770088690145141321208722096128.000000 0.000000
-145867214566509408522276873871450898126562082323818532820932484905009392911034120229070801593659708770088690145141321208722096128.000000 85489110564764547249564239691388336497064154128223367589064083942457552845403985223238381866178050225709084390020394182512738304.000000 0.000000
0.000000 0.000000 0.000000
-3162646794501824041732527570935091304311994755820760759787013960196533618872257820584932072798822210705088104425603422761322020864.000000 2893926114509097901853448741076985677828997466857137390550933124936913938198540153953086501506875734031494828827483165850328891392.000000 0.000000
2893926114509097901853448741076985677828997466857137390550933124936913938198540153953086501506875734031494828827483165850328891392.000000 1638600033268900402894410693093266503405414713152139444957179670097052252644895116703981856852450653597750518103442999588044144640.000000 0.000000
0.000000 0.000000 0.000000
-31717037006819279299492079656213482947528406335823500516498390459324145080415371117986402202753016505682675382684546385951326208.000000 -11781912098381448852387771596727917605231829190275263480194515489005352970763014407819130044528635989315691355007612644101193728.000000 0.000000
-11781912098381448852387771596727917605231829190275263480194515489005352970763014407819130044528635989315691355007612644101193728.000000 3547503915116350033307986215581440039212429124163405650288842154147652557226145635807749673384894540422515346616970422683435008.000000 0.000000
0.000000 0.000000 0.000000
338448273225896927698804782952732514839893279415745462411217484273476050407761800035669817845248811436027158230957266246639288320.000000 -718787831460806594688551141600033359295804471618708668807934638174702489578592583735502483631818905218421279849419619699206914048.000000 0.000000
-718787831460806594688551141600033359295804471618708668807934638174702489578592583735502483631818905218421279849419619699206914048.000000 367460629448680912793999429913553445992398219754712097759694294274650498847282511742182812005424852230743493187886363410098552832.000000 0.000000
0.000000 0.000000 0.000000
65815165648911075041741571965395310813267049761254039898061577047886472808930327734296491036003783974055314834568386924955828224.000000 -96015100600760718224121993851857347394767206256874551833424899792004763514730420087390204592649768319612376560649470862147190784.000000 0.000000
-96015100600760718224121993851857347394767206256874551833424899792004763514730420087390204592649768319612376560649470862147190784.000000 44353280853832451484715850102070505717122355767452017689833323355482641317824547448932353271987604693310960150671022510747680768.000000 0.000000
0.000000 0.000000 0.000000
317157568655773804585844369072328291953595152623951603628849119003481435388547389431224554476018369623258610447559052198208864256.000000 269046113581215773421975490272822498597925394979963019171238223592733410569571244594278503883152026484324153820467938924074893312.000000 0.000000
269046113581215773421975490272822498597925394979963019171238223592733410569571244594278503883152026484324153820467938924074893312.000000 99660427856928722805056343378614930243451484246208108133448353323199139901556769601949786375646441153821899277874043638113107968.000000 0.000000
0.000000 0.000000 0.000000
928728614738916512746820765202842918198054760850615127250343226163188305635243818284422443013472705082932002115276766066319032320.000000 -266361797460457017874119112779261951944043584015598996045767824116868160188790578143771037975496583145086924948469834432596934656.000000 0.000000
-266361797460457017874119112779261951944043584015598996045767824116868160188790578143771037975496583145086924948469834432596934656.000000 48854673053486060395450743937248455393234632382203308097822544388540154167033962101612021304321450420490656723150180104894676992.000000 0.000000
0.000000 0.000000 0.000000
-41116684327550813232286389528527599571206557627535873467835591402374821833772950789342011508255143399565571511072593724663922688.000000 2398481102481256371268198348223224073811415222254881889878268038866994644521419163213205246389160077998754632834299573905263689728.000000 0.000000
2398481102481256371268198348223224073811415222254881889878268038866994644521419163213205246389160077998754632834299573905263689728.000000 1336711035179025335709032381263909669173775905923626438060567730747526092987054313473482969951772110815507060661357032851692847104.000000 0.000000
0.000000 0.000000 0.000000
894861530248541857113584724188824177542438166226922436438285392492026307092330239922079960510431375063841066666471318983838531584.000000 -223596315310288618621866988293008840896475008026673175011749699919412676661252764913011115707617313068947568682913865633506525184.000000 0.000000
-223596315310288618621866988293008840896475008026673175011749699919412676661252764913011115707617313068947568682913865633506525184.000000 36028321055612016454867788422833531389268912296633090402737358450914958704267643450326081566126130663326397867684381793498169344.000000 0.000000
0.000000 0.000000 0.000000
1092073110569743058552295998578461650717203233094114099075638661228604072430917621914042109968855990607853596102710355172154933248.000000 652951524174518970712417716886025947620316068023840734256543529772375298208662066517475300091615161440994723514382770870010511360.000000 0.000000
652951524174518970712417716886025947620316068023840734256543529772375298208662066517475300091615161440994723514382770870010511360.000000 204448308216050302640629564984534820328604284943800575774066161565732946944085546461288701688876972918950124475922021254636240896.000000 0.000000
0.000000 0.000000 0.000000
2250704136360235710373475098929810044626147544764403095593691065844136511676468968600374741464161563268146035233083479534570831872.000000 -1611190711274459777814795372070902912291431829692222746051565234301537106352954272925174357707162831005873211676156801968173481984.000000 0.000000
-1611190711274459777814795372070902912291431829692222746051565234301537106352954272925174357707162831005873211676156801968173481984.000000 581602925799276208488838716998627898665078856441333903332655025027938273879555651600433142306013965536892691278114222388895809536.000000 0.000000
0.000000 0.000000 0.000000
289115083094091799742274730187959853572064974576728196463740214729416240118078409529676362568364434350061664490017932120334270464.000000 136541059881373226193858384191284524855077409556711838290591507605674300408256719080471903681164452009420217669215443499050074112.000000 0.000000
136541059881373226193858384191284524855077409556711838290591507605674300408256719080471903681164452009420217669215443499050074112.000000 37221255023540482987646600650061927863859069937173932345998749028590306784030024769423044749678923761209527429356931901418373120.000000 0.000000
0.000000 0.000000 0.000000
-154222028165878936332208221471243847514091842920368613711548108423239240557589992200036466171183214819970410812653784305894424576.000000 -157732642236988311954688046006017415368317030195582241277706548963105151301465389438363977347900768351696428906432157245289529344.000000 0.000000
-157732642236988311954688046006017415368317030195582241277706548963105151301465389438363977347900768351696428906432157245289529344.000000 90029380888917900449878101088421465476868516353299040589665401262637813993298652783485021404584444455585506358926912000249298944.000000 0.000000
0.000000 0.000000 0.000000
-327620247666020268543540758016278425393614538640653831820570778766956419840406325934010003950518037579157104167347893139769655296.000000 -494691355071310046785901301682711165026481964178497258656012742534040271448639117510757963015438255246911964866511354411675025408.000000 0.000000
-494691355071310046785901301682711165026481964178497258656012742534040271448639117510757963015438255246911964866511354411675025408.000000 285349377000538468890669548241485414620922164336492585876168250412215437408089146756812632250333664173445315528869304181798731776.000000 0.000000
0.000000 0.000000 0.000000
669086720174938991164444046342613853460155646927337274796288283977803364752993593902926262930763778987692311367019250332915990528.000000 626380082621236429366914366308094245258443213822067938429564739400667818940472916421723885311953650551633378242226775811266969600.000000 0.000000
626380082621236429366914366308094245258443213822067938429564739400667818940472916421723885311953650551633378242226775811266969600.000000 257415731185842023046103347490841031489731632995963554755697352624697534331805698379021022528588311253649929528060544881287757824.000000 0.000000
0.000000 0.000000 0.000000
677846610215006454898399916832266158955568858188614507460462037398928192123279124812702506287329971374008680813943792380114108416.000000 556731176556804646488796104195364789214634199039148155892975062595364485700899033679020209047729909144233547115378001411032743936.000000 0.000000
556731176556804646488796104195364789214634199039148155892975062595364485700899033679020209047729909144233547115378001411032743936.000000 215722509603057857155818454671738334503058395586599003182262233861990465434941240652005069588063166946165082479367671890441142272.000000 0.000000
0.000000 0.000000 0.000000
33290650701816970211373824676302279820455053279777263250299248913117720185788196197163609698994376734086099343242009442879799296.000000 46401950814099103305688808279438265499100940410229531464408345565404383152256027299611698764290975449394178756035597884819767296.000000 0.000000
46401950814099103305688808279438265499100940410229531464408345565404383152256027299611698764290975449394178756035597884819767296.000000 15475936976283789649918508204772594350281933090631239854706095990449978197821276098880202829660007015654513856273105642460282880.000000 0.000000
0.000000 0.000000 0.000000
-7432180917012101671072733315476846037351883809135070063510258346661683658748701325924546030947839557958974635038368147124455997440.000000 -5402276911393849518115388954640434016090510660743745215095956726776315128942818460010344455546477530856778911627560063513145638912.000000 0.000000
-5402276911393849518115388954640434016090510660743745215095956726776315128942818460010344455546477530856778911627560063513145638912.000000 2982854069591480133590502809810880238028728028754870304176074914268169979230406238230749095288740228699014365776753548064618184704.000000 0.000000
0.000000 0.000000 0.000000
171796035782462440601760016298842140267569980776608888791937420926630725813434968579674110642386960974117909747925381102830616576.000000 -270242274462112130929117326224696192566819461134536207492785804564766053396047623974447145523259219562278545033783061338984022016.000000 0.000000
-270242274462112130929117326224696192566819461134536207492785804564766053396047623974447145523259219562278545033783061338984022016.000000 135860039021576189594819232522501221920605046833563237143001405676357595305587371726924410078167957116556530771678448693167521792.000000 0.000000
0.000000 0.000000 0.000000
799667962073115908209246655113873849657523210034134815603550198966692108070446286331355278347215894440432656568560198469329879040.000000 255410421801262474676085538701355864581829028973858008600187796199927154056028910834418730735508879459121577834396852362860822528.000000 0.000000
255410421801262474676085538701355864581829028973858008600187796199927154056028910834418730735508879459121577834396852362860822528.000000 50953768678117755216578790979388874007635669750904322332342942197191872219515916232590675092102352352877666956880780497612963840.000000 0.000000
0.000000 0.000000 0.000000
-162542174587760281388977148050444596815356270178522480429515285959382607061905216319276629799813963758251929203834750090392633344.000000 15738629170762723690193590942378562096274773206652098609583161826457110950342948419360140752486822926756900952729246769432494080.000000 0.000000
15738629170762723690193590942378562096274773206652098609583161826457110950342948419360140752486822926756900952729246769432494080.000000 1954138137647964600665298300556753161789474729448005817018113744949607931620012059904627333025706421022634941423560142037712896.000000 0.000000
0.000000 0.000000 0.000000
-515475581203310363255361202995870342854711294858420655966171620789413146492245709036917227970917864573978355497165432682539122688.000000 -279395198717326931141520881244097032627653587790713250175410450932427451142083442302427635516011955168005421247225214732962103296.000000 0.000000
-279395198717326931141520881244097032627653587790713250175410450932427451142083442302427635516011955168005421247225214732962103296.000000 160339689660468623137392621440750963396645864061583898867142465216738319053051341485257811151467978951417434167694165597151559680.000000 0.000000
0.000000 0.000000 0.000000
846572019641392555159518488076807162008230274953847570564400779661267388425991139729147823990942291425530259588039461077459664896.000000 -791784125152790514982088860397892904430349695385882596780291707559350806142896897622529902811645561799571911324160647610117390336.000000 0.000000
-791784125152790514982088860397892904430349695385882596780291707559350806142896897622529902811645561799571911324160647610117390336.000000 325254487709449367247012895569429033548466649517998839788096277029784173623704165073127477534783951527596386515520553843370754048.000000 0.000000
0.000000 0.000000 0.000000
239024270980355052356608028827494790229924632973272896831628299455123745739420595579179820740497355250837831359764945460344651776.000000 358884368375112161948732217500584600768360455621229613529973964554811623668299095759928640748849450039371999937745239027277103104.000000 0.000000
358884368375112161948732217500584600768360455621229613529973964554811623668299095759928640748849450039371999937745239027277103104.000000 170505481287711947001100638582028734987142325903981767751647283439148178314272872026416432309072047818982523623179163526416564224.000000 0.000000
0.000000 0.000000 0.000000
-5455931089375310402120173025375296184453834704673533566802675559183255314328107940253676927841563527594703922942831086905214369792.000000 -1122535639683173493757491492289512137782151378840357867678662367646160135698264058447920363381473027446451419344113209557412478976.000000 0.000000
-1122535639683173493757491492289512137782151378840357867678662367646160135698264058447920363381473027446451419344113209557412478976.000000 378247424534741130669263932030734671225938295685337463841396170498150922908820500895806103645238196690377944202702010723388620800.000000 0.000000
0.000000 0.000000 0.000000
-335964939193450377014602363627438359449258437164624833354368571616612606659797259390558652450887061247765454937028215746013954048.000000 -305327648790645592978141427582855417206677136595343078216248807800316855546909956211172776652421211739440266510458766811539177472.000000 0.000000
-305327648790645592978141427582855417206677136595343078216248807800316855546909956211172776652421211739440266510458766811539177472.000000 172746098169888080047805852342503949685420478728545150589387728634631415190660616769412483364954507251126169246803820651709726720.000000 0.000000
0.000000 0.000000 0.000000
66854915816342263929518596401515941744622674238155488179985055010836846093368689747389413212616326135572095047633269662280581120.000000 -1087550271840029855675230872351532208216439936615947923296096428946477132322673021418781567151386089704611506289682941841298685952.000000 0.000000
-1087550271840029855675230872351532208216439936615947923296096428946477132322673021418781567151386089704611506289682941841298685952.000000 599296492980282991279372949705161287807774325819911841826799696237955245741832086189851720520000207894779280605202363247027552256.000000 0.000000
0.000000 0.000000 0.000000
305954247918835082554447587301474071577169947486413351361867824641826072736508153968935960733950087318755350863077010716017819648.000000 262498805911749369622116909928233242716685645499481455534472616717328235447699431630683043686254501868878548849165706732790349824.000000 0.000000
262498805911749369622116909928233242716685645499481455534472616717328235447699431630683043686254501868878548849165706732790349824.000000 103745035383932122251892107362641353718208366451076293123709649213542411434884552528696336223633307075373035230529328957469229056.000000 0.000000
0.000000 0.000000 0.000000
-1155172898565398561799518650216332589903015232261691154817671783857114965092802354071035443020385283079837620331152768368900046848.000000 -385593050766514824621722832934462345257775331255738786095633119120887448969357562033029622992812454319924625668178982243659677696.000000 0.000000
-385593050766514824621722832934462345257775331255738786095633119120887448969357562033029622992812454319924625668178982243659677696.000000 172215606776850521752460197639894665119931196570286128190493860392083388306631312733764076795497697318099062377189039115230773248.000000 0.000000
0.000000 0.000000 0.000000
249751395006631325468808498617913640639454236240211041824573124305928420486325420331601501340129439158854708819006358715231109120.000000 -79315149350990323580181066028842535929834423733531267120724130955790278530747155129596867756561052546620943578407467847788789760.000000 0.000000
-79315149350990323580181066028842535929834423733531267120724130955790278530747155129596867756561052546620943578407467847788789760.000000 16713500703727023930091232459419053828711482582518794098475631574754607119336034804741775228020945195602797921458178818077360128.000000 0.000000
0.000000 0.000000 0.000000
667059374136926398582010623897890541300088632430068273573241173868689094289367664239326913547409707302888989180322989822791647232.000000 386930035621149054570431295273642238495192033024912182191078105321257228752791941939594306485525194999178922557965195541622030336.000000 0.000000
386930035621149054570431295273642238495192033024912182191078105321257228752791941939594306485525194999178922557965195541622030336.000000 122891544234300911096341443320520762332553655541935871163749620056682587909838433450970026821464156858178460607257891481214517248.000000 0.000000
0.000000 0.000000 0.000000
-2009407693921197472727159721625596657523723815738453478222170018831925149660498344644075261620264360450707020736336817502539481088.000000 -2839057463604307632635072895827048792730041564789184439676843990319496717681791465392684425835106602478778938925289390667932368896.000000 0.000000
-2839057463604307632635072895827048792730041564789184439676843990319496717681791465392684425835106602478778938925289390667932368896.000000 1638174305017061986962272294094032401604580675210031660807476835495968518584430940269126933605661399232627005304088983873540587520.000000 0.000000
0.000000 0.000000 0.000000
262696315055423633097154813648971345170127676562722806750741031273209946112268817560625261123858139381946527393803642084314316800.000000 1123077341952683776657793948231182479005616957958067963995490093347320116878644256814276795910883167461508975236435537308111863808.000000 0.000000
1123077341952683776657793948231182479005616957958067963995490093347320116878644256814276795910883167461508975236435537308111863808.000000 604174081936155693878320973189978049497789972591146174646729130852956981697840524704999306779927717667162629876178142906625818624.000000 0.000000
0.000000 0.000000 0.000000
-276715238736807847110698120846182636494246981156160073174226688425107114405544320051077034894537449102094875096017037033597829120.000000 42315646261400555074166789791411542784267456812764090261508924107414037031691549017000034661793324516024976609761173690608779264.000000 0.000000
42315646261400555074166789791411542784267456812764090261508924107414037031691549017000034661793324516024976609761173690608779264.000000 12381384299674502050840060658748208127524277807168713956835066081662931564224950531234156513970214606353578683758715052700467200.000000 0.000000
0.000000 0.000000 0.000000
-92385689000340328706637330678421036008984736365826791638654486980176169675408966350338569973456918268236599236710129965658537984.000000 20016338619689991014637215476793637966458507078818830378139758704994290842601723474606024368761723539131448322702545733189369856.000000 0.000000
20016338619689991014637215476793637966458507078818830378139758704994290842601723474606024368761723539131448322702545733189369856.000000 4856542463429517062483450692470857104506040299202104019359086696609692062101541775404580216606119134695772032620985228474712064.000000 0.000000
0.000000 0.000000 0.000000
-1605073992563691907195560046869155469708799063627620060220940769093173004980064213371507668898617353030384296742297105283890020352.000000 2038303793000685767269155667246131254801535158195578096751570695159366226215689395848225026434392288605907289064860789941500641280.000000 0.000000
2038303793000685767269155667246131254801535158195578096751570695159366226215689395848225026434392288605907289064860789941500641280.000000 1171729850158230057543499766002774110612936310248182973602275639412602188050844127884814003977801025362960978148869497371525906432.000000 0.000000
0.000000 0.000000 0.000000
-171831170928483800094729255074134862428297225880430235747105958192421296213128547222955344650890078587772137597309485179379646464.000000 302506909674138230601158084284743812451274672298496613842042756419904120984789063141581937567342354671515214848829242418040668160.000000 0.000000
302506909674138230601158084284743812451274672298496613842042756419904120984789063141581937567342354671515214848829242418040668160.000000 174585446543209312534252235950164954352135929155270316517750304313571277355569466594755625879260013089263426611509781044507181056.000000 0.000000
0.000000 0.000000 0.000000
256683479618112872396676897765446715423273742482877163849498748274306197749664301188694303685403292219192422749146176360273674240.000000 -537744406882357489467609431978886324552707979874033511102286063592683895523368289779125380719246661270421344103048580180918403072.000000 0.000000
-537744406882357489467609431978886324552707979874033511102286063592683895523368289779125380719246661270421344103048580180918403072.000000 270588205346972917313201508354683596393269780789530752449763149317994736052440960708287182917841732932885764832345811148882313216.000000 0.000000
0.000000 0.000000 0.000000
785319238623057460036073712750886742066352561585129071021858866998431815288131268982206891956242343873039627209475015676264448.000000 1127869449812617192749161995469537558751823337906182382640799115371930034736378138611610217519993524927555480324080568576770048.000000 0.000000
1127869449812617192749161995469537558751823337906182382640799115371930034736378138611610217519993524927555480324080568576770048.000000 557601890169865337004190460620837804645594877963673206269670673362031529165722242643938042898349122584395201631395067539226624.000000 0.000000
0.000000 0.000000 0.000000
9338145515753980214012954430465921984427233088323264000019012457053786999871160085727133087013591856729872505041613257407725568.000000 -9860701688728850092305844166691503337825475725728330688608596713396895816631856988881816525051976851514582930558789449957769216.000000 0.000000
-9860701688728850092305844166691503337825475725728330688608596713396895816631856988881816525051976851514582930558789449957769216.000000 4242083004282354182466149171506403567243127287212394407125092131607958715720417028914525568272273252697973381946922721572028416.000000 0.000000
0.000000 0.000000 0.000000
-40931803821194251393963400846046688107051225928941825714093545955101490445336794769534891036128353517266500767008212555698087657472.000000 -3327383013385071203580075985196556940327511808111475155912049741559005258067457730303960085032122601912440309777231864220757262336.000000 0.000000
-3327383013385071203580075985196556940327511808111475155912049741559005258067457730303960085032122601912440309777231864220757262336.000000 521432475969459564995889468035897215997309385339077295213472556182001109672199688591340900750040087806843669616337576797648453632.000000 0.000000
0.000000 0.000000 0.000000
712896841633135852046713148086417174508972686939996980261852254499330163759637694147906636909911992036264863503382378515819134976.000000 -408971992848057806349634098285023959771400499734267843099772837510192599537315237223972310827978249707127460250790564453951733760.000000 0.000000
-408971992848057806349634098285023959771400499734267843099772837510192599537315237223972310827978249707127460250790564453951733760.000000 129173623048202701747127619838441796559418418684720201414420205804070480223056455950791412374564611240290900623935019604481409024.000000 0.000000
0.000000 0.000000 0.000000
635628408966927965612667096955600323770929113053416365428147324943649183699080510520090369783376538127918529620810339264954892288.000000 1122233498016022429888392648228825097712816355665301232065415155458620040249045188638275352931175034759006070273289563016467054592.000000 0.000000
1122233498016022429888392648228825097712816355665301232065415155458620040249045188638275352931175034759006070273289563016467054592.000000 550148853097287544447475747284790571523086479683813388779903537687869391939405462551159869414260073054912670177442654799412592640.000000 0.000000
0.000000 0.000000 0.000000
1433897664953800627446331556850502482556388910767008754770044251596815490543277797638009552668744418940266428048823039045641699328.000000 -1431629823233093019471960859634051494344472482400875307409640367212997011514596286521144100544546051863598505105273883489950760960.000000 0.000000
-1431629823233093019471960859634051494344472482400875307409640367212997011514596286521144100544546051863598505105273883489950760960.000000 613372794364638839635623912865535155627045430026517613392940940842323596743837256017485169439849977861468978399326254472166899712.000000 0.000000
0.000000 0.000000 0.000000
264083402187655353122324036383524396669780965989408961006307570573620111799036500826586900001979876776919353644524738255226142720.000000 -57999418700324298395268031674646849592334581144677896556105578358029756613806815622044975037373368682048163806357488012210733056.000000 0.000000
-57999418700324298395268031674646849592334581144677896556105578358029756613806815622044975037373368682048163806357488012210733056.000000 8939691760342185969602577508037552135044693158717800042433755259924306041009691601345506945084067909647730536153265462411526144.000000 0.000000
0.000000 0.000000 0.000000
-455769568803890720054596271342876979545090579885086481973431984830655353539816844615623312016918795899736966632848037316954947584.000000 -257418276174970497169172211305138988183931352195106990288225382774439145577956867030360660220448401510662423048682334217243197440.000000 0.000000
-257418276174970497169172211305138988183931352195106990288225382774439145577956867030360660220448401510662423048682334217243197440.000000 135379939760651347700257075774440921409600116646030715030979938864101943268885158909962111893307159330915094031266583129905692672.000000 0.000000
0.000000 0.000000 0.000000
-7370476534671130421052132867846542028500272512585030368383638141500812699897453918439967319437670675912472671014793012643582967808.000000 1060170736739678209343561959931173509870478611121419431856450507612695983939656632775899957433699983942234736517556378869499428864.000000 0.000000
1060170736739678209343561959931173509870478611121419431856450507612695983939656632775899957433699983942234736517556378869499428864.000000 273343739477208076753573745340369803773354508183606041334959251792877579245799654498861007289444665502517275163285344505760317440.000000 0.000000
0.000000 0.000000 0.000000
-248436420136072620394656996791110844050468318755586341034099251251642147367737565508757229007187490113754442734610134260477067264.000000 258574899507115566730743804828917082519619311006308900977448946867531531379642941414658686465098389196105196321232431590194282496.000000 0.000000
258574899507115566730743804828917082519619311006308900977448946867531531379642941414658686465098389196105196321232431590194282496.000000 160860986677404060502632076757305358555250179101118247385636689230667614930131064837124422837276018103637551698400602577533140992.000000 0.000000
0.000000 0.000000 0.000000
-61726190226079627844313470480450643872470722804938190377053304855581948271770064212400465621641558047096268627043743295395371941888.000000 5346763013067892770189924742966095276365673117255045456103058430909926230449954382608880411132255090092649203994930902788749656064.000000 0.000000
5346763013067892770189924742966095276365673117255045456103058430909926230449954382608880411132255090092649203994930902788749656064.000000 887543813563133640285284128718590535364169628988960650948813542824704714470730667931308431608761113178150180073207233129104801792.000000 0.000000
0.000000 0.000000 0.000000
542381614652011182222566187949430606151091637641656954035740821104167708094689301587031614015600047358982502891960000782402584576.000000 321593177641519243282496489558827354250924143938614914369235799229072797237244902689761971364531866590055903056625773747151831040.000000 0.000000
321593177641519243282496489558827354250924143938614914369235799229072797237244902689761971364531866590055903056625773747151831040.000000 103818596469583714218103459511658413474339994008441931935649571680289820579787056718432604508703201448924688564121980934759120896.000000 0.000000
0.000000 0.000000 0.000000
-1096316951362559978394911256542767005794991098737821630408109090543203814117674454369546202544569055754210200677211005563961344000.000000 1518821263675502314743848579399788020579238968222856261743173409370653151517759185134625838166598109604468284456334375659002396672.000000 0.000000
1518821263675502314743848579399788020579238968222856261743173409370653151517759185134625838166598109604468284456334375659002396672.000000 882414550187853643128034473681786411096565065896856464751931872341671215003256358063639133625766369786237077494985902039402283008.000000 0.000000
0.000000 0.000000 0.000000
1082028623310625041667075487457207812015758711860699968653528351498082487688534095749531706866832714639352126452004195383793156096.000000 -456376110521211936369390905899405041064942571805334684242806340947074023465380268857229728753270477896580858563841023147302191104.000000 0.000000
-456376110521211936369390905899405041064942571805334684242806340947074023465380268857229728753270477896580858563841023147302191104.000000 115119698632906443810027429913258277205222482207687213084667146088062227481894351833147590701510475795380456007722481813515403264.000000 0.000000
0.000000 0.000000 0.000000
645888274200586489022358427334527801191942370772379762759719681808638645525600878261739770690374556924328611602462259407447130112.000000 183076831443872640307683333862253040305083413218323813035771860617526957216257722716534725716176481288956902490558142642544181248.000000 0.000000
183076831443872640307683333862253040305083413218323813035771860617526957216257722716534725716176481288956902490558142642544181248.000000 33540592055597983288761466575014643854202485821668375716238044799455531789093291293200425541464659199363131659665982477041664000.000000 0.000000
0.000000 0.000000 0.000000
-822801364974132469199729691214445388717429602357242275793849206205511832329291936857104568186816155003263320496623970003468681216.000000 62820424862676229203776086193726779811901813738554573988034073744715220677825592555624248940805770535021591423536991359683526656.000000 0.000000
62820424862676229203776086193726779811901813738554573988034073744715220677825592555624248940805770535021591423536991359683526656.000000 35260718423084449739738777737843533714547740839348382525868549491549182220003036466945531687809211047770596921790732439667081216.000000 0.000000
0.000000 0.000000 0.000000
-70127586263992801213154247215325624653319675338777306403635858324741793095892914045701103895357852302543243480075796681030507692032.000000 -8774014125238625102649705826667018212920672559653266348774026730738954021140440476382770982011682004463947850095455085837787594752.000000 0.000000
-8774014125238625102649705826667018212920672559653266348774026730738954021140440476382770982011682004463947850095455085837787594752.000000 2018142964509205374195788560869018717027906587854244558769248905161331167424336421681307568642083589672152263757879931658691411968.000000 0.000000
0.000000 0.000000 0.000000
-2930135557885716674154724891842350552141305141001365315236484961766156152859717324851799048386222095648283561904222958306711306240.000000 -1831179213403010473468072817615976216869562433220951883941119966901226393753949644758535308205019545996577536816051524495998976000.000000 0.000000
-1831179213403010473468072817615976216869562433220951883941119966901226393753949644758535308205019545996577536816051524495998976000.000000 985151578280245282570934338020870085443405121429040384121291466270384474430900194868672063801737529008963933293776021051525824512.000000 0.000000
0.000000 0.000000 0.000000
977668978509902811876078534435036107634003235884664245644877496733471592355656545655901310943603705333959032783054281544908668928.000000 459417372686115879663492248189417028632303644611113921737571093688236200424466734411841672261789245282739746769187902529367703552.000000 0.000000
459417372686115879663492248189417028632303644611113921737571093688236200424466734411841672261789245282739746769187902529367703552.000000 125702812829989463550392915202076729685964628872554141655678844360477517181050501593105620176514041784220601034628267846175555584.000000 0.000000
0.000000 0.000000 0.000000
34287858119238668327166379384394911266483316865770328575441792493326916419453171419624536343523996131806803525996966044273475584.000000 -14260637724757649404266517154171430674371498241924183658917154076198351810923708508970426850014901686048806804426494960820289536.000000 0.000000
-14260637724757649404266517154171430674371498241924183658917154076198351810923708508970426850014901686048806804426494960820289536.000000 4035113171542804490784813523953453028481293811231099690364122652089617062815576467604687084205808666000036990789099548567404544.000000 0.000000
0.000000 0.000000 0.000000
-1348783555145656361658573384795474490350337878214732899892849794439946433993104033379871066643988427435490887645800743462435291136.000000 -155475126185879793707372927139734142645634764910100717112036431733114483884647360620281393788294760282278748193846587231083429888.000000 0.000000
-155475126185879793707372927139734142645634764910100717112036431733114483884647360620281393788294760282278748193846587231083429888.000000 33727268119622955636947874363117881527258192433513181592754270392034550899921854426708508832348722106537129310229419487035129856.000000 0.000000
0.000000 0.000000 0.000000
270826145810377223760095456305069803683825485412119017598041604426887646103691125230475566302590309909702479222447952490825515008.000000 -384568556649865166555571206023503459975193325325799220253632724416181151505062207435552939149552476511681981929120453887126405120.000000 0.000000
-384568556649865166555571206023503459975193325325799220253632724416181151505062207435552939149552476511681981929120453887126405120.000000 180408297123879121100562919319245497213189194522318469249189547841655836447568735454578211493228111400025535406621023302756335616.000000 0.000000
0.000000 0.000000 0.000000
-235745555511455519375444862321337759643618266886013684774167367696831118326404620742679362169220855434764493760548405234729222144.000000 17482791058198672335725606797345816200032042221418162780531758584953813830413751881419088058076498860141302389951468780008767488.000000 0.000000
17482791058198672335725606797345816200032042221418162780531758584953813830413751881419088058076498860141302389951468780008767488.000000 3783355090293959759925480637411166645625612799687077520625495019633858230972542684314150147774822511989699004149923611360100352.000000 0.000000
0.000000 0.000000 0.000000
-562892976938598664182243005026086093966505673850260990275681558359855580866517164832941070817446101538176840166072933876756381696.000000 1019016725947241821858785794635049466914537569715681020873525531744585560562974129500111176333847102906086006283654579018023305216.000000 0.000000
1019016725947241821858785794635049466914537569715681020873525531744585560562974129500111176333847102906086006283654579018023305216.000000 598216194759887355290521954414397299396359768244700012181266545690915434774575874896445040259261108308210168561825914694339133440.000000 0.000000
0.000000 0.000000 0.000000
468263021877118736466157992088756408535249916834137812319945117642387669863386489693902301213688970806536701338048261312061898752.000000 -259285253501338890477159435130541271582602171391678891980746054522449630138711443288146170893351815495859085680294094831339175936.000000 0.000000
-259285253501338890477159435130541271582602171391678891980746054522449630138711443288146170893351815495859085680294094831339175936.000000 80424267401309788850061267899160023059377272887708472368822384377922274606823475535149834657682287483872193818690418666110976000.000000 0.000000
0.000000 0.000000 0.000000
160422484295364114994385079990180326920972510736238853509080065811778473800231828842297982912886076312256304397996745130514579456.000000 -42140858273704566510763935319671300545848353434205830028476318376237801943839908777390072529737279941930350200180840892681158656.000000 0.000000
-42140858273704566510763935319671300545848353434205830028476318376237801943839908777390072529737279941930350200180840892681158656.000000 7604760446074248226733156234852425944391200024819061516586774953969533728399380077996335826980423839115733789612989737953394688.000000 0.000000
0.000000 0.000000 0.000000
1619714666693786772262646078242113791919270192621465367573670921683737015738301760927869274657560429271461908920955976616970813440.000000 -783400082867646141196820904113909940009609864983466208746605667793487622349223108227023027299800874061324423830020429075888209920.000000 0.000000
-783400082867646141196820904113909940009609864983466208746605667793487622349223108227023027299800874061324423830020429075888209920.000000 221301362323254308424851146499686090055147282130741285492430663635038425685358700351492222357316510350766309043747122947429498880.000000 0.000000
0.000000 0.000000 0.000000
-3229960036003322250654639782411229027972017889278398990201611670750190155960268169730146072953188054494209345854716292436112441344.000000 1608597246173626258494339168152064014856444044410104524447944407409043457343130432460619452987996342796265918875653218208835436544.000000 0.000000
1608597246173626258494339168152064014856444044410104524447944407409043457343130432460619452987996342796265918875653218208835436544.000000 821889758926846491341742129544358524447388078738914529389834677090854995765561977318340790953949280937297241788169609861524357120.000000 0.000000
0.000000 0.000000 0.000000
-22379351314384899942050124219083559770953068660122967781109380493907472080120824780316390867231114340852207962710464417033617408.000000 334490775580018471760821171590671394728028259429920027286666918178488231245857786793599196866400672815129775627509115301484560384.000000 0.000000
334490775580018471760821171590671394728028259429920027286666918178488231245857786793599196866400672815129775627509115301484560384.000000 188563207904236118832682871049572931633939710142310840430185628841837895911143951578789377477910770378976319141716145078246834176.000000 0.000000
0.000000 0.000000 0.000000
658329905968136192859921788622418111022255834662182981472243007716288913068587486097344347104079290675824011910408102406470500352.000000 -500727398246123691130352681615151785712164190269005592753782181827169514578842476359215152141696036444419898595666583155457916928.000000 0.000000
-500727398246123691130352681615151785712164190269005592753782181827169514578842476359215152141696036444419898595666583155457916928.000000 186696944536196768802080253209152556253492464198643663139232106982756155942991308388056516858994578337935042272069129846642442240.000000 0.000000
0.000000 0.000000 0.000000
455579222571844633330307989127370343408626575064685176282855743811369672805812503333722480336288592821183819345422600275134251008.000000 -363387775915210313721460030725999772644073945224940990050696565087524463584692302099397613923202753626464775251110919937925840896.000000 0.000000
-363387775915210313721460030725999772644073945224940990050696565087524463584692302099397613923202753626464775251110919937925840896.000000 139133793048003271816401712798076678910223748826633861343678902160115166600548085416796694007917778069031713777597059305377366016.000000 0.000000
0.000000 0.000000 0.000000
-708864076254064842433796688404725634722301858308286217417073085824763114295681892754204123291848009163340094545943342425121581170688.000000 15792952955732072364399090459948355090241597343471689618930130952265880577259495239175960267753225185312672595444086584211216007168.000000 0.000000
15792952955732072364399090459948355090241597343471689618930130952265880577259495239175960267753225185312672595444086584211216007168.000000 704116533723322468534504380536032894017939368954897289317704345715638518764974431970229061375234972676420074002377496661069922304.000000 0.000000
0.000000 0.000000 0.000000
-55868385988241188060144568315740064573681951932747287178642253932540734396472979555436592318584085123006242039461899648899219456.000000 -310699704790799769227065752765285879520010395702103031145711717466631917732617891509160398668969681998773777523886633749118451712.000000 0.000000
-310699704790799769227065752765285879520010395702103031145711717466631917732617891509160398668969681998773777523886633749118451712.000000 177821839213450152520621369031081686008692895335315945021254808837459074871179614199848271126106148971672080912147143700542128128.000000 0.000000
0.000000 0.000000 0.000000
-20535419495160516071814216535056703561951982231666817392828340983435634532561370415672894819350374199912727252995310088748007424.000000 -155317105342156535966087405443430092704679424103779348901672616586262153836094172405777009400410901816376219344740622452849115136.000000 0.000000
-155317105342156535966087405443430092704679424103779348901672616586262153836094172405777009400410901816376219344740622452849115136.000000 87775501478328309811509551494773518740635590609629178533895506671670486483227360495233529868686618252928238365638272542367023104.000000 0.000000
0.000000 0.000000 0.000000
397888881590857902194499887280533270956546632909247545361409835897035843746480367244585740447164542878694848053266518299641905152.000000 -130856865809506866466471704668882958156307076949025256520423546472858663462407788114530685000337931705820884810799525102593507328.000000 0.000000
-130856865809506866466471704668882958156307076949025256520423546472858663462407788114530685000337931705820884810799525102593507328.000000 23184649242479037364009453480436550177739327785485958850700499936982752090768995978629692723749493131517651455521253054765596672.000000 0.000000
0.000000 0.000000 0.000000
590396184197018919743180484450215490841131308900213842627882773633042580836929100132578128933876637971098425995130262273384251392.000000 -470457613782360627563013311935932159642440578200812058104880381240278107817889108537159278143748499057456565098260697421268910080.000000 0.000000
-470457613782360627563013311935932159642440578200812058104880381240278107817889108537159278143748499057456565098260697421268910080.000000 187384550588506584931219499610445770112988908142395541246114906445677221365247611586321290310455591200082987316089755030331064320.000000 0.000000
0.000000 0.000000 0.000000
358681771971381717395394577523081329348811828245654202476364710484860144873388497543512013587889992327483226334856026048969048064.000000 -272217980710550397141544646039354434530951276122845580732826685073050452738148021230366288806502628874894665504360697975678173184.000000 0.000000
-272217980710550397141544646039354434530951276122845580732826685073050452738148021230366288806502628874894665504360697975678173184.000000 116997333466251400920844154964070805859083376767464075878241339580182983339828038147246548895598461570403614758328704121381584896.000000 0.000000
0.000000 0.000000 0.000000
1428121035324891078052866483510284271931554020896716395191950183776843309988190616391981300327079124118264843964520555858549014528.000000 -369403923280920874652416224459114701279007956219081749305270486738406560616655680050043426085718383098143895155787485160711127040.000000 0.000000
-369403923280920874652416224459114701279007956219081749305270486738406560616655680050043426085718383098143895155787485160711127040.000000 61162346967492767249966933264321018853039697390225698079449769742240612626257366218756252576065168505522540568144790352885186560.000000 0.000000
0.000000 0.000000 0.000000
5860639363039540149833359886839631593985976964551862148257259326700174879640862770441591391373820790109768700087467446760374272.000000 -448889804852922000534924059159935868167951215231753181108768302560644063852328652687274513074158686584364006962549437419749376.000000 0.000000
-448889804852922000534924059159935868167951215231753181108768302560644063852328652687274513074158686584364006962549437419749376.000000 23820260701431741950585933708656720831706937682228535694860316607912141257817310409033041653771724524322479340315622164660224.000000 0.000000
0.000000 0.000000 0.000000
-15004707358745514150501368615214332902007602639272289373247630350395327677057076947278149194738399926664415129533458295155589120.000000 1460556780769283058988931150610718018500966623265292770185459311839366029030753418169012527218816046991883592281654309175689216.000000 0.000000
1460556780769283058988931150610718018500966623265292770185459311839366029030753418169012527218816046991883592281654309175689216.000000 293855242069167713950959476479213279980391821442860758527783520187544696323452944981791559080502123254359797081424616883224576.000000 0.000000
0.000000 0.000000 0.000000
96627141374272669860350101503206657776918024118762256857292093074386974969889617518679708706929934069166516203314590227286196224.000000 -43356183902576151204056758349461803618396541823075018491005955577341151881868523415438628519325119204338097402662645544305819648.000000 0.000000
-43356183902576151204056758349461803618396541823075018491005955577341151881868523415438628519325119204338097402662645544305819648.000000 10360048098112940339450828808390270344479933288941997384481822551404060252752424875454424259577529084282192477152895142367068160.000000 0.000000
0.000000 0.000000 0.000000
-6294187328827397801990851729512474550659323742428362608268745240252840315270221156527105678488972483254612624638344869537336262656.000000 -1494860936038667577288814470671049825266898555365542555634133060504364049199408242413623721447860196593109671389526433781409382400.000000 0.000000
-1494860936038667577288814470671049825266898555365542555634133060504364049199408242413623721447860196593109671389526433781409382400.000000 557012821679195795182554887262847868646482112871944919394936287151163024150779919102383119214170577300862233793924040999240204288.000000 0.000000
0.000000 0.000000 0.000000
-1740771041598018826690578200015376308555741011818769696934626433833234180255993830882286817548706662319063340549758110489095700480.000000 2231845359494404410501017774766154636770731576649217415905904314088876694916060256457700190782046131581397676155627807334679445504.000000 0.000000
2231845359494404410501017774766154636770731576649217415905904314088876694916060256457700190782046131581397676155627807334679445504.000000 1282819916354507882011107899438516197286649183978489939955919033431207116960860241642033780704090281938652906247089553432159191040.000000 0.000000
0.000000 0.000000 0.000000
-593454617483076462542109691770532612268662396459227448062014209369645594371175079565778274809457949821893028187048602917144625152.000000 485601302191227216111526771239501381312243555618096694690944058207386125560178885427734087487697803522539759624989884808662351872.000000 0.000000
485601302191227216111526771239501381312243555618096694690944058207386125560178885427734087487697803522539759624989884808662351872.000000 274405224393922050000854329768684158651622473226886546352865078183917956299399807540978757292314724660150371877124501027906650112.000000 0.000000
0.000000 0.000000 0.000000
-135786251172814057198588841008283075503248932417338397262882673783657512095827567610291184595909998526784950021147499699061653504.000000 15033504159219170512028966659635424224964142577892479371582499017493519279222810183323010379293273232204338861001335937924333568.000000 0.000000
15033504159219170512028966659635424224964142577892479371582499017493519279222810183323010379293273232204338861001335937924333568.000000 3163259281907977685292186885697532619175652549009593783917577102910589895443067552928136812719248810303582562282993431389143040.000000 0.000000
0.000000 0.000000 0.000000
593768464547942274522262065942790775706602793016845127173038748989359331188844781519226969073068081046722285879934025109340160.000000 -577390095415059681505458411770965929663995764411921020914054139253810816657617622621717099540876227895011154178935940280483840.000000 0.000000
-577390095415059681505458411770965929663995764411921020914054139253810816657617622621717099540876227895011154178935940280483840.000000 243961778737021290429257792436756240451855125355725779461954032965395695723410784978253032729038215749812235559814493324181504.000000 0.000000
0.000000 0.000000 0.000000
-536928434092185655410496041179776938014362912208501176789620630889938558355273507420911608257175731454075083507035125685455683584.000000 -1020751529851690587598970880673895475336893824657698671335984766920900040669162410496450406843073490601458868879374556565436628992.000000 0.000000
-1020751529851690587598970880673895475336893824657698671335984766920900040669162410496450406843073490601458868879374556565436628992.000000 589086476487641580876758290276158786592554064647897124561469115244771891385717275096358116751408559211247236060881662778598752256.000000 0.000000
0.000000 0.000000 0.000000
557068297161062365346092510088964034744325781937773272111171787940421581907749559996861127313705088414801515285825064505394069504.000000 29659026610538783019919856396251031312552381344617321795146031977976060401785752320591783928295410019376210758355081797910396928.000000 0.000000
29659026610538783019919856396251031312552381344617321795146031977976060401785752320591783928295410019376210758355081797910396928.000000 3978377298673623770237813040210639922761336973979266874174838919488699557309797790739192662189386527294802331995568832765755392.000000 0.000000
0.000000 0.000000 0.000000
725852648002396449500134706637110053954157183631199493965214869312647861908331612745742550265205560882955696855654360849460494336.000000 571463042513777957887344253744584153874409411607403919286384980509707815645538508225013483934505308915994723269835877988230496256.000000 0.000000
571463042513777957887344253744584153874409411607403919286384980509707815645538508225013483934505308915994723269835877988230496256.000000 216872880547450709252009101196001406872116148764402245868839670491163161312093967818688261029580945638766770782931890594274869248.000000 0.000000
0.000000 0.000000 0.000000
137078097424443782095908707073106940706994511164628474349043709470859088315826559378678002784034850244353790774907366895326855168.000000 208079610616278657267672508842233824970353399619425778681971102085325739186113976380173320726462652374627900036145830522993508352.000000 0.000000
208079610616278657267672508842233824970353399619425778681971102085325739186113976380173320726462652374627900036145830522993508352.000000 102326396526075986466446067051894277501349446570079990744149950205202368567611534167088719229395984620611409760110719967267127296.000000 0.000000
0.000000 0.000000 0.000000
133969457736711930508364372500410271736235942656808156391947908449119504144396975130936739948677244727218753987083500816514940928.000000 99779340912686646847146150538657745392986515567942999026613602756933244532691913311246463553424042675846693940736353663528730624.000000 0.000000
99779340912686646847146150538657745392986515567942999026613602756933244532691913311246463553424042675846693940736353663528730624.000000 36176338369945800559400119321139722098722166761032387739192986526441888538166041291202518445810927140065114185427153362769412096.000000 0.000000
0.000000 0.000000 0.000000
-16885147129063031870941967268471352636841078059654082584520384069043384655895539699991442003339787965604405124010143143285489664.000000 -2785232433419838912936012463036554492582143813999134281054430502960278965079808330421148106216035275234983010851212732881960960.000000 0.000000
-2785232433419838912936012463036554492582143813999134281054430502960278965079808330421148106216035275234983010851212732881960960.000000 799571112284236189464765144556125859465920735834227013122803973810435106792741334818383952453541462761395599656873858584018944.000000 0.000000
0.000000 0.000000 0.000000
2774258774438250360240961063398097446349408723823810128129613247196334825732376295259626725245639974255690761852155164968878080.000000 -134745510670374281191761692349818743844942127707781181629384414640165526783993750762832428324846109125185035118461332691615744.000000 0.000000
-134745510670374281191761692349818743844942127707781181629384414640165526783993750762832428324846109125185035118461332691615744.000000 4745307180520193640502821932074219138420692657566465276561560516225746247741184318641509315640093368789136118590859796021248.000000 0.000000
0.000000 0.000000 0.000000
885340016761634351510984109240379001656895060080098262619756253950549716939348248463571395345337920602537898499122239276843008.000000 -99964430563731201824934782347623792093231020654859979877019314829683355242920760899881621242754633882677347795357245982638080.000000 0.000000
-99964430563731201824934782347623792093231020654859979877019314829683355242920760899881621242754633882677347795357245982638080.000000 22320782647006738690252903062695958794600148023871810352283483829365616648448893763555329140511006970900180812848177717706752.000000 0.000000
0.000000 0.000000 0.000000
-90461668326431973101670934330895857542221019172916906855798547530794323271275907917243994826718654512685812565388153022754848768.000000 285751273152328000343139479262607422223902399327798434638394571902722477571258441612623299371499225610206630456792628738450784256.000000 0.000000
285751273152328000343139479262607422223902399327798434638394571902722477571258441612623299371499225610206630456792628738450784256.000000 163829196612164953858589028465975136605608189422051325473398606976641146670206587188812695197072855190181063090678019285254668288.000000 0.000000
0.000000 0.000000 0.000000
121166237688486903815900280736256152466574216221649677675965624171051254867249202303602910246035333568776824213354139205331058688.000000 -251268156683335181844401482937822195581806187719748292170388040590007361936249152674473765324017675609194816374897382680787156992.000000 0.000000
-251268156683335181844401482937822195581806187719748292170388040590007361936249152674473765324017675609194816374897382680787156992.000000 127269084640315096494166998093788059763441495356495314452141765187210024303718100099772776186877203371331011630089609353099214848.000000 0.000000
0.000000 0.000000 0.000000
-692954203055556259351755575003598785477513895047741150609774672155356423098502517185819605993578957900883268374069266815312199680.000000 908325374949344296051790233036638517865015266405808571912945691013397011237883889310812660008429208643805748102022005045187313664.000000 0.000000
908325374949344296051790233036638517865015266405808571912945691013397011237883889310812660008429208643805748102022005045187313664.000000 524666520704002645037525594724214018956789838668559055867601925931936133956577806630231776277295976057553798029773952899002400768.000000 0.000000
0.000000 0.000000 0.000000
967748124116987820443332911379717775667541132219464312163885706371759575515460193120622701541319644617739612846439730376932851712.000000 476321467463428254563236987206279074935732133373917003195876945772176051549433991505124580925298842176714521663132063966693425152.000000 0.000000
476321467463428254563236987206279074935732133373917003195876945772176051549433991505124580925298842176714521663132063966693425152.000000 134959715605352588510783198327393086260298546360395539297206271506516123170953983527993724320752431383672593709614030451508248576.000000 0.000000
0.000000 0.000000 0.000000
1662303508897609921791436176615666409867186813615077772376068115183964600482372663857949079937483139866554111612903517436644425728.000000 -1251088182664888709049054903951136013146616620539645863719825502821275424202988199022683627889785300394465757670975631959477190656.000000 0.000000
-1251088182664888709049054903951136013146616620539645863719825502821275424202988199022683627889785300394465757670975631959477190656.000000 464611984947406649341211164431288321405133620214491073817160000100992141020730658590724606263944305074259670421762923930813726720.000000 0.000000
0.000000 0.000000 0.000000
793517032851942098082674008193982853007594953770171857151224165639808177857659630523591009721832555433856215639715497174653468672.000000 991031781302613151844250553274354000064643949896200193148010331847074246374651557393184288531978033522694030811175809378898935808.000000 0.000000
991031781302613151844250553274354000064643949896200193148010331847074246374651557393184288531978033522694030811175809378898935808.000000 449741894164288020628407304652379593866965984109232189387461115005222356286291876600635482456231051173747468309014319685722701824.000000 0.000000
0.000000 0.000000 0.000000
1392343394581208337092290463602137147246119698142522364726163365155450609897895065053958346970558280123403154803204507479576674304.000000 380312756324776948381217290468020646832079473239019930148960885025320973221446383815345847513594578382150327369227507120620961792.000000 0.000000
380312756324776948381217290468020646832079473239019930148960885025320973221446383815345847513594578382150327369227507120620961792.000000 65971187947369896914036529857087866631339594020803157322637174738581459528383181830902006913384417760121970446864182607490318336.000000 0.000000
0.000000 0.000000 0.000000
2661326152108557006386622504986547357867114751396107592272645872617332497148761858470501563680610949363489102482897878166284533760.000000 -3439698787566261880771425040291920988379637965794965622062999980946107736176412444208101389722083804614331854597023076633242763264.000000 0.000000
-3439698787566261880771425040291920988379637965794965622062999980946107736176412444208101389722083804614331854597023076633242763264.000000 1579805187665128587554478129789629278287226275787858598171985547088655248612680740333509772586053253072974830568748466623725174784.000000 0.000000
0.000000 0.000000 0.000000
1826755979118911980341784015837111188845261261914823470378110070475714232531314385065870846783040465588514163717573768971930304512.000000 189214227358389377798782748762283256666931813964253194854051880338246348359798046347947498408626298868583711071178895285595144192.000000 0.000000
189214227358389377798782748762283256666931813964253194854051880338246348359798046347947498408626298868583711071178895285595144192.000000 13398685964613136911018792141168460264134900473078232807020262568597513720176951395196753007083543656695886242201687940193583104.000000 0.000000
0.000000 0.000000 0.000000
-16471885957277107740680778064983133759102941720572637367780153869107552198196595038205476726133678708625855669275718044797108224.000000 11705583539496257011946320002534817251248502618582651578333380312056430362664305179167358517127174188791646308702176809385459712.000000 0.000000
11705583539496257011946320002534817251248502618582651578333380312056430362664305179167358517127174188791646308702176809385459712.000000 6399876881390143970000656668404989529339864968268470130309318728119826330534181227520556947336757184466780170858982994345984000.000000 0.000000
0.000000 0.000000 0.000000
-84468304894320686374892951694744925487074777509884940962065810667883770263909043121391807928296665778748412497920342677589590016.000000 -919604311689752876041061741859368815970561385849048520179294729527778529927359718124440128646422885296819777838683157394083545088.000000 0.000000
-919604311689752876041061741859368815970561385849048520179294729527778529927359718124440128646422885296819777838683157394083545088.000000 518636494148523690275355713607290130918120113342166503160244063851381602534518592284042433316432535404955497566527329509968969728.000000 0.000000
0.000000 0.000000 0.000000
-1218350957080097440476727053650615646586850836057415648469332370897183807575278906664837469539038324952318104460831538632535834624.000000 261633368101889809955905435184814020534814175404026114485299390884012325027386724827304131376327265340357663654747044547835985920.000000 0.000000
261633368101889809955905435184814020534814175404026114485299390884012325027386724827304131376327265340357663654747044547835985920.000000 90636919910030109446101157568229432801368788846683092188108166234629603603255430359157381719345563515704854126166985479748059136.000000 0.000000
0.000000 0.000000 0.000000
153149234762629944119672754214687925654664184968705442458508851750980415654333905748979964865386239222219055965400667910607732736.000000 -1704116252955806014846769192833581042151890448389313420064543199115466263577236019991481664446515195078201755817370096199618527232.000000 0.000000
-1704116252955806014846769192833581042151890448389313420064543199115466263577236019991481664446515195078201755817370096199618527232.000000 934993281475798867986718434538641709422032322186338047543732816745325484296322231505455188818656984347526702629813823356708847616.000000 0.000000
0.000000 0.000000 0.000000
-5949204081581648103210686840953579747861417800572011080948251760109821947006297103243635614537936164091082818872006858579287998464.000000 -1501247049441427357817496081010016939498248319382687209765591649723078499748316083458256145824649933748008046363217438575488401408.000000 0.000000
-1501247049441427357817496081010016939498248319382687209765591649723078499748316083458256145824649933748008046363217438575488401408.000000 574674620297177596294694323628249366272799647871742852553040052286166054191457072640056045811977763981003031271221298873577242624.000000 0.000000
0.000000 0.000000 0.000000
9752795484950277900146219740058662227109714238433083832586369770755289917868974971820463525840647969013589042045474161295360.000000 3174914561842038101671732683433185512065273787396041877176452305531865504883108291456314539362306219286247182968184809455616.000000 0.000000
3174914561842038101671732683433185512065273787396041877176452305531865504883108291456314539362306219286247182968184809455616.000000 643767268005962163046428102862795733262399632042016117304019537695297170016770174438098217067533419964107115214698545414144.000000 0.000000
0.000000 0.000000 0.000000
-1367923398482794417225071325247519079993217836603056680062517552017939904309954507063652372642093594786123840375798887677427712000.000000 2467466310218458704959959328586204819102403693472503770487626964365800650089470193456709439172625398199279160658083024553818193920.000000 0.000000
2467466310218458704959959328586204819102403693472503770487626964365800650089470193456709439172625398199279160658083024553818193920.000000 1424238277993284302970527668962213657836314874754571865441926121172692175964616768815964167632132567375176930492750668840308834304.000000 0.000000
0.000000 0.000000 0.000000
-7186852569863125351653902848334857423975266639458087119666063238085705751916918234513789768516197700368773500870793907252815200256.000000 -1859597648381484280026146974227042840334466576721851451352225388995824990963880813482943828721178729838940366109826649806761623552.000000 0.000000
-1859597648381484280026146974227042840334466576721851451352225388995824990963880813482943828721178729838940366109826649806761623552.000000 732486742250817957279297841715393187017791493965065700330670847159428246421791178852496256480901149650151395386087829499178647552.000000 0.000000
0.000000 0.000000 0.000000
-4619959535627819525960892061901384945785220223245978142406938295572011836533071929503059624784290812793984070177323294119321141248.000000 1033154241739347043130331321738440943919188582377009959564296146743281628701234416905916669596613480319908787066767621557460140032.000000 0.000000
1033154241739347043130331321738440943919188582377009959564296146743281628701234416905916669596613480319908787066767621557460140032.000000 367530440823672053289828040519961128427640791600159729120972526801049377556401872063739546866069001547596603476815513025240891392.000000 0.000000
0.000000 0.000000 0.000000
269141865012494793328584721691095891950754293554912799651106346134120529267674333825229573992784153896456876188882081452094652416.000000 -5277275494608945115263288227243904896295732955331456895701733989690946563537604066669493745398461596044043305283962776940707840.000000 0.000000
-5277275494608945115263288227243904896295732955331456895701733989690946563537604066669493745398461596044043305283962776940707840.000000 92073107223683372713954815808851380869276392404159326454065553218162714688296820015819675827487851955077099099253420291260416.000000 0.000000
0.000000 0.000000 0.000000
8084753934492129036881252004828450071027157082676782940448096056553579515405925913785671316164926658158858728030737666439905280.000000 60710497230421195212934358010856313475042573621206676438188246109581219738707860175074148293517731596405616159563251394675736576.000000 0.000000
60710497230421195212934358010856313475042573621206676438188246109581219738707860175074148293517731596405616159563251394675736576.000000 35512546406744047821020746106996129506649881845317301885485617819837108132749198643756215405635711993700501844190202581861007360.000000 0.000000
0.000000 0.000000 0.000000
-8296222181875812492145054034152279791284834233135456305274887498679681527261396845456942428389755956379549644993178623381679898624.000000 -40549376635224493115115667402890162406064244170579153069616236893399840183245769792680419259711745747211160354704054852484333568.000000 0.000000
-40549376635224493115115667402890162406064244170579153069616236893399840183245769792680419259711745747211160354704054852484333568.000000 1599407997989092126661883018756894855144799586555293455380692334093465570520105659441398482688977078364489004357614839567220736.000000 0.000000
0.000000 0.000000 0.000000
-14765630078534766801589748826368946183554836543346066858124145474628104308456734244517677526665729224762660208663109825839759360.000000 2898034065111674565734156939871250405623831056595367361903968023827888618942394883910690378591187949185645357025220157608296448.000000 0.000000
2898034065111674565734156939871250405623831056595367361903968023827888618942394883910690378591187949185645357025220157608296448.000000 940998370672394191920051648413704299362701129832840811345800787703247240981088279516202803359602312626490374381905942421700608.000000 0.000000
0.000000 0.000000 0.000000
1239535856295501199507994132775835752338751179273048618093142153633801738395550661235269930552190836918180731882181047390438424576.000000 442745679199392988764651958781781921736629922683631338627122621824408682608737498086523216156509359528107051287093252988973613056.000000 0.000000
442745679199392988764651958781781921736629922683631338627122621824408682608737498086523216156509359528107051287093252988973613056.000000 100832041464768839273989429345887378507807962201201325993047711350949647116722800714022321712792818371434696291832334991463809024.000000 0.000000
0.000000 0.000000 0.000000
-254815175143435040213665937064585552820897675187560751069350020546391299473370521818898859078373108219868967269474094260473036800.000000 -273554886331396891075770738636151601875079083368019575533469185483563782140858359856675301047152849199113108839465451042537209856.000000 0.000000
-273554886331396891075770738636151601875079083368019575533469185483563782140858359856675301047152849199113108839465451042537209856.000000 156206304231609659542026941963866238153512003730787700467060888969887783903334613454344392657860650958784404401373625302722281472.000000 0.000000
0.000000 0.000000 0.000000
-183016628970375706878057413749413214069562606069433189777523162275206648761062031249460391526754140288093220732097119288964415488.000000 -1102582299961405469079114600955957087115246417241676193150958013405084329593262004024053882831409142561338166714870655499297095680.000000 0.000000
-1102582299961405469079114600955957087115246417241676193150958013405084329593262004024053882831409142561338166714870655499297095680.000000 624854565240571464782581348954164918800598340578681827070347866878576430042375387797957046121105389833744422061408456045886439424.000000 0.000000
0.000000 0.000000 0.000000
351502777600081042444067728928980755502710063997972039712880845850544396054576903490972245908475054386277844079188197945812975616.000000 501542440745483905597963283775423103198281213673053005675375658105100870882457759719800627112175200207608465448024433603888807936.000000 0.000000
501542440745483905597963283775423103198281213673053005675375658105100870882457759719800627112175200207608465448024433603888807936.000000 235547645785068204793996686513342879731991647866105887619679858419122711865121026529870731092182006390965364801623885050497990656.000000 0.000000
0.000000 0.000000 0.000000
-12872624071090653134645141389831057541593091150692435894931627708086509967350770633465544147983319040807400242086630424020254720.000000 21080255902080562135717532882963274969552555113588685538226714735310696008208964815547826010539936258823635111340381109462499328.000000 0.000000
21080255902080562135717532882963274969552555113588685538226714735310696008208964815547826010539936258823635111340381109462499328.000000 9943972476419234246594355758187365576257344387293601466403285694503500175859992763418105044812551766832533747923389780166967296.000000 0.000000
0.000000 0.000000 0.000000
-1493928994433017346185413594247461094872747535670061030856056396559842447535634797421502697618498014328072103718246261200926015488.000000 -2643406113202475983719649847914414549438849752840944750903400196460735523184353402595384431424036664240560037854990806412383223808.000000 0.000000
-2643406113202475983719649847914414549438849752840944750903400196460735523184353402595384431424036664240560037854990806412383223808.000000 1526628595450802839209446794856052244584465690441679822580266423230450223831063166304351125541398252221048371141744130458879262720.000000 0.000000
0.000000 0.000000 0.000000
82251330263405925623947090479088925462939861137008578095720200987938017256795182760354651331793307855534828887932506108852174848.000000 -222979236468276002071872393962909410709694476502268169942150207379948378430278230054284671025215546622895293249459521052072738816.000000 0.000000
-222979236468276002071872393962909410709694476502268169942150207379948378430278230054284671025215546622895293249459521052072738816.000000 109026836956683667394403367156243388138001762725587657011877685851314456146225254675400144759663388619601189172046171462074105856.000000 0.000000
0.000000 0.000000 0.000000
-413655288640971857602812668573384623200448835364522714057982093218498742311458965089386615409436326804286198005856241706088792064.000000 -930518278447433638937559729262438838457268410897501920181930082211174466524298916556331710360497844660714805844849786702530609152.000000 0.000000
-930518278447433638937559729262438838457268410897501920181930082211174466524298916556331710360497844660714805844849786702530609152.000000 536417746101667846542381432289570334426531223743721985112135302522872979712730021175233207720014510526597337741675504200413347840.000000 0.000000
0.000000 0.000000 0.000000
715446952805853768981808448948442442878076120933282417259968778826883620961762195186838967911419231554156052838044244274520784896.000000 -744501483623515246300295139352929055665075397740597097457211115006417539325501111149857434910896775661441573100924139841775468544.000000 0.000000
-744501483623515246300295139352929055665075397740597097457211115006417539325501111149857434910896775661441573100924139841775468544.000000 318619794218775631274982576516428682601210681509942778817084759301290991060964104793620775512696478889053295445726449441297137664.000000 0.000000
0.000000 0.000000 0.000000
170665753414416457071535178635808321343576278974804905357939817015226481294052928256112804718902153158036492799472692017233920.000000 -219721824435980661797621915867494558658532118644394556905529515878309446847508566567821671352524345952955524001592855201054720.000000 0.000000
-219721824435980661797621915867494558658532118644394556905529515878309446847508566567821671352524345952955524001592855201054720.000000 144118465840730985088639435727447171256709747460057970641918589164088216211561077234747844711278765669476212228921520296034304.000000 0.000000
0.000000 0.000000 0.000000
-126971809037104251135460623790765737246112804710279249169627380115651437429729945570377350742554214870051301211587228395359961088.000000 -434564662407676739504877053391747381569095503778084077741425148266644206232651733751959525984951656505706117228920032480026689536.000000 0.000000
-434564662407676739504877053391747381569095503778084077741425148266644206232651733751959525984951656505706117228920032480026689536.000000 248682231300671640563444354183164232804031053132267287814633631586743492216831928604066683366497970848436743519628183597351960576.000000 0.000000
0.000000 0.000000 0.000000
8377066752273716042196018833351842661825497669171420936665739562664812036361151450246254409879786722654404890729873628066742272.000000 2210984676665892011601282654597194043885868587200909017358816295625841352732978622056321165498220128158053114675511734766141440.000000 0.000000
2210984676665892011601282654597194043885868587200909017358816295625841352732978622056321165498220128158053114675511734766141440.000000 377000312762322675181612717707435425763244393692240798988432888663245092890458104080469239360447534310974773970203974643482624.000000 0.000000
0.000000 0.000000 0.000000
-1567748341454050485882308551505019904398880292843054830045731661384934710009833372252869606697794206473466575875746795275193155584.000000 20216527061913001704206849902641231476648393822710712826202940921058582141726104723820720133069017987845652435687836918331998208.000000 0.000000
20216527061913001704206849902641231476648393822710712826202940921058582141726104723820720133069017987845652435687836918331998208.000000 4598919554254484010075680426162067719018028559354174551573800604476594345783691917234262007174520964119696075964424028166291456.000000 0.000000
0.000000 0.000000 0.000000
1127962248236047790616436037826563862470160343811516620814552254252667797601274106485088858096982693918002086244545979597992230912.000000 47095242512148208224807358775525084371905977942623086896702155138775738238139530737043495166058178576690952686498195552325337088.000000 0.000000
47095242512148208224807358775525084371905977942623086896702155138775738238139530737043495166058178576690952686498195552325337088.000000 1310607871739567708634269124108478744567012613186925792427600761672460995522180423459517591115936592373444585159913848558321664.000000 0.000000
0.000000 0.000000 0.000000
100378771621152560562337463679919563311256266279887119113264206322910991096231541143602294672571125855312292376419892194457944064.000000 208589267938939484807537911546904462711496361735292684630197528098569608373096720288212897545121134723489936949403255489817477120.000000 0.000000
208589267938939484807537911546904462711496361735292684630197528098569608373096720288212897545121134723489936949403255489817477120.000000 114001388189691452133449083751240250095536114713176228370194557602216280046018160441480956555799141680821041214138042965825683456.000000 0.000000
0.000000 0.000000 0.000000
1044590091317777992989443356825060967572542989899842585335651349990491597049838050123279767703592903550128872015588099049331359744.000000 264969629142591907557349795656113814423205704398500156618602457888284421220188594200819393549739138240052922620841169207911514112.000000 0.000000
264969629142591907557349795656113814423205704398500156618602457888284421220188594200819393549739138240052922620841169207911514112.000000 43002311841664804513678504771309999876297350413308911269893335435456984358152336789333774744534837892359748854078331221459337216.000000 0.000000
0.000000 0.000000 0.000000
414541404175348211720908660470352640572612764166510942978684555741460492746687127375028734105977439412481988012583318399158845440.000000 560952662181464865663871526325747992637481122577055585989040552370362741985067079938065184544974160927003291264583470166143139840.000000 0.000000
560952662181464865663871526325747992637481122577055585989040552370362741985067079938065184544974160927003291264583470166143139840.000000 260200191261010123345947081502560401619687525980072864417645446072004898475490131472073270603564240961993161513889679558041403392.000000 0.000000
0.000000 0.000000 0.000000
165494074084992608365080199064109587740074595369692314290254128883927711564336637182313111218327268466658135777254971907816554496.000000 -207116789175220332886644401422403939109340708671145300940130583665262617904949136200189905167850996583721441832937555522173796352.000000 0.000000
-207116789175220332886644401422403939109340708671145300940130583665262617904949136200189905167850996583721441832937555522173796352.000000 94049749121106895615366592331478263849221220444329465794057917041041343004452479554854909013260355652809717614172387534390165504.000000 0.000000
0.000000 0.000000 0.000000
44418398920577343461169267803205644731127635811114346361501470170589731930996010401465508449703106888244696266148241758748672.000000 260618625062850590573857878198197667873831125894456660747756113235238418538193720205414322357298992546995942833129960245297152.000000 0.000000
260618625062850590573857878198197667873831125894456660747756113235238418538193720205414322357298992546995942833129960245297152.000000 159482983042368407794753134312716685867589038618846767925268738539853110710903705686449091722752253909906837814809455031746560.000000 0.000000
0.000000 0.000000 0.000000
-1090836630487630259320921299104224919000115364580744686174409757704442942999359013105096976448542957159872579304765309592251924480.000000 -2303018118253846727058452934482557132334512828922974001278842634856873441768386928517212161195486058367769453952046843485378052096.000000 0.000000
-2303018118253846727058452934482557132334512828922974001278842634856873441768386928517212161195486058367769453952046843485378052096.000000 1328901212064508613127814585930067473099001467701898024590130072167527606121613496192819644543793137881459371241953547256395202560.000000 0.000000
0.000000 0.000000 0.000000
94716545731720482465821695614587162540922459759598977757996062993699856068191507858785635080850714876668764458350854768791912448.000000 -283376055619943001177161417588418370381364466428577031575576318526315447377401155429749019422863106167417048526406820819365789696.000000 0.000000
-283376055619943001177161417588418370381364466428577031575576318526315447377401155429749019422863106167417048526406820819365789696.000000 156283584476531218151741087136416015584650814840956975035179144797449426859398906305130919954590610859506433390645136498739904512.000000 0.000000
0.000000 0.000000 0.000000
-23744476622845090203282981527194456475292334897829748094472441987796558023492909657968351357557192027663750897245429271675338227712.000000 3897651465942319053501005750671661746979709383108884186675783354350067011773381731880819987560019159180488169050130715163091795968.000000 0.000000
3897651465942319053501005750671661746979709383108884186675783354350067011773381731880819987560019159180488169050130715163091795968.000000 1121850508328070806343177372679846600461344202162432883349609369265753136939794384782220674423317870488742839966060552129752334336.000000 0.000000
0.000000 0.000000 0.000000
-59491368397028951846368282253287249927323184560675626761503629520038737049205003625298504102521203641914428417759271223428120576.000000 -704363035885514074162686809233998349458023912440666582175872755178372959194822418508248179314834021351956334135053696057774964736.000000 0.000000
-704363035885514074162686809233998349458023912440666582175872755178372959194822418508248179314834021351956334135053696057774964736.000000 397875949840543078474385787490693255064798789909668889330818593168069216445514328564875301131338255422246930882340543205092622336.000000 0.000000
0.000000 0.000000 0.000000
-210204488716034840161536035787444251726156104994336415864545384847759549234910432240318067974624483860034401495759049828373364736.000000 -136207807080460949165486852360122034052819133328061284186712272873272833322652078591895425631072892174956749498755755734458171392.000000 0.000000
-136207807080460949165486852360122034052819133328061284186712272873272833322652078591895425631072892174956749498755755734458171392.000000 74589921990585795594949054012821470022397059817386711175866977972908214931881908177781713964946765574516672156865945532291350528.000000 0.000000
0.000000 0.000000 0.000000
-1550567983591209972770492659433038057971763985738563208739841100279075036702040514688302634796988898328810430040273922005024112640.000000 2610925605016813429834397032210428106039220813826872543203179194941091333969455605933688850243870629140364288903775328076333842432.000000 0.000000
2610925605016813429834397032210428106039220813826872543203179194941091333969455605933688850243870629140364288903775328076333842432.000000 1506897530668562016041553123498777266146417996089200214615167571203073968823884970858739639161958289899728063045742075408396845056.000000 0.000000
0.000000 0.000000 0.000000
-16990662378553207508867938439724889722002957675662208552088519943631393098551115599194288388256889600703301453085190857416306065408.000000 -4514013592046148511015795856783369954248743358729734907574656453567382381395791698218874444332435024592385101067642021326675247104.000000 0.000000
-4514013592046148511015795856783369954248743358729734907574656453567382381395791698218874444332435024592385101067642021326675247104.000000 1785804858693232728203180611652865145101379592703207948283980555966044196974678880571813017868083943385524221693980424607753043968.000000 0.000000
0.000000 0.000000 0.000000
592188186885969078589207624091728973551839995263846702019918359367001437666436244307254294796079167153947408543833866861822345216.000000 417580487649291337948661108353160369535565071185328041125672267892238186057956511121889710364354146631110250998879010061973192704.000000 0.000000
417580487649291337948661108353160369535565071185328041125672267892238186057956511121889710364354146631110250998879010061973192704.000000 149491914042944990293712617432284865303952204424470290298308207027463159016414643994214081314697291835519547293528955853599670272.000000 0.000000
0.000000 0.000000 0.000000
-631428715376005679141822330901484648841429600750783154706806384016827841600909826371793289403236338085825703307958273838153728.000000 1397884607088204419067759116300188225820016930507989902205937908270840006966675340475573187518000853026172647066943228531965952.000000 0.000000
1397884607088204419067759116300188225820016930507989902205937908270840006966675340475573187518000853026172647066943228531965952.000000 806112392218870905009522264189368214425242708301178477502451914703951222772765778708990342567739317716847273908324116065157120.000000 0.000000
0.000000 0.000000 0.000000
-1561434710143964851744534216251203279018241327629339406936782689853495056633163665933011501540272307386922277693678411986877022208.000000 -1042933649502808464275729870427210950937409689203623643852946598656298538726090333899971681261522634881504447071048510345540796416.000000 0.000000
-1042933649502808464275729870427210950937409689203623643852946598656298538726090333899971681261522634881504447071048510345540796416.000000 567676314796562633450888004594860816579740137695998009529465417168260626937858220352705983206882687284237798171086732973511278592.000000 0.000000
0.000000 0.000000 0.000000
2031982724264354299751322534037610579277474617845799094900486074699117275828482801823463489418398174276440254176249829587620462592.000000 -672905758492515528290343211909072632128572432483299304895862546220927397652019142126216542048890649841590116495936937387507056640.000000 0.000000
-672905758492515528290343211909072632128572432483299304895862546220927397652019142126216542048890649841590116495936937387507056640.000000 138471977674493750926167492948960598288732067095271168109313586019984642292245491779355017793678785119221858752841670421861367808.000000 0.000000
0.000000 0.000000 0.000000
2637580692835409424803906359321476306464190211468410206322622625670314441417870474314575477539080248093926463069306035642380058624.000000 5231522085816057746823477158908829151495172523599052293277172059019936357712620066789978547598631656132244351408617420523550277632.000000 0.000000
5231522085816057746823477158908829151495172523599052293277172059019936357712620066789978547598631656132244351408617420523550277632.000000 2611911533152083716191987001951287439067530279198629988764141547189317176710403509761817032821315221948535516788518647529755115520.000000 0.000000
0.000000 0.000000 0.000000
-1857767730601401015799606943252843957423460298542421069212876996942687761984745707088763211886164134827714719355454739010912518144.000000 334900478626262304249674277057281019894904497389312654803853204516855458224709230271140376058850724785751727350260375650125742080.000000 0.000000
334900478626262304249674277057281019894904497389312654803853204516855458224709230271140376058850724785751727350260375650125742080.000000 106102776405137965469360242795426285456607520065124607197744917100590886578232880671874220195920736515693171482386394978623422464.000000 0.000000
0.000000 0.000000 0.000000
-6819323357887758847338910054153480412109601336215488561178415677578444896499698001142009009646123062558998798580468771971949133824.000000 1244101686237455190374893947454004926751565618305879106385355412733247615014564176004304532497949733769100995541329245062960250880.000000 0.000000
1244101686237455190374893947454004926751565618305879106385355412733247615014564176004304532497949733769100995541329245062960250880.000000 385312569781103672045411117924774928728460342900635823364433304789901369954412120730516109663653307767322933526415228355821436928.000000 0.000000
0.000000 0.000000 0.000000
-2490431729612044371756409425579887091833681214721447647414735722840138722344654548493773504161559359612966901737559917176786255872.000000 1852379719884603756764450092692780301806198907980040159382569928596999556818528363091447542931399849735693080678486216780376178688.000000 0.000000
1852379719884603756764450092692780301806198907980040159382569928596999556818528363091447542931399849735693080678486216780376178688.000000 1029935948461450794162209663971470650941988804076265581427022195074477400600938058747642835270066053051490442994021532157305946112.000000 0.000000
0.000000 0.000000 0.000000
148391662446071026316306176936908598228065758969059342045711741315106146904451154434913977255025826371261030406658543824689692672.000000 -198414145845499152615544816460636354797468554118972500673571618401223200422050661653839503587907059136157901244852597231475228672.000000 0.000000
-198414145845499152615544816460636354797468554118972500673571618401223200422050661653839503587907059136157901244852597231475228672.000000 91592392240956548557994897843524575126393052046905585252835291147491548861835327517569201623011955568441544582099213197024165888.000000 0.000000
0.000000 0.000000 0.000000
528187669151867760445762918790653968182576914999382681063808855000250887686065934166278342849718631773359792096064767640492572672.000000 469797617784213307865071457964449753454871121343638557213850564405965822819090383533032865489074592934007825417189343959887904768.000000 0.000000
469797617784213307865071457964449753454871121343638557213850564405965822819090383533032865489074592934007825417189343959887904768.000000 188830432946914680987351801625815587743378644669688755413403598943218605098088966515419854826793572702220352804966323904369917952.000000 0.000000
0.000000 0.000000 0.000000
626051663727333654682787089796405183844814744376295948080951228627324235527642206678335981255798706925027580468182505198524039168.000000 91700056520245395560980064282006242996201182190540777736774785447339492242355942256338023079072712199325573922209696985458409472.000000 0.000000
91700056520245395560980064282006242996201182190540777736774785447339492242355942256338023079072712199325573922209696985458409472.000000 8874483644614197171353874722052002225201652299361591204453527787327114971792418993075833757850466023297697411035378169600278528.000000 0.000000
0.000000 0.000000 0.000000
31597700688321665934709186590890211924055359157440830905160146594423848262425847999494662565699111234477943217346536615555629056.000000 205867755913320194655250487851460998455312124498261437983967690354339679500818070002200000278913933302218027815779785971159007232.000000 0.000000
205867755913320194655250487851460998455312124498261437983967690354339679500818070002200000278913933302218027815779785971159007232.000000 116366812907253294145951210945073366527311590993135556552554728365977672160762234080564523296634296267937872625192450267962933248.000000 0.000000
0.000000 0.000000 0.000000
-156511994080569938680700494633990465832568725190311469013328820168320128612021201978721922419993488704919661368274562109107339264.000000 -1090733376733982943453429613452009699865994965180623575507227114049995263458604580725017133922148092975080767318750624146440323072.000000 0.000000
-1090733376733982943453429613452009699865994965180623575507227114049995263458604580725017133922148092975080767318750624146440323072.000000 616823216118095484228757515194646067013958079495918783369505179925448631364961586083107232261053380588506547202545835802089226240.000000 0.000000
0.000000 0.000000 0.000000
568580605658077280394685993290613054776120880028887417400248750882638764377525632694815338454226842100373996221818450486786785280.000000 -452732383499206453809082178521218990841328093188942167983455849414629455394805057522207595399309088892002799697673438982626607104.000000 0.000000
-452732383499206453809082178521218990841328093188942167983455849414629455394805057522207595399309088892002799697673438982626607104.000000 171822648424981822571272616993377791763858172009290098224986805626513104640492447489101476274906479638334246642166030302919524352.000000 0.000000
0.000000 0.000000 0.000000
-1030664720598909255898765010372347348183594005314207995390073070509221835961160838940989953063574013371850292180784292597688434688.000000 -250150663011314439792950358518513015170026328404027288308461525081272317931731302358768610750624990865384999206428778639575220224.000000 0.000000
-250150663011314439792950358518513015170026328404027288308461525081272317931731302358768610750624990865384999206428778639575220224.000000 92129320274248243965340210756021812687840730749866872873347857281091144806653304057453421685915725176219476214282197676461129728.000000 0.000000
0.000000 0.000000 0.000000
4826654917471177108101895343405736844395098509896294846512268436855306564068922576901033976060418742079118760397407558840631689216.000000 -4021819608570817821664043076432410524911030802646928932398226521933603304129103895405132436088104118801348551316939368003771826176.000000 0.000000
-4021819608570817821664043076432410524911030802646928932398226521933603304129103895405132436088104118801348551316939368003771826176.000000 1568657602476265055437309990859493955134454446578050474602385126342630253786983879820781231987221631993060405227587500407311564800.000000 0.000000
0.000000 0.000000 0.000000
-77052071569364855762977016236007135735565475769059302553483006244557626373700077013922969256905831793746089438427474124865536.000000 -1576981754115474321481373945853585696700823617815659674674846373115737466326608233089001339252676662209678934994044163029204992.000000 0.000000
-1576981754115474321481373945853585696700823617815659674674846373115737466326608233089001339252676662209678934994044163029204992.000000 913268612714005654721047067839783247436710021401345281941688030064188973529450992434731730722223071436293895565954324656816128.000000 0.000000
0.000000 0.000000 0.000000
-1647088087229596627612581107536941023984486046588955940787274899255140150520792312937247221898754843946777789487113199814646431744.000000 -999932991038182437197722729623274538304658149117341304960256187146923082731360131133127949822030577746566551078332421382961364992.000000 0.000000
-999932991038182437197722729623274538304658149117341304960256187146923082731360131133127949822030577746566551078332421382961364992.000000 534887705610496532134562728766898804033806709764738561162542127743886927245114231916264294415367512301482820659662109336945033216.000000 0.000000
0.000000 0.000000 0.000000
-2184053526566360608247632634199468520512769211650095398277755182264041614667241038906101795184517931475426502425963695774309023744.000000 -568356343209257941013694243305489395037635923144001956358456797552890869780059806782018670612793473955610280475554006266271498240.000000 0.000000
-568356343209257941013694243305489395037635923144001956358456797552890869780059806782018670612793473955610280475554006266271498240.000000 221458198316545820256899535622922987480411795781510901398174080900973043738462503347228446947049777912847350599747731491852910592.000000 0.000000
0.000000 0.000000 0.000000
-30343945545050855744777613549599678481455059599767466404660524670089637488167880400045342917303772831881276549666450671667249152.000000 -210181907411787557578872250801321141047991245768778963860633949384368009196273242364559773250362392548277570330433582938732888064.000000 0.000000
-210181907411787557578872250801321141047991245768778963860633949384368009196273242364559773250362392548277570330433582938732888064.000000 119369712561017931711439420706497653714525455913066464959827622006069105412883401296756308909450122219384036951484465951836995584.000000 0.000000
0.000000 0.000000 0.000000
191749063630955924969299149286926347989641968158670447620519653573803737437989651512513459634551153789761273218683320363986714624.000000 245141503738891550640997804506117451940764996148395298015360800158270886889510229657293314885701838225369469269020524771591323648.000000 0.000000
245141503738891550640997804506117451940764996148395298015360800158270886889510229657293314885701838225369469269020524771591323648.000000 113361525233380931662156359203228691851269084891249083650257266708403189612747557019560823715686175729837402725386732331019010048.000000 0.000000
0.000000 0.000000 0.000000
-855530120937336893287754772354533412644852033340215870435188038367913059314367412723635059354038990374774120190724269724774957056.000000 -1063117507765099815671989126756606401364594265945494453667440672782203744422821640500410235044525749768860593041240063801374539776.000000 0.000000
-1063117507765099815671989126756606401364594265945494453667440672782203744422821640500410235044525749768860593041240063801374539776.000000 611229779946364239598599271262776765578314286469344611843133228300468546058287907630745049396838767759284212044860031667321962496.000000 0.000000
0.000000 0.000000 0.000000
1380251119549043955520026153017871525373290522978959100323217985802816456393453864629894821560070993590808182564022558980076208128.000000 -616549877795425091222915724601184100256068731831620304223195388947782285395512706203051097596190234392452956970020879993669681152.000000 0.000000
-616549877795425091222915724601184100256068731831620304223195388947782285395512706203051097596190234392452956970020879993669681152.000000 161943021018119459603520677235528879951930710899728412850059580800291974697491497608931784439980240388348020083531102190464663552.000000 0.000000
0.000000 0.000000 0.000000
-46612053003644110981454141384645491442506933154852535742986718556192356499079997101604659301416470128046342515807515932884992.000000 -1067791370261882092250692279420676871513483763668644831356636384163911275205742673970722129538679298272032812190209637613568.000000 0.000000
-1067791370261882092250692279420676871513483763668644831356636384163911275205742673970722129538679298272032812190209637613568.000000 468348091994894819365356330198620828611511744040326222800896609991053183784479670307214293963022349820054407150927093956608.000000 0.000000
0.000000 0.000000 0.000000
17192089629556931643761332962274812885684259165323900851865131861102084790877200240375976295491556001959672284705823234021392384.000000 70121047803330029777724622579447449132887740021720879014604402165947740687928964919258702644833651170939606282145472166922027008.000000 0.000000
70121047803330029777724622579447449132887740021720879014604402165947740687928964919258702644833651170939606282145472166922027008.000000 42723354708081787859736260592701101757229097337158728711218787921119829060668062550863698433699961401808004002334460843208474624.000000 0.000000
0.000000 0.000000 0.000000
-1906894194402433565273672999928278623880462699664504808833098295899497204549054250337990335130617998871848460826172795380740128768.000000 732399059694711054879757085344955985366809363329338843582876865191610054705590266087420484424313561270635836929782175148401491968.000000 0.000000
732399059694711054879757085344955985366809363329338843582876865191610054705590266087420484424313561270635836929782175148401491968.000000 343774150793126404363778277454937914267313936994017021675663659662420771973038685630721831787758454446859476955270532309255716864.000000 0.000000
0.000000 0.000000 0.000000
-2197098977607349274731265928095761616410847830923454211901319896646145843728371616396541016930118921923337597788108585203929186304.000000 1186872395652233427813181110048427947693055519742789648722962182466933081986859883717541188290354930251419376134461658273299824640.000000 0.000000
1186872395652233427813181110048427947693055519742789648722962182466933081986859883717541188290354930251419376134461658273299824640.000000 617984796278401911347492450707108580788037126722948298556765775477488600935296292065990651233718471876914671825351878340864114688.000000 0.000000
0.000000 0.000000 0.000000
2242216178667300137793195314886335345549933643387004466771755979922917317886579719503185431600641823634343983417283047533733478400.000000 296473902345280702079459490491944887086213237763562362638328667664677489055014722077953121019485623339349091156191307190943875072.000000 0.000000
296473902345280702079459490491944887086213237763562362638328667664677489055014722077953121019485623339349091156191307190943875072.000000 26247093109997080539774962527654546336908030793910441103247823490227004213206257266675176328201230466051257136022041796611670016.000000 0.000000
0.000000 0.000000 0.000000
2428142431146135396585142747472264834034597349037770001956007970706881802987832449655665075088499823289093430667030090230710403072.000000 1979180583349809913766988224033475134197610930712746537796457554513551318037801908498726808371070154124083467966466584077878165504.000000 0.000000
1979180583349809913766988224033475134197610930712746537796457554513551318037801908498726808371070154124083467966466584077878165504.000000 764136831181820984689249905256747551502473628995181073675620018157677616520265701725976286268429374112444007087943211672420745216.000000 0.000000
0.000000 0.000000 0.000000
989258328933618604378892941021231709859898729230738236101410999503177126775367970301459468280459984704327612574458736367934373888.000000 -437802883881118279546213670732473288274993370808536887918133970197195189198913712860866890603228133664973289622941127721015574528.000000 0.000000
-437802883881118279546213670732473288274993370808536887918133970197195189198913712860866890603228133664973289622941127721015574528.000000 120109107272130193954102270450140239525878183093140801871832817746595641174173506617704733057306158344918710504058491787049697280.000000 0.000000
0.000000 0.000000 0.000000
8184077017329878686810121798810689236792818837055750507161111038509778504894450734044425388064001548082876838281995233903247360.000000 403918586960204432010618188068122084057822904719964939830921281520309815763420874204957807136484464928894328407489773874284855296.000000 0.000000
403918586960204432010618188068122084057822904719964939830921281520309815763420874204957807136484464928894328407489773874284855296.000000 223585455076847441111541042343438363800654376565778136404141757756523585770038490771432827658580457360714743694909330001491918848.000000 0.000000
0.000000 0.000000 0.000000
-136901497834514763933490750066281441602297186403130180263169835856773971386854413927083907921893601241534923126733868226154856448.000000 -20176711899856973003436880237635651918995068380738861007146183291487699319553867375723735913601625884876953730044910336791805952.000000 0.000000
-20176711899856973003436880237635651918995068380738861007146183291487699319553867375723735913601625884876953730044910336791805952.000000 4052676891635198383122921699864530958897277118816902287919374132164917950455104696940084684980437800479176278235240524245106688.000000 0.000000
0.000000 0.000000 0.000000
92478902092691257015578895898272382988424575154403375846394270097344593330072217247631062501582494551821986647809538080376881152.000000 188590473388531072597834939713385023432933723221376257596675405418534792474820947617078537598152095211678237097523548357692227584.000000 0.000000
188590473388531072597834939713385023432933723221376257596675405418534792474820947617078537598152095211678237097523548357692227584.000000 95707933022398528682403977010105847779607531931765951896502226419072022934354671479304383097381743157494257784490081959874134016.000000 0.000000
0.000000 0.000000 0.000000
-2457288296326475707520620912733818956603303779249888968628855074203416407968671558293937258409237748074099402261391573858123776.000000 1448608104943324895492009445199815663769810648705593446087309433698309808732731147516108384323092177214080527946523135398903808.000000 0.000000
1448608104943324895492009445199815663769810648705593446087309433698309808732731147516108384323092177214080527946523135398903808.000000 795409357199321269576754031546674048219076949146356053143193038852178286091460100779044047891148213133627438681694678076620800.000000 0.000000
0.000000 0.000000 0.000000
1893737381491381801492112054394492450827645017883157274482484911894990463572439769938566696828310556905450966272844043210283024384.000000 907445917033713469711056823610598478462923286450216886586533267846028328812530673078101598283247083295474733098061561893497077760.000000 0.000000
907445917033713469711056823610598478462923286450216886586533267846028328812530673078101598283247083295474733098061561893497077760.000000 255283476004007725213638091552309356045439768198875822674141709971083329011140827481580127562555557935264692787002136737624358912.000000 0.000000
0.000000 0.000000 0.000000
301983972859122592931712580081753719841849688367440516700529527126917080424380941810391378882237941038060423449041750419897843712.000000 58647837492752682792627331564008675140960449911599707986569359560030363702853900298258428423590670297288869119174490582782312448.000000 0.000000
58647837492752682792627331564008675140960449911599707986569359560030363702853900298258428423590670297288869119174490582782312448.000000 7573228317951792973501950104157259050505672503695307419225096694813964569053489004497095850626272141615761876227017999153889280.000000 0.000000
0.000000 0.000000 0.000000
31990867360996280519278180892751864553637231714621532535725097920267756726380702426583336756784558733101519409377075549641375744.000000 31198028750294333937614251362452164287035412771108912536712868357454483897614239077304865790030365628627433164739617040155803648.000000 0.000000
31198028750294333937614251362452164287035412771108912536712868357454483897614239077304865790030365628627433164739617040155803648.000000 12210687848498477342012176536826025202933591086609087063389713876069827294417232544269620357948140966538360201640493035523407872.000000 0.000000
0.000000 0.000000 0.000000
469256354294873006752015199345460767279237575565714172766278234511618034410748490263628431937025862130630130559088063961813221376.000000 335097764726302784024668214814153584531119593903518004576192495090765743353381012245862453773580606344950565674918174287051358208.000000 0.000000
335097764726302784024668214814153584531119593903518004576192495090765743353381012245862453773580606344950565674918174287051358208.000000 126226348652047611361893064136096593549330385917595509413855908702595062503795805945930254350471573664530929328712471699265683456.000000 0.000000
0.000000 0.000000 0.000000
478765225319688423107754220148664665368186653193824494628488984937677346034435488304974821970234713279134079933117111989400764416.000000 -400619984499110823176758211565018538598456746790871950036983172333217279103292972260425147684542312022700939424972003192768299008.000000 0.000000
-400619984499110823176758211565018538598456746790871950036983172333217279103292972260425147684542312022700939424972003192768299008.000000 156533067159346801113305600486035449749979353931664861056742337212943227658247612071187767545442220117421661105091873704347959296.000000 0.000000
0.000000 0.000000 0.000000
1242539511713619346673510988307772484157198217001613559385204044906677217784874421174056944364837609133747922716192855604196278272.000000 -374300112157610609606759847727652254557375383839841038767189862064946314452550202373439805928103047730013352432112208996722540544.000000 0.000000
-374300112157610609606759847727652254557375383839841038767189862064946314452550202373439805928103047730013352432112208996722540544.000000 70885588832408054590709293845378960618648619978823309333390007631468549770515134439775330133405006054057857061394543708316106752.000000 0.000000
0.000000 0.000000 0.000000
-2655466722476333705720114791090607849427402916144691967264145963990117301523177679620233075493212463899006715062115379599573516288.000000 627040620404833882362510466032424328458191899094534033755061041664673880360173555214303320981686855477404568650321270549925330944.000000 0.000000
627040620404833882362510466032424328458191899094534033755061041664673880360173555214303320981686855477404568650321270549925330944.000000 230715791234291029078100198203855943833925909625125456802615040178057832384593667023485470042206628503661877547846137660517122048.000000 0.000000
0.000000 0.000000 0.000000
168482863848759533027236124936812649921424644595111884154941240431428610672752364433163308964585571188742544166478670147782443008.000000 53507534268230448438213088590216198289659172908918009407283875918584605933471198526246593289499937773516073418741915162849050624.000000 0.000000
53507534268230448438213088590216198289659172908918009407283875918584605933471198526246593289499937773516073418741915162849050624.000000 20040434532201433565247589968432319847722972049170180043827311237693053747505947084868530119142323049722154523050789250466316288.000000 0.000000
0.000000 0.000000 0.000000
2369033945760762212696373068592137420337632036135695954591041135104665939899621297447685738384017661862517730580456023819194204160.000000 758919191889725147955491881863576359327550101872047587836305660427985435286051541175321412757143546420922612421242786738224496640.000000 0.000000
758919191889725147955491881863576359327550101872047587836305660427985435286051541175321412757143546420922612421242786738224496640.000000 158885875800027207764526589876463844084523041714278438844476575732546507327640102675989852729524101744467753299712186896282025984.000000 0.000000
0.000000 0.000000 0.000000
1729031234628464644074897854063227529338203597206589868586799590723563332172707631596924081753037509185079859851998612456277540864.000000 -89235827836954215951778260929883852941971573912471100549718586237484836504986223423775546247599621959595261234149583624096186368.000000 0.000000
-89235827836954215951778260929883852941971573912471100549718586237484836504986223423775546247599621959595261234149583624096186368.000000 5038126258565370396728529689052863841579924970834809379721433077500680361378782680910059650189457471863608589181540263056637952.000000 0.000000
0.000000 0.000000 0.000000
-32758327164182356828091371893006669557238927918891772665591598437234451535312265199990284726392816313511216388615507272506802176.000000 57776837910908994589507356108996855754478031805047928375251886462713679648194202420467805713134202203662108015036181708451872768.000000 0.000000
57776837910908994589507356108996855754478031805047928375251886462713679648194202420467805713134202203662108015036181708451872768.000000 33340761124077254611797756786707381095401798219774150088547763457954561940954483336936899954346474135767430166300145454248099840.000000 0.000000
0.000000 0.000000 0.000000
-1349442258946736972782846859436864751697064785698738837179147543643613665176692322570065083205277213716470703654148094339164667904.000000 -418526445990221090822637604684325041769789703271383580894608954136577908438788036691041890935380729769787466715258250237971529728.000000 0.000000
-418526445990221090822637604684325041769789703271383580894608954136577908438788036691041890935380729769787466715258250237971529728.000000 178974177312988305556585414411783727273050014242827162116615729425088123325630308476235061739197005897659532294330708253458038784.000000 0.000000
0.000000 0.000000 0.000000
169574791696085079658496616480705337581396443620727400418397573998897695590828058875415928039572274764962318572057642513679253504.000000 26462557532345976486581932090547287237168157184107832447254922783035178694176007989426766385030006181729376195491892981584101376.000000 0.000000
26462557532345976486581932090547287237168157184107832447254922783035178694176007989426766385030006181729376195491892981584101376.000000 2873867040071719735782580864541211769278894505248045555766165021508140969063729612131187131966755355922671356580012133548294144.000000 0.000000
0.000000 0.000000 0.000000
-745025157397855038589585757856764555175496576305233812215176753257390287261850043139056897766196952405082333408523270417163485184.000000 -671916546265494744005960211923619308361439754494439374559604184354289260502252519724374503790281663247258840283345672564195196928.000000 0.000000
-671916546265494744005960211923619308361439754494439374559604184354289260502252519724374503790281663247258840283345672564195196928.000000 379296188518413692799046098505386662524080784084755895642663382281586816584922394744394166318323914691414600090967728073729900544.000000 0.000000
0.000000 0.000000 0.000000
-57325596177303557001580821084477867714362061784542710017223961577898173085726779570036225082246074212499809736233453388780535808.000000 -18713777363174079228106027533070071366602077933354259191339342284466944545875699013835291698951224159504458097523710609172987904.000000 0.000000
-18713777363174079228106027533070071366602077933354259191339342284466944545875699013835291698951224159504458097523710609172987904.000000 8194009511519561265643897662077592456763799579440789614716332219103056931997646243412772286673767939464753631124752857229688832.000000 0.000000
0.000000 0.000000 0.000000
-118244679392479715172094670864916959145756994780128301767987299929542475686440621086464483133022846156962839762575204986543669248.000000 -92866465343943167695997999123245053068675013645141069814191410637002835115932393683383578650175727244261170487969358943338102784.000000 0.000000
-92866465343943167695997999123245053068675013645141069814191410637002835115932393683383578650175727244261170487969358943338102784.000000 51220016193369329062112392035283520349207000981351486701948160196737723085862619537628192846226232240542723756229161792143622144.000000 0.000000
0.000000 0.000000 0.000000
344735718919301898655788581703060825241174408558487071613653385628959690813896289828269605741470913485548489566164365079436328960.000000 -27588444925076277974632508599497031987164507151456913410831411861229852721969317619103160573405181717483180207209230935233921024.000000 0.000000
-27588444925076277974632508599497031987164507151456913410831411861229852721969317619103160573405181717483180207209230935233921024.000000 1613729067562773270862879647370436313219953336085908478055652516942147056337922180601821609762880068848494111448440644443308032.000000 0.000000
0.000000 0.000000 0.000000
2180779834914853343318549441366019318322540394269491816721766803862863583538653852342665454847769282000769497144535657839325085696.000000 1116586568133716948750698870584762870900332755969449259243634420855847450279424353436885798155336233572250661207936818721752875008.000000 0.000000
1116586568133716948750698870584762870900332755969449259243634420855847450279424353436885798155336233572250661207936818721752875008.000000 325728372666804715130341689203551428277717604068532246628601022314880153611515505416515850702100501944719732336160344210761842688.000000 0.000000
0.000000 0.000000 0.000000
632736268348114017322380836746029178275142104981183465597346048027731019899003914130376769770082781546091342502795687453953884160.000000 -323114198630847055003693624241982957349223698600219141882355872147717835929827786440458682722881461614915120459755548486320259072.000000 0.000000
-323114198630847055003693624241982957349223698600219141882355872147717835929827786440458682722881461614915120459755548486320259072.000000 99499643800236570806227744734235454637867065090014113587691599825739590556863706625252376857705202151027555255073742206032412672.000000 0.000000
0.000000 0.000000 0.000000
1180380281151119017877112427369232437962893421859201756438892127190686696651947950038979574723926639117816321737077488451242164224.000000 439661264305603406315674628119173019343665821775036764643902033926634122221904690784578051115279534732428563670355619440637247488.000000 0.000000
439661264305603406315674628119173019343665821775036764643902033926634122221904690784578051115279534732428563670355619440637247488.000000 101609326438192176908825208545779792205480124372707312799885721189588635048627378875697020109472923668891671697342963417522110464.000000 0.000000
0.000000 0.000000 0.000000
1025303359039185028700889381959880814138773702320600455916067932097170925168760791460089117580964308304965609654002072593895522304.000000 209671319329498304775691315012616664061831694406742159110558881747669055403235738789254506373360202926098304883821999153299324928.000000 0.000000
209671319329498304775691315012616664061831694406742159110558881747669055403235738789254506373360202926098304883821999153299324928.000000 27867647596756300240231189645688106505868866956395410611584313316673011546897909415777669048047782195205201905178501268801323008.000000 0.000000
0.000000 0.000000 0.000000
434573540653952845358402743522201107966288155307143608043772383450426769421301936330253741776854266287470848935436303900606464.000000 -2447909604349311273553443931375868391382405655577623778749639042511823548820341069452938166811413506206038527840405364718698496.000000 0.000000
-2447909604349311273553443931375868391382405655577623778749639042511823548820341069452938166811413506206038527840405364718698496.000000 1323335913887508516195631369364330746677114825327559923414422967560230956584519012396326496633113817218915344194773539637690368.000000 0.000000
0.000000 0.000000 0.000000
-3791924130534116068246393430825294266358812620022776324322469096113574143333077735855872063784793474770876988950540842212261888.000000 1153681877446029200254653528715761300171087325607559762887386146019014109573430073031900736518526396500917222225965640679686144.000000 0.000000
1153681877446029200254653528715761300171087325607559762887386146019014109573430073031900736518526396500917222225965640679686144.000000 488897058164907768837492980316586925314735878245541300216339549314295105490462074851837561462108004345264548560219589023105024.000000 0.000000
0.000000 0.000000 0.000000
1548839462192520069573514468979176593992312217553801921781584021171112033109922276048773335917500384486373751819754235510472572928.000000 -754005071559576402958971516165906371706058816204083040589171371950280572024608082810464679638559077404887371718574386234456539136.000000 0.000000
-754005071559576402958971516165906371706058816204083040589171371950280572024608082810464679638559077404887371718574386234456539136.000000 211930362593277291054503245725277174322882773487267048071254825669648702776516585563207455666026670951194901140218172564289093632.000000 0.000000
0.000000 0.000000 0.000000
-242795714062904574088071195763304370814588484385720756687899936628032033865637567642627159045169086042339980107995751999820791808.000000 197567119329073674003208203297474788827356351626734510637575014477964404755878415372389837355853735928338945443462232056430329856.000000 0.000000
197567119329073674003208203297474788827356351626734510637575014477964404755878415372389837355853735928338945443462232056430329856.000000 110431302804780061415876554710547596969025944516636544056560615487405423405884225541429908195845974483397215180546339229417865216.000000 0.000000
0.000000 0.000000 0.000000
575815880290862049417541750096571829679716237267307797887384609299287033468490010949507145318721242033617116678522807867760705536.000000 -617602990680870338346673723057501461092495204751440892302720930855646027875239772020722390423206896937889492009536349374137761792.000000 0.000000
-617602990680870338346673723057501461092495204751440892302720930855646027875239772020722390423206896937889492009536349374137761792.000000 267157079137576353964851288993571206525222289198185183146003765440058971228007583270639711941757747478328808702708558527845105664.000000 0.000000
0.000000 0.000000 0.000000
66828466903056617885868761648603278420685289028717307040198305487153186111548896815741256542133007508059090071827012523164434432.000000 -157220006416965319185217695182017251890475328405859713403169280812997075098469618877695111323130015411595928829925426366251008000.000000 0.000000
-157220006416965319185217695182017251890475328405859713403169280812997075098469618877695111323130015411595928829925426366251008000.000000 80215081106232204102080225231952255647934778544104999168679042199551815211244193250648169922828790492457836688928650163696697344.000000 0.000000
0.000000 0.000000 0.000000
167278385793685113068231701318606951484739590518980025845338662986333944115166367387505587748339758183507241969924527056415096832.000000 -46841881207881121693767443406047273227114947660438887438242468733163726571881659923302687734923142120735810278738040215119593472.000000 0.000000
-46841881207881121693767443406047273227114947660438887438242468733163726571881659923302687734923142120735810278738040215119593472.000000 8369116943626325924177344284236874828222639643499450368429553100881949402052125245480681315519430388732666738584414193302110208.000000 0.000000
0.000000 0.000000 0.000000
-147734061924738469923548392488418798235177170251607503253502164937151329245345681922143471138024466241990901208005079087449473286144.000000 3943511604236182107648019592290990010790757041030113114741242240944727373388550068032347994058906028468480485017216401111655645184.000000 0.000000
3943511604236182107648019592290990010790757041030113114741242240944727373388550068032347994058906028468480485017216401111655645184.000000 210387737113394520696625149032113834656829952493821294596416458839976494113778061645656294427122973418715396093280743505497423872.000000 0.000000
0.000000 0.000000 0.000000
-3004649340913877942558115691145459190697822013023274380588810094628576547836866327699462666621007051666603521075570094293676720128.000000 20140020170846287628820050053729461045578668311876670486931236813503992507013501005272884209566729914468218462445604770120990720.000000 0.000000
20140020170846287628820050053729461045578668311876670486931236813503992507013501005272884209566729914468218462445604770120990720.000000 979266211274880008120160890603648343161648582646272012995252902189569337373756078178073777669070506890017886277121267571097600.000000 0.000000
0.000000 0.000000 0.000000
-1244286770174092702952436862350488974433154227949708410837175698498269490357859072999542043915298972454116119506780632903011270656.000000 -489978874825923498026569134511630747729495273187900130213375376045429503325816655419051941949364887392723021342064979721645457408.000000 0.000000
-489978874825923498026569134511630747729495273187900130213375376045429503325816655419051941949364887392723021342064979721645457408.000000 232170939684939369240122773023706500212106445843575487622066243338555412260623791952449385857915657683061134108215202498620686336.000000 0.000000
0.000000 0.000000 0.000000
683174214390567016096782044649499427005211838788219460166651368648522503819008622018354634160998365416477372537938359400219541504.000000 -429110671344296706844341097437788797839834908842504833123528290079591224165242388125082877982863339863668196928996430315905875968.000000 0.000000
-429110671344296706844341097437788797839834908842504833123528290079591224165242388125082877982863339863668196928996430315905875968.000000 143419904652531723992880732305421949561553984611264948065784427495529433925734443671630513362273079474298838960806090589555654656.000000 0.000000
0.000000 0.000000 0.000000
82001842749021733795320261778247977919323440128318336353774507565621727406672314419788677664450527818988473533781113778139561984.000000 -44500226113779127104452100271151475724152255797879632924626989339398489041203094864299709615158799053065991877557912433927913472.000000 0.000000
-44500226113779127104452100271151475724152255797879632924626989339398489041203094864299709615158799053065991877557912433927913472.000000 13574228354064751072591353690972374712657805169187677668385087603618326909326559984353204335572364782178112556133921192364998656.000000 0.000000
0.000000 0.000000 0.000000
497731683256464727384421968393225572568360244579012631861728181949265797341552781785867517051922062329850085900223232739284877312.000000 542706458723869133491302401411814413239655643965837703066337828150292233542187383548957205006852842502954164577858332350706876416.000000 0.000000
542706458723869133491302401411814413239655643965837703066337828150292233542187383548957205006852842502954164577858332350706876416.000000 236131637196790586705793481197186538454430531394298536777703058523435847880681080279869420567783638106059895570661867973605588992.000000 0.000000
0.000000 0.000000 0.000000
-2856339395158531867533579068436581645349078963416811619387947892272946255247853773545109337197945479866064733776599486047492769102954496.000000 680296774549056638415691980738776169295709962252303876195707055129249843963534615411905869188147879473616523535498948171152383541248.000000 0.000000
680296774549056638415691980738776169295709962252303876195707055129249843963534615411905869188147879473616523535498948171152383541248.000000 324649976897966126841041147178364011413074866928648559666245282549349646956782877188592470843824951028833775278305537708187975680.000000 0.000000
0.000000 0.000000 0.000000
-295313859788506482466801990474355352574778713626314556866739378185500072959546877643510156335235459006183432386287015190958440448.000000 1046174647445450649574861405497778794727923575976209803796173516353293104013967474431844831517956350565400188676865924949723840512.000000 0.000000
1046174647445450649574861405497778794727923575976209803796173516353293104013967474431844831517956350565400188676865924949723840512.000000 599894776852496870017066934697098156623560755734777548803556939220291283065438694684354727568888676207973187650091538336664518656.000000 0.000000
0.000000 0.000000 0.000000
-2542952029366403203395157375388701488537151487184791211412631024594034356546021701375978389392346488919057846246172039329196539904.000000 -619862457932141512392150147677513096649505590347696127300491981925178349315973067056555258790598238681686140566915798937500647424.000000 0.000000
-619862457932141512392150147677513096649505590347696127300491981925178349315973067056555258790598238681686140566915798937500647424.000000 232508091746299806713854501275528864975251043112140791331381927429433025513643161416737835152076555724983321938451293561623150592.000000 0.000000
0.000000 0.000000 0.000000
-437334715138070710190156809154815830227342270340345031154411442990188116371177902393629571859983728724591908607455437102287683584.000000 -1201702455367572807326213552780870629962883125351244085077889457412224522395351116883220514036880824133841143986507726558802739200.000000 0.000000
-1201702455367572807326213552780870629962883125351244085077889457412224522395351116883220514036880824133841143986507726558802739200.000000 690484854320891587965352009790167859807077651050637906392976430801949890763143058661360649600771913796086337912130395206655672320.000000 0.000000
0.000000 0.000000 0.000000
293899272139359115399976020017484077429105134504129089241042631897765107012614807188692692475668831880248325686046400089042190336.000000 -50782140719244263204362328189012974794792961680427684078729723707795253720146594389427067649304817360003091837920829246630002688.000000 0.000000
-50782140719244263204362328189012974794792961680427684078729723707795253720146594389427067649304817360003091837920829246630002688.000000 6315716441925038382759981121461163667681689274845060962103395488221942546513189246996338095370498715698082644773315751429799936.000000 0.000000
0.000000 0.000000 0.000000
119389781459359531387971530572406894802825378081501587240256338417162282188103439752847002535039392489278163828300702024250425344.000000 -209619032885273979337281817266505637478306567668621113732382215742679186068279466007273207265358731997004052541283216926277894144.000000 0.000000
-209619032885273979337281817266505637478306567668621113732382215742679186068279466007273207265358731997004052541283216926277894144.000000 104948307637811458451757038565099150480396722336430213002640804461382072539153540593943576295895695632344289745851627584706576384.000000 0.000000
0.000000 0.000000 0.000000
155156502018130970049221161817345420914331623876880642687487514649814147425338187375987947207174420894388218467336103519848497152.000000 -708256913982994846346358588859050308018592609457716084909249649156370414216465499558453722184334151665608000130042165687736074240.000000 0.000000
-708256913982994846346358588859050308018592609457716084909249649156370414216465499558453722184334151665608000130042165687736074240.000000 379322482803425462398697285901862781903420645983455014324695222968701659297710371381404719122663280829262505870437024496944676864.000000 0.000000
0.000000 0.000000 0.000000
-2876274619668752686777497581375079001819093968154267303683036100486928372455793959254516512994821469806352869804561554950271795200.000000 2157635582024710855568555773656850137879878477188216994415083501613570226639427906813576952781813057322122992999731989533889134592.000000 0.000000
2157635582024710855568555773656850137879878477188216994415083501613570226639427906813576952781813057322122992999731989533889134592.000000 1194269504945592544378734667376689869285560002761091049928590889559922091709276404795183166671496499412001042500572650707374571520.000000 0.000000
0.000000 0.000000 0.000000
50198326604863587924279332607642711745789768934799593973472765524650836838873034545630799855718239995838314198645679497418899456.000000 98976934761318266526253764628665982484260300076577938789679449367592085883150587583783242622554027228539220058529033831065845760.000000 0.000000
98976934761318266526253764628665982484260300076577938789679449367592085883150587583783242622554027228539220058529033831065845760.000000 51587101070593153172671060938293578594147669087558610247436323686459334662358637680220918024289190341613126917031839987474104320.000000 0.000000
0.000000 0.000000 0.000000
-77837966496594639647122203003204129976948169828252005720033453073119971128076744507013561048986734039183018041762760368727261184.000000 -14230515120620716764927504873422216924775725831282325741941416540697458797238588205720138051981479338176854780495315628384583680.000000 0.000000
-14230515120620716764927504873422216924775725831282325741941416540697458797238588205720138051981479338176854780495315628384583680.000000 4812620898376285126029761664031347803974509634139616339825112764592645879795671294750700440766120663384345369718717741489192960.000000 0.000000
0.000000 0.000000 0.000000
724143430155057217967114641099749062508543618037468896695525785754565079338512330034653297569657146108290938284956537165109526528.000000 648643228181911008011183163757856121693287946873405153971043091099406168423245239264294510094503623376285206251893148727046569984.000000 0.000000
648643228181911008011183163757856121693287946873405153971043091099406168423245239264294510094503623376285206251893148727046569984.000000 261466726139458756837274104272129123525327001859456698142907202347533096845560971509466012115332010902323986792982641636068556800.000000 0.000000
0.000000 0.000000 0.000000
-165612364859306526366953749820242490682385209126837306796270291016203020055176997155712068215998920776922255893837761345226801152.000000 -184250251462260694907581408261551869482162978034851318852632732631837869576912998317275472392148795676411428873832105413938511872.000000 0.000000
-184250251462260694907581408261551869482162978034851318852632732631837869576912998317275472392148795676411428873832105413938511872.000000 109963500524703465062952330990955582473777708797625493142342159628416807189097155354025103217204604806658658780104476447456886784.000000 0.000000
0.000000 0.000000 0.000000
-65845717186623027595754690236458918244017209269095976962031830285004172048396958215348763491586043306064675169090107220659535872.000000 -11080806279565312708923459165417470672465039791667421844912731407956302504164499569518174299349044654281941883710999189386166272.000000 0.000000
-11080806279565312708923459165417470672465039791667421844912731407956302504164499569518174299349044654281941883710999189386166272.000000 3228659329277758886077721929210130686874563560323853230506556369290742680498251660977953528318023612327399716417329563219001344.000000 0.000000
0.000000 0.000000 0.000000
411718243805263680850706212202011857142638651296697510425045997868414936714560148463168242546522645356958212587197839011768958976.000000 469114026355904165842319327305905563128978520067364792414946392886737358231644171070242344610537973721697562614029113718376235008.000000 0.000000
469114026355904165842319327305905563128978520067364792414946392886737358231644171070242344610537973721697562614029113718376235008.000000 207959578130424282565813485787882456992829815716551886330236281113942372194400608928544894342412151185761365679723074398464245760.000000 0.000000
0.000000 0.000000 0.000000
10749591721537097984637243307566191867210206591942773217639426559250500243304772413115892059530668567041462878682026137165496320.000000 -13323617229066956809948942409397622237078030898127835352500860403262125044786030781974813220660583507466183127635182092900368384.000000 0.000000
-13323617229066956809948942409397622237078030898127835352500860403262125044786030781974813220660583507466183127635182092900368384.000000 6019088834071177358215702204811040486364368379620154230094839207397742464714807201415541654719231572849680068548585594741063680.000000 0.000000
0.000000 0.000000 0.000000
396926455268219207055324946399488619491993196140967788050362835998334803003300657097497081856980815716712548958872081876524204032.000000 1199559264072005647198175293282159956930182603511082948163906375770659890412408576617010404936906173416210363744418143406716354560.000000 0.000000
1199559264072005647198175293282159956930182603511082948163906375770659890412408576617010404936906173416210363744418143406716354560.000000 626971696699112701379699810005445015788835141393629375013380854467157270977231761801737911715371735033787984595337712001278279680.000000 0.000000
0.000000 0.000000 0.000000
-181783652511531512923840064648750707642178490631414276465724873948336692616328536024367675888510336861577692111281629374244192256.000000 -569688998413080795965914028535495555482255332129580493236784006427702999280022448638873790470550616473971256594499835678095835136.000000 0.000000
-569688998413080795965914028535495555482255332129580493236784006427702999280022448638873790470550616473971256594499835678095835136.000000 326962404833362891552562333620828287261507272717707508494918343334097764407540134686398914324992170095160931547120711926269607936.000000 0.000000
0.000000 0.000000 0.000000
197613229439245118853990772170665283298819875722323338919500260921044934185620993924616439480291159704687502024475287647743377408.000000 -32086610872817904713237684518397050851135012615840382085173549816188870658060547694014447376569791815594896688934407136543244288.000000 0.000000
-32086610872817904713237684518397050851135012615840382085173549816188870658060547694014447376569791815594896688934407136543244288.000000 4654351525795407146054790052244943908043244345116361858252356117184421380388978457142304907331675900113683678742198941541990400.000000 0.000000
0.000000 0.000000 0.000000
1836065771734764918007811297201092060788276699049845652286939356498227798724594287691771204223509351045124598380882656388139974656.000000 -1032002166805791152870948041084243176657734548155531177091271336691125284830360909707262525022998659156519557089610842789690474496.000000 0.000000
-1032002166805791152870948041084243176657734548155531177091271336691125284830360909707262525022998659156519557089610842789690474496.000000 321036617466363331592662605703569701494993439784168539806518221764973806984297311760161869117048922087360150310731983696095608832.000000 0.000000
0.000000 0.000000 0.000000
351092201755542679510308979798579515670820964416459438862489605086507451023172191823802235126412787889002711713677320181510045696.000000 756214032937486977562821355338711061478470155568021779842608197721522541024302581298172933674586699021821033956238439421969432576.000000 0.000000
756214032937486977562821355338711061478470155568021779842608197721522541024302581298172933674586699021821033956238439421969432576.000000 386646848081803589184904132153394944274470115920861078992277875929610968216869969475048820980790662044715135921862688146160877568.000000 0.000000
0.000000 0.000000 0.000000
-357970430550867000775774941841827747365077024414885177535614514054582811290193282574413989513687638064534670997217692715654840320.000000 -5499245527671685374558941950763337902794326635413905254164629559083073243758624697958863073708075586679809128832640183837917184.000000 0.000000
-5499245527671685374558941950763337902794326635413905254164629559083073243758624697958863073708075586679809128832640183837917184.000000 1216568759974479930460341459169451084206873466191967147230689107010738061595191070521193986186127298160099727567117403593637888.000000 0.000000
0.000000 0.000000 0.000000
-1162983970331850843242791802115790767054907252336936198726933468337774836572745322689371439631820302508873201236590563638116352.000000 -824996816116341351407661377082814794724414107093333737990093831527350895742256581240224690982808802242603792991793400204230656.000000 0.000000
-824996816116341351407661377082814794724414107093333737990093831527350895742256581240224690982808802242603792991793400204230656.000000 453727468923282290629896763947468558842975105775246979575014626383149596905119771291987166076208603016657751696697481572122624.000000 0.000000
0.000000 0.000000 0.000000
49620854078765633918404062447270080745233759809069357698341056244286296668976672456344407333902660601104545016021216758457171968.000000 8825562994617698345408146505001618112864699132889725791765126260135054806419890504106050497694342654186358665270538408076247040.000000 0.000000
8825562994617698345408146505001618112864699132889725791765126260135054806419890504106050497694342654186358665270538408076247040.000000 1193931782573212009545053528806003822119480865679448089452166965614743760339180897900952169703833410760367494064328469905408000.000000 0.000000
0.000000 0.000000 0.000000
-895356261498188113670141016767929703152839623685846124577498253247424959492293166863389497760935759529936255690854654735902834688.000000 745340289560275956060242187896380495334474203002177122845329095047359977209607332222122271590425307639910471717412927267317743616.000000 0.000000
745340289560275956060242187896380495334474203002177122845329095047359977209607332222122271590425307639910471717412927267317743616.000000 416847443973110896329861430546572682475574475094385006426224538219527426007127320804645620723174719710461484882084878124129976320.000000 0.000000
0.000000 0.000000 0.000000
-839025303755128274857482969805276573288130921215678733723568641334656080752670134150532406420790938679602026236276269367389323264.000000 464642681632863742886723484766201840144270823987255843977543628801901760203891745016262050578053379169202847602379320687618686976.000000 0.000000
464642681632863742886723484766201840144270823987255843977543628801901760203891745016262050578053379169202847602379320687618686976.000000 243730755693439259642448165144861262243169194537256253822868083776008285733787463274102360272347234317616551850452286001555439616.000000 0.000000
0.000000 0.000000 0.000000
178508493877593714248098261773174289960205937368592126235127505279359788020247983951110135173721924413981591555832879928819318784.000000 -255314267190326694025158074278898504851708021679567624982806840925842964709457821363717658496062420371843352501856949282036252672.000000 0.000000
-255314267190326694025158074278898504851708021679567624982806840925842964709457821363717658496062420371843352501856949282036252672.000000 120148967513883376461886073967856211928817104611818550836562121311114166361695452056266174409586242581188733781522247934017536000.000000 0.000000
0.000000 0.000000 0.000000
1130349234067034264933925693254811986439827772517796343170138623165759509009264479398109392522414414484322990912888419818196172800.000000 -525110313184987024836605453702007002469164083245063855330369260390302665127624053098327546457805195175557191433394166561113112576.000000 0.000000
-525110313184987024836605453702007002469164083245063855330369260390302665127624053098327546457805195175557191433394166561113112576.000000 142482430349159554463557425977554863908486802145039114677554804243685319795133750599642576491677037916394784848304942156458491904.000000 0.000000
0.000000 0.000000 0.000000
146651400144950556131361092652601478631852343353883516289686832435663898420340259811813701213973467905815440027363418272251772928.000000 350057709717252849105251256419972730868849007131751557538207717773664003981029936661656210417147523250215630639960171841109098496.000000 0.000000
350057709717252849105251256419972730868849007131751557538207717773664003981029936661656210417147523250215630639960171841109098496.000000 196961330848994406297439015785915601770239470041640506396513812193325233348329790283520699461142067738263190785316148490434248704.000000 0.000000
0.000000 0.000000 0.000000
650478164084960468156256148375205175423744363230548736742413160352905783917865166290215352943789435308227867315591160150854991872.000000 -54540261071721546346990250513039498525018440531808271423503185809966814715304751724144254310705632364400164557547008395197808640.000000 0.000000
-54540261071721546346990250513039498525018440531808271423503185809966814715304751724144254310705632364400164557547008395197808640.000000 3082646341001302514185466447722174035131680364420547699083162307113331368787920771452415000856318740869725117978811533547798528.000000 0.000000
0.000000 0.000000 0.000000
-2952875839934178783034161237766567019676811382430610986287649921819230608096979381571451583782177796468478234578568986061065682944.000000 -2676851659064843766353183795060598384805723918465000622951898238020940852565969167742127738783032513362393386982031341560698765312.000000 0.000000
-2676851659064843766353183795060598384805723918465000622951898238020940852565969167742127738783032513362393386982031341560698765312.000000 1511766224045914513646122655166024902515125546599742859388352172837025348070426065043825002360280432494921477003233426358585524224.000000 0.000000
0.000000 0.000000 0.000000
-364725877435106625319669023696240832255538016571812654900590640578622968568011892377435204221021798575768883196830782668165611520.000000 -2756255981460569935646622887363266212460387299595524524202722762447253567128785322596603039760682314556291564514943946121543680.000000 0.000000
-2756255981460569935646622887363266212460387299595524524202722762447253567128785322596603039760682314556291564514943946121543680.000000 510346100114349822491698207690889142103175727969551561820658099835142850685810092403423331724019580904841061009362547023806464.000000 0.000000
0.000000 0.000000 0.000000
-31860463753231347934606868556327886654735438449987390353021869995584026276111397019051064703076403746461002791120349211769740197888.000000 3309868313850362560571882690047147478063228128175582111095050691187607801906582609618821522766319483545481137528127236724481851392.000000 0.000000
3309868313850362560571882690047147478063228128175582111095050691187607801906582609618821522766319483545481137528127236724481851392.000000 646788185618142701904368991321494417699426890151745477158672039745119013393887145212668978772815048836290603256811788320683065344.000000 0.000000
0.000000 0.000000 0.000000
21090404495440252442627060741093493444008247572935664340463991112916124973817756726540862172144238979561358621677535201591296.000000 254599523181391102692343677169777330107306724131616972862242502540045978059381744342147157445245436811965313055790382765309952.000000 0.000000
254599523181391102692343677169777330107306724131616972862242502540045978059381744342147157445245436811965313055790382765309952.000000 165337187760980926229648113156037340071030895152767849596803009573522869612681590985935789943063656124442425728937333297774592.000000 0.000000
0.000000 0.000000 0.000000
29526367436520485127230225538034965040802863363373368378992368378492957231653442760605599699196156217413180229968514259108233216.000000 -44035129117484718953187762139678035637734237310906428200814543561269562784753941379196692960920407065748212380759813464902336512.000000 0.000000
-44035129117484718953187762139678035637734237310906428200814543561269562784753941379196692960920407065748212380759813464902336512.000000 27752429894883583711090944063654250979142389765956776444132923283297468191225921834219490798383721995508019108106675358604984320.000000 0.000000
0.000000 0.000000 0.000000
-151426423727956818802032738729199461879665635368173747071836288797620888634566523233982061319546770041753539830871910364330590208.000000 98153208950020516315056509589042125093252637301124421841780749788526874140134808738346550519927855600842853946514615953151492096.000000 0.000000
98153208950020516315056509589042125093252637301124421841780749788526874140134808738346550519927855600842853946514615953151492096.000000 10813234005350957306891958863423454893591954870728446140799440746357232723208161115843722162169078305070753784613797038754103296.000000 0.000000
0.000000 0.000000 0.000000
-601155647920428540455997753415663557312626684747250764031837944636256480697149219536930032824304435768685259838879501272079138816.000000 -752315805280554241344665122963533232205568583866120235380707106910608587813471866823110455131329120203958907742568638107667660800.000000 0.000000
-752315805280554241344665122963533232205568583866120235380707106910608587813471866823110455131329120203958907742568638107667660800.000000 433983339251781508168505625924837742263854816551021930974986313517759254352149240356239645071591519790351656884720346031076671488.000000 0.000000
0.000000 0.000000 0.000000
-55866206524583108843549099238881808144060673832274486869064217686411263672177455141655316855853751562209784738904521436037120.000000 -24877918984911949533654825366997919214428703959219038787715268371320551408945542525545881496561615202014885116385519932014592.000000 0.000000
-24877918984911949533654825366997919214428703959219038787715268371320551408945542525545881496561615202014885116385519932014592.000000 15504105094154650453894724484668415695288823443482809723953679725514556060548662287607989179750069142260255641665394551291904.000000 0.000000
0.000000 0.000000 0.000000
1860346460045099032392121495675786335618666986471797415153348735258443228231115412549523504104762086885621042906804657553007443968.000000 1332743547164486202236029264260166378309072953666270621587685608651170193942390205466382165045698532307653092273172651636238057472.000000 0.000000
1332743547164486202236029264260166378309072953666270621587685608651170193942390205466382165045698532307653092273172651636238057472.000000 480931452149695657748991927896887460813206126410954429808395079257033266784605472122798631025759423766980042505333022779085160448.000000 0.000000
0.000000 0.000000 0.000000
-2095091600672744338325419798433024863128213791485469723431425764160927076775324602281819889898340876471077692101069296986226688.000000 -731857008282127336351599435754751542035961663613706757033872014668425113537747904454326181070457923482869334996311962515190841344.000000 0.000000
-731857008282127336351599435754751542035961663613706757033872014668425113537747904454326181070457923482869334996311962515190841344.000000 412205113010139629137122700711315213692335976448985396851018221449022422122782440343551741218782891989283979036534721178142507008.000000 0.000000
0.000000 0.000000 0.000000
334559149346788588668400521009557928919876491615820920974346805715047931592824569976778201624190865212973023377964121735292780544.000000 1370329763860164622010705894489368769389686640434285472233071367290844681350595481374503147556685176801805914612599294532821975040.000000 0.000000
1370329763860164622010705894489368769389686640434285472233071367290844681350595481374503147556685176801805914612599294532821975040.000000 729932491674047319917211155294744893729516985078374618093178925956467474046277463647818280018291579853987810428785610026936958976.000000 0.000000
0.000000 0.000000 0.000000
2179967918209730445688226500230395759125896846523092188624555263811168435348577057192928522183751412046281288444620398623444697088.000000 -278895294673618115179048622184339693772804906505173180249291199496548134919904088297164791741272762747813077561443348061184065536.000000 0.000000
-278895294673618115179048622184339693772804906505173180249291199496548134919904088297164791741272762747813077561443348061184065536.000000 30924856121432942326552213318204917524947682298942438554171664176257295963955263011318843115954721657429351865781984157449060352.000000 0.000000
0.000000 0.000000 0.000000
808925767459873901826516363575123304416948464480503506921419879015043455446273349476650275552656159783063945838156345731480289280.000000 571353794096907384841555857776066140689136700477423737149339937377332340141022255203953903172601179593138254764961266537343221760.000000 0.000000
571353794096907384841555857776066140689136700477423737149339937377332340141022255203953903172601179593138254764961266537343221760.000000 202991962644073130668253572096607453321559432609682683394730004878148402232796247911677461296864773373131747161394251027294715904.000000 0.000000
0.000000 0.000000 0.000000
-26418621138455945403818233558058310307628279188912521943398441158917839813290727242585162747300940468464389986866652429829537792.000000 -96263761475226751242145864724470426477947460284806134212197540627289849466684811106401108433744708552827760229554411051589566464.000000 0.000000
-96263761475226751242145864724470426477947460284806134212197540627289849466684811106401108433744708552827760229554411051589566464.000000 58436401587392414856150861689444558932818436295690224973786519296194167186524978525423941923753963663397193316029693446536036352.000000 0.000000
0.000000 0.000000 0.000000
-291661324022040553017357938686871789758645109401499640711052797629224939091548039700548827491074207160175490061470020833468481536.000000 -24080830596009486997559487262784612839522167813064051294443322629576512427458529473836823142463586450133107716541764163180953600.000000 0.000000
-24080830596009486997559487262784612839522167813064051294443322629576512427458529473836823142463586450133107716541764163180953600.000000 16794998085658018201203587007369610770786893532772681391971072661688191798207591167455602338479383851290029330449528786287329280.000000 0.000000
0.000000 0.000000 0.000000
865138941633866856293191821524267042547317463010432245721308387721585148329293259664339936388249391748996151577438402908593848320.000000 621365139646976148517376829869648072043426225719394040630452801169994002301433754107573976231363480808202351727057068983272341504.000000 0.000000
621365139646976148517376829869648072043426225719394040630452801169994002301433754107573976231363480808202351727057068983272341504.000000 224673440053847292866644990898707624622706338559077101419633287846245863889846329053517646205980699089764867028527476593739694080.000000 0.000000
0.000000 0.000000 0.000000
-71681741431127678790631802967070461912585968214426384917880686827515160459061430366619658327872491828037059899764765731323904.000000 235630430075503371201868610082197812104702363202460252117425137657774053025353576555322084316543872879284750638161293903659008.000000 0.000000
235630430075503371201868610082197812104702363202460252117425137657774053025353576555322084316543872879284750638161293903659008.000000 142130429559249186032240017656308240314878382076455620600480213849854907103185024267931304598600450179424916878262791087063040.000000 0.000000
0.000000 0.000000 0.000000
-524780272971045813513518594578230568597634619035428762740383800907499967562966155970426205481791229592703636035780838472575614976.000000 262202857357201212952272862568422644779801350754911797280968324536339108308039711862285126005665309044987028488334016478613340160.000000 0.000000
262202857357201212952272862568422644779801350754911797280968324536339108308039711862285126005665309044987028488334016478613340160.000000 134068508503111452253253869001265946127109094577495865272709400167821798911696727886980094888441950689981118067939525250105999360.000000 0.000000
0.000000 0.000000 0.000000
-40232152975927577241206384939784451772836717895993119430528748482927091256320076967858136678326734062096868860088091714878475075584.000000 2620459445091744351423333858003369153548159927919226635314571187482594646103911976817478164004241064683504780714612195425190412288.000000 0.000000
2620459445091744351423333858003369153548159927919226635314571187482594646103911976817478164004241064683504780714612195425190412288.000000 332862106813632573283897317881293370465520335760221043268609073054438119555585017567821602769829087707165644004936550819441934336.000000 0.000000
0.000000 0.000000 0.000000
-10893033523561889375240942037928969984745313547859957839659994240460394818557650494131528628724318943979263440914722952965785649152.000000 1445224274054379653889589536219726618627174597080479338835179733724178850961275008337137439075204472542744601158871847823646654464.000000 0.000000
1445224274054379653889589536219726618627174597080479338835179733724178850961275008337137439075204472542744601158871847823646654464.000000 348778539092831016719316125306503219125901263087755924659782440579596182689722211892326998468200653993063594140549491184294166528.000000 0.000000
0.000000 0.000000 0.000000
5583924870626900556295697049121277283623664126774904098854094097363519325487433684024145875002281316737049458103642198502277120.000000 1142876829617566691533214890638128730526430362112246163166782023476504248838676279464466402189281600804033595036473277210951680.000000 0.000000
1142876829617566691533214890638128730526430362112246163166782023476504248838676279464466402189281600804033595036473277210951680.000000 161873013506623598968916336445339054165348732575224689059099833079392602592890495679814739647685903086416549902017635154919424.000000 0.000000
0.000000 0.000000 0.000000
337168343720795964084948972519277950834675696526276340873812157053094929272458703304483548807706995132336014812971191547843313664.000000 -147606767318965084692474376433288400325845809307716693336946482762516984339906701814417182177944304398218094640569343673620234240.000000 0.000000
-147606767318965084692474376433288400325845809307716693336946482762516984339906701814417182177944304398218094640569343673620234240.000000 38265132405827207525620763609711641566203410161644097831213786466879386894198296606767160466311654767271835549013336624463872000.000000 0.000000
0.000000 0.000000 0.000000
-3908739132246152452478648835585728173722878002772003288384356138255908168349771651191634719251333509568560609592584316694669819904.000000 -795996107355372338457624652305717988724802267506534668053831006813882047129822498325955120060872190607765910631634538748939599872.000000 0.000000
-795996107355372338457624652305717988724802267506534668053831006813882047129822498325955120060872190607765910631634538748939599872.000000 268122505199828071031908624172947799859246129681251439747307795209766277531133808705180498866669917931998455023995872703970017280.000000 0.000000
0.000000 0.000000 0.000000
1839486771443709763046453093147008090943990492012430762832022033010809568697114443858654278387113062704509372544079156488555200512.000000 -157911022166332498121356621341069938615568865178662072565630949482022278786029675134803783784017868043598687253792779456280002560.000000 0.000000
-157911022166332498121356621341069938615568865178662072565630949482022278786029675134803783784017868043598687253792779456280002560.000000 13203992997224415350846830230815056230869152778681564971239348512892017079818274932526435142780525038917320060292844017531486208.000000 0.000000
0.000000 0.000000 0.000000
109090779797189076111413903163538877437335293628250737584428424084831757091669451954070100890492103823999508617475636802707521536.000000 -112823244903519758225678336843173737657133614588477132992218113237254767599716434903753481256370206844868121472600881209995689984.000000 0.000000
-112823244903519758225678336843173737657133614588477132992218113237254767599716434903753481256370206844868121472600881209995689984.000000 48175619967664745568654863966159915768747785303069276554326674611125519626722226203495948100787210708660173823820779375160197120.000000 0.000000
0.000000 0.000000 0.000000
2190672743462544678216938711200510540096239836226171402136514388609602654854963100939306524210430389926906513998416591710479974400.000000 970839244470483740466803679606403436315025559432480233495061703905374925914823138511579915353231124490310382689566447320646549504.000000 0.000000
970839244470483740466803679606403436315025559432480233495061703905374925914823138511579915353231124490310382689566447320646549504.000000 254034158825081578637864902832883877209181882217943756552463837599986633952802810388463422435448597337945230011912222113408221184.000000 0.000000
0.000000 0.000000 0.000000
593213603523308790960989396198673965085712634075105916436844338765280824781153329610184375132820780714241275615266972161043070976.000000 -60828898168939634012280349192145134432664646427627336188310370489020177333419718766472941058632220343101056384849473620601208832.000000 0.000000
-60828898168939634012280349192145134432664646427627336188310370489020177333419718766472941058632220343101056384849473620601208832.000000 5592507013787933312620347222190156678558117380348054533907887219594190963246378071532426789694400839025003172683424236440649728.000000 0.000000
0.000000 0.000000 0.000000
-111072162598931619309714335944983567080834058732672366018276693947008128615099414987816106924581347925098968734811430465844132446208.000000 7698516872375360115028808183376569128739856862087769768146621318131696030643425963978905835776426779323301241049619712939611127808.000000 0.000000
7698516872375360115028808183376569128739856862087769768146621318131696030643425963978905835776426779323301241049619712939611127808.000000 1039027751653304588607275606009632010545296417047927966708094072693211218627885079384501050337659121054438141622762914366594482176.000000 0.000000
0.000000 0.000000 0.000000
248915519261395327608640570410191474498281511793786974602187594275843431546171067799684623084035257650681333380476104900136140800.000000 525517665730863055406093849150986954833132611185887994824674311703132184796286626134066988450315819555567679337414205253852594176.000000 0.000000
525517665730863055406093849150986954833132611185887994824674311703132184796286626134066988450315819555567679337414205253852594176.000000 265687890949651323028301858384220495789148702811305667392212103994546943147641665128401929839716352116867023126083097151305416704.000000 0.000000
0.000000 0.000000 0.000000
356415436253474386364216700834986659657564255283576748397275851440026263228763430313486776958165714619469064689015810691170304.000000 114176694604409499959497907516977120881365166269192130549835348155009354424459529792565647546909660724878536008004570443677696.000000 0.000000
114176694604409499959497907516977120881365166269192130549835348155009354424459529792565647546909660724878536008004570443677696.000000 54790161423728557463427968493565249276801191067281447779395578695560324535298545983575116249216502417790405426341719572480000.000000 0.000000
0.000000 0.000000 0.000000
-84902833485634111416299470473047785561866472709224502145360165643581152721148006025650739764945545956160776099394102248505081856.000000 -650114843795459894050775002928215825413224780463455836381373681004988504955137069850656802498427930064041637656827391522866462720.000000 0.000000
-650114843795459894050775002928215825413224780463455836381373681004988504955137069850656802498427930064041637656827391522866462720.000000 369201699534422740717249017244624860675114253144406445658409161982953912560599943214778426975311662215027158083319464834336030720.000000 0.000000
0.000000 0.000000 0.000000
1261507464471796088164290518659235564050520417555441953507477021984374047627561019297034754174847616500056520554902372195980279808.000000 1985448148404341696545080952801980454567097960074334251929353727809617008535549769763557615082973975494260090827365146055072022528.000000 0.000000
1985448148404341696545080952801980454567097960074334251929353727809617008535549769763557615082973975494260090827365146055072022528.000000 952555623544259818099586436921620422060128747782933168989329453907120759018223922263975385150168271871761579885963560730658603008.000000 0.000000
0.000000 0.000000 0.000000
-51303587746170018951118173102375441691476860608379443080339926360060406344376678367667100137641237914346387779555626222111162368.000000 -28976995205012354646409482042871223856178839363912051035401733917676542907956753328768955167011401337826092579530938072973705216.000000 0.000000
-28976995205012354646409482042871223856178839363912051035401733917676542907956753328768955167011401337826092579530938072973705216.000000 14631690791426172226779051321727591518436164335366265215527854331382862187392199754249879678575500466773035207821580848435560448.000000 0.000000
0.000000 0.000000 0.000000
-1129068036084133551310921665463706264845137290522396726760261577545955159393933095600911525942698708153689211966902947045965824.000000 60241493662205801466224276181172231332862558778170757297415403400704879754161030377895767447003229454630431963875922814173184.000000 0.000000
60241493662205801466224276181172231332862558778170757297415403400704879754161030377895767447003229454630431963875922814173184.000000 26236085353884445518101510640369735014592914454248333180493632056845636280823415399594306832194223020103034593731623360921600.000000 0.000000
0.000000 0.000000 0.000000
286075530706578752531421410797008065724632961923263448157454328681001943589691938877756486201444807550868933624625597976527503360.000000 -1100504789832114032211822342507769055049364128151940042804462007659024123323371017959555490816262522275495285601532007673942245376.000000 0.000000
-1100504789832114032211822342507769055049364128151940042804462007659024123323371017959555490816262522275495285601532007673942245376.000000 584400119861640568950881873039935132610926206700171412306636800469532160715905159614391981995868840959308238034875446439528366080.000000 0.000000
0.000000 0.000000 0.000000
8367289596680694575571936191256556512463025181067380379344118493071679154139983176398562230687935233084883601952007261282893824.000000 -940876214449085677967783244133150344778540815876693615141452368415514217511649629634824405374490912607485468075659583276711936.000000 0.000000
-940876214449085677967783244133150344778540815876693615141452368415514217511649629634824405374490912607485468075659583276711936.000000 128471023135600430809573744114398471449125958620416841445320525403155395523767671218003230020992365008239802640261902829092864.000000 0.000000
0.000000 0.000000 0.000000
9775804454975110482956561316205925008568497482741792797547960316033789766422173823139535569792282149058963971465292342674587648.000000 -3436891958624320622123138023010713529088207614846314300993384673080485146546238354310491193033642795719564959400367605625651200.000000 0.000000
-3436891958624320622123138023010713529088207614846314300993384673080485146546238354310491193033642795719564959400367605625651200.000000 2447663707317928940045533136023982437217845870859515760867667172189685660199439146245419636399897056158637495326251110342066176.000000 0.000000
0.000000 0.000000 0.000000
-16044814637773598718610454866014134131185870569223811897271605377329685484916802337062257627814262751172261329752051935407740289024.000000 2540949244819052750220353743905533118984399722190997317063098045108884014845878443397672112118445929689974478575001950714580697088.000000 0.000000
2540949244819052750220353743905533118984399722190997317063098045108884014845878443397672112118445929689974478575001950714580697088.000000 770050707703459970379845211083362785475664880354356697759341658856937834944429872680962867496540817765603418916055558519212998656.000000 0.000000
0.000000 0.000000 0.000000
1782393318911893872951135702490235290161588771705241433725178334834669067911374612061807131986020936217300289235866241687625924608.000000 45837137445607490767503861258575235217922968087117114653621650996933982979782027532026089135220985570958826431379159315881394176.000000 0.000000
45837137445607490767503861258575235217922968087117114653621650996933982979782027532026089135220985570958826431379159315881394176.000000 3279642367655153101128379227156832257759778380232722360511801011940679351418860855126778956738934787474151723023335438294188032.000000 0.000000
0.000000 0.000000 0.000000
185410488185994515345736477205708838248254197251360063067751587431164745507448078121929848831317621098295540228754563943865778176.000000 94370361668168645539463868636646832807010291403279254795574303974161143173633338481461289149742691463583895598816159963696594944.000000 0.000000
94370361668168645539463868636646832807010291403279254795574303974161143173633338481461289149742691463583895598816159963696594944.000000 28838809974778538610490116049299815940164859460373146628946372016806042454461609819440827058323403139045692946804978754923790336.000000 0.000000
0.000000 0.000000 0.000000
1388444288211138674970705480327260471502620664600525951178490363859014270500260721393393716825135677267831119937673621575481425920.000000 -1929794063708703811387433376569622657143460493644730254785856667487501398307439234765946346874675645564737872009734670802929844224.000000 0.000000
-1929794063708703811387433376569622657143460493644730254785856667487501398307439234765946346874675645564737872009734670802929844224.000000 902723559420642028148146088205994155707372658615378524797829394102628176616570997492376242619590037460788245656684643665445912576.000000 0.000000
0.000000 0.000000 0.000000
3514945126848182942648856037608921828861067403139999371766008630000947499654244251606399940492351246504557665669908018503876608.000000 6440306557266956502134795783642987814942452056617748869282461984176400974670208711342522228566138445124577077862905934363230208.000000 0.000000
6440306557266956502134795783642987814942452056617748869282461984176400974670208711342522228566138445124577077862905934363230208.000000 3201821107326339417271743213207427896435736388549413697194679893707110474023478799783009013082011718127896521925602469914607616.000000 0.000000
0.000000 0.000000 0.000000
335049931460643693157233159447503914535634611172191171618308422599879913357997635202559932201475506616376783453919172142894678016.000000 303326183007611146497079048684133818706484653000351615166478722395373078913661952631724564401145385908609538263228129155206873088.000000 0.000000
303326183007611146497079048684133818706484653000351615166478722395373078913661952631724564401145385908609538263228129155206873088.000000 120261480810268787418612008155175702383975932486100623711131772629411807401980983793750564886966601318326537948200386375039582208.000000 0.000000
0.000000 0.000000 0.000000
945651014457056681476005272384751885577625828241107564892101663539103792984821996730160882485458311253071918746167720659950501888.000000 1508940122533530172407682234358597124977081312837456489477449157897304729853623189019098872309824063480706127668714688463696297984.000000 0.000000
1508940122533530172407682234358597124977081312837456489477449157897304729853623189019098872309824063480706127668714688463696297984.000000 726014059338141780358260421643072606198822886648168362836417780786466896954467521562128895636361412521715038927466172142504116224.000000 0.000000
0.000000 0.000000 0.000000
-1946631011542930860300619704272353869098767103733311812702904294055771080099995230812323286820347446423445551228139878215917240320.000000 -782890330031578609731467802516039682405365411675291574653350241719487396405365081023257545985036757257138586671464540122417987584.000000 0.000000
-782890330031578609731467802516039682405365411675291574653350241719487396405365081023257545985036757257138586671464540122417987584.000000 378744837460356114235328677226945358438240918596174490899976086102193133760257795688415886317286961808763692144478001971551272960.000000 0.000000
0.000000 0.000000 0.000000
-578757102245326949557054539825849975026545463445023169509871514574893875952525482224461308534214287404366064912224631668491681792.000000 -411234316195961526953078132121706173035546563659892846889951381201739150537038237388950152111389331270996310306058761064643821568.000000 0.000000
-411234316195961526953078132121706173035546563659892846889951381201739150537038237388950152111389331270996310306058761064643821568.000000 226089126769413240039622798524549740685941198325609999341752385607754778613393331757376216095415122972779599436421301969417666560.000000 0.000000
0.000000 0.000000 0.000000
-20175905155260637956413337544080350051113061990167603355196126223819230752338423861678863238876069437518752668100015481029555912704.000000 -1558540930797062252377823914271571656777984911505599951239873358749478299283550677940430342538149096249750723356098104621394821120.000000 0.000000
-1558540930797062252377823914271571656777984911505599951239873358749478299283550677940430342538149096249750723356098104621394821120.000000 235217167445799923455856990829315587218220167234637075230974577386595618812710757548933309660782374024556658551839468776587264000.000000 0.000000
0.000000 0.000000 0.000000
27988726538618595005194936874848101647191431130171955084316902225139210666514150945452384312373510743194439827619496438989324288.000000 1926512946058617296515784842848204091174215183468758584494502175691096108852360114259319184569237493781613466189422130468216635392.000000 0.000000
1926512946058617296515784842848204091174215183468758584494502175691096108852360114259319184569237493781613466189422130468216635392.000000 1068641674047155814017877330051888082516857533622131361726339817329479299536382144762559593132765471219929156620993321093119868928.000000 0.000000
0.000000 0.000000 0.000000
-435328012865690485333025474523521805546869654195919187159915936743165789516642624581154869410402180688344316064056270043754790912.000000 -28292963510232517509841690883345225219423370936734745532061830565196180360406502392086198726711688038425012268166776576293208064.000000 0.000000
-28292963510232517509841690883345225219423370936734745532061830565196180360406502392086198726711688038425012268166776576293208064.000000 7997792263453139359661456769465926731574229306311732826431833701807447281280239463751833214751476453477259515108868236182028288.000000 0.000000
0.000000 0.000000 0.000000
797918149367138103287831867477916045500235670556221520552923608597447200385881626485646629553456366548501797316773494348723519488.000000 98007814811911576129959857676642487778374920316084943364340449846318450720937552164027755993091269171135315500097280811733090304.000000 0.000000
98007814811911576129959857676642487778374920316084943364340449846318450720937552164027755993091269171135315500097280811733090304.000000 7913815732224702632363686123253228019420521437325487955356354525923787959289994752373338117749287626291842219873257717755805696.000000 0.000000
0.000000 0.000000 0.000000
450834208747052980753015294290351786369826247996464314745476563145195921591678086684591013562577006586282511679221533664635518976.000000 -1109788698405980087468356624790013046186244102834534407399225872400587124888730699318438739143081449139838561836083774338956787712.000000 0.000000
-1109788698405980087468356624790013046186244102834534407399225872400587124888730699318438739143081449139838561836083774338956787712.000000 576930595268178994189486886080184473601820926814828031587935703190342028799167782337357751443674544375498297812415892277835071488.000000 0.000000
0.000000 0.000000 0.000000
-2849464586628646640448532954577351857244219910994026317963678368846100442431086809223397549288027974632116253107395545480489336832.000000 536196804386794107280912583583353884963684189856162006824163872539164133164962031691959715453991293238060340035832663118249459712.000000 0.000000
536196804386794107280912583583353884963684189856162006824163872539164133164962031691959715453991293238060340035832663118249459712.000000 173173359593345211027183297591169005789806775165719467571657893234967988280747192466256787351977301627513465260800408995114254336.000000 0.000000
0.000000 0.000000 0.000000
882181249557908081323038568733292216544889143721471529704386215307576595234853451272064851540019725820332936427184581857347895296.000000 477310184303106038759052566551013384140496286113826892560028127388751621790530319853499742737145002413397047380618570588217147392.000000 0.000000
477310184303106038759052566551013384140496286113826892560028127388751621790530319853499742737145002413397047380618570588217147392.000000 144622971353956162091921980468720060703737541934227223975258650202086773413337025385272981951148925727073935145714862547600932864.000000 0.000000
0.000000 0.000000 0.000000
5906853638035786192489473665439159016176798539254448967980195209108790412823387969435895495158831033883342854932664973965393920.000000 2222514325107891357716507610810018390364794584356395743463521700446015219394084968103836385127711293027835016260937186715631616.000000 0.000000
2222514325107891357716507610810018390364794584356395743463521700446015219394084968103836385127711293027835016260937186715631616.000000 510849588212554388040050934513892935662596691442957767203845958781008297097284030980450788582775824280857081038872869261541376.000000 0.000000
0.000000 0.000000 0.000000
1240864636195783030378247407332188738383540151149044604443399209281739401630843286491363404020600349488549561566532690780440494080.000000 1103698214712101354461496126756798370052880633328792417603235417973115669714659813746760974505239226418616643199959823528736325632.000000 0.000000
1103698214712101354461496126756798370052880633328792417603235417973115669714659813746760974505239226418616643199959823528736325632.000000 443660244053315569837665577869804538090184532420426700825957842572599091713751653015368947552308040500810072753361994908235202560.000000 0.000000
0.000000 0.000000 0.000000
305138824912449212171164043972502603601967854171480768856109762621657265178468729503952577392654705036445628778095607309565689856.000000 588625547056759108398269489756306947624217372403046860515872172385758232924184398755995214668235124496142958272134892970896785408.000000 0.000000
588625547056759108398269489756306947624217372403046860515872172385758232924184398755995214668235124496142958272134892970896785408.000000 292597870437802550827201621768408567571804018025732316599781112511712275933515574880735216036363860260070779090904494033764089856.000000 0.000000
0.000000 0.000000 0.000000
-4990716401952013412765578850282319470786201008122057625998444562627085605192092450837917680972431488076684821451347309120584679424.000000 -1767099280342530899265755061662958812380211225938309621483371809369404768217209776003896153221497014825269944970741602036463173632.000000 0.000000
-1767099280342530899265755061662958812380211225938309621483371809369404768217209776003896153221497014825269944970741602036463173632.000000 802538950528555413607971767292672643941790405818258015505417977652879255189988884781497433167876288297651630277728386907222573056.000000 0.000000
0.000000 0.000000 0.000000
741650289390473864398863838095464038657641022388469259607474240416284741459303682695023385472112339053252185063423080747075895296.000000 363908914738039268168202972783631899100520609188417833753733708441075421546279294714570259970618294808109515332640735181651574784.000000 0.000000
363908914738039268168202972783631899100520609188417833753733708441075421546279294714570259970618294808109515332640735181651574784.000000 103053766345510335601202294408419167932654434975838954140179340089968951077567945127221032457948617572246781405707023929854394368.000000 0.000000
0.000000 0.000000 0.000000
278044358170696834546466740426697357151876652204580784709464629847913349532199956989299108510291996675900380459971364147481804800.000000 -1066021481901841430623478518696455330051830985351571272887878703285013390279674600981689485058831345667369790571483828206977417216.000000 0.000000
-1066021481901841430623478518696455330051830985351571272887878703285013390279674600981689485058831345667369790571483828206977417216.000000 567283195251074156257384564740586239112361448284980967101745379432400007656016928373763176078977940784345275751859572319100862464.000000 0.000000
0.000000 0.000000 0.000000
2674526497957201072056878300986350853077120079068284931601934972113297273283764699350473857020288474960430571957300434726551552.000000 1062659429782869910916788363406315102876828972862252045598284853945250823285172454907944389375115955813682480603439419877228544.000000 0.000000
1062659429782869910916788363406315102876828972862252045598284853945250823285172454907944389375115955813682480603439419877228544.000000 288432453939629780034507936576690703719807186474873269699510763126373268586689959615696327955223335184474581696981090154053632.000000 0.000000
0.000000 0.000000 0.000000
181578237869712482304991130396140577913764942257006359255929444451322262327597181042073142116914444232679104918477803429493211136.000000 1247076943922527622788429519878675152705184140234377689162071563890329878124797189286553449811254049021236623894832009326257766400.000000 0.000000
1247076943922527622788429519878675152705184140234377689162071563890329878124797189286553449811254049021236623894832009326257766400.000000 677594569165038757071546792392800700667134014761267064466365351912882529628365855860990376413551384058162009774661767446994616320.000000 0.000000
0.000000 0.000000 0.000000
-524113974613235563682569282500723177712282706912816021635084498670217457257445391457289769091172260099968405689363672876350403772416.000000 -24276617541058395432977906161998962417053686079253378786902705402898926494810711840570348929732629980948276897320597446933180579840.000000 0.000000
-24276617541058395432977906161998962417053686079253378786902705402898926494810711840570348929732629980948276897320597446933180579840.000000 2220537877162757369988154021723269700210944889246764354619181243762061597819548094439280848215690256093905959902770985184668942336.000000 0.000000
0.000000 0.000000 0.000000
371069562118972183620224557864750291087929447647656936220805420567808038065993164310154589787816504580988955294872569899279974400.000000 -353571094632396636206733278652504204498342685698481429783666049651626441715271384718291523907597551126504598805961074711554162688.000000 0.000000
-353571094632396636206733278652504204498342685698481429783666049651626441715271384718291523907597551126504598805961074711554162688.000000 143360317612542120238720670624404361486758006590002340766664532942983430902656842980544477492479924149075796797434388359946436608.000000 0.000000
0.000000 0.000000 0.000000
-85855168130836607686683813523080863166048339443320058712352236338344844568533305093293673620637805958140804650352975995895545856.000000 2997819703172184999109480363240107988195986622606507444563032145768756213459629043392573293488740266135108600879113266970755072.000000 0.000000
2997819703172184999109480363240107988195986622606507444563032145768756213459629043392573293488740266135108600879113266970755072.000000 1296734930908704699474239355550014308384555834492513236147952968649480139507578926370868389906107789461544006456631655623819264.000000 0.000000
0.000000 0.000000 0.000000
-15994077755793617506733672176227179761426774794820050127827620003709066222465494054316636751645764225826194426820850981474926592.000000 -302959568188868985024438771849076528609353613916943109744800877774023013567187378671477849269256301668617017046463339905715011584.000000 0.000000
-302959568188868985024438771849076528609353613916943109744800877774023013567187378671477849269256301668617017046463339905715011584.000000 169570366062089925075757085268271336095268505259632443093488041407062391830198397727013492744084829025600401091677300212944076800.000000 0.000000
0.000000 0.000000 0.000000
234701568476053463381867264250733967534783689528073396534088013664010857888595835244361767752792299757385988024649606859432394752.000000 2566389500450867721683754138383559492684536783996208351484692517137670180746573722119410624003067975796896479150782676854225502208.000000 0.000000
2566389500450867721683754138383559492684536783996208351484692517137670180746573722119410624003067975796896479150782676854225502208.000000 1409931277507616403320659595414977100923370018518887962757186318969766251860130630960998597191764823045325882149751104948603453440.000000 0.000000
0.000000 0.000000 0.000000
601228260436310329964778344264677410880223769515612780964085772236189905241825692891794921042714587454802394840960355647505825792.000000 -134890367813789926847545296121517482883769230057886535663408037896522577639053818709970651884130280896188120647722759000772575232.000000 0.000000
-134890367813789926847545296121517482883769230057886535663408037896522577639053818709970651884130280896188120647722759000772575232.000000 19578575538975309159924811145946878846825838248975628236187685511681749801833439951859546170185574141439478396700615968989118464.000000 0.000000
0.000000 0.000000 0.000000
52578265911318149698941387985418320707309347787354592105752973672062946906425474944717724282598479928171892389256674124612239360.000000 -265034927484660474312902663490296689131621248366488265521792313353055569326049299747401977007573826231576848979295542958790541312.000000 0.000000
-265034927484660474312902663490296689131621248366488265521792313353055569326049299747401977007573826231576848979295542958790541312.000000 142543831417593454962038646325667187384424721967578138506262123069338360293939578926205345180724448454545146627841655556121034752.000000 0.000000
0.000000 0.000000 0.000000
83187322988364582318431323577195534052307501011918535415324055079121619889311296570763383293893068091905477872081858358868443136.000000 52365508435848851267651185956610744619816898643336560455157756072378065491007914534706307584192150762572051963574126240763740160.000000 0.000000
52365508435848851267651185956610744619816898643336560455157756072378065491007914534706307584192150762572051963574126240763740160.000000 19443385600807305051957617374082633714893049326771782770960458266402082931460100341946100724911394995321317286844957339531870208.000000 0.000000
0.000000 0.000000 0.000000
-15209051744940579436129551565765387301676477584455857214016419905423065095642430729043170453055761223514004269481720871500617089024.000000 -49123519820925315920533357041189023252023755308192401105374014019394940478702669872712463611520144655181921652478099504326770688.000000 0.000000
-49123519820925315920533357041189023252023755308192401105374014019394940478702669872712463611520144655181921652478099504326770688.000000 1244174797101848673074773509212211311896191862726858885927772963040615240044498647156719866250176003084325391374584130301853696.000000 0.000000
0.000000 0.000000 0.000000
444588875809543519367282420076248974747657028337508097081260033628637519987181539851598639672865847337535254988909077547303567360.000000 -64676169325844346737420105644862040409235127534039068096058152288693968274706292526635110393343324393720555495489774575769616384.000000 0.000000
-64676169325844346737420105644862040409235127534039068096058152288693968274706292526635110393343324393720555495489774575769616384.000000 6289890659033123446033572226002192663843340692526654304089290693300961326346279362485447898105286925751786693332987694546944000.000000 0.000000
0.000000 0.000000 0.000000
206243274396903379163167139634265597898336477776394698801243646130453487263636349782740915695370591672227705044362557845929984000.000000 1603861767793158464236777384238643333888350349156350770441398989684063040759972026379863762423534492945642583530759639596900810752.000000 0.000000
1603861767793158464236777384238643333888350349156350770441398989684063040759972026379863762423534492945642583530759639596900810752.000000 874336363631961049720201449596424817530895010340439086560196503948422374672617153996807379352399792574649818387821214648758173696.000000 0.000000
0.000000 0.000000 0.000000
1249651164092135096402462177948668139369461192554550704133560701509338109605079032296478966991787166393738374820224128138709303296.000000 99192225700384232151673214538872789851876938385329442882432871669532254847624262241128979925692144113259842029678845555021709312.000000 0.000000
99192225700384232151673214538872789851876938385329442882432871669532254847624262241128979925692144113259842029678845555021709312.000000 5513051516136149865904389848960755362430964502426066150197210810046909269100186062731564931457336411208076866260466798631583744.000000 0.000000
0.000000 0.000000 0.000000
293412096343191948081991526298445747399818247064366739565603543019361718091013280168267854942719538585347345757593743499320098816.000000 -119892309583034136725258366856421967373716788900101984705231787252192394068937441478282276372107344112662964948615017627088060416.000000 0.000000
-119892309583034136725258366856421967373716788900101984705231787252192394068937441478282276372107344112662964948615017627088060416.000000 29415089755999212562387568246295972652487487763702451724926144150756512451871314312157901708446274688615888860354120447250399232.000000 0.000000
0.000000 0.000000 0.000000
-20170064804448979887797932820066256084194419260379314445325738443114590740373734015462812989332700418884340682953107559807975424.000000 -76781382237126007759405831385121667031007283474464645963600750553358511111963611811996566482146572004612815933671831341535068160.000000 0.000000
-76781382237126007759405831385121667031007283474464645963600750553358511111963611811996566482146572004612815933671831341535068160.000000 43870470375562878827820620757438829147873731754227516454433740018748169979692082467653016635572832928483224138633855865754484736.000000 0.000000
0.000000 0.000000 0.000000
3541540974825846655111762614603409572904924996587043490607855125595763997007814997572306193682309430413271457515185750268706816.000000 -3867261131454838333491298073674183862803720282656247904050724983119703728862921796696964729331597677982061473603259747518119936.000000 0.000000
-3867261131454838333491298073674183862803720282656247904050724983119703728862921796696964729331597677982061473603259747518119936.000000 1683225522717588172512889454640009900577549705061963383467523879230275284735911755631987928217217487884384546722624397125877760.000000 0.000000
0.000000 0.000000 0.000000
996226745929488518827134943788295387922647465499938377590747136359004307104594464265658177753121080087548808131971109204743159808.000000 -1299289419028035983247649902990017086148774052802301195367827331113965669674380750158347191702174225093135634981175463397491212288.000000 0.000000
-1299289419028035983247649902990017086148774052802301195367827331113965669674380750158347191702174225093135634981175463397491212288.000000 596766716766364698536000049348698874788934917603007252182688180870504133555497176562171913160950372347086749635787485689206013952.000000 0.000000
0.000000 0.000000 0.000000
111630994764401541482926407825978537990546126111401752132600542596867612653114505417735576588028352684917421938699972707272884224.000000 697980611387645713373832866036810640118181042714923701495048866584805064831106485793956038348332032131578766167952964377710166016.000000 0.000000
697980611387645713373832866036810640118181042714923701495048866584805064831106485793956038348332032131578766167952964377710166016.000000 378181993243273246583285823747465514827601375254943705643544392375153421956127218176160058534642308674736513988532669747518504960.000000 0.000000
0.000000 0.000000 0.000000
87446601769671669585753866242490787902761919127427270326064853028545382528822084284121308211423170741895183066528661575076675584.000000 -19693224677823217562692020392335217941111805738986334480370585824177642585105488321876850610896919204101201366227027666608848896.000000 0.000000
-19693224677823217562692020392335217941111805738986334480370585824177642585105488321876850610896919204101201366227027666608848896.000000 2981738718098534861442896142192974874568548261483004342986373327725000578906233514066661851204127174741318029372504390649249792.000000 0.000000
0.000000 0.000000 0.000000
-7891958149324680070158432647575670714012777683702182875330217867915544320212919114980830270056246658637540150321178731977113600.000000 -144189899641273625773362208099253138761319566660469382689847336095921799534714527081630897428248556054491801640666187980181864448.000000 0.000000
-144189899641273625773362208099253138761319566660469382689847336095921799534714527081630897428248556054491801640666187980181864448.000000 80114165253562434961385275778133796267717239236035923413439215369212516835670795327390183541362040919569044508964653914770112512.000000 0.000000
0.000000 0.000000 0.000000
710193604722712909750222953000415423595753656519803147102894608170904155423625352407717069240585057600513722291414221529045532672.000000 -655236398377815918517904585791067525810475341507285028664380468314646190072575290147853165270100486813618413219634465517005176832.000000 0.000000
-655236398377815918517904585791067525810475341507285028664380468314646190072575290147853165270100486813618413219634465517005176832.000000 267534671542900386995201345167687447563852283724951642126357189778116518581518206408370973099857017235947717165962186305371635712.000000 0.000000
0.000000 0.000000 0.000000
21002630101427194222824986500145083304118164353232463884598756965755290370919613271737630650260408634982044361775370285061505024.000000 -58519081541883278522645369768774758697582122168232615665534995703196260639935365531521383557202987874524282756182751820860358656.000000 0.000000
-58519081541883278522645369768774758697582122168232615665534995703196260639935365531521383557202987874524282756182751820860358656.000000 30321695888217246433591847542501291245342898339910969792548555640307637896836026169676849621394709783787900851224077038482620416.000000 0.000000
0.000000 0.000000 0.000000
4995351317820771886508944895367139169839659218132074135276729253223395879437886021051830767034789727779871114661388662521987072.000000 -2074673957990721940126080445932042391348963627269861736313175215125738543185386091429298287900561649021002757561001488542597120.000000 0.000000
-2074673957990721940126080445932042391348963627269861736313175215125738543185386091429298287900561649021002757561001488542597120.000000 503730091299259937856894851729292802500466664873059257117915320458407168926144402293819404180128127370531601240072030833868800.000000 0.000000
0.000000 0.000000 0.000000
407337277859165689927983495355174487150353865179793547121065683107268719853652575023613840169732495823494991186019518578969018368.000000 166633226192073878546867595407463758449244112645438458695651298962636559709692855654553965541370487619918662594146964777983803392.000000 0.000000
166633226192073878546867595407463758449244112645438458695651298962636559709692855654553965541370487619918662594146964777983803392.000000 52569677922150542161876006867214532030375311217580239437555862433528236826680760602789698667009663956668755507740687570061754368.000000 0.000000
0.000000 0.000000 0.000000
-1556461970965183948307040074379743848047329246409636949324437523597569000852749635931408442000104451917814579671485379502688698368.000000 -1114233982535348473144380499946891985218406399645006541998307529473114006572378633506037989729153582226559977292858526920832188416.000000 0.000000
-1114233982535348473144380499946891985218406399645006541998307529473114006572378633506037989729153582226559977292858526920832188416.000000 618952215836923961765455758446369932219362644983790425906971048619134682045966864319804962335010631007408219718927796225596981248.000000 0.000000
0.000000 0.000000 0.000000
218291129173189549722775209716066896095851702513769264373534725550407670326935873826123130786855102788575432799007758491769110528.000000 -21091643088273280380386270651666431312088359980361535912149557312608983164247111663747803208585817807863862457325971135201804288.000000 0.000000
-21091643088273280380386270651666431312088359980361535912149557312608983164247111663747803208585817807863862457325971135201804288.000000 2190331500874083213858167288669688377086901914126212207113135000058430868950304342750620368680890850643781624092942162880102400.000000 0.000000
0.000000 0.000000 0.000000
8238195534574226246256336282357486978664618256449742970564188106025465803791740896683911335080657225745037844997028671240798208.000000 -3233479767934051123431155719764235566118918106602808875583949866895356640131297734704371860827032745112566558453856286606884864.000000 0.000000
-3233479767934051123431155719764235566118918106602808875583949866895356640131297734704371860827032745112566558453856286606884864.000000 788937539733876755184967243811776325381992167154757352963729757470021822387350466403891964526818307481496002028594892103483392.000000 0.000000
0.000000 0.000000 0.000000
444399531436781288771173493352666929415896250941620143249305039546939097937917995852012720355839043318289949628798717739564793856.000000 533746474396455743345906200956948848642848887124111299020445461859744307700534365632496643526392481721814155237801811083475812352.000000 0.000000
533746474396455743345906200956948848642848887124111299020445461859744307700534365632496643526392481721814155237801811083475812352.000000 239464810924787064473073585731631386879996670095632057904610613109421274481001392427406992203830650084721073940510402951897939968.000000 0.000000
0.000000 0.000000 0.000000
280803422970871768417050190032086532165624102458562772723817786664533368842698690666571953487115758889140660368097732428432408576.000000 -20869094072391819519706736361773974704421953260622958455164528243887730643924654259209462027173882659244120852740263303278755840.000000 0.000000
-20869094072391819519706736361773974704421953260622958455164528243887730643924654259209462027173882659244120852740263303278755840.000000 1506980138075407584629669329384940268330131428477113590494172763574193921261489273663394790653401567699734455362672606824103936.000000 0.000000
0.000000 0.000000 0.000000
-856456020414156188073000933965742140009894878079467247075911105991325003044387986562144650869085967339850614526453623487509561344.000000 -347866784888711405429873947969239425322425987472310861937702352741579901080473962036825142149194492967186173497588710077460643840.000000 0.000000
-347866784888711405429873947969239425322425987472310861937702352741579901080473962036825142149194492967186173497588710077460643840.000000 166702576264116457254464574268150858426810792233990228113727330990791516345494831206814640748447930544918677572115367981595230208.000000 0.000000
0.000000 0.000000 0.000000
-298976073322764265806203204013723815063388342644747070934946030507791966404313779119523163738875036657699016535710019337985967783936.000000 -8775198642882562585810292834185004810537441162509981754411152580307174674408119644560324997816330521726490361937014162504491728896.000000 0.000000
-8775198642882562585810292834185004810537441162509981754411152580307174674408119644560324997816330521726490361937014162504491728896.000000 512317745874717569254581109284467033370687237899988010363087108650347370832262923763964628695334000395700368218713303054200864768.000000 0.000000
0.000000 0.000000 0.000000
2158883670510585592870053824418710045321252727072031897795716697063389279327216266262003428801998093884874738802524147104763346944.000000 957586205576380394308419734967941461406168584906621678627423309331582487808459842270884866024422192479708433471459406701970587648.000000 0.000000
957586205576380394308419734967941461406168584906621678627423309331582487808459842270884866024422192479708433471459406701970587648.000000 250840378226386272336224004573731865726988127180649741346765065467022609870537784111786760318111141789378540352028459510855106560.000000 0.000000
0.000000 0.000000 0.000000
-983918121881995914732505733740805886137165372162838761686510214596121741267457018603213086506644135127066813880211203599488249757696.000000 18085396538366662096229051866477653307181936727747629167434587336463294905186608873328427036517701692414355624170126788498632474624.000000 0.000000
18085396538366662096229051866477653307181936727747629167434587336463294905186608873328427036517701692414355624170126788498632474624.000000 667087702488425886689803912554702359895703964812644170216856229002869088084561870393022667787550681954564038972223230211717595136.000000 0.000000
0.000000 0.000000 0.000000
-90668321812965616186785806672616095680600101123426056469775343701808478981049853787574846751434650295449141030717391022600486912.000000 -87630951694203048833191696747524863133339376994289506987401163531103740818493227157958505542606010429079180548296966774202564608.000000 0.000000
-87630951694203048833191696747524863133339376994289506987401163531103740818493227157958505542606010429079180548296966774202564608.000000 16441526958168047944498784839963337730571645546622833911664163041038677418640473193010895583825457246419544259265420976812195840.000000 0.000000
0.000000 0.000000 0.000000
-448058620943021666976879824750934879474693391989976434368295508132077535265939601518839793739409027697866667424336536159708512256.000000 -322880536788147609316163022781812456632776691325612415883421089526970709861220459849556421318441028267148422503022192220887318528.000000 0.000000
-322880536788147609316163022781812456632776691325612415883421089526970709861220459849556421318441028267148422503022192220887318528.000000 177746790366565260046419576481039716900939356476054440490021069889340074138820649025175523566603377821441965594276707703803871232.000000 0.000000
0.000000 0.000000 0.000000
-194522214859495572337384225442246627571979495733189758258682970884110905372572325691707980260929958415124194935733510497869234176.000000 199390514864168648072693132574108222376177836173877549658175800630332751439942597601781892777839275450065103407332659879500316672.000000 0.000000
199390514864168648072693132574108222376177836173877549658175800630332751439942597601781892777839275450065103407332659879500316672.000000 115713157210998702304732197081870791611530155287368080954111326568568101505008501397039361869298969260272292216504503496840577024.000000 0.000000
0.000000 0.000000 0.000000
-454044199802023374147330905891194656527888379463690925546801792591000116513730086042080394220366982112782613971754271166584324096.000000 110774236121456726597055892172073422156130614080161415983199001477764291030414797243973430608632010206558247544544276416500334592.000000 0.000000
110774236121456726597055892172073422156130614080161415983199001477764291030414797243973430608632010206558247544544276416500334592.000000 41510703489618355583782779734161886650061402253376676549077803350254311865338915509299737849046924843748463170479150776987942912.000000 0.000000
0.000000 0.000000 0.000000
540786096915362553647944156243941973403932303473119568352379733582232460026085484937215521168626621077697367388364557432964251648.000000 -981958810848570905781385641716355474496758431806224463085150205138236984682545502247442296438996651924053965571614110680396857344.000000 0.000000
-981958810848570905781385641716355474496758431806224463085150205138236984682545502247442296438996651924053965571614110680396857344.000000 483657364281523706125726747489650244799436627304833676420885963075908734737790080428787511121378920199906700054375111653893079040.000000 0.000000
0.000000 0.000000 0.000000
-1178385381720943463761624125042321703298861791780297405934565198728132997913916553441102810727827492776232479649038287635983892480.000000 -1388541812527779588706193093691283007076006618190305113924032996114380665125879519609008913231270808306381726933406264932222107648.000000 0.000000
-1388541812527779588706193093691283007076006618190305113924032996114380665125879519609008913231270808306381726933406264932222107648.000000 798850596926651604129378459498190547449982303939192552234336363204673264653958481324383275753520739988889026828714594029170327552.000000 0.000000
0.000000 0.000000 0.000000
303400805908932119653470410320445400997919869302334239721978156497386040307331437468073742708941568938284736284602596459729125376.000000 -232503763625831569567986463584388456671953473319557786832837047556777756446853190001845949468660891508308495816195960640884441088.000000 0.000000
-232503763625831569567986463584388456671953473319557786832837047556777756446853190001845949468660891508308495816195960640884441088.000000 87058201191277815308426391769951229054257279863152275413579128335182130742312481568849867109017994020111044999893303281831641088.000000 0.000000
0.000000 0.000000 0.000000
18527050003236646201722761739284538473288300030678666260623532120876529621154738005133972702379920227546733234014595955831347347456.000000 13286930197213140784657584018656317224102927007270425043668594664757823810335365227287589201876531778492889005017808772226491613184.000000 0.000000
13286930197213140784657584018656317224102927007270425043668594664757823810335365227287589201876531778492889005017808772226491613184.000000 4799991148557051830591566695556686884373432149286557110686001108314099873711156611462961852263905089006704944307101069062583615488.000000 0.000000
0.000000 0.000000 0.000000
-106396259215363804908892259080034673911210261787010285939545107125780461921839763150802092336717245841662673758170412320911523840.000000 -697517587711912831246953205813920307905044311838008553329416747120683192250754897497416942140397485426057091256007650068242890752.000000 0.000000
-697517587711912831246953205813920307905044311838008553329416747120683192250754897497416942140397485426057091256007650068242890752.000000 394917677988144250712141486617711046672119023228338117257351849813141030575566396147680846722660277697521257210834394277220450304.000000 0.000000
0.000000 0.000000 0.000000
451676587137947622974365492846364503808538755071005126478046013290307873358978857713612293988039974089477411607552466533272780800.000000 172486281542724269111664187623797463549865651328702517057198174259438774353381843458231628427349342697929567582333971043234873344.000000 0.000000
172486281542724269111664187623797463549865651328702517057198174259438774353381843458231628427349342697929567582333971043234873344.000000 50066738622615603973539870592838281344517007196973104822641726898456044372756327373181753008547220351480679811780958156587270144.000000 0.000000
0.000000 0.000000 0.000000
-393976929663178408238648981525363416230030001071121838820685896609501775875876131269837426242467799874885036199342209371276836864.000000 866928062307721024222239768606871664601869218023425720386362080377590814896146250823023037217026546987779499216624944945601445888.000000 0.000000
866928062307721024222239768606871664601869218023425720386362080377590814896146250823023037217026546987779499216624944945601445888.000000 499647339692600662104967656840003385697378808564019293043176377801606323760620687139366579005456983009844193543755485522209800192.000000 0.000000
0.000000 0.000000 0.000000
-327436529815162013269988159798367455009935515205178683421131654014924758770386110242911204594922134337405648388873187038335074304.000000 359913459433293795828826028040006551778772825128449241680699699514290220184534009619156414718992157185331281358983928794249691136.000000 0.000000
359913459433293795828826028040006551778772825128449241680699699514290220184534009619156414718992157185331281358983928794249691136.000000 208044450668987582361452261777494918180674593202414844837390111947985232989389060311385344246939816294180261528469223154772869120.000000 0.000000
0.000000 0.000000 0.000000
-521337850322107743074325236518073774748155583900794259293880304548693697889955744667685213399675248815111577286705585906721488896.000000 695110041789317698652298594132669816550565950622489794325401741086274167325375679929114599513011543269963355948865809968489562112.000000 0.000000
695110041789317698652298594132669816550565950622489794325401741086274167325375679929114599513011543269963355948865809968489562112.000000 400168854604100641566735623829645847939886412340617664966786210597401277460584398857234420067681847215567576486203129761561051136.000000 0.000000
0.000000 0.000000 0.000000
82202994317028574890822399749600782152090997853532280195808907600663380254842345212710888606135362935183391678756885412299407360.000000 -215697538309738233402396120854866284325520668559334304902795877118861844442642335635954935960888956651665320228652579428809834496.000000 0.000000
-215697538309738233402396120854866284325520668559334304902795877118861844442642335635954935960888956651665320228652579428809834496.000000 111984053252317617666292460658094049468551209581271489937569963355761280230675051946266398774893924497487498841362849657635471360.000000 0.000000
0.000000 0.000000 0.000000
125136665941243025346484942354708696828417437658884946411768720117601599613026279380868109606353483456415607831396297881264586752.000000 76354211302237380230839003238628215220848178148102838876768055155906967299400544311719498207002519113733829479506762588798058496.000000 0.000000
76354211302237380230839003238628215220848178148102838876768055155906967299400544311719498207002519113733829479506762588798058496.000000 25175369102562550514288737927868761030254672479571489441236908929307638636118754110977691163392321896935218146060839541807251456.000000 0.000000
0.000000 0.000000 0.000000
12194460613626602614242634047977379452494741674701591406275239386104410703058720045145353702058367118552430935239653470746181632.000000 11106578506287700550373492056049583110180143924466836426638946974634746375559713907373588038635107738544111848048319654688456704.000000 0.000000
11106578506287700550373492056049583110180143924466836426638946974634746375559713907373588038635107738544111848048319654688456704.000000 4509719995840976606167598703689904992730858791491454932139857811581335520804400429863569001675717470004323298961075054563033088.000000 0.000000
0.000000 0.000000 0.000000
2469602634835691519343762437122652436316967639695826004910937946021781392296386019276791484690459708941531955341451902439271694336.000000 -1964229855644135496094223239052566987981791589675158356696176235250814081119628846941423952376679446459573176823558571908480892928.000000 0.000000
-1964229855644135496094223239052566987981791589675158356696176235250814081119628846941423952376679446459573176823558571908480892928.000000 749424966731624708072063263651734374958246024519850328007577906713316996893844709455112966814047851398962440450795118485141716992.000000 0.000000
0.000000 0.000000 0.000000
-216678244412128180259960972636491512372159887355190811646923130261412123253390886488877114724537593286992757537967715742715478016.000000 111396460320577320675940325836859055038960279502676176884928372942065920480839769485973236769453267158383085688577041626919075840.000000 0.000000
111396460320577320675940325836859055038960279502676176884928372942065920480839769485973236769453267158383085688577041626919075840.000000 59834662603008605197227579122066966932745453581763064322603255312469997925635614231656407574752636752187498087534572459962400768.000000 0.000000
0.000000 0.000000 0.000000
1356477629197973672851774387276802567851311397578393093174548659313778967450343584063054805512246934373213678050050282484410613760.000000 -788066844661848873999422563640656147102896020734400945537108239207093481669061482310958796928169930899590733215513251399520485376.000000 0.000000
-788066844661848873999422563640656147102896020734400945537108239207093481669061482310958796928169930899590733215513251399520485376.000000 250586228708434903809821016417276698196927312493248435646532314755798818570519134629443627436996288349668037301141644459255005184.000000 0.000000
0.000000 0.000000 0.000000
195379237103614114500931616739851864155374918463774023047154874850550712076236569872973385619378087353824088526783873105352720384.000000 -1429458599462983503304427493120735619378087473981660155489479398063229972630813097833383770407825341258806652310039025259728863232.000000 0.000000
-1429458599462983503304427493120735619378087473981660155489479398063229972630813097833383770407825341258806652310039025259728863232.000000 795388098343487707331361765840707620058643769247179616020855126973932348793426884547456807307765044224103953413010505650715754496.000000 0.000000
0.000000 0.000000 0.000000
4588200784707426807189604938093948288661534973710156897332723819543214579435225287309912670784266194540753534367878072580989517824.000000 1735418078504272971037525816384449601390117918142484273427517820707227493302961815090504341644703098027958114380238816841538994176.000000 0.000000
1735418078504272971037525816384449601390117918142484273427517820707227493302961815090504341644703098027958114380238816841538994176.000000 399761074461794781928032412600646989042530768096820168648676587608251173041805375777865931504769166110679353654313704759945592832.000000 0.000000
0.000000 0.000000 0.000000
394654692673252856339488628772575771020817536203520324618756473174441324177147377159970815104547275935148343416659793964938821632.000000 -330492705003963440474628028837617121900076020722402453825068047341658767855287947034153139638540240161311128404295043482893942784.000000 0.000000
-330492705003963440474628028837617121900076020722402453825068047341658767855287947034153139638540240161311128404295043482893942784.000000 129270214134802923752299776146938432717145891837870092695923723820591028490865906639904118045266543142728835778309199179018141696.000000 0.000000
0.000000 0.000000 0.000000
9785276857807389914013299251721227855110339374404823361597889942155496880174405852569887162967892444175422406241727868070526976.000000 -9342433744071092591440186542641987887818305419613399446896065158923664304711649631291153548211830984836723360041948506847444992.000000 0.000000
-9342433744071092591440186542641987887818305419613399446896065158923664304711649631291153548211830984836723360041948506847444992.000000 10175708580701032710884463309087285573209557554277511680948433582199383723832991735539320204050485881870487711081184591890874368.000000 0.000000
0.000000 0.000000 0.000000
-125017280587437743340015907531507189594334954648274236099012157165294583901686461830245072460989139622502169115155879016265678848.000000 -239434074781611761918245857999982366994398752502110226910863697648243349278597571693659931768834024302851526008342563849009889280.000000 0.000000
-239434074781611761918245857999982366994398752502110226910863697648243349278597571693659931768834024302851526008342563849009889280.000000 143727306544168321423372573066973754369834003944317455820678582648761605354372387415522432500071879547264825749626572280256528384.000000 0.000000
0.000000 0.000000 0.000000
911966822096229749641281690624942884495910492651733970369121718739350068180058648866285704546059242832292612698273542297723338752.000000 508859826496016215052125160734255822419379792159890346413955081810636244185799968115529156912886460346064067608117960316299509760.000000 0.000000
508859826496016215052125160734255822419379792159890346413955081810636244185799968115529156912886460346064067608117960316299509760.000000 157499983470563075369187453476455120569034711609818158038495641643875960659748927502970229939596001564073441337166022200719835136.000000 0.000000
0.000000 0.000000 0.000000
-15749770844106337167614563258282170944203574630775879764604411794096852267525222033487004276046096916148396428732577507371384832.000000 2169321161435564895045648502226327804368991142030064808002154342528000631578646965165049912899610382041822212656862699307663360.000000 0.000000
2169321161435564895045648502226327804368991142030064808002154342528000631578646965165049912899610382041822212656862699307663360.000000 535190158768923601430035405149718277449279822109824141481607129770194612365592694785034895406430947632905437044481413162729472.000000 0.000000
0.000000 0.000000 0.000000
179553235779411208093080131956364423541211251954774718909518036399132566801739609956329237243623425140872545621569869517112213504.000000 -68655062731175542429087593422743393858165949295655012808141829869374154091223577706525919093908982469356312457807687774617206784.000000 0.000000
-68655062731175542429087593422743393858165949295655012808141829869374154091223577706525919093908982469356312457807687774617206784.000000 16526980295654585321934634009505567289531427927189221577382002234052345120932093801428032117080060751997534336893934831937781760.000000 0.000000
0.000000 0.000000 0.000000
331298941269231090447113555055239629300241470626477306076686257798957115540286149083536766459737090954404620672382878958242234368.000000 323877324253866212717682440445722555666872168942204218897535439271448422842940184813436956244478194115845909629013422653606723584.000000 0.000000
323877324253866212717682440445722555666872168942204218897535439271448422842940184813436956244478194115845909629013422653606723584.000000 138700602094026785109597411730095120846972298261000003272152874774725066298148037447199826783369602562050540462658445918668324864.000000 0.000000
0.000000 0.000000 0.000000
592988300214213701906360652290391602430623252152145444727975367151823640057488544084401719288633830526789201429873221523203948544.000000 211078325871190374629447158473564506810836685439523687455941849820193851696565529090032231392660711397825620005082315656053915648.000000 0.000000
211078325871190374629447158473564506810836685439523687455941849820193851696565529090032231392660711397825620005082315656053915648.000000 46051446713254959219246063868954873374733414629048375092222317442999878725692053577601820817571780519260533534845953652710965248.000000 0.000000
0.000000 0.000000 0.000000
4148884565047146728441467796596796654929722725968179549954979105889814507984303892631668265744707487341217678057051627739710226432.000000 -3063077741645541334571424072670465643052978698451026238465886454129925977707308307568319259154639162147111742409160957652254064640.000000 0.000000
-3063077741645541334571424072670465643052978698451026238465886454129925977707308307568319259154639162147111742409160957652254064640.000000 1124235340780672257346681069210192701338208140495476122721781182146163007602634008564437662880206451489098821206363024460492046336.000000 0.000000
0.000000 0.000000 0.000000
29558808410660137750798929369594166643065137023738861996911832331169995189479170170394433919883895140419105797413803290263552.000000 638434045451601963186783247973560627105111874198120677155964415434712777324384058176953700306816848921772432654003369412657152.000000 0.000000
638434045451601963186783247973560627105111874198120677155964415434712777324384058176953700306816848921772432654003369412657152.000000 354137169600169438686121997171524286372853398161010118778509805109882633264456573181055661352538066604921981445392899432775680.000000 0.000000
0.000000 0.000000 0.000000
606645642226330642330707967264427121773235876418205632709099288281629702085814165264667940395811869836301266539849189457901125632.000000 -537779701080939303505308977265975529517428049001047459842246772163859019005193904752321026532688109141469536775090860433187274752.000000 0.000000
-537779701080939303505308977265975529517428049001047459842246772163859019005193904752321026532688109141469536775090860433187274752.000000 216094313386823279896747131411486999383284854355827809844382827232254488285583720168790280411244644704752317391142789790061035520.000000 0.000000
0.000000 0.000000 0.000000
570182520389334718849461492452719569569519837909750393223446487273876742627103330433898698478641718797075576540586836500173291520.000000 -232724349124346446493031718512906204996300417710716217595079443425453106128535945320073085331645305341719839600555539737230704640.000000 0.000000
-232724349124346446493031718512906204996300417710716217595079443425453106128535945320073085331645305341719839600555539737230704640.000000 57040702036286618263226596591291029617264743856062392133663897456173843354462693611862613428216854022978140949357653128965521408.000000 0.000000
0.000000 0.000000 0.000000
-9221552127754536931346612438943570910808805741890752917478564199219890511256944696593789120250820711287095783684131994250248192.000000 -90977335164290985276862729495409043843347823882004018469402060373030563580850321788988630922846080012864897566374965078619324416.000000 0.000000
-90977335164290985276862729495409043843347823882004018469402060373030563580850321788988630922846080012864897566374965078619324416.000000 52209525866244909641521544533460275769822418153659433692516815210106568845485326202357622412772472118122953370248461721962283008.000000 0.000000
0.000000 0.000000 0.000000
594496764569109979774859510789007218730454448465452404984714510667529267533951517157404173818888265710528976629999107941968379904.000000 553911682086075535194434731856142781128103296571514446240079210119491290597062153990942030648112516217546456703385090443133845504.000000 0.000000
553911682086075535194434731856142781128103296571514446240079210119491290597062153990942030648112516217546456703385090443133845504.000000 232063695819373629464312745139399958423963757742834832555152800329489022555242307813919997638529349242603244278597198225541693440.000000 0.000000
0.000000 0.000000 0.000000
451913084599446225379087066307514511324683022364564529926620559463075186584053198515388299314284315757430546806487070074510245888.000000 340153929969913196238720563183569148620263021392514192690671951211674604744175771883351218544355616409559967825455306547058966528.000000 0.000000
340153929969913196238720563183569148620263021392514192690671951211674604744175771883351218544355616409559967825455306547058966528.000000 126140835200088399204597438109830483248290549454421568238895617626879824922842461893019011704399244458770168411443037936170303488.000000 0.000000
0.000000 0.000000 0.000000
-33328286404401526171377809871153149686791298060568795630916788586340428499590263851224445677059854994607540467288595856327966720.000000 93365807525363697261570408569642987246195197506461158382949653131592298698460709418834970968238326333185408372866045217066713088.000000 0.000000
93365807525363697261570408569642987246195197506461158382949653131592298698460709418834970968238326333185408372866045217066713088.000000 53655534666811297902073835380280847046103969157297744691766243337037552642956709015528489059327298896778023540016221404797075456.000000 0.000000
0.000000 0.000000 0.000000
-200752510800959240750664606502675943061659421458850233097729180171653585346514742943224548210617860089621096419846092873539780608.000000 430728157174494116542324434971633491565770565660378537196405412983939019455670893443011937141600307802347692270389698896395763712.000000 0.000000
430728157174494116542324434971633491565770565660378537196405412983939019455670893443011937141600307802347692270389698896395763712.000000 248332793588267597788094884296171618781435233193603798432024814173339529033654683641145546036293657741714843657882911601600757760.000000 0.000000
0.000000 0.000000 0.000000
214867240625946088853626153150650215412220125280502773414332777542257716378398598561561265263365862506465346295889115206075285504.000000 170809102737071850589718699119598227008717034010871827597123965508526606110976806927498281590579757870146262668016006165709193216.000000 0.000000
170809102737071850589718699119598227008717034010871827597123965508526606110976806927498281590579757870146262668016006165709193216.000000 66151647682659862336360148826586950773788898455925552544489032975417592350134274221024680494276239509742820124118069931489099776.000000 0.000000
0.000000 0.000000 0.000000
4495112339006198912003015520303365184190929019477700913662980221010754927808270080441681033828840780884178078418736914720882688.000000 -31507778131789864163082304992014083915081560658685011209612218853127703981328065780286741580783101474969323531252024242864128.000000 0.000000
-31507778131789864163082304992014083915081560658685011209612218853127703981328065780286741580783101474969323531252024242864128.000000 1239086425408434700878284042793778956717830503196068015891808252701124231153133753432595075662184107853073414535116239142912.000000 0.000000
0.000000 0.000000 0.000000
241733546002565356796241883910381056768837428744821176556010145537831907406344241696363341620441688628601355355197035975765131264.000000 203155373766953270092421371812919378408554119969291701387966931594186342871391798911384049169735226068614893458261501990116786176.000000 0.000000
203155373766953270092421371812919378408554119969291701387966931594186342871391798911384049169735226068614893458261501990116786176.000000 74036797662801724780761009605133781778166698715938214397237407171728689519367560421458226387478449347820491229573624411109457920.000000 0.000000
0.000000 0.000000 0.000000
-576633743509185214829544018480183279970055402747097532175278139273049512452251623699074855243513418725281650092568421670164889600.000000 276620463531677904881405378631224076351037591441492547465908911563496818668981034831073148730041052978915939454930090946799337472.000000 0.000000
276620463531677904881405378631224076351037591441492547465908911563496818668981034831073148730041052978915939454930090946799337472.000000 144192465957445111966307533195287862352547561896628881416791162361411155024354038027238684540869877261355779282686650711504060416.000000 0.000000
0.000000 0.000000 0.000000
-10371557746170247578167674384560218908341800274471566001993975801798757277121603561651388686967678540482747998710897993980071924203520.000000 -67910944625730232239787518798368409870318996441531082549923242442104633282571735625834383820199640118335839481333805038912757825536.000000 0.000000
-67910944625730232239787518798368409870318996441531082549923242442104633282571735625834383820199640118335839481333805038912757825536.000000 889188035543705816655826506217254320236062629733175371048135240283214249456110389348475969209257315851023604828328034268633628672.000000 0.000000
0.000000 0.000000 0.000000
2538936429909702273333412719092578058947271767552619705254431913277936888775001243263697825614285483856933163767177798814680481792.000000 -631410447684933475608506087345711324415429527847275568227137572653721857887573894762637562685111147580902565861145869072457531392.000000 0.000000
-631410447684933475608506087345711324415429527847275568227137572653721857887573894762637562685111147580902565861145869072457531392.000000 100547911653380748704894423676910853410395960960468573739344817274682208596630064308465831457320705410176632875335767627197841408.000000 0.000000
0.000000 0.000000 0.000000
10630581699589069413601070201300108478605005570423619902367985115019273284724707497705909260070819533075326032785483674991722496.000000 17564391461387964120584023082616115238861366175072283513230639516063035055516682396253029774590438168531609782920950859413061632.000000 0.000000
17564391461387964120584023082616115238861366175072283513230639516063035055516682396253029774590438168531609782920950859413061632.000000 8509115305289719206103229071227310253116030541018217444704898118732879429790236584598993116061168575653083989751833949462593536.000000 0.000000
0.000000 0.000000 0.000000
-41152556063380128696081033446820766212835051731758146264893235886119172641629524088778720368370809304767667343299464904897986560.000000 85099805423562945234728298488823462802220712554810843821124086178807742233476921637145924293992634510166459020444810253717995520.000000 0.000000
85099805423562945234728298488823462802220712554810843821124086178807742233476921637145924293992634510166459020444810253717995520.000000 49127822368178086508229281128592231860652731047941128485781796638444625130246530345866643409327673248931878577812810228505247744.000000 0.000000
0.000000 0.000000 0.000000
1419149652511282406203232409443867381331650548537645338667397298479121614832294100961909479510689531034609784461025848359632502784.000000 380921597486884631666980255452588543085154114946818557577319851444264730745079648657688916458403615061936867985832703218270863360.000000 0.000000
380921597486884631666980255452588543085154114946818557577319851444264730745079648657688916458403615061936867985832703218270863360.000000 68174096128602928494819876021570288947563833327881745090660436861394494396531712858205597428569614612935939990287547192605409280.000000 0.000000
0.000000 0.000000 0.000000
-14483133480572779858717486134256647871806911300681560500193352288150235806900137823659872780768186108184784123796598668373524480.000000 -2249070119319785256452619181830179699027729968715630210416102928206872028649962327206898243156732083808116118743556478969315328.000000 0.000000
-2249070119319785256452619181830179699027729968715630210416102928206872028649962327206898243156732083808116118743556478969315328.000000 977607485093726228100598765631169262597882683283065731375701921475169501920652796880865915389814199295469863222653267069632512.000000 0.000000
0.000000 0.000000 0.000000
1710601603605520206506062929792249410887481287991477165927406324074316062986148218887290265496455573543789297406104521072984457216.000000 75299586501107881581402282070684300914356683503265335924529860369020433853969235618623930049322253192244939550913992053397389312.000000 0.000000
75299586501107881581402282070684300914356683503265335924529860369020433853969235618623930049322253192244939550913992053397389312.000000 2294062907421818270551269753310622787159956031571977459143098757769622832860686251666126985357703993208269905429440516419747840.000000 0.000000
0.000000 0.000000 0.000000
-258231622070215586997313442759806436189891444822479809647500400653883727084511244466217222505294340712865452099949582969282232320.000000 572109462392060449460263322985049830541670789223014994581307396820435631976766463705637352368829422728211241108774959262323441664.000000 0.000000
572109462392060449460263322985049830541670789223014994581307396820435631976766463705637352368829422728211241108774959262323441664.000000 329742051533467339817696403922970036146553285554477467399908841350813639682605135827945772258122038608269973720750526256539238400.000000 0.000000
0.000000 0.000000 0.000000
318034762216853164169700082362288197553588082260894278575786561150933508502868529593590281286017073881164525450407925129253224448.000000 130237973509190845509776717319231387088072096841439546717202073376413647228423845051721682345560678130545888083608415572833861632.000000 0.000000
130237973509190845509776717319231387088072096841439546717202073376413647228423845051721682345560678130545888083608415572833861632.000000 34319976501371480470378907047530660821412129681123307534529395884968267708696344071839583358400869360224034408832376650415996928.000000 0.000000
0.000000 0.000000 0.000000
85860938802243679296094217920821629653210961258651984637777135538189559499535619571271131974288287625736916984446949642658119680.000000 -76105024705805440565140525521412819247226114593645570636208924959543903038636383041111960415049601129838987177056458340514660352.000000 0.000000
-76105024705805440565140525521412819247226114593645570636208924959543903038636383041111960415049601129838987177056458340514660352.000000 30530473735530676442420471034463153000610493884996062934870965276184038345273112709061123013094156645039073471470763219848527872.000000 0.000000
0.000000 0.000000 0.000000
-22988686020082962487300053133394376987839147759585630735556744570585392647059398179069053531384362419078396867093155531884331008.000000 6624991918206816630395538615152513616459436788476780180324583186437425109607420591749398481669627890260272104777932808963227648.000000 0.000000
6624991918206816630395538615152513616459436788476780180324583186437425109607420591749398481669627890260272104777932808963227648.000000 2730263619740188170951581431480119865673774828932402326366310303750545938465914684839365103076910631595932747427293735742865408.000000 0.000000
0.000000 0.000000 0.000000
50650216934054567754774094238050784974989074235474839177438741018769128990604169516693748049572320785037887872459093537309327360.000000 383487393164663661512899139622228624323280282780457811398509569307770777488542835104997742374031244107460728879954719303287177216.000000 0.000000
383487393164663661512899139622228624323280282780457811398509569307770777488542835104997742374031244107460728879954719303287177216.000000 208932176218718955214815561962789123887656808848195113481989331233942814666103917045699951294731377089028510110521095995544043520.000000 0.000000
0.000000 0.000000 0.000000
247278105345702507101015406075453737525849075196788263318651356281153988204345797606339077826738760889535358174681603406183792640.000000 94053503353458926319419362668445150857381329549802540126505204310523961099138404105244590007890696663152456161479857285902630912.000000 0.000000
94053503353458926319419362668445150857381329549802540126505204310523961099138404105244590007890696663152456161479857285902630912.000000 35691200209085444634875206785930169581330041628788144895383162436714576936141769598385112105138629774917653616374917118228955136.000000 0.000000
0.000000 0.000000 0.000000
97673611552032279531700796369743262656023633205672335070969116754559442293214982502150034459386701114699348862490936256378175488.000000 -539648862490218774969015004551768336203366554513180842440274823830808209071151723551405593067331617493192203805293532725102247936.000000 0.000000
-539648862490218774969015004551768336203366554513180842440274823830808209071151723551405593067331617493192203805293532725102247936.000000 291242696299861673875395449868732568481859019342175162355099444774216829613357736839313099566373365835896106020554820427611897856.000000 0.000000
0.000000 0.000000 0.000000
760705057400857031338972017998791062053911189907290509447510137086577647948617692135520275273817551492076907727449663424102924288.000000 -489880858969395576959984650965809495462383667259558451936170831661031933193560827992119992007571914569894043723517669949145350144.000000 0.000000
-489880858969395576959984650965809495462383667259558451936170831661031933193560827992119992007571914569894043723517669949145350144.000000 166305702432962514630016844798019676643896278568617621852141530582428348722302471387466706876389020836316611132266173777703862272.000000 0.000000
0.000000 0.000000 0.000000
619330259694586267183160796813776905906988707594575394699342413350898325921949977780531338186481277111006484412968649858750611456.000000 112753174101142223337393446869409028058453389730524864434963509307600251347667184667075590941475455106929275873371558552602148864.000000 0.000000
112753174101142223337393446869409028058453389730524864434963509307600251347667184667075590941475455106929275873371558552602148864.000000 13847825893278214406498653089557399252014473490249249815629355973828869158930342830061603254913237015799471704823358032827121664.000000 0.000000
0.000000 0.000000 0.000000
-1185326284585252306825965974035709954131538881676207769121086943529671513448072826235396365772925960007095590097081354769743740928.000000 1115992581940618524143455600845691104118507380047064020312332520484648424209759861980303189864057786038736473193230860928839319552.000000 0.000000
1115992581940618524143455600845691104118507380047064020312332520484648424209759861980303189864057786038736473193230860928839319552.000000 633613858010464421372332191675551054262096346444602895020509135792225261214381540103822505544063889162137438640925883547888123904.000000 0.000000
0.000000 0.000000 0.000000
-92267328899581446340107028078496718808130573019981463408540603597952961092299581205781734919855790466653785415984271034519912448.000000 -1131024362288556700546884174781538470024647555788242568091359654977198806503837938782873369957172899806374915364541489414383075328.000000 0.000000
-1131024362288556700546884174781538470024647555788242568091359654977198806503837938782873369957172899806374915364541489414383075328.000000 638694648907282042098524500934646334429474422869697208233681661368725265645282643852709475522519698878920498397511806735089664000.000000 0.000000
0.000000 0.000000 0.000000
-592672321226681934456319327755944603139550239640045270480794337314937345494888690611623203983932725557346676925851898588278216982528.000000 -16121560102024871906404664036363439026595556032516094773214953738635129674438076734447802752547452769129018101302001644969134129152.000000 0.000000
-16121560102024871906404664036363439026595556032516094773214953738635129674438076734447802752547452769129018101302001644969134129152.000000 873263275959947923780773498246282117920648397429077161563315929344233843174062476668401998381315392533245486789486945792721682432.000000 0.000000
0.000000 0.000000 0.000000
122947565355178975110100360228886064593611747350089948921083512277603834720509821873143540865822908300476063052250436390428344320.000000 854660400572270291411842229116103118566493559942369007435751775848148523083918173183026413051563297567335606334724821055281561600.000000 0.000000
854660400572270291411842229116103118566493559942369007435751775848148523083918173183026413051563297567335606334724821055281561600.000000 464466579695700861650522213437287680945336275861750337355456515193705167158479726042594057245158039649567452455766250688144736256.000000 0.000000
0.000000 0.000000 0.000000
503945292873607130429815711742012485862287920860753522355358786319707196494181358163758326257027609933893123505172403717169741824.000000 -835264766748761481328460462073666711742588641729552306351120215178625624398836689983871105871789634146573168086262670344994160640.000000 0.000000
-835264766748761481328460462073666711742588641729552306351120215178625624398836689983871105871789634146573168086262670344994160640.000000 404895473070481394903469500312598070800920011245913303213024810586438340101138665192653901810196938566766778522056549596403859456.000000 0.000000
0.000000 0.000000 0.000000
1496291506082402551356644523979219998613645181441818174375181717377799208490230008924620270684623035462123264076832511072808206336.000000 182383554832991173389826139167639684938247565057443392541050902478361813207314687751948145510733654313384200839738659908001726464.000000 0.000000
182383554832991173389826139167639684938247565057443392541050902478361813207314687751948145510733654313384200839738659908001726464.000000 14763917897580818535959181244710806494683832270652021134248553149125695268673350447224197395249542311669134828196092963826171904.000000 0.000000
0.000000 0.000000 0.000000
769070196681442160655906900683390587370199485101385436351996672765731906802318458924729669641268886593432246106684459878933594112.000000 -487774932499879953237428402085077580969916051189510897012233642742745994452999320145049289937399776704131457275826923975114489856.000000 0.000000
-487774932499879953237428402085077580969916051189510897012233642742745994452999320145049289937399776704131457275826923975114489856.000000 164032166196186686269238157262127300023961466402608282649565784218124496035719850026832365310722532326576250368216708696456036352.000000 0.000000
0.000000 0.000000 0.000000
29153129691482466486904032356083694051530082799544586031007275713773273085015612339411838410951739788041712992060336793752436736.000000 43914664157514984442058058562906597787888001193681830997421951337321530107721647652546841476076218598136671503296333955578462208.000000 0.000000
43914664157514984442058058562906597787888001193681830997421951337321530107721647652546841476076218598136671503296333955578462208.000000 21132144408589159311992661261147630139258037532102495194935294127407932489700658958480875402087972838140264649152507462140559360.000000 0.000000
0.000000 0.000000 0.000000
-88061648242699061306871340972439125568866694059721776305229961240905187177333260423853735042738204826471057817468337258923819008.000000 -68437841284356691218685260714280110653399077501148046858499948190279298264801924657138455234038300915633426220281691530552410112.000000 0.000000
-68437841284356691218685260714280110653399077501148046858499948190279298264801924657138455234038300915633426220281691530552410112.000000 38078920361362098169920103355184221931732922383752937552551527213837847138173724953855915244451457313567718713227180383437586432.000000 0.000000
0.000000 0.000000 0.000000
-2703812503872138245548045650906515906328088831854010890841946442342300135197546564031484789473009762133547452738908233619984089088.000000 -1395892874623224914886587179462678050584003147131400858312522263991934532428739860892091628105723549282324961165291601941885878272.000000 0.000000
-1395892874623224914886587179462678050584003147131400858312522263991934532428739860892091628105723549282324961165291601941885878272.000000 721209886046952446235958282972683200766194178166112113488865759143067718756126997580144712334426954974035623998090628802673639424.000000 0.000000
0.000000 0.000000 0.000000
256451439817717494936146647083995199592928432974749014101218708897618048374891995485291249173872302332297882275167840338366693376.000000 -110406981894963851254750157051763911423782285506772242878538802080701558777421382684588333016157927081841577970385135291888304128.000000 0.000000
-110406981894963851254750157051763911423782285506772242878538802080701558777421382684588333016157927081841577970385135291888304128.000000 28438653919728520130260632423299785276053537846698951230247660447363319763099446422892522073313838439077473678584475193800916992.000000 0.000000
0.000000 0.000000 0.000000
-696720666547251183475565007584347064099178896689889227979949550319326499787909557152659063077560493281646650051879363021125976064.000000 1674169016472718534495299693806444515268483674365552361454767513704004173736190994648849751905744064374536387591513927046318260224.000000 0.000000
1674169016472718534495299693806444515268483674365552361454767513704004173736190994648849751905744064374536387591513927046318260224.000000 963823155749532149400136541535277367976170409344921720126682879846155690578699991912854314562889484991805346834668577344351895552.000000 0.000000
0.000000 0.000000 0.000000
400177889531415117984821815081488535435732810268302174587667050805143230220222523737523173594094622931947656741694959467850891264.000000 -636260908674209923000044135674318778207101359761080322739308091162387522019208963570080030960718729531570249267494042051891167232.000000 0.000000
-636260908674209923000044135674318778207101359761080322739308091162387522019208963570080030960718729531570249267494042051891167232.000000 311121735289995106416438482653761471529509844258889804883629937885442860397738493016715738739160156407013151972673376195868360704.000000 0.000000
0.000000 0.000000 0.000000
62446743582379837420863292484512795020890219428566054530773667782754772243642902430549467861337569937936105635719107351127523328.000000 162586752926110645730236423660293208384724547439698275883755607738292214022278064033069796730102693665842081964073453272799641600.000000 0.000000
162586752926110645730236423660293208384724547439698275883755607738292214022278064033069796730102693665842081964073453272799641600.000000 83751440326129324213597595136269851333254145817087420100125266128933636159067016594234456359763270841554239082651453043683360768.000000 0.000000
0.000000 0.000000 0.000000
-107879829584740970738021439356273325234229165566710284331704280553809633145343189961376734731777638224166130661142698393650331648.000000 206929217175307943193188357578785645725543183251980438562625367614570939054783916003259679600051079773087085842860240814456438784.000000 0.000000
206929217175307943193188357578785645725543183251980438562625367614570939054783916003259679600051079773087085842860240814456438784.000000 120639009430714095289330845493165087990308273873538395737756380066401211014054576083256750247752178179588572471591831122061819904.000000 0.000000
0.000000 0.000000 0.000000
132425492135311214796392738421653882671444038358571029005117344995676071040278626703467652629397405023538222572107494546640732160.000000 1779036072976421610716574373391767542886832734670309604214598185655347318692790250130004875520690421651482589790657591369749495808.000000 0.000000
1779036072976421610716574373391767542886832734670309604214598185655347318692790250130004875520690421651482589790657591369749495808.000000 977891020724072789344936975418651827866194309080975991080402135641155264970686131175715139414332940633009567681548532505492062208.000000 0.000000
0.000000 0.000000 0.000000
-822292700174933419784624445686268900153188900565322432744445741903793652977312667906219369831056310728260937214957888763970191360.000000 231191165679172262809052290930806726828571002623545931943556077359719390077555803971860364414361841012997976047366714402476654592.000000 0.000000
231191165679172262809052290930806726828571002623545931943556077359719390077555803971860364414361841012997976047366714402476654592.000000 94039122616032504545878835989966403712427518875125075668417138554387364668052028833997613311736149743947665154924159412421525504.000000 0.000000
0.000000 0.000000 0.000000
-3278886654655123174816297249029263568331237579301167380147289395346368433272676875049971324908078012778741079018287011685399003136.000000 3436279788543240541486883877084110753170602531035277618832794906234042218875165586784315875370596864637376741535604918028934840320.000000 0.000000
3436279788543240541486883877084110753170602531035277618832794906234042218875165586784315875370596864637376741535604918028934840320.000000 1960509483206948520548135560346424493439969740855570938307260577580727088337697640418646059269892733789230796378330016644188864512.000000 0.000000
0.000000 0.000000 0.000000
4672003081137341786546004990122920096058024921886253868728360035213997928586790041559771011755250442393319619505253787793096704.000000 -758332452562659887506232952812157196285958912219836985455862812788356360275472256076972233037148605102822063465773344262979584.000000 0.000000
-758332452562659887506232952812157196285958912219836985455862812788356360275472256076972233037148605102822063465773344262979584.000000 90106031506222597668978085999612230631127186239604239535867186670433150237822962779908406920139894318742137815348307449348096.000000 0.000000
0.000000 0.000000 0.000000
81625200296325295659618672897907077915755923140106448441551624504394106007854020500185338559149622577393527650319446091617009664.000000 -172343060136031366455628586720208561473947116324332330985784402010806832547273707088060878666813029964396809294312197012257243136.000000 0.000000
-172343060136031366455628586720208561473947116324332330985784402010806832547273707088060878666813029964396809294312197012257243136.000000 86773427099790239454225135433777799794381289593023062037173072380481142212095262569322107930093466416246069379260592733911252992.000000 0.000000
0.000000 0.000000 0.000000
1268778617802568791850894058238252949472236324913096832544760185544474716878790992120045511034598645047872858671859672020489863168.000000 -1148060794828113953677318477727218977883320964153876476288457549254592284824539171814216629388838788042478701445684213620846624768.000000 0.000000
-1148060794828113953677318477727218977883320964153876476288457549254592284824539171814216629388838788042478701445684213620846624768.000000 464973764498998138592130401129146917699218182899772442557549291001243611710575016245594042793176664451922059390547436446131683328.000000 0.000000
0.000000 0.000000 0.000000
1285813110429917538696234103843181761055895435311445364729106369391312078407137658696752802625218662905198776846845495930970439680.000000 -1129934063065505105246630061237704235485674385977710394221983112131193847541544380406702806139095769575523237021201622665162391552.000000 0.000000
-1129934063065505105246630061237704235485674385977710394221983112131193847541544380406702806139095769575523237021201622665162391552.000000 451765169178893353170025391424311149755699059455563504664196181182270147884765919219936486051544098641552873143485949920390676480.000000 0.000000
0.000000 0.000000 0.000000
453913261141770306406876388226792297531618836413694454684884574045533836172664095114480996370580060872084694725931467421729685504.000000 -22195033788194003919068962420131757679347233023611134207195848908381733161258750912733897309930611018609526879780707981152223232.000000 0.000000
-22195033788194003919068962420131757679347233023611134207195848908381733161258750912733897309930611018609526879780707981152223232.000000 722306639689002919503985469269682069309533925596030007408534883049296220126061694713774812010607562488313600097296610790211584.000000 0.000000
0.000000 0.000000 0.000000
-102699193159229829608155865794236503677473975773501643731788009532570691514376883193280092348893442941075956907379059928455970816.000000 212606080900176242795049105576937616288330946030986439833293291758341057388310706908727855751915481073391688237055552036521639936.000000 0.000000
212606080900176242795049105576937616288330946030986439833293291758341057388310706908727855751915481073391688237055552036521639936.000000 124079244760784683894365674434910046483055955416150332539027253204111969940041069370150193551845735996948253381486265220525457408.000000 0.000000
0.000000 0.000000 0.000000
-30379337699760562431081152732887971411726736977977143260507428269999129151046428311125168034011704868807996698707398277612961792.000000 14227604153370613111173627038389947619209771257537724196380017760680713262182524831641991240173704223513941278990920445694312448.000000 0.000000
14227604153370613111173627038389947619209771257537724196380017760680713262182524831641991240173704223513941278990920445694312448.000000 8302957507073538307241236390281730871628467867139165646640037983143375566488517497106278895988274341720963097761629380030758912.000000 0.000000
0.000000 0.000000 0.000000
-206692663365191440620409257727933713524502666315237111593969909127549196310121905667854808326121506520343307824905549241550635008.000000 776458831706369153040455602140172896225000584158662106354239102675804738837540702355114419844598139798103487265961201145984581632.000000 0.000000
776458831706369153040455602140172896225000584158662106354239102675804738837540702355114419844598139798103487265961201145984581632.000000 443942780406242740143086514519460453401684619839592885138026432070838345353501759333756788164780609733235301909717955729223057408.000000 0.000000
0.000000 0.000000 0.000000
370664440361962892962840351904046962364713026388288394908622571506745398142476996674523403853982650318748640035841328526900854784.000000 783384003126913301485834559925742703774871508526233519908153268943602589773748705291999584352802307017773834465548467445587509248.000000 0.000000
783384003126913301485834559925742703774871508526233519908153268943602589773748705291999584352802307017773834465548467445587509248.000000 394590770894412964991080672992690770052157377714188843501853617596337375358538138953744856558661175106803156333265615963622998016.000000 0.000000
0.000000 0.000000 0.000000
-4367362764220512241281082781867257167586032424818826680243998517557567233268247406413865941201048146401519035530037026400684212224.000000 724850131754802175080942302744808712315648794926184528507948310493633939845238513032066021271522469464175444578651002560319586304.000000 0.000000
724850131754802175080942302744808712315648794926184528507948310493633939845238513032066021271522469464175444578651002560319586304.000000 209244160756136600859265614149524141969877165666763884623137407696325235725901551754294797386469685913978137383411460945169350656.000000 0.000000
0.000000 0.000000 0.000000
1059973660716941850588112146068714281877689791668511726630551569875206509285270751255767691200099505508592554164406947249582505984.000000 1281885600227527055848374167994010366595731566794379307256876991988243843504496276351058483422265532177343963947678673076412743680.000000 0.000000
1281885600227527055848374167994010366595731566794379307256876991988243843504496276351058483422265532177343963947678673076412743680.000000 576316771554417255277727920527952000689368993901930864432948663447710299631248665263116265194906986709020919037245249611959894016.000000 0.000000
0.000000 0.000000 0.000000
-263408691018365368015691623313401185715606773053382129771244772061500963307428513175501094568073986692945307535870351260822536192.000000 407532567179177565195330112310728626623311027352603190311322213183262951401617088457706298504143865807042919048019437623615422464.000000 0.000000
407532567179177565195330112310728626623311027352603190311322213183262951401617088457706298504143865807042919048019437623615422464.000000 237630548264115478580706081391527254980894991524509250338340121592705107256269296912045906863042021803535381581950355549712285696.000000 0.000000
0.000000 0.000000 0.000000
12310754747564147980825305432543469492032547354480385965312207446424989476028330909062673593453565272344673321284028338005868544.000000 -14004067759365759608970853085409982517277068505788145111309595948826163315105629000259930311084523304497702049466490977991524352.000000 0.000000
-14004067759365759608970853085409982517277068505788145111309595948826163315105629000259930311084523304497702049466490977991524352.000000 6182467897765896175247254461317522418410670452287320101219617542816413679267265271897464451985630606010147431827255306034872320.000000 0.000000
0.000000 0.000000 0.000000
-756029353634753123236301866057705841974018187375046847608483690161154887529804851078631757490700530683336117726727579012385734656.000000 -554012103956774312599873833093674130813764576486637030401314488248154628349217659342498420139617039382692868023962886596301160448.000000 0.000000
-554012103956774312599873833093674130813764576486637030401314488248154628349217659342498420139617039382692868023962886596301160448.000000 306297077662495823124227734826309639988227747753106538734917644067301492369709306300721314435862350542759340812026677185868726272.000000 0.000000
0.000000 0.000000 0.000000
744519284514426035733650630262005988927166815180947854184632523773256281945130023561847431190056238926770538479148600778865770496.000000 -1370683023686611509841874155867570203631393226848057513116819593314807474268016605397373939154955282602814059435304652511169740800.000000 0.000000
-1370683023686611509841874155867570203631393226848057513116819593314807474268016605397373939154955282602814059435304652511169740800.000000 684098848773702571504961718037968127777509059083683304971090605992996724614532106763016511253953018260212269744259479586490810368.000000 0.000000
0.000000 0.000000 0.000000
1699624897851939291166601323491118649149969801813289438924949059721338214307222742814801795262764636296457139782431255360375357440.000000 72801803964272838216092844550918453002847918459150375407699923307951673269853748581221983335975072031940605033832288404954415104.000000 0.000000
72801803964272838216092844550918453002847918459150375407699923307951673269853748581221983335975072031940605033832288404954415104.000000 2091501012930085493960885558080020211330551733741257770391093550902522115041778915644923349815657317305607025132463033889587200.000000 0.000000
0.000000 0.000000 0.000000
797625522019888546853205056428005658264556975129469983970711740822698533983914070119065563864413070912834545235260255527082393600.000000 -555838718484759070468468188192849090543262509893471213210529738929938508762094163706510860723791820092636690445106168540518416384.000000 0.000000
-555838718484759070468468188192849090543262509893471213210529738929938508762094163706510860723791820092636690445106168540518416384.000000 198332302774699526520420975754881063557015664825993570058626408374377672983717757200123279310596258640019107926632626353239752704.000000 0.000000
0.000000 0.000000 0.000000
-1129725450058632271731645245076750629837767393287014148458979513733556322214870750150470312486796349287263053678253804674988638208.000000 252476161630578794280639270022963688276872603090017795353602407859357018550006857663448596987010267168250475862997937103199797248.000000 0.000000
252476161630578794280639270022963688276872603090017795353602407859357018550006857663448596987010267168250475862997937103199797248.000000 90347494433430270023001901445874633076209391026696439204672037699172271391142851520931091842361998597844299716606973872787423232.000000 0.000000
0.000000 0.000000 0.000000
-2330289631247083759171012440047004734237733126710018206322950465128311487773704568792882263082701860373636254660079293989205835776.000000 1409225880330834282513905648602994213280282044450020360978009305364482199281120660753224538329855967152368210954964559368665694208.000000 0.000000
1409225880330834282513905648602994213280282044450020360978009305364482199281120660753224538329855967152368210954964559368665694208.000000 753232011997706303411945866441382486536824750314895386923554870645671006806320437622372508287693953981397520010727196225720811520.000000 0.000000
0.000000 0.000000 0.000000
-1396621825714867534710785402315685802793177731639424273726309647079073688246773323324028289429220138960386704770127670467157295104.000000 -1216288697386322411077000670466137540064621667359100002409442253771767479318097089832257535289439343487088306882455795289991151616.000000 0.000000
-1216288697386322411077000670466137540064621667359100002409442253771767479318097089832257535289439343487088306882455795289991151616.000000 684489987746649883195854885406287472548113878311757461223106387150119978694501165120047491782230519426072664542880355832284839936.000000 0.000000
0.000000 0.000000 0.000000
-56015590212604052135348631675214842926845599959555048959945407938686418135230974645691283734552802967833334701583750310207160320.000000 -2660680243195528116866292389736804057392331865064480490814664958127626841947162536799567022523397731447427685521127275206503563264.000000 0.000000
-2660680243195528116866292389736804057392331865064480490814664958127626841947162536799567022523397731447427685521127275206503563264.000000 1492037350647096793740435304371551158737979601509464937120409558030471696645704840113674703776852467768160887216436104781719666688.000000 0.000000
0.000000 0.000000 0.000000
501666214489980814172581589040060436912657761073261177694078918557943124559302290384980182108121695887791745455171616355691528192.000000 -324906485278593196614445803645355334873323697055070380384887941801151807247570104959315439845826781268197115950689371339949604864.000000 0.000000
-324906485278593196614445803645355334873323697055070380384887941801151807247570104959315439845826781268197115950689371339949604864.000000 110651804661493758600753310113823839890485775113209071954418416184531326657398215990962748414285610857733381167695063801701335040.000000 0.000000
0.000000 0.000000 0.000000
2060449753978017389277815756086214037163672935442980611396882940445402356952586215396541927723380467595300661177102699878437355520.000000 533292173380239647930675142827736696004885801596238039717335855577576227753289544758976125399255176598582525923444183481775554560.000000 0.000000
533292173380239647930675142827736696004885801596238039717335855577576227753289544758976125399255176598582525923444183481775554560.000000 88959288263136323276822978887394729573706507611791371249868663816878840399633344400553950943941587691179324153725315740252241920.000000 0.000000
0.000000 0.000000 0.000000
94056607968676256122875408194282157251039876774693293982597835423874036196525334282345119125084451764107562593518909122999746560.000000 549082084730565442279918915025510166409944836192344146093761206977784596359118088016758204134373420457059742362977440208047308800.000000 0.000000
549082084730565442279918915025510166409944836192344146093761206977784596359118088016758204134373420457059742362977440208047308800.000000 296853153210197485031650138134306206103640479616622383231141867277248478001336569589562835661255888100490065553351963263121752064.000000 0.000000
0.000000 0.000000 0.000000
383677832372160431689895407681059845027410582634036296961423944582318160472970331996122275176530446273815257780909252354844393472.000000 -281105712867613693864548073785317161739561678992237154575811613462571614833820846641393339094084776418184760938043166101606498304.000000 0.000000
-281105712867613693864548073785317161739561678992237154575811613462571614833820846641393339094084776418184760938043166101606498304.000000 101713412723943248967278057926469267382099574942302031738977479648811159971083460027407176120880877441668832155397046624329924608.000000 0.000000
0.000000 0.000000 0.000000
75787831903534693077228284882047681445970040348209771947368370149890646718625264510942199263513320133945123524983823855681273856.000000 -115239966293414835465498036388279488946387345187165137387723480213759162942029742439048896260279831160583040272668207769039405056.000000 0.000000
-115239966293414835465498036388279488946387345187165137387723480213759162942029742439048896260279831160583040272668207769039405056.000000 54896591424143878477558667250395435850870733971447809601416899093571594431400455685521246906406238110862788067016998821788909568.000000 0.000000
0.000000 0.000000 0.000000
18305626721190546607836860406670163006422370860537900824712321429371499399972379459425253367006750843028211827742757533828251648.000000 37236811500154328871997715911246073453111572700803379999047666350901545700277896021958459490086362615251156519963998105051856896.000000 0.000000
37236811500154328871997715911246073453111572700803379999047666350901545700277896021958459490086362615251156519963998105051856896.000000 20166150257663887331916621382112716767304760437554962586722462700037443057367085240389349650807316720285991187540749878151872512.000000 0.000000
0.000000 0.000000 0.000000
158265396249255016224793387528385858532308280272757704409766427559551492746969502864487008283409354533344114896061101386384801792.000000 346339349883535372490800478758878767756931577616132512866386780087274945879367681455525852360007948866328362754802697734069420032.000000 0.000000
346339349883535372490800478758878767756931577616132512866386780087274945879367681455525852360007948866328362754802697734069420032.000000 175917301282663836376134649901665219163435249675032261528874260807696040557063208731343987163816589203805422669757249369424265216.000000 0.000000
0.000000 0.000000 0.000000
30610968934362272352019331783366447117321161032577799044844642182425206861429559142889003217975810378554956296081661663234752512.000000 -13009252470620035558360926621117813210172249788796144076764078351094968386202670492605119941233758600442035105799219848211857408.000000 0.000000
-13009252470620035558360926621117813210172249788796144076764078351094968386202670492605119941233758600442035105799219848211857408.000000 6227575824364526982888824725227967311587473758388496284440714243780436776018892384397890673183955985496247323994811280092299264.000000 0.000000
0.000000 0.000000 0.000000
14995250754599607118680160442654997802321482456402368870033896114396797156245126280502919576674346166876568092556092686097973248.000000 30252642497996137865043801278683294030964539091519566073104235214313298338979274763239552783006914755525555242187678638598520832.000000 0.000000
30252642497996137865043801278683294030964539091519566073104235214313298338979274763239552783006914755525555242187678638598520832.000000 13631332623795185166843346230448266584074920013161236100183737238899964434376071945062492356111116141616847495444303722001203200.000000 0.000000
0.000000 0.000000 0.000000
-732466746733006187316212689702112253386218182957041872562191764714261277782264776967959369770077858777244947408322875577688129536.000000 120299261090436804011158880823565887328646393755752290742645614208930624911844973360133793025085578838795750744668338788826611712.000000 0.000000
120299261090436804011158880823565887328646393755752290742645614208930624911844973360133793025085578838795750744668338788826611712.000000 53800567619748345339567487768474493820375122103263561685682170397326890585814534182185530731067332389019386470835224803197059072.000000 0.000000
0.000000 0.000000 0.000000
-670069255000435979551689028094960152617570791541282253675238844091000168962019037002905555750385161355148745221877055688932327424.000000 -254509469606660978211288102990342281545527527890497619464207021897998113952402525367626593194535196361080117655901851200532774912.000000 0.000000
-254509469606660978211288102990342281545527527890497619464207021897998113952402525367626593194535196361080117655901851200532774912.000000 118957863851937323469599599416487268067080321980652927458463255174642075807847548978556148939968793851112442607439866042595147776.000000 0.000000
0.000000 0.000000 0.000000
23086740601802682188688430974803541869007105896403782581753409918843045133591459632033565514895074042184688330089345823688097792.000000 97172217761300909402186585518231115186872539801964597238128390504796962376325677811897811283233284685526253469956147331981115392.000000 0.000000
97172217761300909402186585518231115186872539801964597238128390504796962376325677811897811283233284685526253469956147331981115392.000000 51720519285066679382702888484376348265501824806320808143879456398605109137084660578302035314886683584783335688725439949517619200.000000 0.000000
0.000000 0.000000 0.000000
2076932080443597116768508339512910843999997130161088334674683903467565613988376386033442325059780120749786773524190915398205440.000000 8117827343269315030234488151083600619493742140641264107529925480818648254282342540714389097898520198410516944240635321237110784.000000 0.000000
8117827343269315030234488151083600619493742140641264107529925480818648254282342540714389097898520198410516944240635321237110784.000000 4310480914709516188716935054905384676741447471923747196218050296338940828307528437436012970755700966390111972561157307940995072.000000 0.000000
0.000000 0.000000 0.000000
495181473233720350116553514550868533815847016446490934428515137594300948855087791936973600451663607189418577636910210039895031808.000000 286026644678907050314596149988577383379497770976130026956161228664833114149440883499627237681012028488488565041867877829669027840.000000 0.000000
286026644678907050314596149988577383379497770976130026956161228664833114149440883499627237681012028488488565041867877829669027840.000000 90590824230036808774899122196410221181703712876982476231411778374388681843124463249135830062446556700818806765407379245961838592.000000 0.000000
0.000000 0.000000 0.000000
89205109687086807633299551252552856599800188362095702172974847680359985946127796449460091959342863739133222600674376216305729536.000000 -139098386321286793389097522402415033226746373781838075617054926921094287197136220015268418842724568545408031397769328728144347136.000000 0.000000
-139098386321286793389097522402415033226746373781838075617054926921094287197136220015268418842724568545408031397769328728144347136.000000 81410047407716488802232457947476642685653785003379767378941981417723517480592509180457677668264627506196932210852364115396001792.000000 0.000000
0.000000 0.000000 0.000000
61263528872491848146566556155008534752999012295431942824243960780470184893181105649105226095888576346382107590937748901671731200.000000 -587889588431841951911565070304199638056867515297254469873618038673616292394580192403829661124559310693654334831190010978143043584.000000 0.000000
-587889588431841951911565070304199638056867515297254469873618038673616292394580192403829661124559310693654334831190010978143043584.000000 327062910122386828765070116900373841137071992618326375704248698330140515569650387471920343840436868642902372542190198812835840000.000000 0.000000
0.000000 0.000000 0.000000
-4959710380659319940850419102356226710861390316891829813931805838501983325879683568768648128969870315256659822331488764768026624.000000 29406235401416448326960723171077797283670614849425763765545654720904802318700886510181356054892899675056208605431382661931204608.000000 0.000000
29406235401416448326960723171077797283670614849425763765545654720904802318700886510181356054892899675056208605431382661931204608.000000 22043467703003199980605384422498848403993730929498655562438730318002826094278268514229066053413358375811799379875410718127816704.000000 0.000000
0.000000 0.000000 0.000000
1102407831025506751755239962335798489138060486798014427340839220363775351072035531534177972408617030620535530285556298100934443008.000000 -758910021400761850609335366229446475465023804784404762650854517902374164584786185858779649174548155848962973300214532398521516032.000000 0.000000
-758910021400761850609335366229446475465023804784404762650854517902374164584786185858779649174548155848962973300214532398521516032.000000 269473216569149463750809734383050478128446918136154497056294686235135314520607806626930414566390515088457429692931010141704159232.000000 0.000000
0.000000 0.000000 0.000000
-326959553864916034815051460979561354521849995992153428039900752518490593679881322344716876549794775151984134863327747926755639296.000000 -517820401037490533980102481633440711441377526393421815227934864477714083298091854773419977370203450705673364696904827111223590912.000000 0.000000
-517820401037490533980102481633440711441377526393421815227934864477714083298091854773419977370203450705673364696904827111223590912.000000 298816185098695979662097931407317485453471226107703337460504035196799816574074137458014432110657678088890582844460854642454036480.000000 0.000000
0.000000 0.000000 0.000000
-567373001068932542939099332390926817889612656196096641112517575805368385217412469916986340598468158255771252189602290495748308992.000000 -1106547310791194819630454243777448074045204845874257689565747636382473643816463930053924049215200012809824408461762992961728020480.000000 0.000000
-1106547310791194819630454243777448074045204845874257689565747636382473643816463930053924049215200012809824408461762992961728020480.000000 638443837684043815852602677664930717492264269217023986403286565214139616827362477056770726419790173533674174464455443112903311360.000000 0.000000
0.000000 0.000000 0.000000
-82192005322807796023216637354138506674276534789696123957463150475216379336127069483881057179236564668100189769155413235048906752.000000 191413293119749697221362216540973751825956229442087372862425469538391298619038138502822320143533059211978684692117107805180133376.000000 0.000000
191413293119749697221362216540973751825956229442087372862425469538391298619038138502822320143533059211978684692117107805180133376.000000 119387717147856629440832655550938958601847418124629298295468418765853806718974550545955859902339633912551153678533012632694161408.000000 0.000000
0.000000 0.000000 0.000000
-620429695101392973995581066744673732152617326239693207164108853360696335612348042882728397973817594980401300768684106261200896.000000 -1138233371023232351247472869865507712625543680987525553293671807396561213617963648385662323070946111824238428222490420705230848.000000 0.000000
-1138233371023232351247472869865507712625543680987525553293671807396561213617963648385662323070946111824238428222490420705230848.000000 659045187894437742575186832640261897358058143622077771328712967514339092855174205326788088786603851857694460133130885478219776.000000 0.000000
0.000000 0.000000 0.000000
-3831044222101041245006816408060275702303477807374041974436211267787958998491036967643619658113877641475714218454529510797511491584.000000 -790056878548442764192426088446086704466207685368975367451901724013084833508229141914033802694739120879485673776248719287181639680.000000 0.000000
-790056878548442764192426088446086704466207685368975367451901724013084833508229141914033802694739120879485673776248719287181639680.000000 266322670224378780714217230815928357847308720453192376525281118380088091718824260382799960566453616233168951048249953240137859072.000000 0.000000
0.000000 0.000000 0.000000
798976749311586383506547129866215048630193602049865428490876331614418316826196733159829289056230314627870902742158440787592871936.000000 1593032823277708435495704745456341342684334026075263927423634864975414432048024832852843989758416995043830974017318536194337800192.000000 0.000000
1593032823277708435495704745456341342684334026075263927423634864975414432048024832852843989758416995043830974017318536194337800192.000000 796030398527034553896054995441795622304671668208117932387925214885987688655443469239576917338107316217264171377035148771521986560.000000 0.000000
0.000000 0.000000 0.000000
-465592112001584923652719261426898433378055514604981564772520706747664365945407427881094361219939849765050043152646477589371682816.000000 -1540743633646987501382574099171140934410902836188686749071975220346601946316786581144296671537783524576917791522758150569557229568.000000 0.000000
-1540743633646987501382574099171140934410902836188686749071975220346601946316786581144296671537783524576917791522758150569557229568.000000 884587456216728580372996317496109437454407391060421885101109128708425359878770456334414067786014606057413891424368952298019225600.000000 0.000000
0.000000 0.000000 0.000000
229995235391395872736948561388133474312077337246844365518824592092446428258433119408321384902150579371352156729572994852522557440.000000 -123983427449682045749254689095914754605320384545202236859388635590321198831329648998096286112453410227386836705865272675769778176.000000 0.000000
-123983427449682045749254689095914754605320384545202236859388635590321198831329648998096286112453410227386836705865272675769778176.000000 38155435062663591861345030017332812224753770198838574098426095098633726170549217893237020802901406334299430942676148785285955584.000000 0.000000
0.000000 0.000000 0.000000
178825524495351142033568344530954249165464527676023963624579698314115670703704491270173586638974756655385523349113265027519873024.000000 -32624718634646139362428718730855727679751675013808839806547390975293931765372131105975404110676791364066910400519965628480618496.000000 0.000000
-32624718634646139362428718730855727679751675013808839806547390975293931765372131105975404110676791364066910400519965628480618496.000000 3889910401499331837249590956863815014296214691767917815385706300723671570654221324510348516516598509937179898071606790383992832.000000 0.000000
0.000000 0.000000 0.000000
-151920488794837439050912895876858934432578729612232130355358107465036861803396427601502779958581247382664390654185010731434377216.000000 -32516607175700819085810264428318629624401091789624112394585062835230507739756220717172307538508047753448389568652766581859811328.000000 0.000000
-32516607175700819085810264428318629624401091789624112394585062835230507739756220717172307538508047753448389568652766581859811328.000000 4838784043093627700011258572460152137464091556540811605646556823707518297540527464175650681411738422803249980512209814178234368.000000 0.000000
0.000000 0.000000 0.000000
155242009130612096619798644971587844061788449569250342329794561727808627176698083815611758737269229195486788762178026930717065216.000000 122606654071506171609066727626540105567390358116781986280536812448932852932245111326140755958374324842247568348645612011128881152.000000 0.000000
122606654071506171609066727626540105567390358116781986280536812448932852932245111326140755958374324842247568348645612011128881152.000000 47775679916541404499129304259894531529837640990944337370566645016028250228873300306846418683164806105917410839449668943268020224.000000 0.000000
0.000000 0.000000 0.000000
182514342990537058722168844285834055118842409461084336364757870166456224246791499289596113966104938664548951105192157650444353536.000000 -335056217977698477657117093692343558631095351260000799297909472144110222179330732423708189770205343865063489920254973052440281088.000000 0.000000
-335056217977698477657117093692343558631095351260000799297909472144110222179330732423708189770205343865063489920254973052440281088.000000 165324286716937174692714065390466787822698962475722620804733637858994180502668284494881135443797939304385262147730825689390120960.000000 0.000000
0.000000 0.000000 0.000000
128294766638518631329130556314806980464948937920654669717482756057335368121783395607418801333660602793886482636252213770872422400.000000 71118761112714902829572070518728298314530911340835227061978535296228675398358742391901060087752409754862895574453005188776067072.000000 0.000000
71118761112714902829572070518728298314530911340835227061978535296228675398358742391901060087752409754862895574453005188776067072.000000 21957891718664254384979328421199271692272235578350704457235571902373631053063839656914242642896327768004071125002095257949569024.000000 0.000000
0.000000 0.000000 0.000000
-45163119507416299856832591175590252867909291094829179386551730843611994881463346741428198636346550690424501618457182208.000000 -74193898794576136752186950902370795956982273284179847391387171730767927890220972749486360801221989727337563773590306816.000000 0.000000
-74193898794576136752186950902370795956982273284179847391387171730767927890220972749486360801221989727337563773590306816.000000 42820825694765705030025867895729986944305014629778536565360906447715122823095059211009750610346752271969218357106835456.000000 0.000000
0.000000 0.000000 0.000000
910339001997785999637685219661880996774033422086728852775652277139650830505931978407241279693106301910663841077574291005227663360.000000 792418330423396103420535432037100832538533805858847579625751844125237661039031627723111144370435869376058234256776051690636836864.000000 0.000000
792418330423396103420535432037100832538533805858847579625751844125237661039031627723111144370435869376058234256776051690636836864.000000 315622283387491174677386567223465666040266074961639881683095702109266951882542555122871643134266382840337010818847734179871850496.000000 0.000000
0.000000 0.000000 0.000000
-17417302122367517897682143996789275209565333776528645795868109469417961517789427023092061900280913651350280737210394287011790848.000000 -121255864778687113885211649574218451936991456277873423620195297176935817577370474443840742815031309306273239857063901135628140544.000000 0.000000
-121255864778687113885211649574218451936991456277873423620195297176935817577370474443840742815031309306273239857063901135628140544.000000 68589671163473013386059517946347633583409123211024316264900478319248854338086021264393924001125801121861798024207343119406989312.000000 0.000000
0.000000 0.000000 0.000000
144722093060205446868345648066933823366262376532610892025439038406614528744543651296942726576439101526845482841044346806799958016.000000 94230931341953343963847304893568626045706709211583750351651689144004830077065807898964291419952204502466876809955293795207610368.000000 0.000000
94230931341953343963847304893568626045706709211583750351651689144004830077065807898964291419952204502466876809955293795207610368.000000 33274037082937110126304112539213324195633672934609452150111507191390336033326110647469656475711802987696421711034951757937508352.000000 0.000000
0.000000 0.000000 0.000000
125740264806258784498105599778841004349696747476142074192049968205477209486455800493316487108534579034147922600536777001975939072.000000 -456630441820560767948980122421157400105680425013639218962969233493369281905711202359781782497523938558082294089112038728955592704.000000 0.000000
-456630441820560767948980122421157400105680425013639218962969233493369281905711202359781782497523938558082294089112038728955592704.000000 241289258101668370935106950574559857926316182459682279295807807767067378002490853759391502648361981168847875074302338555613020160.000000 0.000000
0.000000 0.000000 0.000000
-5229565625252125846818067919224449629581278664556605555683639590167373655570439190078190978507028870579678357256611433410570747904.000000 3459036374456282892398797061728743815871030599643628623856362109675502406215741074334916182941805064263050234225101984576533692416.000000 0.000000
3459036374456282892398797061728743815871030599643628623856362109675502406215741074334916182941805064263050234225101984576533692416.000000 1879285434045208423026379173107748263821709490048973097956490860103150977350580011565871498776169920818534272388478461549832306688.000000 0.000000
0.000000 0.000000 0.000000
965933360067409630479350288815188301311020038979435378631172412035180301616203789925401134962109239091408920992455763291398995968.000000 -390455251437201438059623824994384529724754633132625832945394426384008356534337489304621185202347635681627294531314627850287448064.000000 0.000000
-390455251437201438059623824994384529724754633132625832945394426384008356534337489304621185202347635681627294531314627850287448064.000000 100148213287055615696930784030520412557785305677785036594819741266690368641844124392128869099676934511315824443240328515972759552.000000 0.000000
0.000000 0.000000 0.000000
36279636755990637047051958690363493428230501068574369779609720358684161824058049272888688374080228952832854932263794773602598912.000000 -8050826663338626765165247431633131644590693619783434946533007453407700004838775086118290882999199668728894631693097229208256512.000000 0.000000
-8050826663338626765165247431633131644590693619783434946533007453407700004838775086118290882999199668728894631693097229208256512.000000 1535545392691038184990256249775000672839841363960241964630297755536809100019699439344816896193010541376300053567855434024353792.000000 0.000000
0.000000 0.000000 0.000000
1374238203706517696501311489940014994697112506306934220430157358663824389489310862900781992430794194545431746131484137312709771264.000000 1660317930914420578767947384312092068428580573662444892759064008790610319754759432621426982755792706499932929793268298939333869568.000000 0.000000
1660317930914420578767947384312092068428580573662444892759064008790610319754759432621426982755792706499932929793268298939333869568.000000 746392727151906658250229918417881805980641837154896989943766801258458103182340695113306809778724820488810278178915341777378476032.000000 0.000000
0.000000 0.000000 0.000000
1354681732964120011199387750752035051483612266159297722196892849407883845908638091300157630091102687589947100612338824123514880.000000 248801270490019147416611224028898732947156904690945211605804917730586015889248616364453803553827925374619797707023344264544256.000000 0.000000
248801270490019147416611224028898732947156904690945211605804917730586015889248616364453803553827925374619797707023344264544256.000000 771564410306121176238954156831427002883700883946453290439581073300713581792745204154797707747404438214494567404466210537996288.000000 0.000000
0.000000 0.000000 0.000000
-14865746853466652574164163786525590117179377576984969581707244049221792890734280100322383741060194313126426650254396170207062130688.000000 108671617212309644725519508810159433711263045053582871664961239674332432267088556378276398916607843787471692323540569045629665280.000000 0.000000
108671617212309644725519508810159433711263045053582871664961239674332432267088556378276398916607843787471692323540569045629665280.000000 6029191088884677012864994334436399740955549987528595255250705108402195243685641244277343823609289902912785085913376706669838336.000000 0.000000
0.000000 0.000000 0.000000
1776127566782760440821496450028191549709131808768736550958509137671531574083183847444689925632146389379995578260074008530825248768.000000 56017564624239804206491644107635513009206882933285205776708999749041721746995177145981262976189281557248853363541764253503455232.000000 0.000000
56017564624239804206491644107635513009206882933285205776708999749041721746995177145981262976189281557248853363541764253503455232.000000 1275864622642625841397718203485976663034063359526306007177654410198326909623799110454524731492339985078483419910259045849628672.000000 0.000000
0.000000 0.000000 0.000000
135078028150697942709234502764403167443072497507826419084698468801975552924231223115470206080696152793866427588878619217357701120.000000 728094668591777816966987888352575092902834773716251157294033087007900884052238466942707235575908680479923281580167352180126253056.000000 0.000000
728094668591777816966987888352575092902834773716251157294033087007900884052238466942707235575908680479923281580167352180126253056.000000 393762952304349436077539756035754081174186516718439350084652096612453230554577880958798658981306688749947425023484214269410541568.000000 0.000000
0.000000 0.000000 0.000000
-1378438669375828385570853689346332635776828063349335352653258847676417451625421949473195884230743950296526595438153733022679040.000000 851025291404330135573423224353085852593414126365493640283630401271091889415186334221627189391638463720205885388277830711997628416.000000 0.000000
851025291404330135573423224353085852593414126365493640283630401271091889415186334221627189391638463720205885388277830711997628416.000000 473421478696112991401004975325494664345313059351272668152380999286738073972307512958263203438022629393884668545710720864627982336.000000 0.000000
0.000000 0.000000 0.000000
-1061927407875193291577310867377268853940870035746008004915256059507237477755179422332251900832255081655501376038140858160816062464.000000 -335448706232775095565792550990418995827926997391685713913505035436018242528108384663263078904236310555641158901083008901067046912.000000 0.000000
-335448706232775095565792550990418995827926997391685713913505035436018242528108384663263078904236310555641158901083008901067046912.000000 145175311839074364265339101833862768695457761773757863862393809581814427460859748456208793834591895465401104746218629715682394112.000000 0.000000
0.000000 0.000000 0.000000
329604900482096355980470990889952363411876755319193019831718982130345618624254149041166417311881777688113107772022882612281344.000000 335699310869956981309410595498804373094150561525120694741972272090984828680227615584414428592589706378224850392330688054427648.000000 0.000000
335699310869956981309410595498804373094150561525120694741972272090984828680227615584414428592589706378224850392330688054427648.000000 152184167964142731198746980880950192715850841617521210346817779293248705845797651262989399370142013032995304340486837525020672.000000 0.000000
0.000000 0.000000 0.000000
-413171574774338024789641640978414072991373824282472131730079912088970758564912648606741530377510156320383048724529017856293076992.000000 143499385767528323907194044368992016641617674122854241353852580796193132256680796335944396415978059883751908922677433119440633856.000000 0.000000
143499385767528323907194044368992016641617674122854241353852580796193132256680796335944396415978059883751908922677433119440633856.000000 73699900848341911564573712562028899422767837934930059456867773821692752221883468119472634124464700151287645323980010169489686528.000000 0.000000
0.000000 0.000000 0.000000
285918473911843404939684579999960991527053008107388004413135634029009759991733143444822256452215507227597236605866334104846336.000000 751698865410834798547872428978944721110830244616143370177337793928498188674185515931930733015392740098262155488648915641696256.000000 0.000000
751698865410834798547872428978944721110830244616143370177337793928498188674185515931930733015392740098262155488648915641696256.000000 389297960554197970397477396673396931527088700206627017658460877683924853454951034153401765923402163123067604106164638964514816.000000 0.000000
0.000000 0.000000 0.000000
-337662704639694029117571634618144704897480916013618390074648438976791881272893655330730489325504083384506425249245011067797504.000000 -1175043549287987382508435827799556579662609668442551502657518019440522905624636639986631508564524038704153427068365217340588032.000000 0.000000
-1175043549287987382508435827799556579662609668442551502657518019440522905624636639986631508564524038704153427068365217340588032.000000 701917379628988099624407278091115991040310084639059820642638740047719160760393930213771243209426323656284073876093976765792256.000000 0.000000
0.000000 0.000000 0.000000
-612420882437200420593959017766505365741698826799372065799590210976989290742297124473731241815847369884298177066374288898418278400.000000 -652338552723371417493271141487817669942165528794557326445090275437775941441431109189950076542595630283565012959276306555671150592.000000 0.000000
-652338552723371417493271141487817669942165528794557326445090275437775941441431109189950076542595630283565012959276306555671150592.000000 372457992130100254103826061803101099279438024891165628207163882520037888363823928245172168288527428113216530827371071293454548992.000000 0.000000
0.000000 0.000000 0.000000
-13821733257357376698232974791072349167355327050618114415967858448109585828549970157742512378842823593458959339837099081452987875328.000000 4684615580341168386172088789422002650303179459182822989963378122200393158607780755340223199652711652020669456970164492928127336448.000000 0.000000
4684615580341168386172088789422002650303179459182822989963378122200393158607780755340223199652711652020669456970164492928127336448.000000 2087656832717755262052496885852347346796969260030358892362514380471469506210196952930084400991168020919104488540923647900923199488.000000 0.000000
0.000000 0.000000 0.000000
21548274289027767319600910747419001775236642211512479678520863364375215417669001910663249761072915598365656519351955346774032384.000000 15031646197461755670776233820224581259045991036420816076626667695695304485671597936536464442320064557254829251565407492617797632.000000 0.000000
15031646197461755670776233820224581259045991036420816076626667695695304485671597936536464442320064557254829251565407492617797632.000000 2939762988377084349221996393223693208612176711684639488545545218430972194318638997209516125078124392778325757762436327393984512.000000 0.000000
0.000000 0.000000 0.000000
-285018460451029716344076400304631222021593898522358963309014519309246246495991985984778597697734784945007430274252270741380661248.000000 690831582165019625133137391158618880152079868843407376303443154515312754328962319405954393434525731394916869858118182297441140736.000000 0.000000
690831582165019625133137391158618880152079868843407376303443154515312754328962319405954393434525731394916869858118182297441140736.000000 397697438214206001804885532570523777854475061015381987189899358770692634198691274420407826925644295399502497620206443145052815360.000000 0.000000
0.000000 0.000000 0.000000
11276922083733088587948728110546218795912589481471863745318554151974838453661196956194933082238179738431736286817716750413463552.000000 63543811138615972186668578276346553221840445744768160649058478947346835943607122165077497757978266874794676155356095918328774656.000000 0.000000
63543811138615972186668578276346553221840445744768160649058478947346835943607122165077497757978266874794676155356095918328774656.000000 35634412734960635298673480360932121085980106186077032671326620241505712318440669673197113732561627551979626079791985897001451520.000000 0.000000
0.000000 0.000000 0.000000
1652582008648304817839501675344503001460163257067956640920207438294030067544954015839919884179929377511179238151969372221946724352.000000 511051254311958086191442707012527810411876002128005140051244797568674430666662828870147934564543096511506030992496978250526883840.000000 0.000000
511051254311958086191442707012527810411876002128005140051244797568674430666662828870147934564543096511506030992496978250526883840.000000 99758214737927995979629567434832471693786228147210295041419252918053238174680774510511165663219349239480901502141690814341840896.000000 0.000000
0.000000 0.000000 0.000000
5650818784541818768968175485833805202897116972441788596320154983943064602197572330732760156026548838862312400464007558789595136.000000 3952864428530431726476930300273308242447034862313916634171478353110184100079082716266836187933855237277455739578377980052766720.000000 0.000000
3952864428530431726476930300273308242447034862313916634171478353110184100079082716266836187933855237277455739578377980052766720.000000 1409528466763343594208761848615463259666042578290352135505147325513594920536873305492579918837531430157800759501367977179086848.000000 0.000000
0.000000 0.000000 0.000000
-1277490116482734764251014479415742564662276259783068272878048216221693248684579069165781707354423569274946111589221236861376135168.000000 -733891652582874114992937684240909935943323799581729789145044908115722824475977141350719952818878585059275808773477161637691523072.000000 0.000000
-733891652582874114992937684240909935943323799581729789145044908115722824475977141350719952818878585059275808773477161637691523072.000000 398565996484678514289834619800921503506201408876795038209951335721478318897938810697300628314833415020364665174244036992875626496.000000 0.000000
0.000000 0.000000 0.000000
3263603414545837501997327891692071940489259841693133890256545416458983388683540734159490221190985055379712190144095290092683264.000000 2085105794686340584810372863341006186263420790446542253406935227911313217436296167533568243350555293608118411737142921969795072.000000 0.000000
2085105794686340584810372863341006186263420790446542253406935227911313217436296167533568243350555293608118411737142921969795072.000000 704265277539173908925454296658596348819592201871600180427379923858134579431618202704373537224945841566466141292126904443207680.000000 0.000000
0.000000 0.000000 0.000000
135660691449570879527410086772454794385969108367996842779909879176159827726336559453605357397738410095799091146571143111671545856.000000 228995036932338191445500365505113691296522436383111517634314570079954404173549893956618988735350317307378487635242452613634981888.000000 0.000000
228995036932338191445500365505113691296522436383111517634314570079954404173549893956618988735350317307378487635242452613634981888.000000 115293279700694478013124745102082953459901665502887506450916388433285579074373048258965533811516234868201031327727388525982646272.000000 0.000000
0.000000 0.000000 0.000000
-287519286094076603923607832626776670727855150867322408665548006379496854766935402816958664293110216727176991090013658437602246656.000000 -848600005464994627812127221911817939383824551341286651124371534119738431783221404186228580909964631419264070324769468936565555200.000000 0.000000
-848600005464994627812127221911817939383824551341286651124371534119738431783221404186228580909964631419264070324769468936565555200.000000 487360061759436250277375174626091008342835629440572987252533491822085724816325466256729393359217405010768786457261727195288567808.000000 0.000000
0.000000 0.000000 0.000000
-143694569384744775810837418694983302532383778332652134282025380912830135641348055028533322196020972961223987547575195398490292224.000000 894814490846066810539400574624879618744041268122161151739663897311232604187586110165105667401772649831697941000027068223876759552.000000 0.000000
894814490846066810539400574624879618744041268122161151739663897311232604187586110165105667401772649831697941000027068223876759552.000000 506938288598525244746777941303580761686568451938439934223595579736514888254819373690270428599100755049304331933898697226726670336.000000 0.000000
0.000000 0.000000 0.000000
358468670356564269077604609164440880112276255888571195796895683529127210122709670119408694917024791072540031666618581101244841984.000000 660354556898391841536343277958562963557367768382041226776807159682755264925158479846142517907120999673205904478911538483049791488.000000 0.000000
660354556898391841536343277958562963557367768382041226776807159682755264925158479846142517907120999673205904478911538483049791488.000000 326288357270753193188871070165256945816227252198940198846189732101110524779673401447579339924105018772147794234948532338652348416.000000 0.000000
0.000000 0.000000 0.000000
1005797869797817031002610235366558357488973422895227950716344102445892311760377372013850317858756863455846324695594378353642045440.000000 247390730766865880352026938750798379197724190817409784503401952568803076487803423305127520430974390270878325916351036632361598976.000000 0.000000
247390730766865880352026938750798379197724190817409784503401952568803076487803423305127520430974390270878325916351036632361598976.000000 41415873098037587150786177201520970867422858905266611743476971005162518061431506631378232698265046038613588690387191014105284608.000000 0.000000
0.000000 0.000000 0.000000
-281510862664872100792998796720295967947561538182331893473307983615719350689270081905131003999797087207281656956434144064180557185024.000000 -7382610512732423131145760163898196577101122903111559406482459826493052181488823800561556201295003182803922903098547063988556922880.000000 0.000000
-7382610512732423131145760163898196577101122903111559406482459826493052181488823800561556201295003182803922903098547063988556922880.000000 385484989406300890687080603710861040187380231628538598971558631689248073396999924309099603776194769264232891276840029332982202368.000000 0.000000
0.000000 0.000000 0.000000
1030162853867564526187824233877829257690896458123034185283566495323139107062827355885000398341702754443609247107794799165440.000000 231723763831376497788787743560719340509171250593462618373354363810325059137846042238946688783689980546573825029317517639680.000000 0.000000
231723763831376497788787743560719340509171250593462618373354363810325059137846042238946688783689980546573825029317517639680.000000 33641612593728781265859938448882685374854444781410800805912497480735193013059994350774919256881429219815921519874159935488.000000 0.000000
0.000000 0.000000 0.000000
3103094628458680743411859208999456958888546213171618226746350303922163649101842192079311440632162530366641992988906959683977216.000000 7316972225472758007224541869295387138818618801931302991417062581639984272215616129605989003864277587232723761994782279959838720.000000 0.000000
7316972225472758007224541869295387138818618801931302991417062581639984272215616129605989003864277587232723761994782279959838720.000000 3736684263266152283197159551016397624630133851497387632602879584675108801583606667432181695304428059184434755450708979175391232.000000 0.000000
0.000000 0.000000 0.000000
-187795530781666191390907709415991413750694666108147536332521765539379388507829691036333580876217688202005171538518156731482112000.000000 861458632071146528910401857412858060483288423418695318779767646030977833084829215601861504084424407903467455063150599610866597888.000000 0.000000
861458632071146528910401857412858060483288423418695318779767646030977833084829215601861504084424407903467455063150599610866597888.000000 490735230558763340225801633385728597086992015596479236570504873132645179370940695203919455628401585764504439708440221935957180416.000000 0.000000
0.000000 0.000000 0.000000
155175516702413628285056996744349327075604737912161040211715160077550600240558754696902299263464495991106426166672517457455874048.000000 204093622789260677321281776138043950280066771729020457320657894276143338767928854482898911204763712059565569171770183867357462528.000000 0.000000
204093622789260677321281776138043950280066771729020457320657894276143338767928854482898911204763712059565569171770183867357462528.000000 93936200869158678851536782730937721065422688587466478373063756621334292604522075632400667982349634653117112509669022726021447680.000000 0.000000
0.000000 0.000000 0.000000
-17065945378869210506940000052723036559686247326292310158565811241152616357499972344619118454778397285178529677115483835383712579584.000000 2220647754852835433011342096230812611233614903603558998873174781925087382322958633007284923013917015323715100630490620994598731776.000000 0.000000
2220647754852835433011342096230812611233614903603558998873174781925087382322958633007284923013917015323715100630490620994598731776.000000 528536298269731953589892667054605687817067072633434844171072587167365530125734355207153094314495650978454365087452103776852246528.000000 0.000000
0.000000 0.000000 0.000000
135665820953343421964271462252856427495642191171333222848791800081983785297241363933807331153931896285871051139543704573057171456.000000 113736591823988379433968208868133532678504063442676116734448587107093546347376103150513549714361135715318825337712732894119591936.000000 0.000000
113736591823988379433968208868133532678504063442676116734448587107093546347376103150513549714361135715318825337712732894119591936.000000 44467334535465591693099379110707641602084302537703421515948997873189613693094189588269373568734519071393954092546683554907553792.000000 0.000000
0.000000 0.000000 0.000000
-1629145465902873003502703706877470334626890725532429546152151663083610847073995779971024274735967649821352549218951994590984404992.000000 2138785758541151065026136859927553314491514521222537132984708031861688422241743626226685843973649046350230437892463319607297441792.000000 0.000000
2138785758541151065026136859927553314491514521222537132984708031861688422241743626226685843973649046350230437892463319607297441792.000000 1230859649347491053327919990199289061099795895026322914276171276989694495395953089976561605029182702145005189313328614716376875008.000000 0.000000
0.000000 0.000000 0.000000
-4235065459111235486251566259533800592997751259036086513272638391199038870379693836362890255923455924830203156890077283008181698560.000000 -1524808406392982494452788319232415723644299984241577503428688122774035545523925050586746279639264752837840914179255412386319826944.000000 0.000000
-1524808406392982494452788319232415723644299984241577503428688122774035545523925050586746279639264752837840914179255412386319826944.000000 697375698828690295192349529047283470060518399551245459516757670625211176192304023624603650564181302301160240111256667584066486272.000000 0.000000
0.000000 0.000000 0.000000
263166992893036594208779047993075985811585363116895635544512846716370111355202411146723358689931052739033930282057760439820877824.000000 -182977320463533384248877650091001107939969690812882744167333775909651954983528067463011892392774766424116541488560971024644964352.000000 0.000000
-182977320463533384248877650091001107939969690812882744167333775909651954983528067463011892392774766424116541488560971024644964352.000000 65011778438522750708492622071335395883636143267292662698555109236918292132024311645787010160040019219354565878572819709715021824.000000 0.000000
0.000000 0.000000 0.000000
1967101582057638275980081729380831275840437016111300917425257301942134322545787371620736489209800749746144797617648241989218467840.000000 -311250268640993638117164178165477913467585637981678101603723756293523967716589862404026099031713391571930854349407696515137273856.000000 0.000000
-311250268640993638117164178165477913467585637981678101603723756293523967716589862404026099031713391571930854349407696515137273856.000000 32485042659302441780666930683517526229116084075417402542834111745901874471170821547334907711139571941508980734179364598028697600.000000 0.000000
0.000000 0.000000 0.000000
-558050809581189863659100411013149719761552445782740867086916990918824625793179052465931859720101276206187780645897482837187100672.000000 1344998651898448586116532256333073631431823544273723447133598021757237745357978777609757443727702646705429930842401662444479971328.000000 0.000000
1344998651898448586116532256333073631431823544273723447133598021757237745357978777609757443727702646705429930842401662444479971328.000000 774341230288964173959214291215345584080579232491995044351239934859050625713606922923283862674306166422361785692598653466328432640.000000 0.000000
0.000000 0.000000 0.000000
-674342583872805883053004758501533575560338082677035542245912931546977741799979012226629595606157362993048768941866091318888890368.000000 223686980624987228774191566054264018269440090623056739087637094335590463040278671957665450945094187698710911576015679784438726656.000000 0.000000
223686980624987228774191566054264018269440090623056739087637094335590463040278671957665450945094187698710911576015679784438726656.000000 123399889704725776873951272168492318180037855352554593656329236906846890105664805475188687394905709213687178058939602066586206208.000000 0.000000
0.000000 0.000000 0.000000
-60343466816904272883788822346867183984958483452907802752087751468874612065915856940992440326882016551249270179722513280795672576.000000 -5048539958207730931733243987326535073322252210772520847736954248530493960888672703901905900605477935316838582280968348255649792.000000 0.000000
-5048539958207730931733243987326535073322252210772520847736954248530493960888672703901905900605477935316838582280968348255649792.000000 812836501837959072282102814024951148568182533699715484932409098567442670490918565452221551644523890614227736643597700601741312.000000 0.000000
0.000000 0.000000 0.000000
1742253351600672816293812338632796733912494258280564349651894063258540134201401571058232034323963094605575212822295611164730589184.000000 -2392861029511373397219446300781691304594600006147941092612218605409437670984716390626826499508949517402761239905219330292804747264.000000 0.000000
-2392861029511373397219446300781691304594600006147941092612218605409437670984716390626826499508949517402761239905219330292804747264.000000 1113466928683315875796328444455553249641252183111198648013865860868166684007049587179158070098982642196947285291138373414576717824.000000 0.000000
0.000000 0.000000 0.000000
-130074870740900651501037754615025475557243513781339517842934923263208615710288836714363184099105857566142699421213029640685223936.000000 -251080697521931830686237241601865453700609340926712581887679697535772593016568153680330464334427171687168733065492705905288937472.000000 0.000000
-251080697521931830686237241601865453700609340926712581887679697535772593016568153680330464334427171687168733065492705905288937472.000000 144943800674257447725952594367191446114503097568538360631784459010890525126877229788736936385929083743851023702130879901420486656.000000 0.000000
0.000000 0.000000 0.000000
8820438297534662524659435003360709167426791051242860482764363267610111793041782792834345631789008121489376784111957128087863296.000000 7230463688685441118593009355384594753051378794863322539639790368020459485850241984947163513183877828601675305498182306041430016.000000 0.000000
7230463688685441118593009355384594753051378794863322539639790368020459485850241984947163513183877828601675305498182306041430016.000000 2799440898191957202990925380819021573841299312507543582255915971686505848798614224680526622955338284562919791473989430892560384.000000 0.000000
0.000000 0.000000 0.000000
-1665281384134028326755307528814537284279419951042873816119736902510761548415002612666262463511630205836411902614779021467779596288.000000 -1038036115833635589264580748312126627202390293303424021404297354895324881597799673878521397355343251730779224348005232697925435392.000000 0.000000
-1038036115833635589264580748312126627202390293303424021404297354895324881597799673878521397355343251730779224348005232697925435392.000000 558140379276476448311928252195880647605322165767520674974534093619429771980834611839114249356448838458345142629141793645266993152.000000 0.000000
0.000000 0.000000 0.000000
455389736447045876968230623021143086094279012396335794149748461043038701945809960150799421239874662013924337401234391682668036096.000000 -525131623308557229009116280068060394615212174020164842216758410828750885066623419179415418155892616627595274172835740814801895424.000000 0.000000
-525131623308557229009116280068060394615212174020164842216758410828750885066623419179415418155892616627595274172835740814801895424.000000 232855341169929204079708724361271475666012389284235791790965757406912114698614848694391019993958836373385528371460988353619427328.000000 0.000000
0.000000 0.000000 0.000000
1367689668988883421978023524798513277761603199563782742088310823738561268755544589438251013038064345146766903450680291394179825664.000000 -479613815657992527924730160794019618047143202585892940171177375520403390077072150035103517865361397063948376605753078508609863680.000000 0.000000
-479613815657992527924730160794019618047143202585892940171177375520403390077072150035103517865361397063948376605753078508609863680.000000 104074493731244296008159622857365547427143494737288274561714559934674720743765398734078949900543741006959897137479019753602285568.000000 0.000000
0.000000 0.000000 0.000000
-189292122068162154683883235565290569548121991562313701348526734986373053480638869555259624229342975609696049673631009783133765632.000000 148168248921000971437880401033249192742867662763926693382627149244917770821271828287875899560739044576687814726588216710673727488.000000 0.000000
148168248921000971437880401033249192742867662763926693382627149244917770821271828287875899560739044576687814726588216710673727488.000000 79497211179142548272143500997232054990775007278989636050654207794669323135585235924990338609376511050553001479940213868087738368.000000 0.000000
0.000000 0.000000 0.000000
-549518518510849902687252774576310782111695759061301850564590220710777406137874510558896458838953587083986859626073930090669932544.000000 450804099785194911779240024397416193238655238353676338757261010164874211998335873026874740136331922470779329734002542721984626688.000000 0.000000
450804099785194911779240024397416193238655238353676338757261010164874211998335873026874740136331922470779329734002542721984626688.000000 252141261547156404706569879439236822659591344309248250103772170110822638033640591472302285943433349062033929955552489940581351424.000000 0.000000
0.000000 0.000000 0.000000
-268755489639773425011837796826312955786745225268812155581299205006371535681913790827937337788183052068155893061403037456570253312.000000 -874332057066276419134679222048272780085948176251400229431092959447060575601944145185849457159630276939998904978893287839993167872.000000 0.000000
-874332057066276419134679222048272780085948176251400229431092959447060575601944145185849457159630276939998904978893287839993167872.000000 500940695194517340619615120074664987033413660664038997402231547371128587026770303717078003192959854943422384016547220881705795584.000000 0.000000
0.000000 0.000000 0.000000
257146203367829320184573443881385972548405407623965836920072088559475607407144118888562182779384888483101382992999814153633792.000000 2740515432564374723247739245558923488739757858551275290281292803908953210919760832393643292652286873024011311051984193921744896.000000 0.000000
2740515432564374723247739245558923488739757858551275290281292803908953210919760832393643292652286873024011311051984193921744896.000000 1522925535826280714877200793333759099419617286775865737346222071657941465838698247357799070806713187368452507195915350933766144.000000 0.000000
0.000000 0.000000 0.000000
266840553022043526524118998145913721972343817657435651008131699858687320964261053641697861192859251162590145620653666143335088128.000000 -40560456552727370364116636737009737621561927427096919746532817886769397606047680822266610191449332877815972713702551552513802240.000000 0.000000
-40560456552727370364116636737009737621561927427096919746532817886769397606047680822266610191449332877815972713702551552513802240.000000 4082457749073136939295950828975560956825131858459416178994744902184201379783658105565125176588089036636920554222572261215305728.000000 0.000000
0.000000 0.000000 0.000000
-14763146983456376339131205298521972474307270913246435898228331049544131353261929608387322206981439251802639296101596318203379712.000000 -1439141788790691055077850004874277743858474316252446451622219222177190463769931806491650013284579875770326877764843309652508672.000000 0.000000
-1439141788790691055077850004874277743858474316252446451622219222177190463769931806491650013284579875770326877764843309652508672.000000 273647392524136943656429421031542830264832725447585405736425288598245996441372991062896106348436510045921429953636989482827776.000000 0.000000
0.000000 0.000000 0.000000
373628410255405697343911432166406871462567578593152012759142583941936079431687250017873065944738795454137048225142374698919657472.000000 16975581417062847335488069791652082961755716202302533374112226634558773713129891245121535772661421000509908549267042383526100992.000000 0.000000
16975581417062847335488069791652082961755716202302533374112226634558773713129891245121535772661421000509908549267042383526100992.000000 867042016664319770421301343888961190137670974752371997140221718364180429088650682461570057447346655038650083440974108332916736.000000 0.000000
0.000000 0.000000 0.000000
-3355583889821100479201856366172764952895244609151373472468699526026419960758345554625178147944551490553093194800399485159341962559488.000000 29353844529682397238522403799956747483666062652268467758175449280404277374006974112408457405354674306220543353256350413446352732160.000000 0.000000
29353844529682397238522403799956747483666062652268467758175449280404277374006974112408457405354674306220543353256350413446352732160.000000 513162989941394694873585745077682097107775233387691940176279328819705040291315728721425789623205024146345245201466657135516450816.000000 0.000000
0.000000 0.000000 0.000000
154886743463700361423852000249784332228314930022678162556728714777338040479695830981011262055562117291385002729521908270256619520.000000 267730054153991177210606877037183192676672247456615455687700062086461789964405126353758839049081857772277061940155475867201437696.000000 0.000000
267730054153991177210606877037183192676672247456615455687700062086461789964405126353758839049081857772277061940155475867201437696.000000 140393052247522946039296815699328126074141474279085658380653935574551794155627884306513770901745584080403876205316255983563964416.000000 0.000000
0.000000 0.000000 0.000000
-35396701071142094026022852866981091261928427814127723342954208562528761424412673757808111845177785735953560419820165255896967938048.000000 -2279405695098797276560942952083091000176262260229901698851535999433363247748345062854994155594515629007527982542083610684977840128.000000 0.000000
-2279405695098797276560942952083091000176262260229901698851535999433363247748345062854994155594515629007527982542083610684977840128.000000 286459339365389238786059966137634928061524887439595669938355374056235794088224511548030430372934950060764228067408164316623405056.000000 0.000000
0.000000 0.000000 0.000000
-168632897320796996240320889437806188852482790432845108490858576066073071743103509021992185993023475799125023603116515890659338485760.000000 2574259461611118326600422351005578063309838141692384123104066508593380865426186398500082027657233559634172617175820715750850560000.000000 0.000000
2574259461611118326600422351005578063309838141692384123104066508593380865426186398500082027657233559634172617175820715750850560000.000000 78457367982960295043245610918460369903473050081926343884766605918341713309661495287180711386273415464027184285140210042340900864.000000 0.000000
0.000000 0.000000 0.000000
1630094804483866185957690533790634428661709267893936216781568162214567653139109179527695227514014401380309957561237628956906094592.000000 488148708371990305996781175232935648967346304054117789487757500349395711918642953987824311389108852553464878128927027531318558720.000000 0.000000
488148708371990305996781175232935648967346304054117789487757500349395711918642953987824311389108852553464878128927027531318558720.000000 91961474957988105499628671957983818452799662473539680392314886224143230609692057128951502741440069881915057238537071124927217664.000000 0.000000
0.000000 0.000000 0.000000
193265860368629749505565967960030067394987903679841123389546496220040557282308467797963504762724869465935338623924901416074739712.000000 504606068113061932870155239516853647799178871553817979516214542373063981519552043434853159211876264122661378253985149463069458432.000000 0.000000
504606068113061932870155239516853647799178871553817979516214542373063981519552043434853159211876264122661378253985149463069458432.000000 260333688708250261801480010732338538759860301660966979643178196614094352006511317875496868495247295487211910901966003530199203840.000000 0.000000
0.000000 0.000000 0.000000
-819112799870090084464845260651713224979604964495921728566060309969168431097257570200496909576761083379499259748636276768829865984.000000 -989411616224012081729827803689735319109174146677960052106621298205453012909851453806155620403408744488595199176269747978307108864.000000 0.000000
-989411616224012081729827803689735319109174146677960052106621298205453012909851453806155620403408744488595199176269747978307108864.000000 572662948184970379783215311457280293996159985101727585244511471710156565114783165707853331376496662135060385471152052500850278400.000000 0.000000
0.000000 0.000000 0.000000
322923979910268673902643381164864535137702655565512983949851302693409902684947760893582193881680383261664217544220208516825088.000000 -1150695159084669668010876813374413641644074520372617379285354310487905392258579606198064866834937902880442670201630239343247360.000000 0.000000
-1150695159084669668010876813374413641644074520372617379285354310487905392258579606198064866834937902880442670201630239343247360.000000 608390429496190245893258417966403100016016734218916983669748501115060040098624008452609504939645894305190721799565380033708032.000000 0.000000
0.000000 0.000000 0.000000
645088133056500670525384053203312771461787857325756143126720932222203254616977934946208622132224008535740040847640697718358147072.000000 -205482096309473179931741864832528913402434459503691308226526643169313275054172203283570395847372951085912415311638759121535107072.000000 0.000000
-205482096309473179931741864832528913402434459503691308226526643169313275054172203283570395847372951085912415311638759121535107072.000000 40941527637914751388433394369391655773444314859298301843899111397631145957272546981936177818187100304310468763013820095154618368.000000 0.000000
0.000000 0.000000 0.000000
-188154015705188550814991989229501146549489007719380574517197901279559035987576560062193027733995324060175888672576835333304352768.000000 84209966568083240763696016004599042501764340418025390572564126216010959808990507485769749968803083598442721346453181348634951680.000000 0.000000
84209966568083240763696016004599042501764340418025390572564126216010959808990507485769749968803083598442721346453181348634951680.000000 42517333640906920494151645944378555569338495051341029119259985803673342428618256748117856323887474365854559260627955668591050752.000000 0.000000
0.000000 0.000000 0.000000
228341997360123343280714317293951960884638809923561791343654623409327572198626436507055333254378152486549760658842088855023124480.000000 325206605886189625734591813845059976052131021091642557543609421653283228014772166785019445337427280262587205000951199479780868096.000000 0.000000
325206605886189625734591813845059976052131021091642557543609421653283228014772166785019445337427280262587205000951199479780868096.000000 155068941597310143237586723526131633870764783273384453291413193405256137489323240469778614056018468794245931286463711258234322944.000000 0.000000
0.000000 0.000000 0.000000
-98117087905970329653951906917107299367235217307315830646156496623343285901882054706629265681303067414825850984312666986098196480.000000 -809606443598102131879397239194141858897925942768779351695529724340873273603330548152518899672646078438139582794806350611335872512.000000 0.000000
-809606443598102131879397239194141858897925942768779351695529724340873273603330548152518899672646078438139582794806350611335872512.000000 462932359467167659373857037735312458535339662953598663019853195376936895819891612524298210406865449544889858526110907791904342016.000000 0.000000
0.000000 0.000000 0.000000
127664904474138081546886439628576956190787156173957560407145670064503596556712234152609050798972343230777785547110059704447926272.000000 587972806918283282919850408690134031925384040718139821889719033503160900242022379901480843303862324428964862069337533667772203008.000000 0.000000
587972806918283282919850408690134031925384040718139821889719033503160900242022379901480843303862324428964862069337533667772203008.000000 316361902932738434099224300734632620855184757353698451354435007048445196025937571550902018107408154982539053438708522175208357888.000000 0.000000
0.000000 0.000000 0.000000
5828625922942158182178068671877047173765450213501227189153692717747638436391785869048790834748555952472206814933007875826515968.000000 6940103169325056941570391927610633855478569235553123465446585182724409248248596932176127099934438311533177510221109134276689920.000000 0.000000
6940103169325056941570391927610633855478569235553123465446585182724409248248596932176127099934438311533177510221109134276689920.000000 3110038290949302948094721833748992342231462732036978025766661761997894660055894146299783321691327218873722931222993718579560448.000000 0.000000
0.000000 0.000000 0.000000
7398103048148273578481855474611237835511998588804262666197164870076533606388980662856305997059684957297711427484150866260925612032.000000 713190704220204048126355074291266132603711356900962364021820593874057993429575400048228753130412973722562872359600745197202309120.000000 0.000000
713190704220204048126355074291266132603711356900962364021820593874057993429575400048228753130412973722562872359600745197202309120.000000 46038741336688987333040049534391903279926080103158114168294525323559787521115311096119925143153111120269277166119655645225418752.000000 0.000000
0.000000 0.000000 0.000000
-924028501636869255378944876762060209765251891930624340194374288053866703466854509682171909683578570064025680112338633132473319424.000000 2062529902351935703400109788369666783716936790670255228284385563151532003672198281275748706652411976042599309930952526303789580288.000000 0.000000
2062529902351935703400109788369666783716936790670255228284385563151532003672198281275748706652411976042599309930952526303789580288.000000 1186476011991820829110087880531098088159689288049583497209819111101507724630047431405010500127055831410672523928450257387989762048.000000 0.000000
0.000000 0.000000 0.000000
403730457606438266952018059848178697118535666166247934921394656838046683329740165109321575207054624466880130081776880200974336.000000 282411848103397137753847057210853598643946118185926639531342180392040641320504086387799325760733885476802001910207380512047104.000000 0.000000
282411848103397137753847057210853598643946118185926639531342180392040641320504086387799325760733885476802001910207380512047104.000000 102456314973315921944824228127884563456249783935505289815404454478753020439213327906799037824818146158101986785497799611908096.000000 0.000000
0.000000 0.000000 0.000000
850092000871651290117174527114119203174305465484733380859043295611089767046762523798445325811496299276793234982599601159101480960.000000 -92849543173059537607057362833696234708443183526559218961550150772180128150898193133122971290128669281743165704039889289732947968.000000 0.000000
-92849543173059537607057362833696234708443183526559218961550150772180128150898193133122971290128669281743165704039889289732947968.000000 9017018644614187964394708232731153023080301826031263312071893081678949907460038941803385706898641503861562119115200204986384384.000000 0.000000
0.000000 0.000000 0.000000
63334740258218928948747260690487775520561787183600378219540126424957432069470339177547827850253082134400192327768827349813952512.000000 502757960201653963792163522413931952337832902882527820780267049673537965023908762359991972294331158087560398327019130954891395072.000000 0.000000
502757960201653963792163522413931952337832902882527820780267049673537965023908762359991972294331158087560398327019130954891395072.000000 276097268427380504259785950547065699945766517288903298509742575801538827959219698401111226009439246334980270120292199777282555904.000000 0.000000
0.000000 0.000000 0.000000
512079719668936493236948818595523540363449496507056678922219630745459924048010397862577833574018564784860482028387694208780075008.000000 245757178684466930921231489732654590800571556565381994167592640526911173119420179091312689838619791038451849863544441464328028160.000000 0.000000
245757178684466930921231489732654590800571556565381994167592640526911173119420179091312689838619791038451849863544441464328028160.000000 69501906176456698339724328878125100882410184325494862812103632342356381658334931440747281967473525121193361560991913675912642560.000000 0.000000
0.000000 0.000000 0.000000
-584778916372794173719435697969626720435134509627407258854192347657928825916141087585256252222734817318502114482201946053194809344.000000 -321924115664404941268992264429503105092951060527615834197990780622152392218247097781620021008634446309484040827890043734324150272.000000 0.000000
-321924115664404941268992264429503105092951060527615834197990780622152392218247097781620021008634446309484040827890043734324150272.000000 167481603525162131477402506066321766341357952547123364691167108230284556695211967554689878471526115865316057886233507505106845696.000000 0.000000
0.000000 0.000000 0.000000
-2473741413783279344871968589659854416729168815082712354928286216981755358382741022752686144652997702342648146670747594291031310336.000000 -892325594033679106417889366968402307037297837264121111349658017730513943057365328063728512104687079600517524762156491249817747456.000000 0.000000
-892325594033679106417889366968402307037297837264121111349658017730513943057365328063728512104687079600517524762156491249817747456.000000 409282584414885388710094398832410995643134442351365305717254863614049459337742482665878985106922412502186208505046158172439445504.000000 0.000000
0.000000 0.000000 0.000000
-18580523834477849916603040053148394889596469145404930287776236650624129088334404108628557746487889340500154789299457095731511296.000000 -1464364389615274468162665696957942434443607828431577226824001432515187459710281585743942787258391225416427898444667839196430336.000000 0.000000
-1464364389615274468162665696957942434443607828431577226824001432515187459710281585743942787258391225416427898444667839196430336.000000 227965685313407896197984564882457333794858590766984656155474058410927414332737485693908184000581414916480065688411353615695872.000000 0.000000
0.000000 0.000000 0.000000
-21208901339533492271167475227254388758348227447623698610048476642005328565183454805560510005016045019222660999680601098104602624.000000 121875932000412001719228965074428648378570046632419537133782180491432203774278685053232456443279638518278708988577599565055655936.000000 0.000000
121875932000412001719228965074428648378570046632419537133782180491432203774278685053232456443279638518278708988577599565055655936.000000 76521142942383981601075750040343355934793910574278432131412254608575257218287532517616892492349832531747912809470180785433608192.000000 0.000000
0.000000 0.000000 0.000000
2320988451124080106105561160860805330741757495394339589488691987470148251340533259711939898123235164611443635049637764347044298752.000000 9927905132114662412122362467107545612725230939205906117824302313430029222924019472219322128004210125453625725383685125586288640.000000 0.000000
9927905132114662412122362467107545612725230939205906117824302313430029222924019472219322128004210125453625725383685125586288640.000000 327268230068544800629508114761270129000804310908239818256490296527718066892551846205585532484153328886431184736539342398291968.000000 0.000000
0.000000 0.000000 0.000000
1102046700654699703794097957315655676812736731773367993211405984332257717748822656721953731830315115918760751405439650210250752.000000 -1849537421371987796511306205589098482620971411246004199487952425305421448790584060546001688868709004974057678127381629034823680.000000 0.000000
-1849537421371987796511306205589098482620971411246004199487952425305421448790584060546001688868709004974057678127381629034823680.000000 941054444167906320320173830634038461857259243886407203595965391654874676395449277458324723513743704719767526498512014158069760.000000 0.000000
0.000000 0.000000 0.000000
252297928038163877359320993019761918691359843484783069747088401636810445169791987807451611020896012674041500114666836639757631488.000000 -516495645476754630062212275441926401379342724575187152634642597822851875200141243932768703043546197020285494739508370722697248768.000000 0.000000
-516495645476754630062212275441926401379342724575187152634642597822851875200141243932768703043546197020285494739508370722697248768.000000 258987313482380045836117571672455222165063593263967156814339647022447844844994761952867734154440366098904050954132568889553321984.000000 0.000000
0.000000 0.000000 0.000000
222400316428199577540610722882601760770340522942505349688221242104095032144274543075351005157042770741594484339570711186255118336.000000 105638291212340483295058866476423106677428268867411486541380246259540735068469095938666187460027879507908930935541751294554275840.000000 0.000000
105638291212340483295058866476423106677428268867411486541380246259540735068469095938666187460027879507908930935541751294554275840.000000 33560779647379876942458709356575879648262081854043004986061205304876194616807606459299096810995290722270300941899237234915147776.000000 0.000000
0.000000 0.000000 0.000000
535131083409258796302777608728459320675940258230557737086639345690961424737199721293975807289391583584528269044339515830032138240.000000 -431854610122856479762153686385001526056142478144216923498478782576732991359857467280250000404547526571578510417708597716176601088.000000 0.000000
-431854610122856479762153686385001526056142478144216923498478782576732991359857467280250000404547526571578510417708597716176601088.000000 176834269840136361144269080088537200307896217411594024212871602737520828454038357043887888330929122766098956898779494512798466048.000000 0.000000
0.000000 0.000000 0.000000
687343482098748564870309363926212395092488665526639840908687484794970248537472216696481627702751663765339331918541816101567725568.000000 -242340515139716764322097983083427790058233251079666770331694466620477957717215901336598976877815636832906348456165823363323789312.000000 0.000000
-242340515139716764322097983083427790058233251079666770331694466620477957717215901336598976877815636832906348456165823363323789312.000000 52712067447350068830700101065958052747064966146580364629404487343949717042540986407033337107158641347913981182559432723010682880.000000 0.000000
0.000000 0.000000 0.000000
1425150313395793042276741063911346999429946315697687602379728085480347559465060665599996807487446114932582980661075439706439680.000000 1048848787718592349922987147205089267377967709249053596372717093517454222693486808959275958600623753289718166926608202289119232.000000 0.000000
1048848787718592349922987147205089267377967709249053596372717093517454222693486808959275958600623753289718166926608202289119232.000000 385317601456123650089221468598497547110789910358958528949971774414374343873152147730146865365847631572688005722731292827582464.000000 0.000000
0.000000 0.000000 0.000000
912153360309496968709104354032510573007598796517076392323547211596813158032487906251165703059996135204829456501918290438564872192.000000 -1082360400228794427299248894833911578324107985953648462385345910420939051093696292220369772404481094373516661517697779229263921152.000000 0.000000
-1082360400228794427299248894833911578324107985953648462385345910420939051093696292220369772404481094373516661517697779229263921152.000000 474452189990261124973099274264505280070863637016449462260582853738708511355234316224706896402304601334605058311054916133811388416.000000 0.000000
0.000000 0.000000 0.000000
-14070369988110283923015132814892617522094834133854007626082734727156289188722569820257011132526702852898323098970688067949559808.000000 -378604121330255295186214131903961140257379832528650606142082723995610095543801533028981895621891956572725690188343053995999232.000000 0.000000
-378604121330255295186214131903961140257379832528650606142082723995610095543801533028981895621891956572725690188343053995999232.000000 54457502641014973064887356106146886976709907662326820083153896203727720123498633638286964931897661408602210651503448666669056.000000 0.000000
0.000000 0.000000 0.000000
-93976589080529158182906298695236814280909236563254017643570284260573067517567041611191650656172134243842454778248293408568825085952.000000 4626793434129402414184520742742831860555730166647452891010736291886438898641944823058591629772245902471877811347560317537658863616.000000 0.000000
4626793434129402414184520742742831860555730166647452891010736291886438898641944823058591629772245902471877811347560317537658863616.000000 449088425261421873878182716357596436012771067852402736627330576379411592761058733655132274393798677413598917158437842884518477824.000000 0.000000
0.000000 0.000000 0.000000
3502149757476663889663117433707796442287314008039840273698489224727137083569259752615529545394391568219089231251087178574239629312.000000 3280740196823598209634132282060961398902918287727343966636416877239378337957702402658521202594911487157022048921808030499011035136.000000 0.000000
3280740196823598209634132282060961398902918287727343966636416877239378337957702402658521202594911487157022048921808030499011035136.000000 1348994974109961099296314533250974099872256443719061643758715755070390025875820493078404915647860974704312301126550165979551236096.000000 0.000000
0.000000 0.000000 0.000000
-5635992494569072337535621883850729104464508573516810055305234104540120731567568109950795071618763874094436892108521279569895882752.000000 1709401306468910899473653094274443822582444548095214004559519014695069727918152692311835624644656511156696779707185246936368152576.000000 0.000000
1709401306468910899473653094274443822582444548095214004559519014695069727918152692311835624644656511156696779707185246936368152576.000000 723435497100739541002843604722056185097909047208388800268793551706946818582326350057930337398237175826852424627477080432443392000.000000 0.000000
0.000000 0.000000 0.000000
1771355926664495725835860406847869905480211354005624452734954341784426937163668681799475098800784578472004690925586946809133006848.000000 -950820174376725361588621013922729861885713865033051622649101687120288517340602427150005459182118799321469238274982000709471305728.000000 0.000000
-950820174376725361588621013922729861885713865033051622649101687120288517340602427150005459182118799321469238274982000709471305728.000000 286648825527224380310402772210543859161253633021303602581567805449840455686262207431366835812033520487084338807987814686294802432.000000 0.000000
0.000000 0.000000 0.000000
4586070791512454759923405860366805445805404803547239150713657373737887410162108574426788580701883092311813380038157408814296465408.000000 3653270001267913601201053989135711685280562395185547933248235238288593885378256477589362916256534447416864554734964518916565499904.000000 0.000000
3653270001267913601201053989135711685280562395185547933248235238288593885378256477589362916256534447416864554734964518916565499904.000000 1396478233126705138473381545398749849294883379382606247930526547645103820200940143969787772813530493127030319434557009483643486208.000000 0.000000
0.000000 0.000000 0.000000
47948324613681081086926726615141459027981757756076594587009610168018321756681918961381207702390626896590756370862183971679109120.000000 -185770470936167889334494174363264819633301961923346970186961394538824171923755150889175919298837976442446366964804530852945985536.000000 0.000000
-185770470936167889334494174363264819633301961923346970186961394538824171923755150889175919298837976442446366964804530852945985536.000000 98717469143092367681604362822685127258968878709434702332755808287852899301111192647470630900188912387307310934633856122165919744.000000 0.000000
0.000000 0.000000 0.000000
-89174109013321601063809897059170671209280592385601222131554716870032479108434418462488866700231017579188815286096619326775754752.000000 395085133696131150634482430780700515992715465568554022218717484005546217563059500077172187364151246050743532414764658048320405504.000000 0.000000
395085133696131150634482430780700515992715465568554022218717484005546217563059500077172187364151246050743532414764658048320405504.000000 226878646420686134273040225813881693947773951612746452381557274193821678176297904778059136260439538611668458182222930553998409728.000000 0.000000
0.000000 0.000000 0.000000
-283392018477857270761069981837433106408288940680676826311237646602172416393343396421767993811324207971496650250983655510389030912.000000 -365983626656649435615028248233605192573929491162583134087792804608039434256707534563820234944491028394158788553198486754095529984.000000 0.000000
-365983626656649435615028248233605192573929491162583134087792804608039434256707534563820234944491028394158788553198486754095529984.000000 210502272278555596611316941974854657404846864716533290845260272928392966555221206063822035198677950467892982184637866449529995264.000000 0.000000
0.000000 0.000000 0.000000
-1572554209729790149301397969972194666625611633561021589824801337796523934600774673019138708863435937764493858662442905634785024016384.000000 -25761084768490469193573437555789237058831762238395512115374891253744580330230324628064024004714874633083088147943096472459125194752.000000 0.000000
-25761084768490469193573437555789237058831762238395512115374891253744580330230324628064024004714874633083088147943096472459125194752.000000 842476925041091315692941515565397145895874648769673578423098839691909592250752112782188335996900794364603598507850617615175122944.000000 0.000000
0.000000 0.000000 0.000000
32771813520173505452097583485807908789100771982999559499422413083329727299828407092285984145668703165070877621834857727175688192.000000 670039274967025582679288094928198243706724047451226448340415169652438471265400043964562887728918031499391147618314930694050021376.000000 0.000000
670039274967025582679288094928198243706724047451226448340415169652438471265400043964562887728918031499391147618314930694050021376.000000 369978107963115719210057422553392238902132183378495919716797649852428970054751552151926880184590598809194886012184966962777948160.000000 0.000000
0.000000 0.000000 0.000000
335977317864946951445636868841642632139503164360511891776560356667420435122489378562674965622574158211437709610675776008486912000.000000 -131536939573065471215838025070065287719852589427927011049046999235647623003923288365276290359244853139560488223132908894277337088.000000 0.000000
-131536939573065471215838025070065287719852589427927011049046999235647623003923288365276290359244853139560488223132908894277337088.000000 31294032381257099293638293697945214230031741477143608385189461567622298460743431424245854703728710568958505229801378527460720640.000000 0.000000
0.000000 0.000000 0.000000
2103656234227775756994403931283654335857356791276854082120132022490140197702473818021555677231645864263969544709072412966394003456.000000 3627601669899349938510318890093544978977662031323633450490649726918579657010185625175557277141941905166266664052661104123465170944.000000 0.000000
3627601669899349938510318890093544978977662031323633450490649726918579657010185625175557277141941905166266664052661104123465170944.000000 1778626878137687275305961191837486621778389325567241390385449667683066897575726028697823301577151032952283865408044744807205044224.000000 0.000000
0.000000 0.000000 0.000000
-183683690873723366466425712193317516739442157133336745841441705466595967452631276092050781624561071756255744016976041713074176.000000 -234475120992078097890871045644164404749032821726341126058388959264142614225652771429680385193400028927937124546080136667070464.000000 0.000000
-234475120992078097890871045644164404749032821726341126058388959264142614225652771429680385193400028927937124546080136667070464.000000 148765442243175392313700310556935670234865710745558595875706881616036589720868029002248557869612041881733231744560731246297088.000000 0.000000
0.000000 0.000000 0.000000
233054105397201760959544247452718606083200288136078434704339079162553358710764070112414474362149799567623855091018745060763107328.000000 416690937671154585788198690058915404491913435325169193827841352833289826881449303163492146082997488074400231589847843970465398784.000000 0.000000
416690937671154585788198690058915404491913435325169193827841352833289826881449303163492146082997488074400231589847843970465398784.000000 204723168917472507958425241211794568702789216725946302992930191992081466378836114659324373358762369472893880484549473967999549440.000000 0.000000
0.000000 0.000000 0.000000
-112391288241773963976421906980659357278940241286951404650273599793987187944208025037115388082747559988492243410681991753984114688.000000 -212955507586747289665455629013934974675316574127493142476032406070855795183076919686591855108408458378735377811722188930607480832.000000 0.000000
-212955507586747289665455629013934974675316574127493142476032406070855795183076919686591855108408458378735377811722188930607480832.000000 128734852659206396768954207615042516511607421211391237118346724905465955896593514893776444668681688182635157175839117818351058944.000000 0.000000
0.000000 0.000000 0.000000
-67651941118233593367234255496902669034283123862628020095925870256177832147941467754283032728170971130191017621053746539902533632.000000 1273888359186703939675389534037847202357333134311567876763344694063152785648616656462339012787988021474475948163247106654713413632.000000 0.000000
1273888359186703939675389534037847202357333134311567876763344694063152785648616656462339012787988021474475948163247106654713413632.000000 718376937725107411795307244701148615213477834897493018461785235908542103531714976782002321198125395599084153009602878437465260032.000000 0.000000
0.000000 0.000000 0.000000
-103990132794412346536876555742865154896315570668657399405304216297158127644912888479915631614582264078227682822317587950720778240.000000 169393343005159716806191691626850213328734856612536597507215926592569424644806225437988763981050949347747001353119753763358244864.000000 0.000000
169393343005159716806191691626850213328734856612536597507215926592569424644806225437988763981050949347747001353119753763358244864.000000 104009350559549150307524395558406156515180951646575636687143178827316492924286546160037569375455764184887005554417135392034652160.000000 0.000000
0.000000 0.000000 0.000000
-48912922857122909601188142440708335524688923027240630420764659487736052012717728373485060132436531065771723551326042793344761856.000000 -18713392328700986315681598911743099117804443251423681760109215930250307581532320588221742964159250228174870338550515988139343872.000000 0.000000
-18713392328700986315681598911743099117804443251423681760109215930250307581532320588221742964159250228174870338550515988139343872.000000 8993127102477606312950145646948229310703954941207087588559510196008007078526267615965977157230507841056205941964246289863409664.000000 0.000000
0.000000 0.000000 0.000000
199566632987256028030346192637047840640542366820516706754964795899109520957439792336152492995605735457111563631313745518828453888.000000 -728409096448930750054915844963476522213930159983304939939759453814208930675805327981925485612264292900414626328550394957209272320.000000 0.000000
-728409096448930750054915844963476522213930159983304939939759453814208930675805327981925485612264292900414626328550394957209272320.000000 385501183351075510789578306740767950561589083810307184692977557439882921148054586242352990025025939465481617023817246199871700992.000000 0.000000
0.000000 0.000000 0.000000
-411942290892668967438600356404508618912088016801994837477198790433139403374251057155030500811004142358385800188420362426384384.000000 3477445216151660838125845641869625198010449266975453823685474989149270464286632243910326605871354952550160682811874918203916288.000000 0.000000
3477445216151660838125845641869625198010449266975453823685474989149270464286632243910326605871354952550160682811874918203916288.000000 1964449681055484750854841878396300864665447459716825474295879164470686559332309055110604420842318423065409547583695435444781056.000000 0.000000
0.000000 0.000000 0.000000
354261679164637500939478970601373706128985175618603219262978556945161139498497794477404160899285907488231670343771855671460364288.000000 107842451533487625562747674831707694610457390122247512903972690649188154275382235901039080290173701652340104949253402890432675840.000000 0.000000
107842451533487625562747674831707694610457390122247512903972690649188154275382235901039080290173701652340104949253402890432675840.000000 20634770907981709306568029134248919806294736684353110057851155170755677696723764621086417941833517012164188877870655123480379392.000000 0.000000
0.000000 0.000000 0.000000
25631732617575003461428785613647397282391603830801318266251863771235292667340257591904582380022924937025080950645002376052736.000000 81910321075729369001086952501470059126032577284014970039904349206987653023156769927927087484904362432465680657562071033970688.000000 0.000000
81910321075729369001086952501470059126032577284014970039904349206987653023156769927927087484904362432465680657562071033970688.000000 104849701084864144574412993309185011045614858139213023988662301180963063870550899744723054788557320532090830989993316928454656.000000 0.000000
0.000000 0.000000 0.000000
103335061513011911520687162779107204724444153795830769467150555170647180680159784253673024926121338767818520289805472092687171584.000000 -93919294496924731891413451462226796170078331216971542726381359330816511551020980374766742567806727461402296499453164863960907776.000000 0.000000
-93919294496924731891413451462226796170078331216971542726381359330816511551020980374766742567806727461402296499453164863960907776.000000 39503695905720253960699765184458241123591593908054040883932169174555055692989145511530850031346480461082055708358261754424197120.000000 0.000000
0.000000 0.000000 0.000000
-1490135036994747294517765644825570882822902140233841404696956855031993723055466359964898465124993854168992899648798204896720453632.000000 -1130705932971873285981887111847072096782340314473872376500523667469428054468356708844467744787102475438947519989450323385609355264.000000 0.000000
-1130705932971873285981887111847072096782340314473872376500523667469428054468356708844467744787102475438947519989450323385609355264.000000 627839302792119664391766087321547052861505518647115079094505678556743903332673279788353049753633494823710227218620985901659979776.000000 0.000000
0.000000 0.000000 0.000000
510357104242041304689528737784055142383197321625098450250284158140381546156698393745483617967350452728860521315035967831440097280.000000 -20438858051991182996394083827444696162292123446684085186000137484122451975678961766206752090997713098328310731377964406710206464.000000 0.000000
-20438858051991182996394083827444696162292123446684085186000137484122451975678961766206752090997713098328310731377964406710206464.000000 1413714636557019985412704208104881357181201037304059415327216782454479614024752149684175271513435942429514500461460609958936576.000000 0.000000
0.000000 0.000000 0.000000
185801251174665486436982872667523763440983327891682082391612818323090134661221274734289364284078389117702931787679188016340926464.000000 -129164462737289831010218212965747598085289434428640066400709988416186723652716228595008613458222579766418475426589261324902989824.000000 0.000000
-129164462737289831010218212965747598085289434428640066400709988416186723652716228595008613458222579766418475426589261324902989824.000000 45798933068744616615354776504381663904432650191832140066141996501165605815534752418130255843406310979064920251419753655780245504.000000 0.000000
0.000000 0.000000 0.000000
-27701725403540403771213239628338034015507215844985930732173291545441635230539132064628670923911348281539131371959404717311787008.000000 -3786276206834187351831856151685462585769421998883463561406368336451076420518494825097645777309411310490159419191943127436886016.000000 0.000000
-3786276206834187351831856151685462585769421998883463561406368336451076420518494825097645777309411310490159419191943127436886016.000000 968065709732103167874276208553051519428015819516582609504491197172264437805609652152392685656424704359680298987252740509401088.000000 0.000000
0.000000 0.000000 0.000000
12678937667713227753297325548619890826675003653923955838544850106894742154948804381801739956296189737118646985431993513450405888.000000 -646988236398494003179705014421684934904022750796118120206347405589600990489222896372382774549260628509035064977503233497882427392.000000 0.000000
-646988236398494003179705014421684934904022750796118120206347405589600990489222896372382774549260628509035064977503233497882427392.000000 358814100658783859578570480864933994344557397971855819406017878713058771255427799644774274851022866060371846117415277706038214656.000000 0.000000
0.000000 0.000000 0.000000
-889610616397901002672850589701998322957994650099635685605163154215043541336548228800244823897985497011428523644854090847238488064.000000 -1192391399344479011826655965636921370795862814860785187410629282483036915830868052515139169933287886558066235300828400715447664640.000000 0.000000
-1192391399344479011826655965636921370795862814860785187410629282483036915830868052515139169933287886558066235300828400715447664640.000000 686644662708037482889113740536518092355311156382134819321761006086782703156584449485341187035145594306748208174695301591615930368.000000 0.000000
0.000000 0.000000 0.000000
767032064418315541125652333739770220814139753790680950936123312284384975939226172893868337813102295875213336566764633337110724608.000000 -564089920246790276597814006997604605223435293239228793562094380287746754307107917263800684102429031709217319902149496009192898560.000000 0.000000
-564089920246790276597814006997604605223435293239228793562094380287746754307107917263800684102429031709217319902149496009192898560.000000 206616035165883495154908993835239542899430054063040556784901218338623456857174351156554332057188417785509420004480889936194568192.000000 0.000000
0.000000 0.000000 0.000000
54352724180499485163969123952130863197687831009851004330527826749546084009135120017241527442056736477792267127775265727740641280.000000 -209571872087911184274952163857305994679280899777148333438679985250859235878876307819265792610006371734725802935549671715400318976.000000 0.000000
-209571872087911184274952163857305994679280899777148333438679985250859235878876307819265792610006371734725802935549671715400318976.000000 111202747561218875627394385188063812501547725746060699327594963672444399286547651272570237343823615470638844869793664807135608832.000000 0.000000
0.000000 0.000000 0.000000
369556121732125135318494627418777777854111936205966826948212095238371069156665771422208732661382037966752421596212998919629570048.000000 397890429116783312601036184821821785805313476411182013315208708376536726376693421899312231791803001984311020218007092449035419648.000000 0.000000
397890429116783312601036184821821785805313476411182013315208708376536726376693421899312231791803001984311020218007092449035419648.000000 172344755726899852678766320429803326497599895292221102218783078147527199794607387838321846889467329503273281360541312923755085824.000000 0.000000
0.000000 0.000000 0.000000
2109205482133075668407991253453594571453972900005604142144836541605092195177829410034528332353241843121066824458832657724932620288.000000 -313128416542646996741256783125530113112771072954589746858669815944259022362775775229196759166129698743319305245480959187085164544.000000 0.000000
-313128416542646996741256783125530113112771072954589746858669815944259022362775775229196759166129698743319305245480959187085164544.000000 31243362599789815007367675294187852453460786239844729385469968417080662287859088508947618201845137729441763374325529185001406464.000000 0.000000
0.000000 0.000000 0.000000
133180426204530827094063266435759748898881311236366997815306621723654316988443206310811247739431297515820241403237970532437590016.000000 164158665971114550345984798945897312481574229968195847976333129474802505293981727134541222303569455064469716487794565093756239872.000000 0.000000
164158665971114550345984798945897312481574229968195847976333129474802505293981727134541222303569455064469716487794565093756239872.000000 74243576555074159262709006610135524671412605124619466872015800998775706870607986097227314982658833700148747294263119813118263296.000000 0.000000
0.000000 0.000000 0.000000
-523551198913013975448647539011669683070847734502857329312806541192613683011505163872904700730494694382634370008879999691522048.000000 2976736712663485114695000477886197270080134300403594795243563650419905517077864987011856572925405441070760518153919187291996160.000000 0.000000
2976736712663485114695000477886197270080134300403594795243563650419905517077864987011856572925405441070760518153919187291996160.000000 1763224502163111198095359344132921879790185249619105469307724961559426452740708420017862895644671985101140147481371079203618816.000000 0.000000
0.000000 0.000000 0.000000
43873243749258565453885135388408337756084472223578402068924946239640934484767608475152677086511357543845026588794418270044160.000000 -49082490049748863383154054952652867175110851401144167689520385538289631841117080248439485875836287746695478664418005176287232.000000 0.000000
-49082490049748863383154054952652867175110851401144167689520385538289631841117080248439485875836287746695478664418005176287232.000000 29756470085280358902310123144528496978463175833227198080277888167646338333133361047338621278535062074880478534411818597613568.000000 0.000000
0.000000 0.000000 0.000000
265429538660397991338153231967714930696560686517785777616748908895158465038942137263295171564023349968441599527588429519006990336.000000 337379380393328160569731093042964562538920295423472228008868957779433608792412887433184638891769179335337797179491498544959848448.000000 0.000000
337379380393328160569731093042964562538920295423472228008868957779433608792412887433184638891769179335337797179491498544959848448.000000 150058287265050559342598260013354230274223427554144583666240168056759866414798324916793271815742758944350187395641498806341599232.000000 0.000000
0.000000 0.000000 0.000000
334818114445513024915787442749815960637098840014254907320417787844369910916345731282238260786908911318796543361888698119588151296.000000 -5051697618197383333621058213436358774613256006667765285483503750602465356917654260937988925563861215865204703773126268960112640.000000 0.000000
-5051697618197383333621058213436358774613256006667765285483503750602465356917654260937988925563861215865204703773126268960112640.000000 63684296814066308134554838660195098137716725355451063871362394279299868569155617511205093938494604698343336211839053448871936.000000 0.000000
0.000000 0.000000 0.000000
-216893969617543830268598235460863412444093050601196912586896568977295540635348442575361953331612539589805708124903910800225206272.000000 247233074553237486875126359206758726798883225071348413924078582671461375728744551222694630057687166820155532401866700078148747264.000000 0.000000
247233074553237486875126359206758726798883225071348413924078582671461375728744551222694630057687166820155532401866700078148747264.000000 150038482230757442398894848335544963241772390996904944641091867782536759343303967058855568192921438180388732914959130437684822016.000000 0.000000
0.000000 0.000000 0.000000
-426531942495208901811537615166677398538381609742891206221681460854231296790095453030788209261365325145526821193898207293915267072.000000 261651176576721404564864833550421730850847633987504370642009998473620053107657780485392821215008595438543819918997200758003204096.000000 0.000000
261651176576721404564864833550421730850847633987504370642009998473620053107657780485392821215008595438543819918997200758003204096.000000 143281861894998983643655705519913374075070705156117480460868397234356519139949693960459712916922732336419518096944476428437553152.000000 0.000000
0.000000 0.000000 0.000000
-187464093355344107755104714235261335372799801383389857437801373091146357911140287315001871110207467847934795949392398401459453952.000000 -116456266678637563511761985910555045813561201790835751964911821750923101773216453453106173772226578484395458953261526464359038976.000000 0.000000
-116456266678637563511761985910555045813561201790835751964911821750923101773216453453106173772226578484395458953261526464359038976.000000 62681284136771504056599717092541882667075345683871094321814269048952878603465519527068928333457180460874289078863533115663450112.000000 0.000000
0.000000 0.000000 0.000000
-22463514743731951089310527358764334947827223517500661533856437684744814156957605502068125813059413990044834042845624493699760128.000000 1210451536623120623082318882476123756720931461561939290715472144876848086643562813984262163047700496056635044895569565175513088.000000 0.000000
1210451536623120623082318882476123756720931461561939290715472144876848086643562813984262163047700496056635044895569565175513088.000000 2203069840892139977248963804665785174841286213326372000857221304355242289918520803846487809060730886660468643629081416265891840.000000 0.000000
0.000000 0.000000 0.000000
11854229570456852175247789519417359866547899789036918082276965616327311960845490467757904891912901197267061713062347824223485952.000000 -91612622577953173286186193916088600909401957149727355256295084299062105193087382472412131769972313547067653801655803587023863808.000000 0.000000
-91612622577953173286186193916088600909401957149727355256295084299062105193087382472412131769972313547067653801655803587023863808.000000 49916213951107965067400495545977773992457091290495563719673458061226693760492845127757447621462520412476604458310098230217539584.000000 0.000000
0.000000 0.000000 0.000000
39723276513884601067356640828555290316704150598566796706160813497909566704529365381923894324957887973170636424086966203899183104.000000 33655296139201861064917759633754191331519805095833128251081739973553180463739606273806271878496804658837598381622164689566826496.000000 0.000000
33655296139201861064917759633754191331519805095833128251081739973553180463739606273806271878496804658837598381622164689566826496.000000 12949066564753244442374556273650629319516276602789835916525822166906865265904830544256218212950483064672214891327847965923475456.000000 0.000000
0.000000 0.000000 0.000000
1909395842123243144090676134665568651416109086289370101253373891837691067231185983715461896918532030658712953184012822737982586880.000000 447219849668590516444874451752445216920109420442612563991078338385039964313060104791920574412898137167064639457642283083094818816.000000 0.000000
447219849668590516444874451752445216920109420442612563991078338385039964313060104791920574412898137167064639457642283083094818816.000000 67394933862811800359941306174294152797692449143417937407850383824716486141354525734683327709978081856108946303780028880376561664.000000 0.000000
0.000000 0.000000 0.000000
504082926562277106599988670322722182526051603668489774711236184793617370912448450371438186946999075378587386067211768190216437760.000000 716930347635062847286368290648007832060543384922406380909859869720596821612336466271827163288480753259197178418960665651716292608.000000 0.000000
716930347635062847286368290648007832060543384922406380909859869720596821612336466271827163288480753259197178418960665651716292608.000000 334530597755565191896302982451047828072404176533066226267618964971548248219425344829117645047549218238624893519691975828051066880.000000 0.000000
0.000000 0.000000 0.000000
3497473325595719197269409940650340469905445867032997865096587241278704272717890362111041198524858268522567390635066751277844135936.000000 682510283849153035412521480011523113094914803713747668973831711043573681763406747372192852188791189983955624014028261780300496896.000000 0.000000
682510283849153035412521480011523113094914803713747668973831711043573681763406747372192852188791189983955624014028261780300496896.000000 86761716011942087897632927724515963427714945206955547017582109063486096841999611467342432534181629975915033226766535067867021312.000000 0.000000
0.000000 0.000000 0.000000
-1559500123454395257221127062604152821861895183089348593879687666508292341017295394616428836321340912713678817820851659964829138944.000000 16996679570112780891193910020062909007448346583662790979641447647498328636697040381958268611073301839288324166297671517337550848.000000 0.000000
16996679570112780891193910020062909007448346583662790979641447647498328636697040381958268611073301839288324166297671517337550848.000000 868316469440060260329817331387116884235968643678316395486659108702865733297490318287253522104371580554128472826489616023420928.000000 0.000000
0.000000 0.000000 0.000000
-217479707763654789842427944350056990736323744790777650344459221822267406952733213023045585977849039069609519233743457757060325703680.000000 -15098973722620473580309216685427627377810083447612421805521430454049312295237710507826597038954877010019680967998309275527490306048.000000 0.000000
-15098973722620473580309216685427627377810083447612421805521430454049312295237710507826597038954877010019680967998309275527490306048.000000 2038118002951782102513747990351259010319421848238137064018439413404823251114455382149781845408743136132764767486462874664663252992.000000 0.000000
0.000000 0.000000 0.000000
744548733427123842063867437698180845001189131595978798830795774425005077214128752030301450073790510705573935218141229655460413440.000000 -1767840603643244435033018918112508958541065614211308710241568605291816782030769214103007452193411422448542036354032096715187683328.000000 0.000000
-1767840603643244435033018918112508958541065614211308710241568605291816782030769214103007452193411422448542036354032096715187683328.000000 905000165180830704916901870359211060810228446084556407232033669766994320483113061235582380017942293964183572975289081918205722624.000000 0.000000
0.000000 0.000000 0.000000
535692672440644461134482695237756303313340706370688617188687796096431054640209840126264950254411201974190142813142070927468527616.000000 12966501541332896009118610138125913513308022092414082067600854143453911812104136955690160761539954288144707565357959520987381760.000000 0.000000
12966501541332896009118610138125913513308022092414082067600854143453911812104136955690160761539954288144707565357959520987381760.000000 2808918641255656223123277858546845658825393476121835489800099546337893948762120032260549732598661590710264090371212627996049408.000000 0.000000
0.000000 0.000000 0.000000
3924907808560355794830521888686456453869508971500582957383979600331280455577797620981554131769163052646842655645248414099462684672.000000 -1260169251901734095253582062667623617687935309543844476043798415142780940638125259153536232215212773154199381835700661730626502656.000000 0.000000
-1260169251901734095253582062667623617687935309543844476043798415142780940638125259153536232215212773154199381835700661730626502656.000000 252454216015342236331460267665598179976175039487325589052643599872300939806856346553452397366384154235815647383726186112091160576.000000 0.000000
0.000000 0.000000 0.000000
-253355781845520459123302696656640287848179910761305865987588929542883388835843563296292606745692248274321613973264209096472610734080.000000 -13473825730160427775691888007680089696207791598716429649965142407998168225955647280910593365099948284364846877131343635569155506176.000000 0.000000
-13473825730160427775691888007680089696207791598716429649965142407998168225955647280910593365099948284364846877131343635569155506176.000000 1409436419352111105029781570011339900910728601708315202117156933584737354790350848922606371837436551080030679999950971125253537792.000000 0.000000
0.000000 0.000000 0.000000
-1505614810883037835214543466163292950035415178355294467833647511328112701682705086633561326611369394374970248119319600877604438016.000000 -1004568767016441163557254447953300217091115048453471402219108625750622838406189935520663713857716058193709394076321631329090273280.000000 0.000000
-1004568767016441163557254447953300217091115048453471402219108625750622838406189935520663713857716058193709394076321631329090273280.000000 547110902497761405611097552915461998473653617635759811923905157156526006049310414282934740809889566453573545834536851525936873472.000000 0.000000
0.000000 0.000000 0.000000
2538533894109071464339348724103874722991321679659475812426257360979161701457147928723952228336880734399303297337279733069890191360.000000 1756090371252613984082850743133291880182269111204273753232972829329931650735851590739361499587552323113705254579053817520717824000.000000 0.000000
1756090371252613984082850743133291880182269111204273753232972829329931650735851590739361499587552323113705254579053817520717824000.000000 621709137397998419655256263009983843775177075593582923098579009478627980934243268993354757474134155726133684467606681067697733632.000000 0.000000
0.000000 0.000000 0.000000
1422128484957058434088708074081045544424429486192797313354591515683979776728504669969933048515871524059401642460024726930990301184.000000 -901578324951046433598196789628261340512951495453405926032391526547314611621963283000551318709199274204822269922145259444097777664.000000 0.000000
-901578324951046433598196789628261340512951495453405926032391526547314611621963283000551318709199274204822269922145259444097777664.000000 321769569716871998257658361119511274089965159475761104687832541168633213419879589457331616799129387170291415287368118875050737664.000000 0.000000
0.000000 0.000000 0.000000
140682814541173804594295295233048705630903698198678810942477407701767087630089194065640795292416623355572269410960806998037233664.000000 -149256215514780564617186340035773724691747024198959252418589939880150411510724949173948257531241431161797414345051973147967881216.000000 0.000000
-149256215514780564617186340035773724691747024198959252418589939880150411510724949173948257531241431161797414345051973147967881216.000000 64922688337714594074600660735916165995175836948361743292151786397092943283597180690005757774159135465654147422765098373543362560.000000 0.000000
0.000000 0.000000 0.000000
688226191278663180919086489722459129224551991749615597458078173986021021952491692349625492161256714261569334004829381820275490816.000000 -534945824173559074324221075198106203589091495214156670502303616361458203034741325975590052692103271637462252249483981746069307392.000000 0.000000
-534945824173559074324221075198106203589091495214156670502303616361458203034741325975590052692103271637462252249483981746069307392.000000 217078113377982776835972501282112233873885903826925429967426411742446410452970452120079841469701493351993054103765250660513087488.000000 0.000000
0.000000 0.000000 0.000000
17290502144436123502732829441518117250702980474324138776512517536876538482942242127323849563545941823431955949475725660898983936.000000 66786043108203674835205645933846370825354644405260249829626989531322962323197260300702716208580843540098955623825166075095416832.000000 0.000000
66786043108203674835205645933846370825354644405260249829626989531322962323197260300702716208580843540098955623825166075095416832.000000 35476709882858330743301371099869142151571688211059165382073443995263396889288258104220868908558145621061450989412419701670150144.000000 0.000000
0.000000 0.000000 0.000000
-20846251605741101888172598816274419474423254521592426106847861406012526683156495896346282881174686933549846822201511467288121835520.000000 -4080599479690483079712638140906901712759991558293854817928453797450753371133382033228847852270692257126833643269442810671324463104.000000 0.000000
-4080599479690483079712638140906901712759991558293854817928453797450753371133382033228847852270692257126833643269442810671324463104.000000 1328255121264220228675872364951878865326984013539496826415513941680674303196524135378336746156545114997604218933576172171174084608.000000 0.000000
0.000000 0.000000 0.000000
-235987361889709052246703317156756587624330466683768219072695086788528173031655792833078431906531373327436295781745460323721150464.000000 594339048389433527265247730718941920582704953840046581451211732869362949286836027704179611916668295758112135051199247759657926656.000000 0.000000
594339048389433527265247730718941920582704953840046581451211732869362949286836027704179611916668295758112135051199247759657926656.000000 343762768485064220962350269811536318821094684536332209939616412062455259124488270650913613237995810863051505625684725309345103872.000000 0.000000
0.000000 0.000000 0.000000
-973092405419486556255736157471989017418240080063068080705655585494142689726838829902608171219814393940996520793898493207233167360.000000 1410560540176841582150959059392308884616759885607817004381493108998756064937707778830900810150760542101932527129224999636484227072.000000 0.000000
1410560540176841582150959059392308884616759885607817004381493108998756064937707778830900810150760542101932527129224999636484227072.000000 812990025928400732706062886948267156067765317337519030779169697440607076752250141366376794284951848489465955700690549146258505728.000000 0.000000
0.000000 0.000000 0.000000
473579509638757115826107440824129945627926078108882133604787489876501237069518388589508935809977925385946910282218890101170110464.000000 -346711477255114093067465992204580388936131587216483086778412115422717506433043295098618036843345897757299855563303807651365781504.000000 0.000000
-346711477255114093067465992204580388936131587216483086778412115422717506433043295098618036843345897757299855563303807651365781504.000000 137621075805174042195144742409200832942103976802210432287564622025218727782034640106721402650031414052237196121872280579444047872.000000 0.000000
0.000000 0.000000 0.000000
58785958135331876601399501747734150743102255958583165390576113855745615620638841342567323904181780561352966587000485324156567552.000000 -857242739534451668359353890193753013420770467860484872984818495641306645771619092194978942688865497570692052239706530304204210176.000000 0.000000
-857242739534451668359353890193753013420770467860484872984818495641306645771619092194978942688865497570692052239706530304204210176.000000 475218841045629579449170364837331882630384677950506736399759045973813477039315696564574475585657993016057435671996986357656322048.000000 0.000000
0.000000 0.000000 0.000000
63950967454873133715675995740841957145287473306040185058660292826367516291155619757722806182330908038210354052993511889209131008.000000 -215880629066277384114189900841915324587136069262275258201758974390269416678219672157694757705691247457305111849112683438921482240.000000 0.000000
-215880629066277384114189900841915324587136069262275258201758974390269416678219672157694757705691247457305111849112683438921482240.000000 114993737983505186843257390607502747389987763936809124104124798252765198796557260889232300839536281687710983683122194118214680576.000000 0.000000
0.000000 0.000000 0.000000
-172626466518830903116818204589283982225525190207288749570309432491028176454419246480534082331770101815936364809587823109650513920.000000 -15014227087562508574609603748647849404375817954459005915664289788631916814634352169639912852269013058512048507240001827321675776.000000 0.000000
-15014227087562508574609603748647849404375817954459005915664289788631916814634352169639912852269013058512048507240001827321675776.000000 2514214342306555484821580503381860512995840286083201062953141090081237711688463972688037813079896753537093854752276967680114688.000000 0.000000
0.000000 0.000000 0.000000
-69208235343148752069547211647193362511160401638864842603655255294021974227652085554634585312098280676798432493814584753510154240.000000 382278039893395774265701996438616250947094018858570681476151180796206830598417699553550631949634617082616613411166403724184649728.000000 0.000000
382278039893395774265701996438616250947094018858570681476151180796206830598417699553550631949634617082616613411166403724184649728.000000 216853001711853353638345326492799905741003871257326211430612418144866404158413134754251363595253319049457727914519955013982224384.000000 0.000000
0.000000 0.000000 0.000000
346186613008040489090371811386028858422326584261876746007969916615851148585710449730252470533894122390529299504843169845347352576.000000 1503056765434376493437296742833434833576320704571627211745732201733457396296270405955286121040529872827536894233141490235652177920.000000 0.000000
1503056765434376493437296742833434833576320704571627211745732201733457396296270405955286121040529872827536894233141490235652177920.000000 803226593805563315122667846980047177629833378717938447659027658597276458269510638594927945106707519531708064118675767048888385536.000000 0.000000
0.000000 0.000000 0.000000
651816599367641298980835540128769038924753231295634447827058638392070600274809659632816642523127865914975214182071161741809549312.000000 -351818512038752684658763776746044969246479490553792991295644344070444824662572818919367427157973734494173508511241309456655450112.000000 0.000000
-351818512038752684658763776746044969246479490553792991295644344070444824662572818919367427157973734494173508511241309456655450112.000000 106398300982058134275355131319119162007603227298470776484896211553957566900380402422976143531765246675608543286389715257266274304.000000 0.000000
0.000000 0.000000 0.000000
-446718212182134195463380292999847047055276729845370553748977239074763084611518951711688851231629433944133754164820640684027412480.000000 295379264491496891287704614329302098236195649925106029128951138641364064574720460920422402999989658138022392723302462686415028224.000000 0.000000
295379264491496891287704614329302098236195649925106029128951138641364064574720460920422402999989658138022392723302462686415028224.000000 163646590461978065344296236670022340614288941875269869643749850695137812760873381189070907210647633114180369275846192371567951872.000000 0.000000
0.000000 0.000000 0.000000
759079175491339492467128478196605346912177103580388943452003761839324133564282459104176562735569902950018287151631678165795995648.000000 -2044311799128359777389653995552623296671880598323220012843982070332331293111096066747504819864520641168051783316523553764103159808.000000 0.000000
-2044311799128359777389653995552623296671880598323220012843982070332331293111096066747504819864520641168051783316523553764103159808.000000 1058024146368621713953242848741879610767816732689267910479953963913639332069707490423215031647452080388564223347518394979963633664.000000 0.000000
0.000000 0.000000 0.000000
-264200976562243460220159917475764635884471520441858292963878492397767095202687890084861349242939225197050094239246928487810859008.000000 -155265410284164729916535379888170149688020966925707653636877904555629874975362183191727181991550149396631854375003197994728161280.000000 0.000000
-155265410284164729916535379888170149688020966925707653636877904555629874975362183191727181991550149396631854375003197994728161280.000000 82621966361324926421516216208901269123694285277110482564503430607931397152565179805854395621663904820885363582193395308104253440.000000 0.000000
0.000000 0.000000 0.000000
-46521644283079227705372972586440568389292792765533979334574140462891958158379216632538094410094651479385642822049067468377292800.000000 -138532375872716815320124579190069534894983220659542589568488444220164806491864792975437491758784304519356298902377804362198024192.000000 0.000000
-138532375872716815320124579190069534894983220659542589568488444220164806491864792975437491758784304519356298902377804362198024192.000000 82948899635951399117052311953185881551857703195434311335477829164104320655944388797419370382183373623221025138011021655710629888.000000 0.000000
0.000000 0.000000 0.000000
168638883327588897206708411668645429401914538755874497693950006947382332147128423428920638652405555215186990509957226442275160064.000000 330336036881975180894890226620996498083028490945956490399001359391995144611335679944560823556659179806827128435520417102575960064.000000 0.000000
330336036881975180894890226620996498083028490945956490399001359391995144611335679944560823556659179806827128435520417102575960064.000000 164683233254284431910438658252525801278379419751509236878745131644125290946547992787501810130041776275386186772476742681904545792.000000 0.000000
0.000000 0.000000 0.000000
-199103956886142891799495609712306870676246762820618459567331532939670503302158378827625233255972263792967467815434273590058552393728.000000 6556757765110706171493273844365848927459935534019522579130215749519218293297894808997933553207536680467329320651093944154332332032.000000 0.000000
6556757765110706171493273844365848927459935534019522579130215749519218293297894808997933553207536680467329320651093944154332332032.000000 432410041249881437676377295901428022753391324233576803545742533274865471578064090872822142220315333789098118310865455069005873152.000000 0.000000
0.000000 0.000000 0.000000
-145742465869393922602543383020040510502479172295543279241669763978752518978404972401166125013976024461549816693107225783550607360.000000 7566473703424358185617974547638007562676860665183895030357859291563123296076903449247788372168248619045129158006289899018256384.000000 0.000000
7566473703424358185617974547638007562676860665183895030357859291563123296076903449247788372168248619045129158006289899018256384.000000 604092646729622374746677700213668898241673503956618545095307184318183648845795601497044376445093987378825973053237068373688320.000000 0.000000
0.000000 0.000000 0.000000
18912238824364270931796896245344980809659630680998375485707151511332203271508600736101713855761540901701021202852165677798653952.000000 -420168218615268509731872137259939479614825601612591890469655787297974069680457052111640628120328564838074708974899689444524163072.000000 0.000000
-420168218615268509731872137259939479614825601612591890469655787297974069680457052111640628120328564838074708974899689444524163072.000000 227688252768678890429570840147915520639027604437425474633719381419622098860704780957714488626583117669221225770099575579788443648.000000 0.000000
0.000000 0.000000 0.000000
-256341128008323335859404660485775180362140502139076168101521539370757089165126572161136686575016950416270115331887715319657005056.000000 -308144194882429095812140001938069383570075406604644402911624483856407682147742603676863403087222815515465720710652636797824139264.000000 0.000000
-308144194882429095812140001938069383570075406604644402911624483856407682147742603676863403087222815515465720710652636797824139264.000000 176869681693355940596174599064490637574575548801935452535851385005706537222002934645355631815054127327952411679479187601948147712.000000 0.000000
0.000000 0.000000 0.000000
18970610903508524933387556550308800897960747825593851670287126529494680255770315408341169708021034970055630224447484020486307840.000000 7006686942881865616006171484279906821112289781463863622504437047979992496577092916846919784913496192501248681002012827682078720.000000 0.000000
7006686942881865616006171484279906821112289781463863622504437047979992496577092916846919784913496192501248681002012827682078720.000000 1591159779091735957356629346434537725978964105476079662976773405904744097169993903765523448520189054929126507073625362213634048.000000 0.000000
0.000000 0.000000 0.000000
209154909157212328756404342492596539163082361496773903848111330841939982431460627612431944669567192840929340638347440884000227328.000000 -481229133492694225495640935757055832987121656871368817656517082907856424320453582686437681400006790597150963166510820226544697344.000000 0.000000
-481229133492694225495640935757055832987121656871368817656517082907856424320453582686437681400006790597150963166510820226544697344.000000 262882526626505103814276491309934692908640117558703071527562143263013594832034286210031350775335189517807925910537684135123615744.000000 0.000000
0.000000 0.000000 0.000000
233038182103597977647747255489457244433650038950927665463467687445431816445900302250947945101104693236498042155285483086600470528.000000 -931580154907877485299058489423127857626611788843734306813779173276157367379544136476708991495406237828489719798362004513091485696.000000 0.000000
-931580154907877485299058489423127857626611788843734306813779173276157367379544136476708991495406237828489719798362004513091485696.000000 497035406897308761787898980107111525676290098832340200133349313490355625177934415396092235649037178859749861606661330109166780416.000000 0.000000
0.000000 0.000000 0.000000
-165519675739978248992465960930043351750171310781818910342217477243416857610564946550410387185387457399248718815403246559030149120.000000 -731032410497464692268413633795675431416571308998768253683124467442918454834733908518366453397525665859443870749568804880113467392.000000 0.000000
-731032410497464692268413633795675431416571308998768253683124467442918454834733908518366453397525665859443870749568804880113467392.000000 416971011634907969445186715486833676577907758162169750048618295781030867391830689577835851809468144827857398156572926408436744192.000000 0.000000
0.000000 0.000000 0.000000
666112984427638851895672257671119146313295040506302659336836237258191070647054945198306264486225525726897169683847728026800357376.000000 52867748113261808545581193688527745568284070687081609160305104095960416597264399560931614457355072370728560311963787704129290240.000000 0.000000
52867748113261808545581193688527745568284070687081609160305104095960416597264399560931614457355072370728560311963787704129290240.000000 3846292898944244740431529508740897376461378550159158412405138316223417823709918033734549510117535683904521316098092303023865856.000000 0.000000
0.000000 0.000000 0.000000
-126080878416770032925912089068245758920653068923681770759451929669781376073426743432163711340642478880135956895375834074698481664.000000 -1484086051239376186853357033260435466252909222089455437217851906108930153561584268634364993504735813989020386701026514949898240.000000 0.000000
-1484086051239376186853357033260435466252909222089455437217851906108930153561584268634364993504735813989020386701026514949898240.000000 488174493778323786734912140994546226034880618631096077484476819239235381158647553590091190898970954327914461288286979570532352.000000 0.000000
0.000000 0.000000 0.000000
-1370469698632714201846776699539845044847570243680578363131185482090672754398395703911621649427094158248076362110067379194489208832.000000 -1973932057086145190444354840976739966697404569673857112990811009634058207790300947182161058496224608940487766114189807756733579264.000000 0.000000
-1973932057086145190444354840976739966697404569673857112990811009634058207790300947182161058496224608940487766114189807756733579264.000000 1154497385584796592983650366263009775824646915265420906146747474256915764186995953245036361205677185415272765031081274469548818432.000000 0.000000
0.000000 0.000000 0.000000
-57336152410437799968433326099439696975881756186142985658292603945919703339886540574615843026797551154141225017481523038402543353856.000000 1462777542647850852261481337273374371297166902278463605071685404994706706954952458331633141328447540797674777850657038566506364928.000000 0.000000
1462777542647850852261481337273374371297166902278463605071685404994706706954952458331633141328447540797674777850657038566506364928.000000 75939825903914184533276141398910978587832675010266020270095548828686090995201387811666023199391401731099920390465157477779374080.000000 0.000000
0.000000 0.000000 0.000000
738285536452657519122756835503177104525779398057659394053158856734014373872189331263187780165881662189934220920528667073243512832.000000 -301145197581371771679804394976526667108731797326699929250563906194279651468983995601687962801159574090259190820995626864274833408.000000 0.000000
-301145197581371771679804394976526667108731797326699929250563906194279651468983995601687962801159574090259190820995626864274833408.000000 73986484623197849852596735191619777520398685844264901442648890018168748927929823541736477343629564577518425813006426942384111616.000000 0.000000
0.000000 0.000000 0.000000
-821461157704316155097076644717958108212533952914406767364928164803478828909274060296406617337524746207539655574607834981584601088.000000 -722242414975661638191583459455077639215019997263697692114763938795398823668918729496305138408046531573041933381402591588566171648.000000 0.000000
-722242414975661638191583459455077639215019997263697692114763938795398823668918729496305138408046531573041933381402591588566171648.000000 408263678357609010795240114275714247710278798030865281382039775064074262133746583376920419629435629137279154782398390716206153728.000000 0.000000
0.000000 0.000000 0.000000
-414978326273588619974818995486256135076772299973277064355323396875130228502428611753805552431338663391478213767711925612276875264.000000 375972086770032108979858075854563348393493957334085374006057065890038734517775417621737830805272168898695862330803378746736771072.000000 0.000000
375972086770032108979858075854563348393493957334085374006057065890038734517775417621737830805272168898695862330803378746736771072.000000 212313362019709482683381887281965424850547345910288533008368337183054632287779472953243527882346984121206319472878884345031426048.000000 0.000000
0.000000 0.000000 0.000000
296922728895713671193724134488737953661154739391727946502672054288053732689812749688082590465791192468228274738417236821260894208.000000 337964294456967169933731066114560200727423521175403340792507490951021827233237001814112813348164988229891454628240300597007351808.000000 0.000000
337964294456967169933731066114560200727423521175403340792507490951021827233237001814112813348164988229891454628240300597007351808.000000 149126279221364236339729826272248005848295352273086931632000640907650975340259235446518671633920951417424281800274409958343180288.000000 0.000000
0.000000 0.000000 0.000000
1116793561192826024701389818559719968380593788773624143995619379045028946711318109151654651700128072010576730633223051726112686080.000000 518803375277566589383267191184487999894030380060887144393469047852290758939557093520766468734925179026093197867181925176654692352.000000 0.000000
518803375277566589383267191184487999894030380060887144393469047852290758939557093520766468734925179026093197867181925176654692352.000000 141403270272436705769785687636976670451612002771983213832605479344966079252081285288692256694135066441904842494824148209454022656.000000 0.000000
0.000000 0.000000 0.000000
737470723077527026852918906306294082296250905272189227994068589362217837815416596074262971160011798856032071376106232356867670016.000000 346980159919453292086980061696352239219856246564751480193060746029418575250736010025961312524656749503368371155899340551572422656.000000 0.000000
346980159919453292086980061696352239219856246564751480193060746029418575250736010025961312524656749503368371155899340551572422656.000000 95264966313942016856207445163722860655934351582814521919646468503613311969724819538151037052635645647799714652572946960840916992.000000 0.000000
0.000000 0.000000 0.000000
544348318446228578737096793310756244525058969311637204355252029356546497571189635087309324540544010349299150082347383870288035840.000000 302468191145451946491884440050900459822300009445021772927523823793388367656978190800537790417377020697752414653857335174057951232.000000 0.000000
302468191145451946491884440050900459822300009445021772927523823793388367656978190800537790417377020697752414653857335174057951232.000000 95963433186586046705055110047417276867890945800115581160451563504164345212456532999295720521127960921668861298614553593054756864.000000 0.000000
0.000000 0.000000 0.000000
94089682884609276105427470353032208091558017366180681869338063461567791661588326502764881120512576062949056362717222389457879040.000000 -235118299338742304257233610637722025240020940146505595379575932408269685195734156008207822576076864567168925639322168126555029504.000000 0.000000
-235118299338742304257233610637722025240020940146505595379575932408269685195734156008207822576076864567168925639322168126555029504.000000 120552080216002284511820345744188499059900493718281625378447153255823868679785808539126005539282027245638073856662600280445026304.000000 0.000000
0.000000 0.000000 0.000000
-3394151625377528638402868119811168074248436199259486374464575261324338674833634154091533877165140493638625512431944507385184256.000000 5725281155532679058075602809238153795280153637775367163221213736624629571267711028368467980087387508128319271114437512805744640.000000 0.000000
5725281155532679058075602809238153795280153637775367163221213736624629571267711028368467980087387508128319271114437512805744640.000000 3308027947909005452419195182344254765507435931216747946256991170400446107670865176699374130491420160577494394295496382349312000.000000 0.000000
0.000000 0.000000 0.000000
-305463282624411657114296043363595742272120784902071277819047382911815521480986697395029908731474538432916431644331550460061155328.000000 42999231483959004786627270476254508085988057772154743607261254642025555854046912935484343671248624530723422587439100483420028928.000000 0.000000
42999231483959004786627270476254508085988057772154743607261254642025555854046912935484343671248624530723422587439100483420028928.000000 10901346730949877088590306630079670959496766261692057810727218358444408910395733741069070657929920715112602931180503621280202752.000000 0.000000
0.000000 0.000000 0.000000
557448948548317816956260610552575007889413044905610215264410623762954195990453977190278225130634765130644351534322409625029181440.000000 -686498229319870069440125558619110426720085783362079429675859699877478713483886324108843727238824324084058024317868913395916341248.000000 0.000000
-686498229319870069440125558619110426720085783362079429675859699877478713483886324108843727238824324084058024317868913395916341248.000000 310282733202298900223714213582658663365507649758012478642610974301602149603650595709210480115113270813246981729303074587277262848.000000 0.000000
0.000000 0.000000 0.000000
3244623565180489409826527136343759274055519525916351698290656837873182003206649482295600950069614930782746200054065451420717416448.000000 2388433292538617734433275053227052728936818891249777622437981102366173945583730971222822450694491678990535762195565365677902528512.000000 0.000000
2388433292538617734433275053227052728936818891249777622437981102366173945583730971222822450694491678990535762195565365677902528512.000000 875303505127885899509426640173080755457029457586595117982818032219162506382208052440668102325187087654149074193694526565611732992.000000 0.000000
0.000000 0.000000 0.000000
286312476362934069269758976698990598326851584547956211512234399949051994415350822575803390554290481694877858250596667708651077632.000000 -208385993610506842350326750705402491185059900856316900047906988236538201821552322307672432301460984104687686723266802837476081664.000000 0.000000
-208385993610506842350326750705402491185059900856316900047906988236538201821552322307672432301460984104687686723266802837476081664.000000 75929866641495039550254997915028915991078642829428742200902456091045748458553164827753998143961895252127860550062966864089186304.000000 0.000000
0.000000 0.000000 0.000000
-735203303259929338318555403207963002307694653058357665804248437246143565738632882564102010711485674640044640134715723862769664.000000 795046420620737719149091272688821657691274098139458497794187699865423361934427906151722362913502697393261274716271041186889728.000000 0.000000
795046420620737719149091272688821657691274098139458497794187699865423361934427906151722362913502697393261274716271041186889728.000000 457645648388744469347068435015338659605719794120686216935429311957779482440063859487089948940668421146646799476170527583764480.000000 0.000000
0.000000 0.000000 0.000000
-14803804103783994925782755358588993389829058176904374340632231159494380086280377458012725236281585050966775267727066873465887784960.000000 -1630697732094823094923256787792911172101993971493021488202709474092687266293129100018960071962460354811977640983266875802078150656.000000 0.000000
-1630697732094823094923256787792911172101993971493021488202709474092687266293129100018960071962460354811977640983266875802078150656.000000 341251364714758260572811418914653436007575371676529519331032021872664926409070737750372449813515899284162383967137187563162304512.000000 0.000000
0.000000 0.000000 0.000000
-65719325093991815204269542404824043634669443090821443369451638295377802622116566768071462307159061970766730023917791600468557824.000000 -1639967971332086391966583968837533995033272121690225252696764091957767349405478308013020714759179500338445797095801510856491008.000000 0.000000
-1639967971332086391966583968837533995033272121690225252696764091957767349405478308013020714759179500338445797095801510856491008.000000 1797859485426593349667819914543074500861849049232036043187103008226508611001725173852493292949714749111447589902457995903631360.000000 0.000000
0.000000 0.000000 0.000000
1150729896124750132853428217011246046695493592842652020805596639609458473529278597904702983735720450842910703369090610012388065280.000000 -966991688452371287144895851600721828794006069729418654430235096230115513826061006630115467958361832310322078323540340259982147584.000000 0.000000
-966991688452371287144895851600721828794006069729418654430235096230115513826061006630115467958361832310322078323540340259982147584.000000 378466735501943525170413837264593723114738185520863753924261693907441302651561469900849036769670718064943072652726126281540763648.000000 0.000000
0.000000 0.000000 0.000000
-3333615819881101628982114838778777354880624581133635645926626540372404764442221651137669145068530260387138602939811514567098368.000000 4262670115381294195067037248881282501110135882937572834818627042444805538971664489695560616965308343975889356161899097573294080.000000 0.000000
4262670115381294195067037248881282501110135882937572834818627042444805538971664489695560616965308343975889356161899097573294080.000000 2547642996916462113813953697088157341938551861907416386473441882738619588677000536117942269566901284731198179149505940751908864.000000 0.000000
0.000000 0.000000 0.000000
-6153019339121201696718135148573622374446586855900306447444941758243070976484551119491313608423204654625715282431078332882160189440.000000 797469046043184622400939383057659938937653229700822151627653012628278322723646677464981661463335609220597843864331918160189980672.000000 0.000000
797469046043184622400939383057659938937653229700822151627653012628278322723646677464981661463335609220597843864331918160189980672.000000 188987797085152988901732067969132386859800903329896213216040435370827212476355096152600721222025149032260308714307063058383503360.000000 0.000000
0.000000 0.000000 0.000000
202514304307588656502643167265029909155954888034203935990985681834716003610199544014712477401295659415800577342289752751498854400.000000 -111027307039812391316013669590916778184334391961481843517837797590195089713426458766885932230633611234742316920936187431154089984.000000 0.000000
-111027307039812391316013669590916778184334391961481843517837797590195089713426458766885932230633611234742316920936187431154089984.000000 33958457824929320338937632904835453330848949356242176242345676227090915359136418124045878403215480653162401276192766190233321472.000000 0.000000
0.000000 0.000000 0.000000
98566052590722596658566276109281224264396614199523722171667633900623464360451720374577351611132568597047672201084449406157062144.000000 -211839914320387870232379820008341583206737227753857530379387128135240877682204113228272466527234225161166536553938998627085058048.000000 0.000000
-211839914320387870232379820008341583206737227753857530379387128135240877682204113228272466527234225161166536553938998627085058048.000000 106940631424704312304235576455421438475663805754613135268854668288153210738185698753997299826753222799630110832723689252721786880.000000 0.000000
0.000000 0.000000 0.000000
498583665242994852152686429477236508562744697753713227332785524851556558517414638988336475791201565673231878124224387259050229760.000000 251653952619007064471971286739337240492582928084504213494046644999224086546010393232584706790352966269247904251804536628741931008.000000 0.000000
251653952619007064471971286739337240492582928084504213494046644999224086546010393232584706790352966269247904251804536628741931008.000000 72577888188212759367339331651168771082914998703888273659854811676945659707861878355443953282670315088350416797271313064688353280.000000 0.000000
0.000000 0.000000 0.000000
-1418769451859067980589726815536572444361236232250943561213711742245394601519751227151839120292358564504943188951763157551268495360.000000 252029419050854742771886483286082006632860056042684039139448884350593999387327323834187546786796974741266730502027349031502479360.000000 0.000000
252029419050854742771886483286082006632860056042684039139448884350593999387327323834187546786796974741266730502027349031502479360.000000 77259146972267373290336006088595101248332618754810662798843864255649244910047253006536120207958607899011551979407591375516991488.000000 0.000000
0.000000 0.000000 0.000000
338907205110658397242103602843080272544131807833489636225912494661822981663198668690148851663015647675885291009901928426202202112.000000 30960227140803499025069167275161728541048064509369129910188257087282838835922922300627724608515018072234339511120080354181906432.000000 0.000000
30960227140803499025069167275161728541048064509369129910188257087282838835922922300627724608515018072234339511120080354181906432.000000 1890647141831269001517447314256332099748178512143569836824056856244733736889132298970120402466969051499941163869244162320629760.000000 0.000000
0.000000 0.000000 0.000000
545077491938992705152881551869076850445959848171356765712664412082609682385812856873406787754861229463954098765811567016181497856.000000 344972783529260611256695508153241859196786027386588226895423860384969622237420625125835810169536358271198573942861508803104342016.000000 0.000000
344972783529260611256695508153241859196786027386588226895423860384969622237420625125835810169536358271198573942861508803104342016.000000 115866115690709286103539001092788334184956267006595127871892242936185123684854104145666456103911463912150804493475512050893455360.000000 0.000000
0.000000 0.000000 0.000000
44796601404649084245244639610588569845259564743178117231673162040772533308850106818525695625436677881065868360947811399610925056.000000 30494987674934472030342369061559144078045506617842710040308997709167395989577606839025282006367326549154064415034609018721009664.000000 0.000000
30494987674934472030342369061559144078045506617842710040308997709167395989577606839025282006367326549154064415034609018721009664.000000 11112926958739644938731603462647667612555215454798326582396636544616936362249114798713004848573844975437059144486331650043543552.000000 0.000000
0.000000 0.000000 0.000000
42917825629819468476748906298760548175821298518030230042535609294606078993280877891606660954367127554263449306054855855901245440.000000 11544778114713160767425945246688276599074555087636727321850391166161840937940670280407103283777786732015174928523540628810760192.000000 0.000000
11544778114713160767425945246688276599074555087636727321850391166161840937940670280407103283777786732015174928523540628810760192.000000 1979863406716884010796984387463749169941180139709004696363514090750653815029921652631976883944610039146532349785279830968762368.000000 0.000000
0.000000 0.000000 0.000000
-1402776198438759929522969793123631863773721085779048586100570522696578385543862700712808600472800262092807052311408712760185323520.000000 452937187676442994128005180848251554448594959152040775430575191790762386394445357844212750760105143964486163268041366938813726720.000000 0.000000
452937187676442994128005180848251554448594959152040775430575191790762386394445357844212750760105143964486163268041366938813726720.000000 196968790102512691204915699355803961863315797561539243506294418769940968568380741295253144823161675574993712820782150284652576768.000000 0.000000
0.000000 0.000000 0.000000
-223394861332189191341911772587461471774434106907346668964133697125289938401434446989671723896793870754745472698767607390426628096.000000 -147068425763195847158105573560179349452633412465859246835078717854496193195062606581246929067731435860693381893765200357705646080.000000 0.000000
-147068425763195847158105573560179349452633412465859246835078717854496193195062606581246929067731435860693381893765200357705646080.000000 78874366931400359512798822604803491240320106301602203303972243095453423994162719128523022380068103677000837133128226145004683264.000000 0.000000
0.000000 0.000000 0.000000
-682730643366309316583857314986328538799302584769679737269148470564794018353556269077491696298964051126085177068208627543418339328.000000 -1156057777900985632042149551911882069508812178161692059414083976106040587196894680302717301995499772416686832371171348147423150080.000000 0.000000
-1156057777900985632042149551911882069508812178161692059414083976106040587196894680302717301995499772416686832371171348147423150080.000000 667812946023591630203034954872808314668750643974747343403709758479745164821112058923003456320138879990496183924226570274339815424.000000 0.000000
0.000000 0.000000 0.000000
-54281868165068899103659010071663636032602166071119633472098314588612914478242065505532117302840234137521775761628625342564401152.000000 -203103545615535039195425797015136156040916909433959544098242493114939824910556961656842852712141210994011331996917967228514598912.000000 0.000000
-203103545615535039195425797015136156040916909433959544098242493114939824910556961656842852712141210994011331996917967228514598912.000000 116816717501020354455676903001493730477198028579129931898182316832979851954983430545315006637555549594433324021858311472639115264.000000 0.000000
0.000000 0.000000 0.000000
-441114653441145794839525966015915476313907662186066662390797607656969860947166252443399902765463519581519838095395343512371200.000000 1983415143314369291632747180914520316799352206693017393307031540856887631121567741202635592272386235242272294594255873659371520.000000 0.000000
1983415143314369291632747180914520316799352206693017393307031540856887631121567741202635592272386235242272294594255873659371520.000000 1129721656116707675477904623228659267331044706952610450297850321161685327056303100070564518175382602814301012648640789000224768.000000 0.000000
0.000000 0.000000 0.000000
-73603084699581164436745310813655776343177766836640297071768477826974616389009978621309490858809377645305398056952666694522765312.000000 -262939617234868783099340329084420874472962689904566486726000880730847229005679139819137525068311036403882751686285452668072624128.000000 0.000000
-262939617234868783099340329084420874472962689904566486726000880730847229005679139819137525068311036403882751686285452668072624128.000000 154753983814035009015718385524113344020874981740442982129235187373162783716483044574194487237362730850222958663965609287600832512.000000 0.000000
0.000000 0.000000 0.000000
621781557141367996829792469205559042369726362898877235628447384093547699649033548073714736466655710579894706146432161800255438848.000000 -231841822001930925343209843866379253179150357669181519227731962929092562223493466756095344680348364744042571915215942294786015232.000000 0.000000
-231841822001930925343209843866379253179150357669181519227731962929092562223493466756095344680348364744042571915215942294786015232.000000 52766813235717478557705126591610888733448908034362097595528510437887382174080362473804914680226413013398989359966900483239444480.000000 0.000000
0.000000 0.000000 0.000000
977282477761975407210688684856231855844291486435164964984569949368464449776511295834455262865091422495745464992860107411472515072.000000 570895046366561369573422051990815164211806109863718143299245372832311600958008324241893310684997860703824751066139852890194313216.000000 0.000000
570895046366561369573422051990815164211806109863718143299245372832311600958008324241893310684997860703824751066139852890194313216.000000 182504494619580182950252977602160279835475936921923340118813718295974519042161944744794755428513427647931141959415749409943584768.000000 0.000000
0.000000 0.000000 0.000000
140982116178057935694082543777159250145913757082122611839698553065240755592361803438675957850090078622210037141758759807548915712.000000 132265792516684145713200345427478890871692615757852751484666259201422272670278652937985682117332690075599317545386871961402998784.000000 0.000000
132265792516684145713200345427478890871692615757852751484666259201422272670278652937985682117332690075599317545386871961402998784.000000 54306700332176097860132286149838308643500145774166780139126489375986135107379897695189961384160566120876405069139489755307704320.000000 0.000000
0.000000 0.000000 0.000000
259482288360698331261375202739138630432600835074411751473146527919444844539232855295677714824787112975462976414328837043054968832.000000 314068301322253379966894182703069680528233688796039330922279106015340160815398965364718729762723124883562642781095847853236944896.000000 0.000000
314068301322253379966894182703069680528233688796039330922279106015340160815398965364718729762723124883562642781095847853236944896.000000 141268299685274982898170264109429500726773302889582992814109302830167752044323634809589748137413558718102578156989238286680588288.000000 0.000000
0.000000 0.000000 0.000000
334978515929097039961930797078456105558720491874840363068187352222525384440989036271977383168512860029411592156191585075376160768.000000 532560612673992931058496709616698711171513972731364827036333814115143344021994349025264708720170339907384328232367099001677283328.000000 0.000000
532560612673992931058496709616698711171513972731364827036333814115143344021994349025264708720170339907384328232367099001677283328.000000 258646672741814421672613555081136998970097655499549456002715268918729615397525683066617295747224138928559581992068626993412833280.000000 0.000000
0.000000 0.000000 0.000000
250105681535768170984414183730997878000033888825694939410323866732602751680427693415223795619860391920280427451841570718976311296.000000 100886254384720248051408516019126345939490281635799126030417767209906976826373825244942728716286149960606428536748000908404588544.000000 0.000000
100886254384720248051408516019126345939490281635799126030417767209906976826373825244942728716286149960606428536748000908404588544.000000 26464639820478964492371262406560957622153304198864694002625947994998619210972356300751551611469115746585152309789388794205569024.000000 0.000000
0.000000 0.000000 0.000000
-8464659780462806555966847936224699076072958819801138245973939933999002334301325375694193143608677094954199305287824188637184.000000 1845124873331749978167572281337861539744697391066715239277317169053091653213803735908170248894237259002305384766679577264128.000000 0.000000
1845124873331749978167572281337861539744697391066715239277317169053091653213803735908170248894237259002305384766679577264128.000000 1304102685433587690737139958164568077993018702582047823939314642054938336469006383468623439536982536582774701782283403132928.000000 0.000000
0.000000 0.000000 0.000000
-55414371898186219777889293674846725302800880851394356229556242103902887713591556013120597814415068689457206880557289975230496768.000000 46682535195152999294359968200768586254590984728254063755443345834454698440813588556201080783045750616462338949137586718551048192.000000 0.000000
46682535195152999294359968200768586254590984728254063755443345834454698440813588556201080783045750616462338949137586718551048192.000000 26279896134735056835890793951751479889419820988132472030055140092977068357214145997923705494120558568103005961341204113037197312.000000 0.000000
0.000000 0.000000 0.000000
812475748625926476370720974855085384770002901300261644201230508300960458005670624107728591450701296766241642979418260750722924544.000000 -416103675584047308094566381161450296860757342403000563439795735716651741546587493445316111738933464655262189284672880150633775104.000000 0.000000
-416103675584047308094566381161450296860757342403000563439795735716651741546587493445316111738933464655262189284672880150633775104.000000 121805235994661062645867868143822222064453588895540847477569897426543741783619496681091974394298416798448892266554543359920177152.000000 0.000000
0.000000 0.000000 0.000000
540175555100607273334009923879516368249754557362884899078849671689463206396139116132095648028382193332799771548802475896824922112.000000 -293851937195713911844901533977063341002209091162563982822521010708270107064921367333285493213666585647271636755835705769496412160.000000 0.000000
-293851937195713911844901533977063341002209091162563982822521010708270107064921367333285493213666585647271636755835705769496412160.000000 87633406118405192551549497855740022390179369781569238258078880189583081554327454039217882096533032057078411177477974249395191808.000000 0.000000
0.000000 0.000000 0.000000
2513327440748018781686820881688887876039755794307658063699995749164199673691958996007041194111974290304223578616347321744490496.000000 -1075333971239088749599541650222056421872172782866759257291513616520489934218789603784665061436533732141843505378215431680032768.000000 0.000000
-1075333971239088749599541650222056421872172782866759257291513616520489934218789603784665061436533732141843505378215431680032768.000000 264798252708604283973119986886931171886127432695306705467676979268935279257672352210780010177347614283243457950979305039200256.000000 0.000000
0.000000 0.000000 0.000000
-166870022383906600431009321867370113751299147591623120428511889152874725863019428108766045066161180039983993026626421327581413376.000000 -1964141048913461293699394605112127382288712029340584805325760957787374414296171759394203381185847830525875059081499170372637949952.000000 0.000000
-1964141048913461293699394605112127382288712029340584805325760957787374414296171759394203381185847830525875059081499170372637949952.000000 1108229735049820954307924113620400949367845896593211233850770046717411130684880850470113376579067437864611611461257603298130657280.000000 0.000000
0.000000 0.000000 0.000000
142366236057951749785700901626929818723447092365635339956956201535226784939433814139564050590020239249428166511367995778354118656.000000 255557077395686195011439056225348806449763901907231306574374187519661855921515980435388816335004098835497517552863334613202763776.000000 0.000000
255557077395686195011439056225348806449763901907231306574374187519661855921515980435388816335004098835497517552863334613202763776.000000 132082419182916735277662397976493403751185014529608715511183312867395075706240891320719284750105052791467982068194169385562144768.000000 0.000000
0.000000 0.000000 0.000000
10919550813518839698538680613487660763132922306335141893160387934431789331315728790082710172850491271438975866745516579484598272.000000 615351718507821896341857589289442235380237077291703676293403933878489005983034742951640225413362090629689865208373622228385792.000000 0.000000
615351718507821896341857589289442235380237077291703676293403933878489005983034742951640225413362090629689865208373622228385792.000000 86055823786634310548989631977648323160804199918667959849468677518337364386778591227872453695632613947050142332255979494703104.000000 0.000000
0.000000 0.000000 0.000000
318096111313656683584926699375543302557872895152159820679499805533862291272620667944347488238441267420881639542454024216097325056.000000 -21018673250221048313470356696778970206412711505091246652013530306196505516301763204026630092325214473378859562025373415365410816.000000 0.000000
-21018673250221048313470356696778970206412711505091246652013530306196505516301763204026630092325214473378859562025373415365410816.000000 1081453129520805573977753831902083481477494883415784049980236537649027312717697822839597090783462237366389435912078408097464320.000000 0.000000
0.000000 0.000000 0.000000
86630660727762341804704555155435187909440201616171342663017671565956008545699010068818509738954044791132689880292353568640335872.000000 229484454242303593772213559696297805214904378259444953424431104909546805313578111674510601140227753324677389634152327180648972288.000000 0.000000
229484454242303593772213559696297805214904378259444953424431104909546805313578111674510601140227753324677389634152327180648972288.000000 121993756561072368822411303265295883801597416905166650312349678532787414360012105425738300598456733122563059853275894130799542272.000000 0.000000
0.000000 0.000000 0.000000
-155615418539139783316932761671499999854011166758251279917550100715267647777245229098279372716279905923116930406541038035738296320.000000 -167451737217060794286752084470904241226991001699292454600018680175149661047564650090530746366231975667913621679544618099159334912.000000 0.000000
-167451737217060794286752084470904241226991001699292454600018680175149661047564650090530746366231975667913621679544618099159334912.000000 94625364419459532140216292570873239747305066882763494554738582035298022237489049862389667727263092573884087499625106762335518720.000000 0.000000
0.000000 0.000000 0.000000
-35898541438156585131990847699713662227445053764019538789870808268406555108181549499404808830687371220782164041776224481478443008.000000 550121483049854464826318623340821437562814206815965201946688634436902411208841305769418696375187175301724124298928189571879403520.000000 0.000000
550121483049854464826318623340821437562814206815965201946688634436902411208841305769418696375187175301724124298928189571879403520.000000 308850242957265544565470417440743437736983194760942286494802952776591539661399349408966096204310950451642798907438117252948295680.000000 0.000000
0.000000 0.000000 0.000000
-53988567191148132216878737888648917822916411374339892849215297535708842754826722948570381608625632654079587386890568421360009216.000000 135152397764221843957234612539506283339118455352072026220464923089360718732998508912994926998340943622934752641441710573224984576.000000 0.000000
135152397764221843957234612539506283339118455352072026220464923089360718732998508912994926998340943622934752641441710573224984576.000000 77151279662586662839161027063110544384498985266620857645959090934019796183671751445124893475572022147710662967089007690080321536.000000 0.000000
0.000000 0.000000 0.000000
1062856941736411752583239541796600307138863303688276328854426729155275716846326367908588795888955236179549976895842201818726662144.000000 -453882922874682473638288695141815605018832002769081275322364146385559720294126645259451474042141456621491118987654329533472964608.000000 0.000000
-453882922874682473638288695141815605018832002769081275322364146385559720294126645259451474042141456621491118987654329533472964608.000000 115338717524897927984842091177304609942684054349628490591932974262394222074542646950974609966258493145762621471432507845723029504.000000 0.000000
0.000000 0.000000 0.000000
9249067587838249446867111428926006304428077976686404881313794058123310638141572910753565804446424087834130440043355658583539712.000000 53596314562788163321847483789140760994619904944123625267472033629242759159038145302175107643914868577572176786035650012527984640.000000 0.000000
53596314562788163321847483789140760994619904944123625267472033629242759159038145302175107643914868577572176786035650012527984640.000000 28989705040965978879203335560851895398500147083984943855671232739184289304759427831581627908299356181446286870525015328643088384.000000 0.000000
0.000000 0.000000 0.000000
-1000758778872910840524949507566613409144434839283811258023212875233435929551889474561803811800597222520619663937423824055840014336.000000 -971716986109185824386352706576336413210549713790710143374831551131046580241378223722288956913726903402705318642639733159238828032.000000 0.000000
-971716986109185824386352706576336413210549713790710143374831551131046580241378223722288956913726903402705318642639733159238828032.000000 557048017457498364313659947054392031980032182984310349617023385117967618742937629857491701620987554676925928625875966540537397248.000000 0.000000
0.000000 0.000000 0.000000
3137556863712812077927444775593259595573251990133995820587215149567935547839696797864495311813784426476153714061839662185497755648.000000 -1812805162487022767915319009048826160467918521862362602077283742446129647554878469597402716059794561645130285491948706987620958208.000000 0.000000
-1812805162487022767915319009048826160467918521862362602077283742446129647554878469597402716059794561645130285491948706987620958208.000000 572679340698342807530024421693363390594670534478981280469717339154542387211193884333871038591350869790875386602204403876853972992.000000 0.000000
0.000000 0.000000 0.000000
673259141830451865724514878745116826304477431256222348848874040755502661237703630785820204151068922062994252998484192676282368.000000 54842104890255239439684744030570265210964733177128147911236710622278431571866912119315486345792480348222865480820216965105713152.000000 0.000000
54842104890255239439684744030570265210964733177128147911236710622278431571866912119315486345792480348222865480820216965105713152.000000 30834403505816604745955168635513528810760284106358231949038613699835384383801991162711052820023662573709674570385941429695283200.000000 0.000000
0.000000 0.000000 0.000000
109639304468207934872900665077953830786172186125032677605994405097352717856737107124850684440938758316273561776881997970482921472.000000 148630377996383886208477265507636945816678007894652747318227073305661063240486403935726693122605950600164142924613717463062806528.000000 0.000000
148630377996383886208477265507636945816678007894652747318227073305661063240486403935726693122605950600164142924613717463062806528.000000 68940769100156943345121107290281425753344999071048355006582711897904349959273031831752698174662272938607039898885963857092673536.000000 0.000000
0.000000 0.000000 0.000000
-1470193847246295667001314682652557621431245220282538975340818363283973753233576499097155545138074865687720059635611220128051494912.000000 293310038409421890205079460015140550639310189299314041361104356453171368773327959096993067411567187373108390809557820053764702208.000000 0.000000
293310038409421890205079460015140550639310189299314041361104356453171368773327959096993067411567187373108390809557820053764702208.000000 96685767499043287986912230569571315226775353590389322712092512452130257620868233263489736780343843948875698401125832296683798528.000000 0.000000
0.000000 0.000000 0.000000
60788527000934823317326225090799638466061630589204473517075152005879290821585281616900117536926096733576133706736039116186583040.000000 244730683953088998139001351873465110236010042760058048845511642934180167325498288367153150683892210362718128156148226590903369728.000000 0.000000
244730683953088998139001351873465110236010042760058048845511642934180167325498288367153150683892210362718128156148226590903369728.000000 130685758782258416947383178939913014825714682971592463790828065866859653418294407114526446945072482594985360231324706758604095488.000000 0.000000
0.000000 0.000000 0.000000
909465990022348877918869269221604843947627295342519660067205089423062122058206145887129207889713313569602422647798218265167134720.000000 272343756013120212445565256805861625993649475376171114379591411057199186344323861579323198599136153624427423200184239807986139136.000000 0.000000
272343756013120212445565256805861625993649475376171114379591411057199186344323861579323198599136153624427423200184239807986139136.000000 51480185753480239885260600516745641949748843226298287319327183673883595071902166020998112943730933523076839969952034501504794624.000000 0.000000
0.000000 0.000000 0.000000
5821344653360400207586403782717074056977557926978587999387643750103829283209997340875475337542532153686551249764103041348272128.000000 3554506039131909157897656774091357665537178155528929011889578700840507476405802520702374322091810480597793510146251478840377344.000000 0.000000
3554506039131909157897656774091357665537178155528929011889578700840507476405802520702374322091810480597793510146251478840377344.000000 1175225796601284004524766296389780295462152385702041137751059062755287586691078776651973236529458654345662363597520509360668672.000000 0.000000
0.000000 0.000000 0.000000
384890973144844234257030561351488022776716320005091105655448349896957432171656948747329090438184780104753684829807103710020501504.000000 1228075211499067103470518201322805822234786700293158360237147163029749661911967998316038723446335473324428366689478914215942029312.000000 0.000000
1228075211499067103470518201322805822234786700293158360237147163029749661911967998316038723446335473324428366689478914215942029312.000000 644362873873606894435767849023799032336184160999854834849667289536133094534547084043075053874461727060219079737897008861309566976.000000 0.000000
0.000000 0.000000 0.000000
404621986332176911278702159624153233469333118848183910351827331248648207673477301821005838437030685707395917855616840386004123648.000000 -688944899598194220162000175143753745578141821883161160833972243799497086445788246824873732767926854688605014564266175884676825088.000000 0.000000
-688944899598194220162000175143753745578141821883161160833972243799497086445788246824873732767926854688605014564266175884676825088.000000 338389369575636825317744032942755669926200692379917492553708311314621508198828792718529746015673591483144010318140788629999452160.000000 0.000000
0.000000 0.000000 0.000000
992257562842222128907312691693361032748692578170222283212530007362456069278592892351280826360327754657348089896519010028378652672.000000 76976349964498904200970833042827463331524352645621754488864185574907711199372258674283443135889053631664176465615525306116866048.000000 0.000000
76976349964498904200970833042827463331524352645621754488864185574907711199372258674283443135889053631664176465615525306116866048.000000 4041654938531722817428673201889374236194572877582550013434997138477313642609224365783369189738163498563969875526385264987471872.000000 0.000000
0.000000 0.000000 0.000000
-183884263704669652532626230953494426559046251886126159689115779771419758702922751795286596117829545428927560312667872512136183808.000000 -31627107612059504324561448929133843815434143240435858588165514245366033125072587435507556675134848422029156772821091050879713280.000000 0.000000
-31627107612059504324561448929133843815434143240435858588165514245366033125072587435507556675134848422029156772821091050879713280.000000 4211975553039864370115613505864896355569259146742891432489013985639950431197177948317171279933116834979556111605549059962568704.000000 0.000000
0.000000 0.000000 0.000000
381192929206898981518421656064356261403476544622536901866689182538883487873259401665122329521591426561601279238232046469596053504.000000 218024494382116141042034884801453811215775646470265357636176901471459062781818430171121630032561856270314412474460778959036481536.000000 0.000000
218024494382116141042034884801453811215775646470265357636176901471459062781818430171121630032561856270314412474460778959036481536.000000 68996495613936476115161188100315918943990440457816822433859458617624305567908249025355175760503087785317504319122260533048246272.000000 0.000000
0.000000 0.000000 0.000000
374251236445997669634135719274967814662647652220905620724793250056625498574230179071763228115767948098295050936643624137291464704.000000 265943616970771480622091690162989871342401928110629038368474987367064009843684020545270152178414837579833336504031869831609319424.000000 0.000000
265943616970771480622091690162989871342401928110629038368474987367064009843684020545270152178414837579833336504031869831609319424.000000 101096353365945420307154978387492195268131348466273989858698616354417368692088072940569534154253841221136344321418238795223924736.000000 0.000000
0.000000 0.000000 0.000000
189955813144775562827236631333316179977873440270975709759514649889035228063222178721606719365346038101069994988439633875221610496.000000 453420128816699060949441601637009980629107014543831239177535283821815459912614666250742476142964322498786813797355065340315303936.000000 0.000000
453420128816699060949441601637009980629107014543831239177535283821815459912614666250742476142964322498786813797355065340315303936.000000 232828835760452975830023950918231566811797492589142938106618782272596788812575622345725853799270558487999680725865183569973870592.000000 0.000000
0.000000 0.000000 0.000000
-92404217114925607994411814245991612406824915663407296848981725260250288677993717211015081872447002562985902263535021191312965632.000000 -432415609346123693802495924852074088647589940618192413660137873898707504259424138121248299802853436468740439927528113025203568640.000000 0.000000
-432415609346123693802495924852074088647589940618192413660137873898707504259424138121248299802853436468740439927528113025203568640.000000 248958663067068463245101647150852426997266568112289755810022700535817777646811882698465260001397880517608220371878012176497115136.000000 0.000000
0.000000 0.000000 0.000000
-93755316956820219290458749053055070569330295737635351423979353171609017639315549072890454593782403613923344611295836016714329358336.000000 -5959500391219809780617214977123377141250191043339443842905152157592494995554255459874079808686200936181401323139037158377709895680.000000 0.000000
-5959500391219809780617214977123377141250191043339443842905152157592494995554255459874079808686200936181401323139037158377709895680.000000 739730952924652901985546679860451153411721842798592205107821784762676287551793735266090050566914150006989690027825070164137738240.000000 0.000000
0.000000 0.000000 0.000000
651744602646430764826316372396888471532685395624725182851940554147679221217647120237124593367492548580899858601445649091729031168.000000 89818335403455721852308304265541773526298532248414562166464050727623250232216069008235961343027536869952494990194184236717572096.000000 0.000000
89818335403455721852308304265541773526298532248414562166464050727623250232216069008235961343027536869952494990194184236717572096.000000 8202191946435011484466257884527490721868840727641064612801213602097309744452756013416400616132366594769629669406966246522486784.000000 0.000000
0.000000 0.000000 0.000000
509606659269852905474090438979631477146194608132229215091921300761556940225750375302047501771054233601429628316760272311089627136.000000 127452511713396742162601341653162895517073927813270309510824874709056483980090131861875252279998201740765035865337264647578845184.000000 0.000000
127452511713396742162601341653162895517073927813270309510824874709056483980090131861875252279998201740765035865337264647578845184.000000 20483079593309242483447095964233910878656553831618000855465820086347766191529470190779750071526085798768035421601265729671266304.000000 0.000000
0.000000 0.000000 0.000000
176731216914177637164273862722419063824752543636499534119151971880331477964880778562913780618172675376088778788027952365863698432.000000 -409759296941820796961787851993178935575544680353537249533183713926595244210640965574431848526329934202702831879576030605024952320.000000 0.000000
-409759296941820796961787851993178935575544680353537249533183713926595244210640965574431848526329934202702831879576030605024952320.000000 209248223426355063381522038812101245457107787017262685731329124926564336065218850184505929934442350168299608596489478261872525312.000000 0.000000
0.000000 0.000000 0.000000
201796621987555169373176720838098335047763678109765449214335420736619143968845387710808675403347351249785247891426960682434691072.000000 -67315393570904143699337598653565403482192818271101490556922210707856344109272611838749272816555004190539353131309456844105187328.000000 0.000000
-67315393570904143699337598653565403482192818271101490556922210707856344109272611838749272816555004190539353131309456844105187328.000000 13949818762965888991209239076814288589642909629285879340936561076746789476062336360334336376459714806023332763238839278651834368.000000 0.000000
0.000000 0.000000 0.000000
-5877814073070398018851918335124958490863912090490037592889361857919637015193258328872743513906341927202360484445605655757746864128.000000 -2942778110225837422427664798578243940371027712281460811707070972631231781121556209812107369992282830413965224645011192164143595520.000000 0.000000
-2942778110225837422427664798578243940371027712281460811707070972631231781121556209812107369992282830413965224645011192164143595520.000000 1505576987283309863588011491329228316478453491581618103021994129529609465326338901972248126143766582795132583972845710454477029376.000000 0.000000
0.000000 0.000000 0.000000
161542744850370023878201575899662650259420893384391501439093895081689801954766757710533749616075298570777137033532842561501134848.000000 -360169742273992564897147656789349074173495846502417149775161449917852515455372220711201211884040886897985925237752821273851854848.000000 0.000000
-360169742273992564897147656789349074173495846502417149775161449917852515455372220711201211884040886897985925237752821273851854848.000000 192951135245433469804705245428097564775228662242923743612903435603789646098777469033140225690504569336117345745451782737282203648.000000 0.000000
0.000000 0.000000 0.000000
390930882562998008894334452191462231072286894468354749956748778371537050042529895006014384441641803102464082806715335275708416.000000 1292955275221381788254593801217119700795946852556612708651531133292917418556465999907894284083418094320177508478890983689289728.000000 0.000000
1292955275221381788254593801217119700795946852556612708651531133292917418556465999907894284083418094320177508478890983689289728.000000 746900575437889799967899136865271698849447221317105787440896679734600749803256646501105340711777262128636585503398450373328896.000000 0.000000
0.000000 0.000000 0.000000
43094492556679803513953435560722458067540802329677394009222850239056510976568314889651561615676520487768942310654943272814772224.000000 35942330934913932069315866871259378378784073373386405223473163482572749645583093701804469811649889749657495789137139492924162048.000000 0.000000
35942330934913932069315866871259378378784073373386405223473163482572749645583093701804469811649889749657495789137139492924162048.000000 14148591992590143374754508942634622845681650943866497456542770394750454586999650192987111782519738066845903027692264711392329728.000000 0.000000
0.000000 0.000000 0.000000
-30129230286968181184824283124966027228202969210031379954458706771109955851875433124279824279433380962203789829514111864511922176.000000 199557366964110741813827846447790126903362391214370013046388526848374730778081433164172908455865472908274209452615275456250249216.000000 0.000000
199557366964110741813827846447790126903362391214370013046388526848374730778081433164172908455865472908274209452615275456250249216.000000 112961358812849462310489378890766326497700757232132273097491927688510418328118275966988247562772395219977151251827424203624153088.000000 0.000000
0.000000 0.000000 0.000000
152378425344487829583353244882056458833239607788951721591376220619541121611409306327369127299404160256097515871623422408403189760.000000 -84072533771883487526058218012456676587375513300103202502289336472735793994299378566195138100237826908620806907366005042915049472.000000 0.000000
-84072533771883487526058218012456676587375513300103202502289336472735793994299378566195138100237826908620806907366005042915049472.000000 25990497633661903888098932356715744834743273981299812764371044676167739853948954065173633550230370737141399176909309795018735616.000000 0.000000
0.000000 0.000000 0.000000
288734922906233804806186320279508702689069659988196441175152232198296749208367435637632933619411545770238415558087063279920742400.000000 60538139468495189344321417451602998759800795430440568757588269483735168965441357657248198949179336176296992463990823743429541888.000000 0.000000
60538139468495189344321417451602998759800795430440568757588269483735168965441357657248198949179336176296992463990823743429541888.000000 8240714511728090080848716804105188379027913909953456521793509382486557395423962242118548515536905212261755873981266681640517632.000000 0.000000
0.000000 0.000000 0.000000
224632033459853266030908107721612642466521624002427661397292912449842929073211335368816151154432972168155828713320444293057347584.000000 -31580958677621955619789904604710894684358333237883948070355490829245805993607619399590032747049611937447811379223704045436796928.000000 0.000000
-31580958677621955619789904604710894684358333237883948070355490829245805993607619399590032747049611937447811379223704045436796928.000000 3563399016843654263466690326843185252094843424632337812177060381852422431629237254817107396209663449063329039597123818978541568.000000 0.000000
0.000000 0.000000 0.000000
424701542476044714832704945914115222594954464125058509763913442890227685495885575051069280391655909011571732715996884327372685312.000000 -309515281186157555669940304367740119603511309287751491410953615023999233234432248426800568535935663104072375121078420499995820032.000000 0.000000
-309515281186157555669940304367740119603511309287751491410953615023999233234432248426800568535935663104072375121078420499995820032.000000 112988626720477749529591564836642790077681472816226670392690028849743826292362856411303177940579098893944480381347531835651915776.000000 0.000000
0.000000 0.000000 0.000000
7502147224753380957028248623828744884866664333006862872672374456048149000897185225388120323765102352441836003285911751719124992.000000 -876330725016549407782064896709909477081995709004620556076311192275306528425493307439198152444569285591237825832201613154975744.000000 0.000000
-876330725016549407782064896709909477081995709004620556076311192275306528425493307439198152444569285591237825832201613154975744.000000 804960579585512584772796725947084064955443672703148214691988184945189426290217021069896125632504299975331863390969493029126144.000000 0.000000
0.000000 0.000000 0.000000
3868565953737343112765835079772564643855376672371915072486989125549592126963213326550246700391399630163632910814017477251432448.000000 1346054438332862333264623784422511207801160096107347058985974824642580147252150768470810993124161883520684393695988144687546368.000000 0.000000
1346054438332862333264623784422511207801160096107347058985974824642580147252150768470810993124161883520684393695988144687546368.000000 289401512618174183937137224358582071743102774697913547908927789937973403392219568184423722199230478784736085778777659068645376.000000 0.000000
0.000000 0.000000 0.000000
286172028532354663023158263672458283310017330378452293379919397937070255270322922773913179306613760759796936078902236532424310784.000000 135820047968235060448771366453741373084927636193488055955610724399262463210950037125259839181064202954604202251234502681584205824.000000 0.000000
135820047968235060448771366453741373084927636193488055955610724399262463210950037125259839181064202954604202251234502681584205824.000000 37209912443886121938104578706239565389112894863577328736977472725865936593999178886208650163360252676734837208821083500321964032.000000 0.000000
0.000000 0.000000 0.000000
-32755285827943728177493256660060436798683025372832557063381531204967680224547223424783688647012288905615206244968449761767063552.000000 -66406006920259195576923966128990089338574370123271669060191815543995465139594247993037523409717713108336627365477606026842734592.000000 0.000000
-66406006920259195576923966128990089338574370123271669060191815543995465139594247993037523409717713108336627365477606026842734592.000000 38300836427631149806701229041167435074350281660252706321334814934650802879604552831361844214382633167554333044547260191510364160.000000 0.000000
0.000000 0.000000 0.000000
11952878507842352762811327074521428631420153772906500959199324752796795435464124525326955870002718841316087594585206862871789568.000000 17546018937662385269021845833387933439848386255961588606536985038670358786022121453626992635132378542776630728540283711902449664.000000 0.000000
17546018937662385269021845833387933439848386255961588606536985038670358786022121453626992635132378542776630728540283711902449664.000000 8500165400751760310785209966019900813501821996349826609281204965011563455166382593705584981516919119015532909580280747595399168.000000 0.000000
0.000000 0.000000 0.000000
32781822180089052843032194412371863760435798542426860328508518241204229845094474106914949097589891616290394854632932260402167808.000000 -692334920583640442071049092702273038790591017675600486301695265201813619016587660495596487654390499081364221635594842600412020736.000000 0.000000
-692334920583640442071049092702273038790591017675600486301695265201813619016587660495596487654390499081364221635594842600412020736.000000 382344948923617119313248337903666792516551668418113669769852065253911248507677144797620087530205383305963020378863881581458620416.000000 0.000000
0.000000 0.000000 0.000000
49151585853810764206402338922968614875583284877286453930720028040168106757912752359042177894871222676652124827699728333381042176.000000 37686154074432267335253254276327727668942464631701009357498243358142863132276377374284065292924581242380007422186063375305277440.000000 0.000000
37686154074432267335253254276327727668942464631701009357498243358142863132276377374284065292924581242380007422186063375305277440.000000 14110234842830550564312275749856484035148790794105589792793818694768619049858287854045029404452054473002367951999815324773908480.000000 0.000000
0.000000 0.000000 0.000000
1282056612799683389132255787665772430826145720604494043858910734460400467501203883899731736229573855491586658315385402506084352.000000 -21046777040302119339701228391482938478469913928537753992381154910917692711648538156957950552311829283089882016707637866083123200.000000 0.000000
-21046777040302119339701228391482938478469913928537753992381154910917692711648538156957950552311829283089882016707637866083123200.000000 13986239430588303040407803744597849549781917400864201032888730766719694186674701978448263394283267089145679565030542691358736384.000000 0.000000
0.000000 0.000000 0.000000
374207658083382398898051889942215052574530171194333065450436647546608685090179131402877505670901380245636704491026749308501229568.000000 61213027754495636876633097057666028273945716299489848979941597340369659945691152282945283571954635158248323492636202469636964352.000000 0.000000
61213027754495636876633097057666028273945716299489848979941597340369659945691152282945283571954635158248323492636202469636964352.000000 7124081788155941462502949836839607590553540570526648402918050502100886246364767259594989307856832953344712996596345667353313280.000000 0.000000
0.000000 0.000000 0.000000
-1005822466216394489338027834019917430293612733281252108066872068376918029003430073111125882450439485218289865493233417796704010240.000000 -15424536811561581407659929585431577511052195069432071679496913822760528215317233554382698974361641605245680490994150559438602240.000000 0.000000
-15424536811561581407659929585431577511052195069432071679496913822760528215317233554382698974361641605245680490994150559438602240.000000 2896201366352171953284497999145001155011503264695205316959154999014170107189603937629371078786759213344719731652916047679324160.000000 0.000000
0.000000 0.000000 0.000000
302943173267696406607261973182070913904960292373622067210738451961338348867812817895748791442406502638304270491699459193684623360.000000 18113481444789666256257495447217265044522349797610737799890194176220033910676157013225066354733273720574204120186215971011166208.000000 0.000000
18113481444789666256257495447217265044522349797610737799890194176220033910676157013225066354733273720574204120186215971011166208.000000 1046913701390574397632169263084357391057981570440148344962989886646437086547391430259462964507171132377913988046024554005397504.000000 0.000000
0.000000 0.000000 0.000000
634430562887213209173792631398457678361811078698823010163713210317365407299140818298923834829537986799513791744822101762113536.000000 -20632876200325466368220216410522050052724242150901171036758304886327905598688491969328735075878341068681996326343738741911191552.000000 0.000000
-20632876200325466368220216410522050052724242150901171036758304886327905598688491969328735075878341068681996326343738741911191552.000000 11396631907366858952198354102552111226077301195749150305878616501201812795828564995518238776638919759531995938920460401961336832.000000 0.000000
0.000000 0.000000 0.000000
547986592585587428830557067532477199224130326394109998696053875329860102106459288909240650756845399662546386545891372435505152.000000 -586479758995559809636793423952589871952142361656247787739460820606186179462565957846490553002174641578639593459668499682033664.000000 0.000000
-586479758995559809636793423952589871952142361656247787739460820606186179462565957846490553002174641578639593459668499682033664.000000 253505655967596760236844714204485288485820479838899921085864354796225317738865355081401009015714164145882049500211040967720960.000000 0.000000
0.000000 0.000000 0.000000
6097128688733418338065532534378495283122702401831883733041425708716718399512927403806772813817417837234519242446294123531741429760.000000 3455026324666975686380775532656272282911833684019815781555764426665974357402631487381258530465344201083205021382578542383644803072.000000 0.000000
3455026324666975686380775532656272282911833684019815781555764426665974357402631487381258530465344201083205021382578542383644803072.000000 1080584375718635924357223892622654736364661544694390129940356830082350315716784400374473099999237427006170314300397263033003409408.000000 0.000000
0.000000 0.000000 0.000000
623949753011815527204515272384045297445435833701349991981394278029004466945927800286925087583621457234388392450596493873643520.000000 3290308404721500430538447583248165699279547373637568972963661198943859886846103289755682301323596165072040837008989405692559360.000000 0.000000
3290308404721500430538447583248165699279547373637568972963661198943859886846103289755682301323596165072040837008989405692559360.000000 21111060418261558892374740804837159825757980537032759825887910688173081689443157459536982942468464038091739261142202476000182272.000000 0.000000
0.000000 0.000000 0.000000
-1221208961648138676808647047011578914295953778910881950484727883892125210493569844451116750786723250879733251250540906833384570880.000000 1140241982644298277592440137730495113999821192701041111471726114363759276676555782984402255979224819084228953527277848883521126400.000000 0.000000
1140241982644298277592440137730495113999821192701041111471726114363759276676555782984402255979224819084228953527277848883521126400.000000 647990890919479823009286332292134634621340205529294644057014166963543093231391089122971051971437264066481285079036508472640274432.000000 0.000000
0.000000 0.000000 0.000000
259351407884126641710190105180533012105200419971920857465436459128546995512846120571619976288924012129208550358744330686804525056.000000 72941266568934864319037834580137240608558993701536477345506646373982527720039715748425227600437785929585911747136618959437037568.000000 0.000000
72941266568934864319037834580137240608558993701536477345506646373982527720039715748425227600437785929585911747136618959437037568.000000 12991168467771338074554238662009114671740216161195814684272795231452790617461442284255718544285094834956962617085474369353809920.000000 0.000000
0.000000 0.000000 0.000000
-1345082452620510258206841641461418410055132784774826305207763143676024561341670493211355551739289130680616493848246973769143287808.000000 475262554237092158548089253176685005485203500463331807478304831186001837608920389633820021871535110594883296083495041388767084544.000000 0.000000
475262554237092158548089253176685005485203500463331807478304831186001837608920389633820021871535110594883296083495041388767084544.000000 214976820045897557435077139646474987191761684047693998548994578760376192088687392315263519127821301591496056816321850276174626816.000000 0.000000
0.000000 0.000000 0.000000
719585488594298147009091735057001312470239096570682804005438259602165682881542036447793580343024949367685680382088489164941033472.000000 438854513511356121822676949444685025777253293240686106760047722277988954315434996604926972466442426137552525041164264025660325888.000000 0.000000
438854513511356121822676949444685025777253293240686106760047722277988954315434996604926972466442426137552525041164264025660325888.000000 144467062601069588931705491493253766927203107660035773114958728220310190691138593332215379673223687532244738212776857562333052928.000000 0.000000
0.000000 0.000000 0.000000
-112989223640280325012472089243532949029221046402581443165057924275891654656439740556451569242136979630911090414523150524770942976.000000 -121075863593874913519141706101036890608449951618983478052203011814787458439739453753055228125957693575759774753010387820184862720.000000 0.000000
-121075863593874913519141706101036890608449951618983478052203011814787458439739453753055228125957693575759774753010387820184862720.000000 68700418972766116208190832335363868223541772109829132883342850811448254762892993405625424583844538598249885412572783684553277440.000000 0.000000
0.000000 0.000000 0.000000
-3018932714605742552136412461007067881426530580043584121238637572385837033915364766321606641557643102018870730248281631227836891136.000000 -456507529098591627400949531501042144144684881421054338784778135603779052720633395267787608879799117083276129372224944778357243904.000000 0.000000
-456507529098591627400949531501042144144684881421054338784778135603779052720633395267787608879799117083276129372224944778357243904.000000 122821609555138612660474056502849674930948047072685716940124532469039078402589033718543915727769135458248337790167002014797529088.000000 0.000000
0.000000 0.000000 0.000000
-8042621454084806873346453590399732643841409872986488943569428069761464208267950937298709941308666607696553603252436150950578618368.000000 1397611213832276982916049043375925216575977998703542996806617032285507941721537220376441643628952029240330815084638021553808736256.000000 0.000000
1397611213832276982916049043375925216575977998703542996806617032285507941721537220376441643628952029240330815084638021553808736256.000000 417313201656799128819056138832610131066892100936054361363948506854961057310998689190728373231505626848749549758718592682922344448.000000 0.000000
0.000000 0.000000 0.000000
62679410823961983276537125971364692103330883071062832663785904700755479027739574861662193794140250413410712837202339937575239680.000000 -20486325201288189421086232027103087752013898045736079075662682377997432105455471073392540723539622726724717929669031600913907712.000000 0.000000
-20486325201288189421086232027103087752013898045736079075662682377997432105455471073392540723539622726724717929669031600913907712.000000 4203151242777912497051762481487004544419611999770879048809818534284433782298566850311144251339485498147117847240047038212079616.000000 0.000000
0.000000 0.000000 0.000000
-36378934807651610967696850765572992964153381175295377385322405654846301069929001187729719573671239729615888160894162253299843072.000000 -393361342726966028113592977054850112362397467045697568449318833213842852053872020007310302794207382601574477620109410381896613888.000000 0.000000
-393361342726966028113592977054850112362397467045697568449318833213842852053872020007310302794207382601574477620109410381896613888.000000 222938276167088799689978253863956521667859467376962070923833117817806670508006814054807960330536769413322453588765900934452609024.000000 0.000000
0.000000 0.000000 0.000000
-789813241276823844174420614607846696713819873391108826505065077382727512870416701443479346021189744534017791607326416774025445376.000000 1058760362360932933335164818440519857921705188324584919351718943880410567012420254346673734450473617785589870948722623885894221824.000000 0.000000
1058760362360932933335164818440519857921705188324584919351718943880410567012420254346673734450473617785589870948722623885894221824.000000 610052234177847032749072116657764274082193810315681516864351641660482666349656431645728586456985441712148093793366430203038924800.000000 0.000000
0.000000 0.000000 0.000000
549265040602870530957770076174182775689088660464395983685514249239620101497482231450317386707811720977346038306921719033604603904.000000 -867438353734522718311845751765562432696145367350100567076527611371003291323983632736017010930060172533909582719887941564702392320.000000 0.000000
-867438353734522718311845751765562432696145367350100567076527611371003291323983632736017010930060172533909582719887941564702392320.000000 416466052107524803131357323730147644613131030973037574389987316910731483398970637576220791730961913262102084371887004185912147968.000000 0.000000
0.000000 0.000000 0.000000
-122893055268993791770382616042240872576315250823406533659777005519889593654312523447782963073715480006350607265030881258550329344.000000 121117076919992301211958051562695766824450243673986698864942256597183138482356190069947164785870561480825194305589214682445512704.000000 0.000000
121117076919992301211958051562695766824450243673986698864942256597183138482356190069947164785870561480825194305589214682445512704.000000 68805116084208397186390298464588620277534511535258250946472670820985215500576459169059836054935550265455522471073661155608100864.000000 0.000000
0.000000 0.000000 0.000000
481698372951627260430183552692357757964496925500024130857682759882145385635200937859111092983047152791553107502346669574122897408.000000 -700187877959171355923906487665922703123272548915690017131076104621731537833074676399492568443884213848409452014231636630619291648.000000 0.000000
-700187877959171355923906487665922703123272548915690017131076104621731537833074676399492568443884213848409452014231636630619291648.000000 330333690451036766916119907194226622804178276609070060818156721184402954686549170216260791478677055163410420306437963103787286528.000000 0.000000
0.000000 0.000000 0.000000
-419393498990663083327162077991255033854768481286449784620704756016510426080251910733617806177743507544061566072622822689154793472.000000 -411724303368358478412300507794710614052439494891318956617762327992701619626897238424703680443351656833364888018708223237216534528.000000 0.000000
-411724303368358478412300507794710614052439494891318956617762327992701619626897238424703680443351656833364888018708223237216534528.000000 235072525042589229026131154670339600887740828410009025411422940839070882003154208187001641670866327066866123330125307346170150912.000000 0.000000
0.000000 0.000000 0.000000
1267458278078263777748008326867206571539228519001686682738129580620013382290839790986855473629664049700213230286513285757927424.000000 -399324853845594996256042992309108710443627999992596821564316258897216370208771494901391065723008608625101323120412285347037184.000000 0.000000
-399324853845594996256042992309108710443627999992596821564316258897216370208771494901391065723008608625101323120412285347037184.000000 93762245294510267198872099929314096217321194131603052177246398048224777924736789071625352616655371635723201315976008792276992.000000 0.000000
0.000000 0.000000 0.000000
1814506300680196410196327264586767795247189172441820424442743326126292327018807672500865927832268215798451485694705808296070086656.000000 2334775967127151490728766902939993417547341672001100117315355570845254801926735037959697757496162675309539198899217779994193297408.000000 0.000000
2334775967127151490728766902939993417547341672001100117315355570845254801926735037959697757496162675309539198899217779994193297408.000000 1068275147843846345193113325439729436703529173769188452833950161700622366914529772728335637551694738477343084094723323499640782848.000000 0.000000
0.000000 0.000000 0.000000
10008418834714432107310748253641890378288348298804792204138096611343201964738332479793617265766300547395142710890504028485058560.000000 1566715367393536577334557100600476421228523502003887663084489113034821231975201303438403253898462728409432275739116034439774208.000000 0.000000
1566715367393536577334557100600476421228523502003887663084489113034821231975201303438403253898462728409432275739116034439774208.000000 161378374247755556584105010927363610689504630158160262828073110330995528646351558635863510822496965660951870780747631214723072.000000 0.000000
0.000000 0.000000 0.000000
419291422814138437099950207808787315867468498304128205190590302619692977715882466232251061584849578140283686593655372222228856832.000000 -179691174713755951865576930494644613392063658259625806570146320942421420078690841266730561358175363328854069983454213974999957504.000000 0.000000
-179691174713755951865576930494644613392063658259625806570146320942421420078690841266730561358175363328854069983454213974999957504.000000 45334998856287594803195653025778953791730834639568776866682988595204364033626057717002285455549549156670366748247382869046984704.000000 0.000000
0.000000 0.000000 0.000000
-403347281821656450418609438410779240324453444391239979536674213518617541195387157746436428345373449145170895969680249073002610688.000000 -355421645939441624145045325411703751858974512781089960973116742847013080760608306555113359618002035799591981350264002884447240192.000000 0.000000
-355421645939441624145045325411703751858974512781089960973116742847013080760608306555113359618002035799591981350264002884447240192.000000 203898254884137371449302033373397882837487767407179143094392203694282737864485389636664049290855542933995060959100374502262964224.000000 0.000000
0.000000 0.000000 0.000000
839188504111159757587392598623808553372912129783119821757413976616551467620136645684844465065321590024167056515163697053284958208.000000 1455036305701116864393270299415062732857323518717393895858109256556208058401501724668116104822188693306233641317260155631762931712.000000 0.000000
1455036305701116864393270299415062732857323518717393895858109256556208058401501724668116104822188693306233641317260155631762931712.000000 721147617758210925595261213947708226623430585423732159896552194290842572706810792309050615524647297649155369025503376952596103168.000000 0.000000
0.000000 0.000000 0.000000
-23722920968133896048146006062763826698694954008013033971049778426342902364034270813572776750413610298998395074179394448444620800.000000 4405167698397619830987777709023538608313820907920974730499654215855693582576358294898750166424743294927451225712007749029593088.000000 0.000000
4405167698397619830987777709023538608313820907920974730499654215855693582576358294898750166424743294927451225712007749029593088.000000 1267833731587819203659118932139337134575520509545895249192166389033038601204645191218148446057890821676817599046294774623502336.000000 0.000000
0.000000 0.000000 0.000000
90773712305923835208318596673810956227874970033711997039129918447146897549902526403797146686368452248989501623330778925867466752.000000 -659894462567981184027657000865628493319260154697668208190616986779974275265991553442630512925072119146300664756405653285256560640.000000 0.000000
-659894462567981184027657000865628493319260154697668208190616986779974275265991553442630512925072119146300664756405653285256560640.000000 359027172846987706674571585513891339118304034692978789702500436031152205696948192497032845299692352781054713288589796225887240192.000000 0.000000
0.000000 0.000000 0.000000
282959965251121251932117701306121485154303415430144226449816554587589518001325551063787292519287264976749737980064172930616000512.000000 505798272282609216556545861251425222274492551710349122957463565137469185184371184380832246182790836771444525297355345675268653056.000000 0.000000
505798272282609216556545861251425222274492551710349122957463565137469185184371184380832246182790836771444525297355345675268653056.000000 250050973284594512829768950006837283437993796181645806278920006473868577877313470629645799219701847223998521352442321692079947776.000000 0.000000
0.000000 0.000000 0.000000
-446461570357510085334532698290858188216793542336004721608952599904473643350300577941353599213891367045549104770201442080570474496.000000 -209793157371344058485817084037578518590148803898906762597902649656410466614354944224994183738683902943715308712080846608255680512.000000 0.000000
-209793157371344058485817084037578518590148803898906762597902649656410466614354944224994183738683902943715308712080846608255680512.000000 104670291174902869354852722001057349762377485090207570721791636045460647526476615014524042609711815522742467075504887902800707584.000000 0.000000
0.000000 0.000000 0.000000
133798997700925965465539438091035136753646599837877968583621243610524383670649104457103505065231055863818414057065172973693960192.000000 105243265695113799123784070893087230963932241014572490436936070085104981827478689936928492333219429902278901629362510751730761728.000000 0.000000
105243265695113799123784070893087230963932241014572490436936070085104981827478689936928492333219429902278901629362510751730761728.000000 40058607231417744454928880121774710826495628283802378186378002071947791071758342977302267772240723989652491713445224056843403264.000000 0.000000
0.000000 0.000000 0.000000
2183036302283364317157723342801763330615087540681369827877841837910155130432124100413880210268481098929664790586378345867378688.000000 4084291079961480371166700146029541897563321564273304725624332664950494931390464242640787738897666370754155074273703919781675008.000000 0.000000
4084291079961480371166700146029541897563321564273304725624332664950494931390464242640787738897666370754155074273703919781675008.000000 2023123142929370083001636561456539796752445721945048494312102208428398421872839003000419849199582951480002342951193828883693568.000000 0.000000
0.000000 0.000000 0.000000
-446851118595163031826724939303701196043275270164591935729022942309570121094353780890153134890041644768605847975903346974059921408.000000 335888879340448502676247452824918160379332506048502987746335360845939927592044793058084770927103543078738760671616965947913404416.000000 0.000000
335888879340448502676247452824918160379332506048502987746335360845939927592044793058084770927103543078738760671616965947913404416.000000 187457790309433003627443848748817334895318133299737868675827507691821974453354912596490442052678313012929998442567698858907795456.000000 0.000000
0.000000 0.000000 0.000000
-1423988082500622427210183119740072743066731214231809321101403981841329386434170463110175218894743981306501721625493293373595844608.000000 -1768939689962007858986603878959628933180386952603115245763476751059411817387446679144650585628619439628619975858868308139130748928.000000 0.000000
-1768939689962007858986603878959628933180386952603115245763476751059411817387446679144650585628619439628619975858868308139130748928.000000 1015943925493490785582182023441395360270080026794916919884683243861219391724126762305963018511799744268194239090200557884884910080.000000 0.000000
0.000000 0.000000 0.000000
-52755761226605698001745423947930122201264827531790441817284320700159444877023885214255531482443081968773343202913594381963362304.000000 17542785524169616157946277997483101482022085432115351544407061562157983120957048667755555786351424031277263368347764156350332928.000000 0.000000
17542785524169616157946277997483101482022085432115351544407061562157983120957048667755555786351424031277263368347764156350332928.000000 7025701903570536435968937023661781907278054005154442897979387919057063008436766992301494908982153783483021714827740903194492928.000000 0.000000
0.000000 0.000000 0.000000
4344773269076357002467893206985788396971223628140797927521368858885578222822101940220066717965491700885678887771782020966907904.000000 -833543521360782007804129122308933051229789674720367832148543440966980232092818221265728563572933543516488596585436211987873792.000000 0.000000
-833543521360782007804129122308933051229789674720367832148543440966980232092818221265728563572933543516488596585436211987873792.000000 104793022150738768223779506904117600682108221460319135720249609761751141649545338877336838842041540068748573708277196127207424.000000 0.000000
0.000000 0.000000 0.000000
127809755214316170704765402721595921472101143448982153503284503613068527067988540605572122459902092871109286375286940946183225344.000000 -845267509205381096765675034505935538715371319086982260252939169794792346834331877921585553936461169740367416215934957849845694464.000000 0.000000
-845267509205381096765675034505935538715371319086982260252939169794792346834331877921585553936461169740367416215934957849845694464.000000 461215212516068227337843004821318587307787006513884094522918876941146418697395865120415763425990716639149935897761336578352873472.000000 0.000000
0.000000 0.000000 0.000000
31814606832626437108589258253825617003904746928108236726371411029118158712644132091798007077504376279815087120284194723843801088.000000 48563581659046884539913388913784225814122865285762755141510795802775562610393209790249303000167965401359670604002188676583915520.000000 0.000000
48563581659046884539913388913784225814122865285762755141510795802775562610393209790249303000167965401359670604002188676583915520.000000 18768249468746977823862760745335892118349341119101519196327007028737100168019870112618675549794522312035354532358778169059180544.000000 0.000000
0.000000 0.000000 0.000000
299527779161765676250899544389212899537519868457568854707923745556462738610049206363605628484344107141561322726325999420571648.000000 -1178428316882540686634332931084469565909320845802644827790284764716684172855693716115612776321575172468150280130365840349462528.000000 0.000000
-1178428316882540686634332931084469565909320845802644827790284764716684172855693716115612776321575172468150280130365840349462528.000000 626564819439654256027753892178814515198190224954870254065680688002044835014102957071829428610664519000912551168966647410065408.000000 0.000000
0.000000 0.000000 0.000000
-27171345020080974790716177141368315221109689138665758489440057883300039665680329271603372947528832372921321653131349057412138008576.000000 1695267566503606322358557224778731884988866433110831362796096249598824043799763298507933196863863132275528044730206006397515071488.000000 0.000000
1695267566503606322358557224778731884988866433110831362796096249598824043799763298507933196863863132275528044730206006397515071488.000000 207197400072371784818411710051679185881171613065432916977807263728203274260368320621445367863270726683529482797276412054421372928.000000 0.000000
0.000000 0.000000 0.000000
-14506988869167216845640599353218687679113329470020390763187982096610521609607646022603128571744117584224674193131566416729139576832.000000 3304077134875155432389521981172178833823754687198348523370528032334873269971566721295819729548198218800867261079489217526618914816.000000 0.000000
3304077134875155432389521981172178833823754687198348523370528032334873269971566721295819729548198218800867261079489217526618914816.000000 1315904377229292134158031507531069080471564376200832739434897204579857248023089011742950794199879676038178724873625542011532607488.000000 0.000000
0.000000 0.000000 0.000000
-258985990170140953219938132645606719818393610680788713253783799673333492694298111246827602917892165948456331590706777277350734200832.000000 10621292436261349511898933663169225843504285467953951534546704485599335690007863897867676637156181309442971651313770785824896450560.000000 0.000000
10621292436261349511898933663169225843504285467953951534546704485599335690007863897867676637156181309442971651313770785824896450560.000000 862350507454776914380066915836911386111550042852453896543773813601613257956076546167259589707427624638654488606620375606995451904.000000 0.000000
0.000000 0.000000 0.000000
-24066711708041193239763328948100760794568747340711631494174733608473541977229368581630084579035868747788906743281001763537040703488.000000 1128659839466647224708155342139995533384466811458068936938788005612941246711324908116734092197766465676815663942213461833362178048.000000 0.000000
1128659839466647224708155342139995533384466811458068936938788005612941246711324908116734092197766465676815663942213461833362178048.000000 104459494023861766832038879143110842531512346240330641277155009634912740984770912989770603117154987147725119625456491384690180096.000000 0.000000
0.000000 0.000000 0.000000
-1934730402543812098140268018504282147611188497701730045146195183352639192761736224490084705553103437268643493083888760672747520.000000 3903255549875519365461089444668392876172116285038200847685706996307038866230557738040035772231827101543993933539791110175457280.000000 0.000000
3903255549875519365461089444668392876172116285038200847685706996307038866230557738040035772231827101543993933539791110175457280.000000 2341045826325184558615523053849915987839656837615380681563774104195080422373888028137994648494488423034029543089078021163843584.000000 0.000000
0.000000 0.000000 0.000000
53124871529154205675154577550361764744591164552520616461318575322018183972145460271369782556732492023974709646038060177542873088.000000 49137138510673859692114424301758244860193421592468875261026779690071015035909170452713929599767870051272807180713979234532458496.000000 0.000000
49137138510673859692114424301758244860193421592468875261026779690071015035909170452713929599767870051272807180713979234532458496.000000 15580458725729858167205358961765357224218545740840057810990786815445032846557780979285219416832830462226445063207224576386793472.000000 0.000000
0.000000 0.000000 0.000000
237308296478829188803027573112618158423331936608080490771960726843285480577291288208918288361241873988396920842688608261332008960.000000 -174072446021269890325791021247132740469014119483915507068025004786482972496151748402655692349275394093493935006058706525598253056.000000 0.000000
-174072446021269890325791021247132740469014119483915507068025004786482972496151748402655692349275394093493935006058706525598253056.000000 62816381017732432307901064642422148393550882275202970597655014804696974523985816879214019035798873105900915216147336871528103936.000000 0.000000
0.000000 0.000000 0.000000
3429249208611912439145699160802912837439590988718809749116250186098591191658150533475031666694383607289522969991295353576832892928.000000 407775416572134744754500797081168258478792881367304067121211214277405099863600881065662610161933118228771136602926566162871353344.000000 0.000000
407775416572134744754500797081168258478792881367304067121211214277405099863600881065662610161933118228771136602926566162871353344.000000 32140163620973168400870157068874945919447664468898541212894398314845871899139548310517175466790274474789015539363847962282164224.000000 0.000000
0.000000 0.000000 0.000000
-43645375508809020136004518885599719119560734524979817836050369300243693552090465801772576942936097131482679792088742247289323520.000000 5505990487834439014743323991517995652320099207045066198608402719195837812843604657104019761326107114861547582050135240047853568.000000 0.000000
5505990487834439014743323991517995652320099207045066198608402719195837812843604657104019761326107114861547582050135240047853568.000000 1276608449608818067690471829402907611955503369543636193475428404860345801574216503765180744468366475784267746902253383379320832.000000 0.000000
0.000000 0.000000 0.000000
-227227540570504325536560122141580220122696087105383515326527567901660669728906992603857500368943510037352830818638789175695900672.000000 670608925836886548915013146953128481872846419699902885111901149960934648523059179400520750995560800381353075196422598476687212544.000000 0.000000
670608925836886548915013146953128481872846419699902885111901149960934648523059179400520750995560800381353075196422598476687212544.000000 386187336831873398332632895061574381093440452315096727292444816404985193963105992422686980425654211349591665300256137464919359488.000000 0.000000
0.000000 0.000000 0.000000
987849897501956522016489070531639305855044473970146101304828766733982393685971216947124097906541737971933212380932324026482688.000000 -770873173123144841281475989225474245971952235680452555934963669356790515311273524773351386674484771279222733687850920132476928.000000 0.000000
-770873173123144841281475989225474245971952235680452555934963669356790515311273524773351386674484771279222733687850920132476928.000000 326412461236574928206300182450750783693362466150612579182591486726173976372853840527231357307462239479934176175489238463152128.000000 0.000000
0.000000 0.000000 0.000000
405757461807545489282348980215865493436593220827793717475576186776452014172518642982972668218778312598677395541322583337259237376.000000 33252917211953502986917124768204857510055270941359984324474961937257439523156368477069631865296814932551748241974273470720114688.000000 0.000000
33252917211953502986917124768204857510055270941359984324474961937257439523156368477069631865296814932551748241974273470720114688.000000 3085388676834008284371577059639496014920606707967135931337412127177984816627802771936730849963211158751133323292634005662334976.000000 0.000000
0.000000 0.000000 0.000000
783152807600419565220341954398402999571072261897839137553668332734193481914158413850108273005480488383813892960035100771330555904.000000 16696798451107415074264863132445769984339703158507085983814756151459613798474182508188923102671602979897290201278929944585437184.000000 0.000000
16696798451107415074264863132445769984339703158507085983814756151459613798474182508188923102671602979897290201278929944585437184.000000 3464411571924075561883199430345176073798051121741753992046497740733461246668390866092599034057919775805737647840285177226985472.000000 0.000000
0.000000 0.000000 0.000000
38979650423157090806945948023398925467003964080215409049609041408272147472137391288915654980316957829378091966395577190882213888.000000 -43610982050033648842565832068512832396252803290072936813467511437265332538083696585577464925954558996703822961343856939506860032.000000 0.000000
-43610982050033648842565832068512832396252803290072936813467511437265332538083696585577464925954558996703822961343856939506860032.000000 19154786192417790502882863803778309873374807385485812039847632789412599619255776654779343367215537092434254426448124397880344576.000000 0.000000
0.000000 0.000000 0.000000
-4125761572363650793147922472019145090918671031285650944759664719158364896538639668861121999429224915587156100546857516545343488.000000 1745061259216741850352970612576944508067164490870959154912475356575302298658039787151336944774307347652473270698195389163503616.000000 0.000000
1745061259216741850352970612576944508067164490870959154912475356575302298658039787151336944774307347652473270698195389163503616.000000 824612463176689373091482074897130049314027033906854858612268995688018516209582307565842562437227343314546584040044394956455936.000000 0.000000
0.000000 0.000000 0.000000
511222033283781739433891827539437793730548004452936956046295712681244223913656016242837323725125419719897023914693189321457926144.000000 -336349465993880241451687281519016534185318896899828744932945974045692496626615983154041661741292924118710447867134056004914774016.000000 0.000000
-336349465993880241451687281519016534185318896899828744932945974045692496626615983154041661741292924118710447867134056004914774016.000000 115636479609046803617415523027548579962231102113704937418040371723412317440109967129576608576661484539180885401233668793123733504.000000 0.000000
0.000000 0.000000 0.000000
-962242788819251741872432810771790372369049006414167310121021641002735482688767662842268203418754454638523770745826146935080222720.000000 87746933997044480221782486383876635587822459677646471411281592122907539079081195938849802876424239404041197481477446429589897216.000000 0.000000
87746933997044480221782486383876635587822459677646471411281592122907539079081195938849802876424239404041197481477446429589897216.000000 22126224083528040260902995731748680506990527729146174577050676699340206437635208409758900628534840483128274730344815042033090560.000000 0.000000
0.000000 0.000000 0.000000
43546431217435952659446468638050879004820736542056812323979313272169284010930746949180397971613641568831643764854536784886890496.000000 309126423086478978380553572113476051357507188985472704454742296043099839504559512933310376150999252427556811611678222415648784384.000000 0.000000
309126423086478978380553572113476051357507188985472704454742296043099839504559512933310376150999252427556811611678222415648784384.000000 168097933706500945604244950571457378733397978309486197635436575405197004682008549184451919795368618146069514767461891216714498048.000000 0.000000
0.000000 0.000000 0.000000
703422304582724528894772694176893993508997860900774483761505069358549953721377074428187005945026494353023669960940200384266240.000000 -1012539921773314656415331059552316654700088464935975709256277799733011779599937615292879748590728977887747719277747426172076032.000000 0.000000
-1012539921773314656415331059552316654700088464935975709256277799733011779599937615292879748590728977887747719277747426172076032.000000 583788140292827587209385708543135356683869439222057504351999229025060560157075781115158286259914357212680211295300537968230400.000000 0.000000
0.000000 0.000000 0.000000
206286118677916785637255845950349764534438383517565446130229706707416222017389559343052442844124364763691175380243709450831003648.000000 264078519204581212516955471623442921460079352591951938178766933392174210721449359811753590323997231274157133344566744765794615296.000000 0.000000
264078519204581212516955471623442921460079352591951938178766933392174210721449359811753590323997231274157133344566744765794615296.000000 120770104939526340422489782335364752422660369515880915630052421145061322470652019641893695807116686983741913769944026140161081344.000000 0.000000
0.000000 0.000000 0.000000
169415673002318918137326736586500882386386451334203165707339655341466106711212022986443639947690946901548029871597015063855104.000000 547411732621748269070551617739135215233319579150048978887732779141406819971425330270526516578162370860086338087949881556598784.000000 0.000000
547411732621748269070551617739135215233319579150048978887732779141406819971425330270526516578162370860086338087949881556598784.000000 288461933710556111673804038281121448336324661749938320499718307724639833749778028263268979249767938172221346100078427062140928.000000 0.000000
0.000000 0.000000 0.000000
-1471734587177422526051344414618850187485460311246603925807570219417219534109748295086406189726430901446308571698692069662186799104.000000 -34642584000475773900406635538062686418505375447206475661534555985051999567613683213625055749905188035085771236675076538725564416.000000 0.000000
-34642584000475773900406635538062686418505375447206475661534555985051999567613683213625055749905188035085771236675076538725564416.000000 4209876141365066758994071592051708656649718682886894214210833322107787673807098937293754294733516421048162549906538130525126656.000000 0.000000
0.000000 0.000000 0.000000
1303060262125007542235884001810899929676839466534613601631477021823932266062526999345179177499815889160140730673201542082620030976.000000 629056172786891173188689279744531154121966890867915183554249331689956053016646735283975130889203092102341921381349205206741549056.000000 0.000000
629056172786891173188689279744531154121966890867915183554249331689956053016646735283975130889203092102341921381349205206741549056.000000 175608680140568956149290503869828431666940435120662251361826947996405627053468322419318303428380467017181109731954862387332382720.000000 0.000000
0.000000 0.000000 0.000000
123868498123173935545178602440806462853952169762245350022707089622848420052862050480649989108890089017376073170088413663730860032.000000 161616367069345335342368409280209809726193311195077581807055143415120360326302097665178368867425379539267650070839224028964585472.000000 0.000000
161616367069345335342368409280209809726193311195077581807055143415120360326302097665178368867425379539267650070839224028964585472.000000 79403592701304726790480879598279386954922094144478741461026553884485585943701305413770263257001093293982212009663595822104707072.000000 0.000000
0.000000 0.000000 0.000000
-655707857151285206248807260150655224798097278817150516557974515839313095898661111430542607557251725079790897738452542659565191168.000000 -967308681202954022025945477144170306204058148237095079263187261437477928785586538834596594973563176132090686097290998838122774528.000000 0.000000
-967308681202954022025945477144170306204058148237095079263187261437477928785586538834596594973563176132090686097290998838122774528.000000 557810245684814388696645111689049458213721916961489587212339279794478670845740172721408532850700447567769403709235758106673152000.000000 0.000000
0.000000 0.000000 0.000000
392615972464749942079356591821976442353125456741119210692269765288938580838016966673402864242592480882318528073028017947708227584.000000 -90616813694175554960715001731432879086750302617895931184503331120515914748221799912855530753045745733147956183990454685762846720.000000 0.000000
-90616813694175554960715001731432879086750302617895931184503331120515914748221799912855530753045745733147956183990454685762846720.000000 15420458733141822737337423839907839014339392487075508894301109948259936777154578528457995916752426684794692525182863095426449408.000000 0.000000
0.000000 0.000000 0.000000
6145065104029650034347907147099313952052242793399707467145477772567977835165967133435926806460295340774846374446120259207299072.000000 -16872748002999324577216922347662963564150516199878234324349964772463056332473612731360114472765949843506824573748749810494603264.000000 0.000000
-16872748002999324577216922347662963564150516199878234324349964772463056332473612731360114472765949843506824573748749810494603264.000000 11566800838766361912447685506819509975856554983479671907707732521754225699695809879871882032784372560183289686385252478476091392.000000 0.000000
0.000000 0.000000 0.000000
-341860199443497610364014365541820198722186799885255238896712986495436828116192142794608334517949956810955892923475627260069806080.000000 -62846246922598707629881220913591033532748474130440425924204674768055385265215239388014637936748605643759446129465410535259373568.000000 0.000000
-62846246922598707629881220913591033532748474130440425924204674768055385265215239388014637936748605643759446129465410535259373568.000000 19552536506449434269771043792607176191849036778920451855174323862383467698621894272992205761547020693027466524005414455304257536.000000 0.000000
0.000000 0.000000 0.000000
302845658897205027226924999510779715798075434600630223928783545340362170859878176317619051871598689562271811055177598107891269632.000000 568597716642289316902094739151222101065541713867536615950142984646240611347954313643922985921110704233400887448717696035901669376.000000 0.000000
568597716642289316902094739151222101065541713867536615950142984646240611347954313643922985921110704233400887448717696035901669376.000000 300037433684904992630344541559865843394822988135887204514396246985537910612295342991507275183437232086544849182015113163641454592.000000 0.000000
0.000000 0.000000 0.000000
1172961162265506121979065634276504217364057080888108026671754428481110245214878486504183620262546874030711196876499307131993849856.000000 683089944579089425490767833597412402857995048971110849675606880417355914701258359463003017099921944603923160978834108553659154432.000000 0.000000
683089944579089425490767833597412402857995048971110849675606880417355914701258359463003017099921944603923160978834108553659154432.000000 217584748909184472678103481478701943682630293137225878126588971257268194200230247011556550683091643833423904963907473153789526016.000000 0.000000
0.000000 0.000000 0.000000
-1217166487874526828057972228076401967380389893022742740092653069600869230609946933452249001963454366543911737083424937017448857600.000000 -548645489160067770814846829383597357931844330347579648753208500806456768548174526239279648883853515505158893024187979512783306752.000000 0.000000
-548645489160067770814846829383597357931844330347579648753208500806456768548174526239279648883853515505158893024187979512783306752.000000 269742271062824142573562913843206872772404950663477938745808379622316418815380019001392310948989002169763605851071622191383576576.000000 0.000000
0.000000 0.000000 0.000000
815312772319583020330631789672018419808399469353482755367703330324943362140134059141221467118380172969958635358037192144968482816.000000 -1067183216474619303058012204116822936793589473114411830593506436750426026324623057119121168390789637858657190509017796566130360320.000000 0.000000
-1067183216474619303058012204116822936793589473114411830593506436750426026324623057119121168390789637858657190509017796566130360320.000000 491019358503552399352461551618479992917155796258353554419914696140863876630007143426523423346036277311110513422792230282832379904.000000 0.000000
0.000000 0.000000 0.000000
-1765307748593443465137559240142021685553981029073063571126462316571127038094277957940217217343711790103934078948114835588815781888.000000 -947428223668156469149319438284119513867195132911153321051631422721713267712452918276162313445169228683471979268336640761639469056.000000 0.000000
-947428223668156469149319438284119513867195132911153321051631422721713267712452918276162313445169228683471979268336640761639469056.000000 494162145213539989659511007475518620207698464618955745930410654599475697364300725120904181683445815460303673226189309727834374144.000000 0.000000
0.000000 0.000000 0.000000
19868614622392828394363643968597906330566871931266600701699068608368749599107807140870142265127557564866246354985112053955428352.000000 -241967719137821134943826308057323667253381184668251570146373923030318965845064184173477386981592687213021595796520619039659130880.000000 0.000000
-241967719137821134943826308057323667253381184668251570146373923030318965845064184173477386981592687213021595796520619039659130880.000000 132933369510165525821028637559799698869089819579483339107958649184709875824135554392475461203255198595518190449816624146663079936.000000 0.000000
0.000000 0.000000 0.000000
56414065091324422025655619080064903376228937651178761692635871966614031403211750598332347698890095527593584946740161636743512064.000000 -170502192933859002047644060302108251133941338547954040909314656741285671053542560512035236274883335310214333949743818605231865856.000000 0.000000
-170502192933859002047644060302108251133941338547954040909314656741285671053542560512035236274883335310214333949743818605231865856.000000 89341272914597425002502007618861573684079317474484151930992786738859243636987762090990926914597515118015382075257091569653645312.000000 0.000000
0.000000 0.000000 0.000000
3395318341736918953935233528867751535759371162178867719522328396963101531238195708435025461473420860603764612522074023084949504.000000 1903622322172301396726524206275214624615164368319530301502996483210407834485756298497555984724436499056581604129556685054279680.000000 0.000000
1903622322172301396726524206275214624615164368319530301502996483210407834485756298497555984724436499056581604129556685054279680.000000 591361621084561806731597642443043815871207627845146841679212401682386180918731051833583294632875578505821256196144381028204544.000000 0.000000
0.000000 0.000000 0.000000
837526341780015818038072235894949027325112076924479824401554576253001793427355828177738138962396902638491101704399133026067415040.000000 -781763285700329126754350345329470920114129452748045676803962112355660795477297906764823861105934737104272924447870660341093367808.000000 0.000000
-781763285700329126754350345329470920114129452748045676803962112355660795477297906764823861105934737104272924447870660341093367808.000000 322416856931885495609763275821189941089952335273755321541232032559355448583855188956519536230219952659814147097434566455698915328.000000 0.000000
0.000000 0.000000 0.000000
20640614542913420576575783602774634514626011400672626725310866443697967660759551136602038298550021139603884400327320102951190528.000000 10623591701235214994325653551038068874762936326002244469312141921000449651049342589862906461599428014369069790838448610634366976.000000 0.000000
10623591701235214994325653551038068874762936326002244469312141921000449651049342589862906461599428014369069790838448610634366976.000000 2161609244009853481496690848417078020049575316888380490953976735041436737161560997844131211464612789279636899656444741089755136.000000 0.000000
0.000000 0.000000 0.000000
336447753943289402060974247551609668988821050572157473172234518588245197534678709683079215150251339114714250158239107633368793088.000000 4890135549809089743507611282636721248132858369717054805684691413000060017507035318901534627635657777236935872122788256931643392.000000 0.000000
4890135549809089743507611282636721248132858369717054805684691413000060017507035318901534627635657777236935872122788256931643392.000000 3191633732976138160896095329201168229805158646900151748811065423124836675512673955019009573830125192817341721023806943378014208.000000 0.000000
0.000000 0.000000 0.000000
4871949691440518429748551998320262422940121347005172149957222422725862907577054527381117991495318757602495469605628170429530112.000000 3522360900406427577503563912346066510686388063338416668553363793923525348762745091207823293906247614141758491590956021719236608.000000 0.000000
3522360900406427577503563912346066510686388063338416668553363793923525348762745091207823293906247614141758491590956021719236608.000000 1467187080498074798434738350477176966437754543969924442965038463555912699585443336826077506424508441302131788927198335474860032.000000 0.000000
0.000000 0.000000 0.000000
8785798645747826383945504806480347483824642090126781406516684659968038111754305010596710133248025412177452528952631072570063454208.000000 1210372635616312449724818900668498652693295387247738381295357637417020386948447355758920826058668126907655895700118026184783036416.000000 0.000000
1210372635616312449724818900668498652693295387247738381295357637417020386948447355758920826058668126907655895700118026184783036416.000000 110168003660244896612062825663940041333734522179560898268359094283345950044665133145077981397643880622336764551696023043952345088.000000 0.000000
0.000000 0.000000 0.000000
1717543827876262011650569977709381368929136899381452342991086896154351386779262930536967001688202219301213269528598099619332751360.000000 -251877585229999708637733321018559080133641934865139505627984646720451128138324015726682095857318581847874967457594119955912065024.000000 0.000000
-251877585229999708637733321018559080133641934865139505627984646720451128138324015726682095857318581847874967457594119955912065024.000000 24277943574414502472605016168513839377252155905962248391207907063106036224975834291573447925894881074396693556980110825856434176.000000 0.000000
0.000000 0.000000 0.000000
807700155680412810624287657228376215680372916639141947656237596761601922661735039505991327639362189370548040953573238160490496.000000 -3906728685333021475543385623400948053227131251940285769140558753800008465595096646377559701768674746759846803689309692296691712.000000 0.000000
-3906728685333021475543385623400948053227131251940285769140558753800008465595096646377559701768674746759846803689309692296691712.000000 2097776109795408238161085036299057733401681043453541005555493747672804674143952218558918783264219406326935596927827519133974528.000000 0.000000
0.000000 0.000000 0.000000
-630909935073693160560843653171910582645953679827683854659681457695463183366392440860648751439449741592692402869826400345005228032.000000 -697860267923654595694777442450506712879019780044312947260482124564120023874639344377618508079453049827402434760849360444989636608.000000 0.000000
-697860267923654595694777442450506712879019780044312947260482124564120023874639344377618508079453049827402434760849360444989636608.000000 399040549718287921796484668296882279457473001660247190895356747696994200821415014007322547771126976559733645750429596841444114432.000000 0.000000
0.000000 0.000000 0.000000
-863814572872464374375661997285485246269313286506047359152008682233017936857888972770577711485109705010436447221029030565517459456.000000 538297710966876410269216146425500642544572366509960003321763322747429392306890613316517988286973174113077990554295027073814626304.000000 0.000000
538297710966876410269216146425500642544572366509960003321763322747429392306890613316517988286973174113077990554295027073814626304.000000 289393509511124110254686517009220926885271258765192582873619594436929090742167653644709672513871878565502771233269371191601135616.000000 0.000000
0.000000 0.000000 0.000000
-8819290224570209640618417265747284737309171609449553168014637714890875802617565309571368000064891668674836322982208204141605421056.000000 915351792046164516404613618425712827991323172587110393771850091512283228292634873519157833324182373510679827333646156945892048896.000000 0.000000
915351792046164516404613618425712827991323172587110393771850091512283228292634873519157833324182373510679827333646156945892048896.000000 178817080587628361224984390090903007777135368121409056098893734771162374745577012656537318054698098907902992597959435960490917888.000000 0.000000
0.000000 0.000000 0.000000
-547141333928574327952312255798081463010122467616573835394277780052872793876850908652627214840445322149614270005347157478855409664.000000 -121736912625953418603044215616217360039899240375771976352952965606811406719461528381315063825975303188323854376031619863711580160.000000 0.000000
-121736912625953418603044215616217360039899240375771976352952965606811406719461528381315063825975303188323854376031619863711580160.000000 43145714324228061109947909823656179369109626570284073875563379518057457656738975732350835394637865890328922287034154380725059584.000000 0.000000
0.000000 0.000000 0.000000
463801429309184756382253303870523987600485582597071723450020522480548866101585530296961511629312846884025975458546316912137076736.000000 -113706613688574314096843090682131638006579499389217039077992256475762655336505741528548885865487670564120753738024819102113071104.000000 0.000000
-113706613688574314096843090682131638006579499389217039077992256475762655336505741528548885865487670564120753738024819102113071104.000000 17757082224102002154245670594523571999082878914539334311320990966985005452068652742805078582070516599137097349047355039991988224.000000 0.000000
0.000000 0.000000 0.000000
842231808019033039549170273107486103404492047943229127004526504740083240889349378914398700612873436611682650114433542780207759360.000000 -1351335144843265331457370127469459675523598867398744420141740673358584751022764283284040250732944574379189146072638889000129527808.000000 0.000000
-1351335144843265331457370127469459675523598867398744420141740673358584751022764283284040250732944574379189146072638889000129527808.000000 657108803907087528441537137295498629551048750458281439231350891739262704377853026049269995140976073624326177398102722587056406528.000000 0.000000
0.000000 0.000000 0.000000
-22605167844642490138746486252441436721483933397608381096182874300849920440113450162374384429421318072993031666238629810228166656.000000 -7087636362482057853599928925775685315602764141220547552714336423239906594748667385280930219537678646173698008934501917854269440.000000 0.000000
-7087636362482057853599928925775685315602764141220547552714336423239906594748667385280930219537678646173698008934501917854269440.000000 5828719316902277345437248161454684384719124221369403685183713821668966101573595789561927778066871681993365650635566392111267840.000000 0.000000
0.000000 0.000000 0.000000
-7362232910509110359188794198311463265159795004856657794223481556847865173548381564311743460454956991755892146504593732235419451392.000000 939308871196967235952569434631088280324859914288303610447972496010935354894923094422166478084186063725696018436784837347403366400.000000 0.000000
939308871196967235952569434631088280324859914288303610447972496010935354894923094422166478084186063725696018436784837347403366400.000000 219418191464443747186258755312942827100246275691091851794557399666107090121672099738430100003337270629082957905692749529788448768.000000 0.000000
0.000000 0.000000 0.000000
372389778486758604735498746175957842792661486196648414120857685684707171751493989575503771415778027067362406705795005120094666752.000000 543769510956310077433837006563734251280436342810832977856472111345505256451407791649364510180240357565413568416227378961766678528.000000 0.000000
543769510956310077433837006563734251280436342810832977856472111345505256451407791649364510180240357565413568416227378961766678528.000000 258140787836942222513066370968647545905728086534369007160717379416686813607871512912457833646198508246482412075310002392595955712.000000 0.000000
0.000000 0.000000 0.000000
-62708153732807597032922531240212521269556973978069742267412860997844262566647705634340893478870283962931855352158289615991208935424.000000 -1735241863958539038693862930788398560219240015660470168290462566974200305133831168303016889372219625071240110376814990166142746624.000000 0.000000
-1735241863958539038693862930788398560219240015660470168290462566974200305133831168303016889372219625071240110376814990166142746624.000000 95604772293205813523824502649229121992076130546769627166734796821424654636109717347131514987245740305731374309206692335773024256.000000 0.000000
0.000000 0.000000 0.000000
-15263480882361720265185829010049758610269405928104807210010358835016236151723082043678795094684711626217209016190180525877493760.000000 -256048462696929094694598503721319546771047656088860150121330283020545453236402383300673959578207935610187011788651128058737065984.000000 0.000000
-256048462696929094694598503721319546771047656088860150121330283020545453236402383300673959578207935610187011788651128058737065984.000000 144429769762098122963976943624849356032831260659275795704609274364440883240160182798238414007524778534347671727519059895000236032.000000 0.000000
0.000000 0.000000 0.000000
275610270627866139902291365552951209436650082753771722794181742808323395520921185871383727858423659463455959384261407920747446272.000000 -78881229039523422483932598354389776483493596671964920581160120228557450443613443693965205037393318584905001950619864412085813248.000000 0.000000
-78881229039523422483932598354389776483493596671964920581160120228557450443613443693965205037393318584905001950619864412085813248.000000 14361524636345875586090029612633682098009410100956689570708646412293561635708865835408560409386277826562116880264101028520001536.000000 0.000000
0.000000 0.000000 0.000000
648672725562665019795172040891288941410575940519610466371582841459534555738179758885111890447513628213791752318285185895509262336.000000 126465450729587255443161820869017343667890656089956524487720270678393658032652517708663026067147686752999596420984621152958676992.000000 0.000000
126465450729587255443161820869017343667890656089956524487720270678393658032652517708663026067147686752999596420984621152958676992.000000 16045383018242390566363062258530455118146942373481597092299858315786568609532336028131394541040066940331302086397099145307357184.000000 0.000000
0.000000 0.000000 0.000000
-127407362582081472248323224131091394287618484468488508383942286758300525118733895153301189923552719349733447168980768485688351916032.000000 4498621882674497830475799329614694148408012307401107407751945575736084171404816755414450006645508520570017898632540435277758332928.000000 0.000000
4498621882674497830475799329614694148408012307401107407751945575736084171404816755414450006645508520570017898632540435277758332928.000000 315230096255679821897568832177445940778062103659187386500505334435070114021723606893503092517125170077009398511755338477182386176.000000 0.000000
0.000000 0.000000 0.000000
62022041993400722245295343380514498712696180866968719555310065928269298691821870725833134608216815295845819403892823691429412864.000000 -889766294050553226296231917106483153220128528785917654544055761206512829002676830108376440838182695881995356739246225283686072320.000000 0.000000
-889766294050553226296231917106483153220128528785917654544055761206512829002676830108376440838182695881995356739246225283686072320.000000 489725476494618778783097862073096464477903886076703812682350331222449680376606579134706159146104832051822490969862747304006516736.000000 0.000000
0.000000 0.000000 0.000000
609512077838633438161253874101094481967066380911679705944413726737104937891457898025475497290076256924627747517022646776878858240.000000 541217870336675950971057064908867493756934896107949692855557744297885993663741592545633434686769809924530079304818725626430095360.000000 0.000000
541217870336675950971057064908867493756934896107949692855557744297885993663741592545633434686769809924530079304818725626430095360.000000 214698383013494762471718279439996381529921256549430421996828617263209320622585017908648429815339409889840493583756575771621064704.000000 0.000000
0.000000 0.000000 0.000000
-1255651548855311499584424268774210239175868037156441659279357643298027891615952651502449737253202905923083050511288738124922880.000000 886334036584510101795852624710849549478663783666597787746056827518726567414411344852400134855406705561196164225200503132258304.000000 0.000000
886334036584510101795852624710849549478663783666597787746056827518726567414411344852400134855406705561196164225200503132258304.000000 537415774780363169076888416608952453385145797669582285896618907905781523703009003750455885379931741248767909149304042765156352.000000 0.000000
0.000000 0.000000 0.000000
120160968582107324488285093540062904140741760943186110826471490284841127745019423084824316138472762058874258904863873949985931264.000000 123532221255271274729702828653560521081460418336566234111077650323272468232499775151868352217174584235037524172224164344484593664.000000 0.000000
123532221255271274729702828653560521081460418336566234111077650323272468232499775151868352217174584235037524172224164344484593664.000000 51403322882811521114002838585831810476135852140520133515112159923959863857716815509492702660424328703824524543992708207663382528.000000 0.000000
0.000000 0.000000 0.000000
596478710959309581908752990867318795075719257175374308433230866533329304729701109637756978091084424570247690418920339068661268480.000000 -141093691417229957424911412185922926877361312355540299642552254801979518128304640557347558377052369078708906220715167820904660992.000000 0.000000
-141093691417229957424911412185922926877361312355540299642552254801979518128304640557347558377052369078708906220715167820904660992.000000 21569856130012768345927872990169473246129149149602676765331161297188235900816506083547830399633636164203612893911420598501769216.000000 0.000000
0.000000 0.000000 0.000000
213591260746890236977532612649981526848918810164098262429792986468864987999708062216845396614068304719923491031856236664295784448.000000 -295007016049791338445474260160367071133024886847477444961558726596402746369743176031431308787674146291530245163597474544750690304.000000 0.000000
-295007016049791338445474260160367071133024886847477444961558726596402746369743176031431308787674146291530245163597474544750690304.000000 102599187597953072520968170421546994270791196886147412734791114041702870351074021951582380115130734361722430200320778456765825024.000000 0.000000
0.000000 0.000000 0.000000
617222890232389241505772859892678718561054017440651854615107174547190474519886679315972027892796990256906237999606469308236955648.000000 1097611660187774569951744869414906201499483048793423560766502347954172540939882002272378205970703715362339331566893558059136712704.000000 0.000000
1097611660187774569951744869414906201499483048793423560766502347954172540939882002272378205970703715362339331566893558059136712704.000000 538752726724708151757412815900073048390299815436631467992140135436653873679424943575233170544720639354013203384720342284027035648.000000 0.000000
0.000000 0.000000 0.000000
68078719739974702848198873860973951666262684599438077370963022965420140831828680553820062372009061202366928498288110558869716992.000000 -339425691049248854414272997440346340965355126634699034223045750061101879907516740633111470261706581851870840032297732050570444800.000000 0.000000
-339425691049248854414272997440346340965355126634699034223045750061101879907516740633111470261706581851870840032297732050570444800.000000 183332469349683921169137240754073554895641984247384526518966509839078805792966629928668826177537765022623791927105220513957412864.000000 0.000000
0.000000 0.000000 0.000000
130518681416103177954056938653293221964925110245624492615065527476805144569300248499064825167785222240545943935242413992128282624.000000 -981510867859668830316493096632451722671277881816991034243537559713327438015097005496509595071262632496061786292498707089652187136.000000 0.000000
-981510867859668830316493096632451722671277881816991034243537559713327438015097005496509595071262632496061786292498707089652187136.000000 534142738751908945572498446829729166139820394270476014524355377993958331830682307227131229399627452529322915137121453539583852544.000000 0.000000
0.000000 0.000000 0.000000
-85543434971247956923286872505507233579867832260787232469072360833647091479885172652338264981703222840810952044066880720400809984.000000 6756165427467450023656100166121410605274078453098237253814818224890941475843585321086297740501875109610086790443941003077353472.000000 0.000000
6756165427467450023656100166121410605274078453098237253814818224890941475843585321086297740501875109610086790443941003077353472.000000 1120251160422295318445860498733981076329176802737651497861832977286479272957763914301130340329412656485075245892552457008971776.000000 0.000000
0.000000 0.000000 0.000000
-2894944477252532023583096485847546928605132833398650117197922971236960604980546977385866157586944094177387973075549556752968056832.000000 -622493429985056954939796512327804157304018095293803009038278217618939629653464683714215581477186045139566051911004254074027638784.000000 0.000000
-622493429985056954939796512327804157304018095293803009038278217618939629653464683714215581477186045139566051911004254074027638784.000000 215700285847516454703231388344587717935919048972487137462626064984450064079843804914095303996915206953357181315695589469714382848.000000 0.000000
0.000000 0.000000 0.000000
-232753070161598514625001190581436034041790854181455954330850817334817181212591854710744083480495067224106072342661754831457222656.000000 -560187955346614624321817010382064608447916910070446574539732990953371904475508119811799236884799375000688600371250529944358354944.000000 0.000000
-560187955346614624321817010382064608447916910070446574539732990953371904475508119811799236884799375000688600371250529944358354944.000000 322543978119521606041186448821430940826197287959302913372871805814309806825432316720597940281880811693188356658358750471327318016.000000 0.000000
0.000000 0.000000 0.000000
-6876613546508979167472073707165823924754766023369648920097088004273416715483314756572945468017749410482104785925491189681901010944.000000 1630722073854397273865521211075735137253704601696446822645399476437648106806780233767711904367516854565709302154540502788960419840.000000 0.000000
1630722073854397273865521211075735137253704601696446822645399476437648106806780233767711904367516854565709302154540502788960419840.000000 607976298661314363311998842259387563446113015929169245282849631866837156995803092137759189446081330241109256097936732274884083712.000000 0.000000
0.000000 0.000000 0.000000
-48208652458907806959627482088478744014801856663458283255159338470092956121308457611066287205864439988653234823833421690230013952.000000 212375618675666002424402920920990687201329620275758452528920258895253729538453287753284713985418816713221675846813030285496549376.000000 0.000000
212375618675666002424402920920990687201329620275758452528920258895253729538453287753284713985418816713221675846813030285496549376.000000 121127761801295170116077454470387669238238215412206520830628224006484922566293958938094766634986712348034979349930211445865185280.000000 0.000000
0.000000 0.000000 0.000000
518008438510765483308704590214374556954819578382236156594897244366740599155933896909895927590705763910273953415398479685933334528.000000 430917387430984844260691275287843769056136614872417104761328541452508149982628178713137998458404049301314383000917395829312978944.000000 0.000000
430917387430984844260691275287843769056136614872417104761328541452508149982628178713137998458404049301314383000917395829312978944.000000 167988760875199591460230695350766143559150601486435001715709483063335507138920447417878892118869868618524561036331137851012939776.000000 0.000000
0.000000 0.000000 0.000000
727787962786990389651353462343574519612113270249679614601308764108601476488800821486174006030632973583369141372084716093092921344.000000 78903501182271345871111061019824648673412139895047477019539722620519525912577766540990124053752904857920926574992314407273365504.000000 0.000000
78903501182271345871111061019824648673412139895047477019539722620519525912577766540990124053752904857920926574992314407273365504.000000 6539447583620744397246224317176434249390521499163104766630301671562059552117085403082425202850210401497277831613536835326705664.000000 0.000000
0.000000 0.000000 0.000000
-42425894045820729538543252105365701641764823035498655556232712449334111036973318180841734842205813717042468042626008546686472814592.000000 -664460441438647337493564273678406382367304527985505357029126793579240611106768193298604073751501942063315209408586350613592276992.000000 0.000000
-664460441438647337493564273678406382367304527985505357029126793579240611106768193298604073751501942063315209408586350613592276992.000000 23246087950970090119052688925793815244457345083669598568892262538398657367395633981548938305192646969597373775241822682283507712.000000 0.000000
0.000000 0.000000 0.000000
-48823381585519004249611419603135480861234774429114800816261411363757831558924615322631749711474414081467440474201882686428020736.000000 4795109896533378727756020774191950396402553290750481611744139937502587170676542014328558014635333394132956150945353677557202944.000000 0.000000
4795109896533378727756020774191950396402553290750481611744139937502587170676542014328558014635333394132956150945353677557202944.000000 909569447395767592349000351487093254425529244377305866236330381091528019759975744666599781546892547698545710920876821644836864.000000 0.000000
0.000000 0.000000 0.000000
49410217419918731736350849525907239168252886087811099732315716377452104012879277006944852850477926148763105760249858469463588864.000000 6539155492981342927632783836694794608565918844300152837352640089572088312100132570283152630270564390633366477508563707193458688.000000 0.000000
6539155492981342927632783836694794608565918844300152837352640089572088312100132570283152630270564390633366477508563707193458688.000000 1114214297467490842126299906202163870637923900530303864718697579509479354700243904293664459161599246581918081658450993517428736.000000 0.000000
0.000000 0.000000 0.000000
725319076952995810462678631908984802991350666019616854278353567356351870871082638187905704332069407841606745016731737605357436928.000000 215158146441383177116106845432843709683088553996392244555124253588121040039013628337036742937768926374097708940245800433850777600.000000 0.000000
215158146441383177116106845432843709683088553996392244555124253588121040039013628337036742937768926374097708940245800433850777600.000000 46792346798191620118078389696751026393822350349423554830588181904863426326220187471826806785551775342626197133765782594325053440.000000 0.000000
0.000000 0.000000 0.000000
-220988086853226045532782838687416944550809125183467333477049704044832548039865610926959432253225284384939469839528852186602668032.000000 -254618066698178088390402426803346869268462638595087495821302654050155779864869849239813286584835839059712420670704420161750827008.000000 0.000000
-254618066698178088390402426803346869268462638595087495821302654050155779864869849239813286584835839059712420670704420161750827008.000000 145915855451011976423850657220368706234085830693203287342326956310623906387466379203039276191869923956063616251527211803029274624.000000 0.000000
0.000000 0.000000 0.000000
883466858467949513616552258341222897911259215382020700444390955364499196408829142900688411907470593434941021215576095709257007104.000000 -85419058655221227426588608248799230875222069588459575126695310854316448352321245681676796505611038462519913668946207445878833152.000000 0.000000
-85419058655221227426588608248799230875222069588459575126695310854316448352321245681676796505611038462519913668946207445878833152.000000 5484146980844987681709455902825867153348124290459019437246017447941990310495493189764408775066034520641490253839413216863584256.000000 0.000000
0.000000 0.000000 0.000000
469566457984143066817139177924472877894729142815811471247987953323431762219993259064225568270512693832002829790993578127785984.000000 -2318960070658204781466766158520223809752058751256660120269055760032884418376379840003138108139463198199174877176028937848881152.000000 0.000000
-2318960070658204781466766158520223809752058751256660120269055760032884418376379840003138108139463198199174877176028937848881152.000000 1277602824475715237657432890318583455550862463103406901733149291653247491114469214295029631709934263996541069164375941150932992.000000 0.000000
0.000000 0.000000 0.000000
390369357374991740548348802723156841206024876022288383874701087042925944327742003939063520009651268693468207797552549868326617088.000000 -319325072984238780507109716871104694014168524665014527003083927961800891609003630423218197060016831312136365807148275529112616960.000000 0.000000
-319325072984238780507109716871104694014168524665014527003083927961800891609003630423218197060016831312136365807148275529112616960.000000 126109645418114981658032912731142451475369368602875037197919274293943358774289319733399056840718439132306858004402510674505236480.000000 0.000000
0.000000 0.000000 0.000000
792099602262194845332570327581041744176982965685297778076957300495823024425620297845903597997115624790257463453394230369130119168.000000 -279171600497813724517773025241442339369270355294716711366719034145286235923361178605863355982052298325322917391367225920121208832.000000 0.000000
-279171600497813724517773025241442339369270355294716711366719034145286235923361178605863355982052298325322917391367225920121208832.000000 60730601920049217249963707594937967471249046283913187182186112070643224833804378694432094090169070091136339040433907680516505600.000000 0.000000
0.000000 0.000000 0.000000
-12816128832108231698126660103557317331478060260672247969547470917790465777825521898899147830058031944727614242385208196082169806848.000000 -2237212929154060636521953293911191104569598478604161123813535351654189295695318038085889866241650926598162014438284764028778577920.000000 0.000000
-2237212929154060636521953293911191104569598478604161123813535351654189295695318038085889866241650926598162014438284764028778577920.000000 670205345528027282762342887115458955673703924758806428686509160888465302967168563509126983809393423781553426582831347006699470848.000000 0.000000
0.000000 0.000000 0.000000
1723908550984765834543516177716611780213692163779649807806942556817743771561438410716045270027488919833713399304848355216802709504.000000 -2167931220157743502888517904283654034680165490725793025272103476352672947038166121147311041955367548196962145647649551136585678848.000000 0.000000
-2167931220157743502888517904283654034680165490725793025272103476352672947038166121147311041955367548196962145647649551136585678848.000000 987288292809325746814661381442165138897724371399118587770434715142364322115272263175909648321221462550568454353722937503305957376.000000 0.000000
0.000000 0.000000 0.000000
3970828633224331019674381677505118526790015426426330480513874541718764685350779202463699489929397040133946289337400170224092708864.000000 220810094256287870608099590887806893454938103624002453518778109892427242098778560218731830955559950286288226465360039268398923776.000000 0.000000
220810094256287870608099590887806893454938103624002453518778109892427242098778560218731830955559950286288226465360039268398923776.000000 8169709392474810327707412739045071399513097733481326813585040824918547735872283433791531580823803512216523178552173481909288960.000000 0.000000
0.000000 0.000000 0.000000
867985699682408382732880986586196529932351767697265596016950177390815069619119081647793059000081097209179795235225778449650024448.000000 -889270530726070991937722686020962283632079279532971689480013333281762119099679211359602760389457837286626797768901590565171232768.000000 0.000000
-889270530726070991937722686020962283632079279532971689480013333281762119099679211359602760389457837286626797768901590565171232768.000000 380200632902824846842985705913649525402209160097939577026266646389647260483117875846927349547493053772287402927382622594272329728.000000 0.000000
0.000000 0.000000 0.000000
-27151816857718966937401565038079240210322404350680392536983427240058758945787870392221576949276166616115570869031451856635691008.000000 139846353037954362562974559283326067578172141356340351321604676845267281657416759253799744353374645614737669795617013971812352.000000 0.000000
139846353037954362562974559283326067578172141356340351321604676845267281657416759253799744353374645614737669795617013971812352.000000 8036703803868541972508271529013042451470002597913368871616441211652772092384530377850547146835382143817040987275465325048496128.000000 0.000000
0.000000 0.000000 0.000000
-2953444735198339437300464432981041920318056434464000158211222380322124726818396178966133425536084711456589571182001156510189617152.000000 -2325320173072157068312812273035239931502488214259149868320600142803404780585712956849976151084836914050679976678754412199881474048.000000 0.000000
-2325320173072157068312812273035239931502488214259149868320600142803404780585712956849976151084836914050679976678754412199881474048.000000 1294827880053560092830268404455021711603928514169799279877754719820345103525279125840878686329357128402373698602675119404422791168.000000 0.000000
0.000000 0.000000 0.000000
222416700204872053338415634489727402138770915794615670370550840195422520539509620722636907360746465330354463192527688232723283968.000000 -22257076104543992356361705955739054430879731638622280263632332628565607580121289158713216608883031246678764466544515240024866816.000000 0.000000
-22257076104543992356361705955739054430879731638622280263632332628565607580121289158713216608883031246678764466544515240024866816.000000 2033247943363182205472833661105532869456572803695105944095319033534940699435385421784871812029305610431182569241736812093767680.000000 0.000000
0.000000 0.000000 0.000000
-609312601560630253752466848990336552284981618104637287456775197945963499067444724950670463373318652172735945207996864850288443392.000000 1323205937311772175733261882759443242663163299291611458333214674461785035430821594220035346404726370858648944021076577483382325248.000000 0.000000
1323205937311772175733261882759443242663163299291611458333214674461785035430821594220035346404726370858648944021076577483382325248.000000 762729735111812688595492753934427199489493336520841122625948463034112211842300028654450716579506496460739772982580405730916958208.000000 0.000000
0.000000 0.000000 0.000000
-394723821814814600122334994879470938690668652083661419239974243567738163177703300675995914669953851667101692373718818034253037568.000000 156290862234308273569209464669571384783070179883243583828401734076462301776779098058073046193361696625573521560682008044537643008.000000 0.000000
156290862234308273569209464669571384783070179883243583828401734076462301776779098058073046193361696625573521560682008044537643008.000000 75059510598848950738934887163918235855556355188430397192077184612094917878737093464350212622273624097855103405945811915193188352.000000 0.000000
0.000000 0.000000 0.000000
6427186958307597762428234804264699706887963231032209615667886621172089762043202311847242024512330814905887254803959583116099584.000000 1193560591328562784642046505625011044982266123844547756989634048848657547184748256385265127946401043062507711688155809181597696.000000 0.000000
1193560591328562784642046505625011044982266123844547756989634048848657547184748256385265127946401043062507711688155809181597696.000000 147746702429741412969940347039709888898811227310310306143593356775896892940707065856360977986622202644880484032126177886863360.000000 0.000000
0.000000 0.000000 0.000000
2377227958908684226074003231989544888075885655109008633188633968241253536677364939790040165451764771015837652035222458644469645312.000000 -1739721682304257031528529058699442242620409927001877635995002210981780993783270268606408064023374552711618228772574309059284434944.000000 0.000000
-1739721682304257031528529058699442242620409927001877635995002210981780993783270268606408064023374552711618228772574309059284434944.000000 635527901917841884388567549475697049329513905761466563354192897100604390554307626619574412523072929494253779816293754648775360512.000000 0.000000
0.000000 0.000000 0.000000
1137034810437623104057304099023537970464017029945598554536129175067275042694699761847339824748217428424425480889795080913095229440.000000 930467166976602509246886774352308443164209571824512672494042397309598733359261396799844885455633687701636671894003897270091644928.000000 0.000000
930467166976602509246886774352308443164209571824512672494042397309598733359261396799844885455633687701636671894003897270091644928.000000 362733840263227798782178336571377751059045625621848047321644218880691087721960724656343421016852231816302210327779747899734228992.000000 0.000000
0.000000 0.000000 0.000000
221573592255971851390232258816371396556404911268623871650204365442005918005309463628004395051636644326135306689463953525800173568.000000 858002898072478415817044639119304184319747065518431878911453460654655942813202233375786099295614263981734773853141192263663091712.000000 0.000000
858002898072478415817044639119304184319747065518431878911453460654655942813202233375786099295614263981734773853141192263663091712.000000 455697629029446089867795798988208377748163988293048314037493485758047245600196346830098991112743110837879925236173061139237699584.000000 0.000000
0.000000 0.000000 0.000000
-226845247633205238742602834978368809963396239046298820817815877770711252507378061864240304914910795403373027801891918082434138112.000000 -602564089456169897271503201275923223738381970895105891656891960213055590897189961762879421326920483315236719553487683325203054592.000000 0.000000
-602564089456169897271503201275923223738381970895105891656891960213055590897189961762879421326920483315236719553487683325203054592.000000 346408786840135266575009442953217250217881146394446765151444038682814359918537303135062645789236786966406792122393291221341569024.000000 0.000000
0.000000 0.000000 0.000000
-1093731352040074113017627004595082327457417866999427828339976154199690578613914967987585709609201148229623966705136187694724939776.000000 -1425911570135745230310889598557152088324221827398482368570712043946313971514791992468194617681319071509365672683665949876704772096.000000 0.000000
-1425911570135745230310889598557152088324221827398482368570712043946313971514791992468194617681319071509365672683665949876704772096.000000 820566824331123833889282233992130345615761411844586508712991973782091731759518717673022593046246749131190634752794462406586662912.000000 0.000000
0.000000 0.000000 0.000000
-20250225088039205895185674079901756846041317773777367386774827604291832948576820829396676050989374891765907153139848550910263296.000000 -52782190968957422939238680391049264850299566018306638382594184974735783238413364934146063403534130011359432883297660967730544640.000000 0.000000
-52782190968957422939238680391049264850299566018306638382594184974735783238413364934146063403534130011359432883297660967730544640.000000 30356902186684716752269658720738233802272620224766231539476223297187573331275262491614649348829100228489956862754138381801750528.000000 0.000000
0.000000 0.000000 0.000000
359963731829861818885562130769044417746867600806182560856369578613424883976450593474317899602137619974496748146533318521689997312.000000 525519132691393730933370685881324566537965959295555676578297895092191379113819609497756567799612054630424279189182096170989649920.000000 0.000000
525519132691393730933370685881324566537965959295555676578297895092191379113819609497756567799612054630424279189182096170989649920.000000 248115856422170490370115793709792484547636897142933284033123543952078417777590277796164123805990315042551839050879489731826024448.000000 0.000000
0.000000 0.000000 0.000000
-218992528112837761692218707039842935342728002967142773299952338899173929576031650265239150185762737605430922635976619148860981248.000000 659189909881795000339181202454923640409715577959905352208241661463633552234469318324592502771189995386835180372583274277804965888.000000 0.000000
659189909881795000339181202454923640409715577959905352208241661463633552234469318324592502771189995386835180372583274277804965888.000000 382981501549667362144528084146617845664548732192105731422738274632988997172993168968426771428020074441006612519047491770522796032.000000 0.000000
0.000000 0.000000 0.000000
-43402385201923758481195740737232501958804845494191512615053718463264931050920772134842547272805602810280588977458937769077243904.000000 107573737834467841433007433959985825018220540323359813099891747432709677330711007000935595530546715956344745797827391173689344.000000 0.000000
107573737834467841433007433959985825018220540323359813099891747432709677330711007000935595530546715956344745797827391173689344.000000 4456453248856362322519303723386651805805774752528036127624463451864969508421217406796129982016291530706780096725871780429824.000000 0.000000
0.000000 0.000000 0.000000
-1038362984618689470454800167164605895440028019426079456130368199001702461362880326476384750037836044939347800422569857940872757248.000000 -922499212232127896204829101069894169631287391604496978970532834397963835171664955318157239931338446273084724939643991122979586048.000000 0.000000
-922499212232127896204829101069894169631287391604496978970532834397963835171664955318157239931338446273084724939643991122979586048.000000 520077720159581057620195863019919957331892295239313748490153004405956167493767995425258487451209129162197158241076423153669898240.000000 0.000000
0.000000 0.000000 0.000000
123909143357217212137491796891313058542833341921729246312508905132431651676253293964128549229726094037537196703527485983808290816.000000 277884489070951722137950998026271470623674428094058987703659346248261882430553882141367723967062614966973267904807276863981355008.000000 0.000000
277884489070951722137950998026271470623674428094058987703659346248261882430553882141367723967062614966973267904807276863981355008.000000 140896048413476238614065553728340238958175403475558559977954198115795388258849272748094572264798958320430956382554870136075976704.000000 0.000000
0.000000 0.000000 0.000000
-6018050466130009398173658228928402264400548785616916488802807250154421875717197388103532056571214848796103337108890836132691968.000000 21965292525617454581929851112642252251306460328578436391181209785931167257790441963296026056906342551723030947259208977849778176.000000 0.000000
21965292525617454581929851112642252251306460328578436391181209785931167257790441963296026056906342551723030947259208977849778176.000000 14309911859234663273972499993782536025496693466202822717229665338508761250918529944035978273661247970721574310659269211606482944.000000 0.000000
0.000000 0.000000 0.000000
-8227452527880135477687357803213523703400440503946952688871303895059797440293825647884683353847996768358775728843489820403656818688.000000 -65595387627112204150816980313219641280667084966852946853933642534204530032761394394059942713672206226259330189394076848313335808.000000 0.000000
-65595387627112204150816980313219641280667084966852946853933642534204530032761394394059942713672206226259330189394076848313335808.000000 4111670600238183525135139866252151432990257948808650366355533431908144921173371182441587945964430495698880187817973130142416896.000000 0.000000
0.000000 0.000000 0.000000
77403893394889074835658995383764645056285619086225391993947525746128728590345871159679061533751659050903086299652437494292545536.000000 741718965357232593791067405106364134324452638645367568068564703042212255854706808004164014460249068755562933391915551754545004544.000000 0.000000
741718965357232593791067405106364134324452638645367568068564703042212255854706808004164014460249068755562933391915551754545004544.000000 405908662026955184778528496297107789354072408688973976209193889627380290627433374242943234996907509411682778675364149113292587008.000000 0.000000
0.000000 0.000000 0.000000
-43819584194984318791191714520038605597618776970334277873892227568820731328389786326170088492511288000853301963860079240282112.000000 -55705310533870315135789504819009211830026171952476386693590149984087604373018939245837318757778736357142989191571054033633280.000000 0.000000
-55705310533870315135789504819009211830026171952476386693590149984087604373018939245837318757778736357142989191571054033633280.000000 14369366501638418299022810141841209324088403902452801849098221379034178751933325509521150850557254514171185552697779006996480.000000 0.000000
0.000000 0.000000 0.000000
38243214161927798819470764863820288586819044243605069586731154474515574611886450569672940920849100398374674837459691125717598208.000000 -66888007493647671159241770527221485124996481349741772243566304587239144939375300394717154971763935700978453828049417972987461632.000000 0.000000
-66888007493647671159241770527221485124996481349741772243566304587239144939375300394717154971763935700978453828049417972987461632.000000 32743053655779338130312634002712157545594708190568860335066076583619679318369578479982858552958618734700311741825605461933555712.000000 0.000000
0.000000 0.000000 0.000000
-922489305651232206880001215199734670542316243352521838057635969215653374596975239715228748892768228164559138078276437361490395136.000000 149934715464591002504489220190865802549370735292362740431679655118275112644415659073739323744252869563976547117665250914133344256.000000 0.000000
149934715464591002504489220190865802549370735292362740431679655118275112644415659073739323744252869563976547117665250914133344256.000000 42416389463172229611702943973064445121950962608036936182912170830969539817760037209389527047652433248386317904321671096623431680.000000 0.000000
0.000000 0.000000 0.000000
29958229951107580117211143042743620137863714995966326614464699496906450947141881667844300593111359390545561313854749518415790080.000000 159121941565199415131815363747160042939537723409880940391334241228097078893170681781664230513325117160446921758429646605474856960.000000 0.000000
159121941565199415131815363747160042939537723409880940391334241228097078893170681781664230513325117160446921758429646605474856960.000000 85902974520867387747658965493387917301669601531761503300156730968183459183135912573157290707036660326584064346397280542348279808.000000 0.000000
0.000000 0.000000 0.000000
111664971345237543624836253656699833351189439632753779111882292684033587134604539473113058722979843153348685177335353418597793792.000000 -389632082740916733293005392234272592007338986306905481576049091198364878903153941542551781636453204348260048200518194107527462912.000000 0.000000
-389632082740916733293005392234272592007338986306905481576049091198364878903153941542551781636453204348260048200518194107527462912.000000 205702920775935718695758149400437222592032254397248192418389797366965729311711051439335194042254040120941439058899691674902986752.000000 0.000000
0.000000 0.000000 0.000000
-4539584436404466673229785120573920026825695137631283807864751744541691060723087998681830700811153757899493089072771527118105346048.000000 1719502797736359283330182181384997724696721166578591973360176297980497007856912049974354152918487229471160061069055321829269307392.000000 0.000000
1719502797736359283330182181384997724696721166578591973360176297980497007856912049974354152918487229471160061069055321829269307392.000000 803302342747058855059839820590890115379968589463623244464267033818484017585810504994226539954843064610699714196128256929757659136.000000 0.000000
0.000000 0.000000 0.000000
3193589223134760383896542934114987431349694588608740616064349634630393341644151746554823732637948018043962926099980358963630702592.000000 -1953381731373200106647826264588291751036858406717377397860278520113751704597992477557350794244612587481158269457519298230381182976.000000 0.000000
-1953381731373200106647826264588291751036858406717377397860278520113751704597992477557350794244612587481158269457519298230381182976.000000 641679014179639325185195352346718115678051645395132215586085832370640959216102924487203813983367113345275904058509421935249588224.000000 0.000000
0.000000 0.000000 0.000000
819307598479608636187750882598844474584312407015130523693803786970491939198913702363783173472821340388300534850493559536359571456.000000 15204855248404217256214738512638716301137398360153213110261905021229953082665282388402897018669431299467977832740603776328531968.000000 0.000000
15204855248404217256214738512638716301137398360153213110261905021229953082665282388402897018669431299467977832740603776328531968.000000 346651984532722238349671590129805522891786560693037824920589291436188957131305046213687968144242837754130808030707596228820992.000000 0.000000
0.000000 0.000000 0.000000
1100548364710221667692332987702507916321615944376921607111699493989621460382218769248501744635944836012438028955925492149518336.000000 -361264252084715067737168335559221440367088632872118761637721474630193872236385966011274064836861628420049255366927260068085760.000000 0.000000
-361264252084715067737168335559221440367088632872118761637721474630193872236385966011274064836861628420049255366927260068085760.000000 794873653801491769702549152322492879381243552300216623723070660152233480471536676142144031723230084907529457971054447802974208.000000 0.000000
0.000000 0.000000 0.000000
-16047792992673888679547102638757000617511031769464357150584221487639473803462637121305318200442479789703775116028943807312560128.000000 -502909950318186054308811291103392712659810746617909034743900395411739410455379326309884588933713097846741589801134556695760994304.000000 0.000000
-502909950318186054308811291103392712659810746617909034743900395411739410455379326309884588933713097846741589801134556695760994304.000000 280880559550992239952859841684171365752094212298099939368245164367695952419589974869158374751680799608985297701973856046509195264.000000 0.000000
0.000000 0.000000 0.000000
-19098891793804995161475330422676083388780313223305985454421012094001354273649757116788100943953395397673779322993818887980639584256.000000 -2175311782365510392316170600134725855010465696213939486127707186332655259541014969924982424243414304769386319735609000628546699264.000000 0.000000
-2175311782365510392316170600134725855010465696213939486127707186332655259541014969924982424243414304769386319735609000628546699264.000000 461220115380928411918193994649069324581271047993552205297168140774455275639920452602637052312880553733328190689627315228570025984.000000 0.000000
0.000000 0.000000 0.000000
1465638567535691291063619856206665165560817155862489451138034922248860453537574722851701245951893856174340151195910015581887135744.000000 -3571931607494054073748485151868619590190106218934188372221910466471327367153266000392620587271351690268949174068621058709219442688.000000 0.000000
-3571931607494054073748485151868619590190106218934188372221910466471327367153266000392620587271351690268949174068621058709219442688.000000 1829940227575677732534201331253482410793819734932635091388783194963931655156571498965778651659668262022103158499158370717548937216.000000 0.000000
0.000000 0.000000 0.000000
-1244527406222011573902373569836771458682963952709324214598629479207196448203640339738338422345991956210010127378114477052395520.000000 277315827966642202139609484485315560469839689259965013036132684353490576327790892615633768492521228361729796476651629306707968.000000 0.000000
277315827966642202139609484485315560469839689259965013036132684353490576327790892615633768492521228361729796476651629306707968.000000 99018094631238018262904420746283116376969690979249206695353257361664259985769402050028896613220377391246185797903650616508416.000000 0.000000
0.000000 0.000000 0.000000
-46172763621338518888409560998972858398658619706023787433109061877214963140469717214658961254603325565130959962184398450729961914368.000000 5958379015961288720675899576937848077078645144054911558925891372480013527537400205858823587188019947114063301227846083994951090176.000000 0.000000
5958379015961288720675899576937848077078645144054911558925891372480013527537400205858823587188019947114063301227846083994951090176.000000 1412174257301218325282407933708274580612710448501860875756974580614790193854261526717413296263700540412892903949948617017834602496.000000 0.000000
0.000000 0.000000 0.000000
2828983897731673812005595872417664016447040416266717360933284591540806254761070151691758944402908924988089261645122442559475417088.000000 3275823669542645823299928900019775103392343925012476726670441459491056490912978697396246340933739402804922137609408694612463190016.000000 0.000000
3275823669542645823299928900019775103392343925012476726670441459491056490912978697396246340933739402804922137609408694612463190016.000000 1453500654373115167323213866910581716598991245715431515850756831571063023469713807305509381302937011140944641772951766047588876288.000000 0.000000
0.000000 0.000000 0.000000
2481452675542094430245167128339729946300902056722748144536077131941111221856275248021334615850885799627961687431810617161201745920.000000 -797147207654487411995723953397750729768351294878849800777986102258432104421720419689733923693397802577163656860016321890529312768.000000 0.000000
-797147207654487411995723953397750729768351294878849800777986102258432104421720419689733923693397802577163656860016321890529312768.000000 159977412404686184273535621217670104797347906197470052285320029030702976372643716639448303749554501879954170419288460729727844352.000000 0.000000
0.000000 0.000000 0.000000
180785304955613021774168060769924787173623612554844068877436199835094742720561579083037797624106203750468012567086601465933856768.000000 129292375691741041047308511292333788001144101994911511770316114212501119856193207730426800585885426409539181484342072223559843840.000000 0.000000
129292375691741041047308511292333788001144101994911511770316114212501119856193207730426800585885426409539181484342072223559843840.000000 48064037050406231876591793884217218294965434377473965918298850937140461854878070042703928323636887972321876388005480777700605952.000000 0.000000
0.000000 0.000000 0.000000
-1442174944833151260112253152244423749019475745530613548596709362164175704335022236875671182303790636616761169359971668917353447424.000000 -261550847872319698077931062207708109827905283918308353178779700138144816823769570170618930839379185032329925713826397501654040576.000000 0.000000
-261550847872319698077931062207708109827905283918308353178779700138144816823769570170618930839379185032329925713826397501654040576.000000 80539067709760214360612873479569023642669608421730591516256009719053635213962020694394995023458759403965353616705938023426031616.000000 0.000000
0.000000 0.000000 0.000000
665806691407578985898584063535423872413235577641422628601922735256154233691315508900700990010986610869655320688662008017813766144.000000 739369756359323525128867936072622862150251116726428263743335885708010189067681958459635442610818315485868655220079983893346779136.000000 0.000000
739369756359323525128867936072622862150251116726428263743335885708010189067681958459635442610818315485868655220079983893346779136.000000 322954250708064999119089224459126281660441319859996611865478027903855541562395229381051728797901365525082312237499921008164864000.000000 0.000000
0.000000 0.000000 0.000000
36343375398594880267010718516697578901212446917722040314917923526272576039025653031482634925188304411636240167873108803246358528.000000 -141351640911897967615894806043958332859474657744257162789504398325431147681255601304158795104254933661740895070963391311896379392.000000 0.000000
-141351640911897967615894806043958332859474657744257162789504398325431147681255601304158795104254933661740895070963391311896379392.000000 75134052309153924764100349455347481806112409056129002944464776850390212610257778717527515404548527862280407870587358566798065664.000000 0.000000
0.000000 0.000000 0.000000
-1027450570850558744644142133199744542195863370726982020147297177880561466709903578439317885658120703206141409794084459192000708608.000000 -666372040243710353826184155311686157942767624660881416742389390971167996603904875055132752464443122245120260163907233468072853504.000000 0.000000
-666372040243710353826184155311686157942767624660881416742389390971167996603904875055132752464443122245120260163907233468072853504.000000 378961288525499135163396844832158164443083024684675202854858884144101847743553822059745644725720861414711118244321032988084142080.000000 0.000000
0.000000 0.000000 0.000000
-20462610024357368733910558826474194932367383294839019975160032903367531183628564816998464990284268349826608255199410893868761088.000000 141829449243731633665247806467102936414824047361018510423784055778198849480963233109512817938463497104360873812386207307399168.000000 0.000000
141829449243731633665247806467102936414824047361018510423784055778198849480963233109512817938463497104360873812386207307399168.000000 8238886742104532658484268604158901264640857524240894701901297068987791555290705206949106650871393787040368276723208441298944.000000 0.000000
0.000000 0.000000 0.000000
18372653499004282888521829674252207254794645780327861610805379018900803725353067600202546357847808980384732453697825904932159488.000000 -89613757917703127458131555149372934631335955177441874811035549245936766979996953785854299421388287714521581809973055834648739840.000000 0.000000
-89613757917703127458131555149372934631335955177441874811035549245936766979996953785854299421388287714521581809973055834648739840.000000 48593728669507569176187837547399947566615177167718637991668253093918076964705817473062836335532084439913793934660521829177753600.000000 0.000000
0.000000 0.000000 0.000000
102109745167857854532289301662528058443672112621231232641538040859749536566368043503601861749151802412506365064722866427695988736.000000 47624546412695937362656469285687064377934821491788454883388102588641162365230968177779866762789647621504340169655187491338059776.000000 0.000000
47624546412695937362656469285687064377934821491788454883388102588641162365230968177779866762789647621504340169655187491338059776.000000 13417279198829073971560838932714189274394830477907510757801460014520327049300099665563997631646614806454665478973041808976642048.000000 0.000000
0.000000 0.000000 0.000000
717151384191391096430432431382118586831167169294908344620062900768062246264792595887879999719735135603348009044393355779495690240.000000 305540881552070585863815515475720884158682543083788935199714210723696737041107568450364343254857341222885662942929956009840476160.000000 0.000000
305540881552070585863815515475720884158682543083788935199714210723696737041107568450364343254857341222885662942929956009840476160.000000 79030831142318022781328114923811430494083302835031552545319060148708311245160314182284850783204942293852749608138052434728583168.000000 0.000000
0.000000 0.000000 0.000000
806037514686336660887998384940769702661900151856438639866334582815115931665856287315446084942325351404854183868548241603145236480.000000 474119957381240450793828742182860187207220103195739108269423197473843789980759480667710610879564498496457854297616479263532253184.000000 0.000000
474119957381240450793828742182860187207220103195739108269423197473843789980759480667710610879564498496457854297616479263532253184.000000 154246984576505863228561245700518648687851165778680083931109508775492282354538833025643454093709449067229451843371955930018086912.000000 0.000000
0.000000 0.000000 0.000000
9740185854755238140814879763186460818773400344411962113534832361214066117326507186053759175921138423830904415868196670727520256.000000 1530313770664141717475855386054402715889695720807546304020165120109569892978895346587918683552289682105903378899339330633859072.000000 0.000000
1530313770664141717475855386054402715889695720807546304020165120109569892978895346587918683552289682105903378899339330633859072.000000 159636965083518994347845519327681065630089158076975741065013840709075017108611279330930515296924219546779002025758608513302528.000000 0.000000
0.000000 0.000000 0.000000
724092045988330812604388345032071099540231793869371647296101589115552044569055025211880103816577697533865189823134130304886767616.000000 -90668966884667874764734543969482172709991148397957071458402531493985237495729692599946757332947413555292729888242933926811664384.000000 0.000000
-90668966884667874764734543969482172709991148397957071458402531493985237495729692599946757332947413555292729888242933926811664384.000000 7094386075831591902980961790910743880374083082875242006484563422980049899256060022346315858721448165830948019563418356734230528.000000 0.000000
0.000000 0.000000 0.000000
448794231916124505993087050580780217014825427942065257809811145982211030082131641269071979881277440612615049752669403484996501504.000000 -687813224682604648524627992760808287777962785768161672996282249844543254477163422909634883139515848382799722095407972111557328896.000000 0.000000
-687813224682604648524627992760808287777962785768161672996282249844543254477163422909634883139515848382799722095407972111557328896.000000 328203516594086063776202017318806083156220988816629352059208380104705952543562478334835031985616404990570862675886786481854873600.000000 0.000000
0.000000 0.000000 0.000000
2935890838390880524624624724667944270611515690778016881490926945088622397406571471317734228700749763073079333119253030855770112.000000 -360602209726514140253040229553847841356517988034361191452954023919756516169007427424432956558087809309523851742328783661694976.000000 0.000000
-360602209726514140253040229553847841356517988034361191452954023919756516169007427424432956558087809309523851742328783661694976.000000 41997825944179179361141604437624012572290103761485139659327685109389963582136076735098537378589701007302084664731815729168384.000000 0.000000
0.000000 0.000000 0.000000
22025374560097117360563604050696896049688664471853289010114111182465534249096968769578600343267674059257977295313956340695564288.000000 23596385710566634820394073402744280223566305622099748955326106762044978730064054575767052504505580455099355699547234606329626624.000000 0.000000
23596385710566634820394073402744280223566305622099748955326106762044978730064054575767052504505580455099355699547234606329626624.000000 10749766852566496329680354802649328765634781899260383044269901883342343737203880842785009952825938093800961719992616438374334464.000000 0.000000
0.000000 0.000000 0.000000
-2408676575656453282067103042439039496790396441781342725637293298243632577533284247707116787163107511158144775253343008840482816.000000 -56667205781192422603401567983765971094466064723490723217220390818744475492488241311336345550213561837168265906641400940019580928.000000 0.000000
-56667205781192422603401567983765971094466064723490723217220390818744475492488241311336345550213561837168265906641400940019580928.000000 31629499730948408683628617818088610380107902184883466528126024546044571197598270457771707359160250241349115280841757929450242048.000000 0.000000
0.000000 0.000000 0.000000
72415803232398160794018000895136041414459146087499701720046465178576259822465789453671265090279436780639688900830862378897768448.000000 -655771501455198814972064952933339202630182939105117516938736621981641857694143444283402330030244938645209030143663047610539704320.000000 0.000000
-655771501455198814972064952933339202630182939105117516938736621981641857694143444283402330030244938645209030143663047610539704320.000000 358484344130327615480481936775616642904275611403447764079700246499239654355091844969592478151039813511296214256888185183717556224.000000 0.000000
0.000000 0.000000 0.000000
5674891555345068869511097419454927713949781520605066309029452569963668469322348234121730669776475056665555331482418827864571904.000000 4273610615844389165696222304774163650961386649570768713902984970788854142748412484052609582376278872453869037655836104983576576.000000 0.000000
4273610615844389165696222304774163650961386649570768713902984970788854142748412484052609582376278872453869037655836104983576576.000000 1639445492563962232904082789850890818397221743613828355822906888915037830806875773067352026171061745454221158790160198347522048.000000 0.000000
0.000000 0.000000 0.000000
-31632168541074502725717133404539550698136155592660609680190824072644494301827847182794179394781070240077834933434080994053324800.000000 4911878102736511863708012013473947276418779533175577229854102325346406835184553418644011985743802745772695997974015958419767296.000000 0.000000
4911878102736511863708012013473947276418779533175577229854102325346406835184553418644011985743802745772695997974015958419767296.000000 1351302984384747862690189259645516697128633786175464586488861721380686320098005852323481840713123746233515392425296245041397760.000000 0.000000
0.000000 0.000000 0.000000
-27361650372303096323129844379900549017642943824222256980612466778612825568139856960476205594425877656671165993904690229632040960.000000 -156156584397578746214399399176045552443497080464099672755792394169195695612069406517851153841285428628899440106000855194738360320.000000 0.000000
-156156584397578746214399399176045552443497080464099672755792394169195695612069406517851153841285428628899440106000855194738360320.000000 90230804361745679082400306948631210540867564682674529278617091413807740508123988946283598274343368050403958326064125193050128384.000000 0.000000
0.000000 0.000000 0.000000
-2834486160872592682248925118535608932012711143191991340158982900393320452087605141231031847615362561779353588999516420851365838848.000000 -496839329573384479724061576628380781938091554453553410672837846725895117065184062669748174958043077724971262095414949357526450176.000000 0.000000
-496839329573384479724061576628380781938091554453553410672837846725895117065184062669748174958043077724971262095414949357526450176.000000 149631629454740217169034987614732788537466149456983686644904967065594379946086674800768169400191817304317814075020559853692125184.000000 0.000000
0.000000 0.000000 0.000000
-111080343542364592229755187679372060403608988819707367554274658842691710687809719736107730039430885885188492912188237044789542912.000000 -949507563595884872196599305172171758694397552483864664851675094187238338412731295716665733659558713211583031837280982819120611328.000000 0.000000
-949507563595884872196599305172171758694397552483864664851675094187238338412731295716665733659558713211583031837280982819120611328.000000 535543391036926930184474834488737841689751053330105173028135961983278228178418679635729409551930137771552319323256453739621384192.000000 0.000000
0.000000 0.000000 0.000000
-240935856933566740853489525595886089846293682253303421070805417778733260821156261817482561568981922900260060831480794443803525120.000000 1765394200731421255288073604249973905385645025292506069005180870370097753146114028000602993197575363106458451457761124735757844480.000000 0.000000
1765394200731421255288073604249973905385645025292506069005180870370097753146114028000602993197575363106458451457761124735757844480.000000 997942545171382153061354833115163364312944720351580453142319427288887252133392798443377933884276068963494934169112883637015019520.000000 0.000000
0.000000 0.000000 0.000000
180709367791082689459563339275993335469581780196314159711577202444074114056540106596894797806068093386625490653524459782697648128.000000 -564288982053310572548508145945406977195323156793633915769072877837737193727274974081151115902911373355176675161745107900526755840.000000 0.000000
-564288982053310572548508145945406977195323156793633915769072877837737193727274974081151115902911373355176675161745107900526755840.000000 295626063318961451519884541770090108398034027223133977639210263273979313032900327921793744412314633411821968712200542170311032832.000000 0.000000
0.000000 0.000000 0.000000
541522552496527791184997048297000119151158929482749979827114546321874900736067266134206465598905793213425800560807741522387664896.000000 659033930454655659575606115142154487889067244753724942414037211671714837627248372626644289438414166313415259984215841430566862848.000000 0.000000
659033930454655659575606115142154487889067244753724942414037211671714837627248372626644289438414166313415259984215841430566862848.000000 296885313259588174924217354783537648852797829928870943909834443741982291974206342837765521777048959160013435300559140861278945280.000000 0.000000
0.000000 0.000000 0.000000
121505017824910907584333408597388146045476647885751966881235002055714407066339381659191761633538193485783813023209378447668281344.000000 -1434769870936703266305727066670582162657911536279817120494562530732218903739738347675802187028611196077336391911957214809479446528.000000 0.000000
-1434769870936703266305727066670582162657911536279817120494562530732218903739738347675802187028611196077336391911957214809479446528.000000 788736735806863414724848184682124530688862261733247980369400468609771005903930388438710990327677446566721391156321032545027227648.000000 0.000000
0.000000 0.000000 0.000000
1199135460880784402476691173155203431417756265960031085441584382645388768822331349345648214126493334873931612169092974398796726272.000000 1685245502220116408522003820243257303678428443072804499908912016176898056902593336119639433743179432186067162437474219849016147968.000000 0.000000
1685245502220116408522003820243257303678428443072804499908912016176898056902593336119639433743179432186067162437474219849016147968.000000 788093479842836991882680948779242501113905962036159624188520514921756484242406685904871618342122019073235082454225897945858834432.000000 0.000000
0.000000 0.000000 0.000000
5882911643478424717819417849197068976865844501527454312338952313145188603682646997605797434942532387733991625111269175807967232.000000 -1552649356690611790733820010916391635739275017728310099149058851875890578199682080089532797608836794247826912781820750045642752.000000 0.000000
-1552649356690611790733820010916391635739275017728310099149058851875890578199682080089532797608836794247826912781820750045642752.000000 264479006960023743599277277138251912776030402870465670060366528985058335683417374559997495893459041961203910547959616297238528.000000 0.000000
0.000000 0.000000 0.000000
235579364404309833571411042737852950350665455318772254509496640653726223614297018133813911913057781750608697759892104574421434368.000000 129220800860432095387173447303445745938202262083444143577678076930660120300935715388146474199853065107356338081856553380873240576.000000 0.000000
129220800860432095387173447303445745938202262083444143577678076930660120300935715388146474199853065107356338081856553380873240576.000000 38800068234520336516684819730425797372307658731845926200158937986604144294609298872444146767561882837625575523539394389505736704.000000 0.000000
0.000000 0.000000 0.000000
1110280719162306694493524163485293129697949363233120041223182930484090482335966361651993761532086405185705582121986466570156638208.000000 139854814292553626870428354747688887728841374958830308479570667649668439749121691931344004256440513592166554127641475025331027968.000000 0.000000
139854814292553626870428354747688887728841374958830308479570667649668439749121691931344004256440513592166554127641475025331027968.000000 12896686530339582235309067543110142547788286702749834215116313882372616293428732228670312652854099439268014082398026203136000000.000000 0.000000
0.000000 0.000000 0.000000
362501643341521802290692593072565609540021334641460995083208207896654134010117995571908566913879913615831986409513223830949068800.000000 317431862815928549376750526434981775822795478703903522332148898096135633303585329958488205592668785605404264049390627579521662976.000000 0.000000
317431862815928549376750526434981775822795478703903522332148898096135633303585329958488205592668785605404264049390627579521662976.000000 126938291370646801539860711621098570609887682438025332271005357141940154680884523128421257792525624522823093031486653455163981824.000000 0.000000
0.000000 0.000000 0.000000
2126298643726376481735407633584999849834565128558311660484845339755261782201006100893889683340282973867355275308241381728572145664.000000 1398033617426889339425877307704300697992316787142800310364354843604411669200943269203322318852417393296146733218700504753749622784.000000 0.000000
1398033617426889339425877307704300697992316787142800310364354843604411669200943269203322318852417393296146733218700504753749622784.000000 480487176049637731202191595265967951516040153571639867820886628392887372734369955306697400914203698598769201749032065248253706240.000000 0.000000
0.000000 0.000000 0.000000
550699133414724663257704017215243183843836045480813965526284186815049028409990489222518007836738385949594913649561556699599339520.000000 -1800185803141485147829045437223479562094115883414063106635821109736818159649196617309945382113532082292618512283984333012696301568.000000 0.000000
-1800185803141485147829045437223479562094115883414063106635821109736818159649196617309945382113532082292618512283984333012696301568.000000 946212887137253434523154398403875965178064111915413236653637650960410989447089021471796531216998161848844906386770576618953900032.000000 0.000000
0.000000 0.000000 0.000000
326224436168072006351515717404940498604833045359147431327852393777024689948452035456821276241564499649421045046372951093336342528.000000 335837250252197828563322409992641004035488875575252609733163206106127579278577777963747460478083287473134086752206007955265421312.000000 0.000000
335837250252197828563322409992641004035488875575252609733163206106127579278577777963747460478083287473134086752206007955265421312.000000 143192330357832698483597117215974138104720972999235432121537501288570650889089124357687742695396469516543772842509377953245167616.000000 0.000000
0.000000 0.000000 0.000000
-81963379896927582090013046211268624555505224007216604687408112885787807212491182012907568832815069259605885535001765081669173248.000000 308877237338174837307029497775730936126975434620378258779123092235196174087631736957053621992291038487615883117086280906493132800.000000 0.000000
308877237338174837307029497775730936126975434620378258779123092235196174087631736957053621992291038487615883117086280906493132800.000000 182335205597750342109715783151294360191350391476232957705924747300761668457604057224020787113289157846127767256871328698884685824.000000 0.000000
0.000000 0.000000 0.000000
-145394086731578807282144972923237164764575056493224995429730725734680607085751681137375729695601513324245935618903983588867309568.000000 -110748618581259235472150151936703316412391175022462652482266742175327793630329678141100186145987987011843217355125428177415962624.000000 0.000000
-110748618581259235472150151936703316412391175022462652482266742175327793630329678141100186145987987011843217355125428177415962624.000000 61089663970691887723294165796256170783953011920567624103595272504918453103800807417097980194400802878529817448388753869680672768.000000 0.000000
0.000000 0.000000 0.000000
152140465541241214618498647909047381573798450181743250568970544018379173529888976167177579514471981209806373716463222783781896192.000000 -72799326410170996399249768388262377385613124611927827342420087272316247840564103324449208684724032163189440874695172859375910912.000000 0.000000
-72799326410170996399249768388262377385613124611927827342420087272316247840564103324449208684724032163189440874695172859375910912.000000 19938271741418917904013194132205185643717069176714352031375652899299763719062902096125734249731139758818424152600949804375212032.000000 0.000000
0.000000 0.000000 0.000000
110768861455727546090598830030061494906721019553899288222379561573330256007985811604444333023454413329068167860041268430655979520.000000 -35435394383395875867509039165749064577221823508564980263829828968994678931518951902815536784381783826391944513497734102357377024.000000 0.000000
-35435394383395875867509039165749064577221823508564980263829828968994678931518951902815536784381783826391944513497734102357377024.000000 7705816901378372428416024437148736310421536591029038362410992373637038136509129732901949543466953740213077479496041252090019840.000000 0.000000
0.000000 0.000000 0.000000
291684607842667645371545016374045056173077866482392769471961342739523353703532298495169435699074201602902431942066212921619251200.000000 78081289716301552378499339827403365761057058057740551626844558584667115813655530499259992112542002827004167572227154744084267008.000000 0.000000
78081289716301552378499339827403365761057058057740551626844558584667115813655530499259992112542002827004167572227154744084267008.000000 13299093364551257790850345079234100944093848986267171881799309291614610287959292251168414638488998242870454428724198218607362048.000000 0.000000
0.000000 0.000000 0.000000
-2112753376915131529043670974098022030722752658077000542313896074672037693580274334516187997501763108750476587624944503210639360.000000 1189878369339802029387970889420801619086271555602258029652505589715831351905816205001012467971846917198390330079410878752489472.000000 0.000000
1189878369339802029387970889420801619086271555602258029652505589715831351905816205001012467971846917198390330079410878752489472.000000 628303966467222478629800765629058786463757436768538703262315541602465224281785989181435596226276313260577127446214756702093312.000000 0.000000
0.000000 0.000000 0.000000
575215798125844265966970285474030115679406763823985531939963968163531025700922315320474932049806133969412589794346092523887263744.000000 -563214220608626598882731566840792200346764093447238093932926630245010130197980058930103161416033980462631085156531440877406519296.000000 0.000000
-563214220608626598882731566840792200346764093447238093932926630245010130197980058930103161416033980462631085156531440877406519296.000000 238906240378845667588520060707683234192471479093269086408966443912443345699912440144052814439934010360845493188660018061875609600.000000 0.000000
0.000000 0.000000 0.000000
-231637001822454151093482500763826938497052988462170418532329981906238256610029640911010745367423268069321765094582250968912494592.000000 -108290500549801977028768558352576082854420864295951354550675085345582732791726071158382489353694266650028179680744680239732359168.000000 0.000000
-108290500549801977028768558352576082854420864295951354550675085345582732791726071158382489353694266650028179680744680239732359168.000000 54005475405997659690551806277786282376427970090460573887773651296447730730240204993937622393587846633292715314213146638795407360.000000 0.000000
0.000000 0.000000 0.000000
73387096150677098301205125912011709393444245323223966526463447394773147632582426125359069974602912973904512495004535329866645504.000000 11533665535033319882765193852060354209276342358334410606462208277019585961958482886451664354544533657088351964997451777761607680.000000 0.000000
11533665535033319882765193852060354209276342358334410606462208277019585961958482886451664354544533657088351964997451777761607680.000000 1284298485359431262922604045134432817945851613590361647507770642578582761869667185579214850536992550407057588253629705380429824.000000 0.000000
0.000000 0.000000 0.000000
253677232888997036159731445106458166433331559353432037560308471479791590134242416192494503516615398012615099777049489592593416192.000000 690920317469911108135800867736306184417842021051318851053256711020945917695469014516169395786745528199737479867345074035076628480.000000 0.000000
690920317469911108135800867736306184417842021051318851053256711020945917695469014516169395786745528199737479867345074035076628480.000000 357875192125810364173426741039323980180775669845621467381729107896951981451834437456455260744216261204385474539488487405787283456.000000 0.000000
0.000000 0.000000 0.000000
357150205346677155412156509510029376800439277413425677903844554174819478668116187491216901624270031552196002664988854358741352448.000000 -303781507339945549833982975439729870856055435351618359421390755100306213646890203275945315354477520780411870900730315193551159296.000000 0.000000
-303781507339945549833982975439729870856055435351618359421390755100306213646890203275945315354477520780411870900730315193551159296.000000 119732228121402463989509067674452524127499008535524060394676984990178778513790596372486001649975813767717905113043809047937024000.000000 0.000000
0.000000 0.000000 0.000000
105220825668942100788171797900887422961866354973099689788771703083466600312327988403923846344225281839806221980441751072425377792.000000 -248779602276606845127620747064992216546223076847668099976603139566267752250095451657118401017045487604933304831421867400403877888.000000 0.000000
-248779602276606845127620747064992216546223076847668099976603139566267752250095451657118401017045487604933304831421867400403877888.000000 127525477928331584045191565736968163005845205728816837468251286209464110941837646396970573578979835137151134037579505056929021952.000000 0.000000
0.000000 0.000000 0.000000
137357736802076402120281011809105558712821395902228089954161443639213387617380846661897908109821633753672610253509030933197488128.000000 -332565794724957066555031776738706581585143093178894680870944039000306235028248368040231452569408723368739523275452553683246514176.000000 0.000000
-332565794724957066555031776738706581585143093178894680870944039000306235028248368040231452569408723368739523275452553683246514176.000000 170256100605533155120360734153281584344647806747992462595268291540456292973182020549719677066737231100301822006246482428882321408.000000 0.000000
0.000000 0.000000 0.000000
1014792882959436478049140480035743193986439558751703291752204645018011942721322729243629886580406163510339967450174207183617523712.000000 -401163073805341221890706338100057793535963967295023458236466025100230724510538608150954022196886042624455848461058498352084156416.000000 0.000000
-401163073805341221890706338100057793535963967295023458236466025100230724510538608150954022196886042624455848461058498352084156416.000000 95864780426364220190838132791155052466714460996056496324755345488690265629007878844950039417639788512278594117672678285142654976.000000 0.000000
0.000000 0.000000 0.000000
-1378021079062221642784309079769584043781811248475683122118102044508817765392047106935950225884080315813797905438542933102952448.000000 -2398971771472867234233613454477340037784372552848194343498614534984049206746136029933777110184939170961259111554355783970848768.000000 0.000000
-2398971771472867234233613454477340037784372552848194343498614534984049206746136029933777110184939170961259111554355783970848768.000000 1384619127767719020409422753546113175428099482025299854845418838541712542191697036332975788047105322467015284662158163871531008.000000 0.000000
0.000000 0.000000 0.000000
-21338180050960388896249976405753337089398458132202615725456201726040583129944709549892233385492485328661386065966570620099493888.000000 122793457155109613463132503408393158899370056070006711410702560611215573568793343672159337585626268331111971258858623912116224.000000 0.000000
122793457155109613463132503408393158899370056070006711410702560611215573568793343672159337585626268331111971258858623912116224.000000 3122068528305723112194920663755556711460229936814562577660293876706506935208837134216393817925616557471259275848617088606273536.000000 0.000000
0.000000 0.000000 0.000000
-7001877609380480933977400593965386774628515538119931005519754513857317011489205702837935636882506838897309532423206541086162944.000000 -14719982714953725506206178805236451465470569111054979296460837833983450732369679345178093801719890092762970235294899028845658112.000000 0.000000
-14719982714953725506206178805236451465470569111054979296460837833983450732369679345178093801719890092762970235294899028845658112.000000 8598001936981285294232734290010705737767351877640623273389735529947552343169488135569562725129351373644402129741434441592471552.000000 0.000000
0.000000 0.000000 0.000000
224746661842644069491411889678246365982723862001539541698787344790278655618535102544939751186651456546570395357364335658076733440.000000 -117788344708791841313752217080352726370027034016626272918935778400159757457339508537269176411119443668690830719518879092156923904.000000 0.000000
-117788344708791841313752217080352726370027034016626272918935778400159757457339508537269176411119443668690830719518879092156923904.000000 42416799094780602851129150925009493254937299059254031401999322155911673505559506447430425194407899072940067156213057777880268800.000000 0.000000
0.000000 0.000000 0.000000
28458486772947275361162104880308122485371460455004597585501685934414037903747467924603049214623909462706464522562248246934110208.000000 24379498468358224500406943372998861188442033334767994532253213555126630857794233067576788245067436782323180560898040550823821312.000000 0.000000
24379498468358224500406943372998861188442033334767994532253213555126630857794233067576788245067436782323180560898040550823821312.000000 9630777905397898122678669493052707702624170906824407582922630242861813146688761888998408168450555117412959548365807513470238720.000000 0.000000
0.000000 0.000000 0.000000
86746928839239092118814817432175226987279098812342347196698287631289627703907898883324481242832031592184484716362430149382111232.000000 -307394912529171750367236732617311232082352659035599122921492984888148255342278479586419485042324189304255212001514453449872244736.000000 0.000000
-307394912529171750367236732617311232082352659035599122921492984888148255342278479586419485042324189304255212001514453449872244736.000000 162594896172441517847311158326828499451067199111556133036279965304332394569182118355310760326321905556142310531010943038856888320.000000 0.000000
0.000000 0.000000 0.000000
2408583646696748590215881187235113278074406527821548379165416453486548919325708790418613802106592392184493484244987024801152368640.000000 -1073077455324677255532747198452917608972418136291149176609771899891350071634302246093696169189938948122450198653152865716933754880.000000 0.000000
-1073077455324677255532747198452917608972418136291149176609771899891350071634302246093696169189938948122450198653152865716933754880.000000 282498490132513073136903238711074227115815907293382394341957552944557161787989532329719051137029940589068409264714729859187736576.000000 0.000000
0.000000 0.000000 0.000000
41462689422919438327017249862935022868532034295228077330351341926610668393770138899886565077061033134680585149183244936436252672.000000 223748647581709817479938506301443951556008823538872032379831938973799665322740994519785606697495570691027183324503186270786158592.000000 0.000000
223748647581709817479938506301443951556008823538872032379831938973799665322740994519785606697495570691027183324503186270786158592.000000 120734793526928010038385858361551755106400348119171213160221768625916766232497070341144243687441958879868881437115814051399598080.000000 0.000000
0.000000 0.000000 0.000000
-31071646791465840718182687862483474270344325928438492051809230354509452431737033225828094136542815503790988939601044704413614080.000000 -2790112367534808880577569496586204912660077661867808199934639176273920780917491307741398438228074569228551968342917659328774144.000000 0.000000
-2790112367534808880577569496586204912660077661867808199934639176273920780917491307741398438228074569228551968342917659328774144.000000 1183170049140660864552327478421160371797434839438514053499348250203298086855132154976055389307508035545408724814720194645590016.000000 0.000000
0.000000 0.000000 0.000000
353364014234315642040833306380460058323514665495572859920935926731809718742792085188344739607269044793988807589077528686865940480.000000 170041461780126470481678870213466647774166329783925342269568686145319120988363426007159973190901808270013424769523704413108043776.000000 0.000000
170041461780126470481678870213466647774166329783925342269568686145319120988363426007159973190901808270013424769523704413108043776.000000 47360886176367651969701173216921649019992077896149979533237101115729226231313575057953492311962458940260647112698693714337333248.000000 0.000000
0.000000 0.000000 0.000000
611647692099891752689255755677539730627853049833556958009637432268094832734270383078538590291149542652519063877415035969818591232.000000 -424361371537096006250720037128835147270266637717420549048100352041983334532801692817689304704661121674470315135530593109254602752.000000 0.000000
-424361371537096006250720037128835147270266637717420549048100352041983334532801692817689304704661121674470315135530593109254602752.000000 150439418005117101499108737135939535188526620171352684667927452812175771276082650381785801532739032303728613399067435735002906624.000000 0.000000
0.000000 0.000000 0.000000
-253209273549116083098771777454487867656977838736406561494850437064732123906625551223376372366737205681465486495265571730064670720.000000 -340420434921889770022653151103552867210521036709725690783189634976560276980015045101429126456496191388716512891134557577940041728.000000 0.000000
-340420434921889770022653151103552867210521036709725690783189634976560276980015045101429126456496191388716512891134557577940041728.000000 195980431686599933923630220924072362903615822251205477829087325553044117732973058377320974186065477104916649825399582052990320640.000000 0.000000
0.000000 0.000000 0.000000
-49602594575059396662606085293879181961273750634112498576352028658450615305630379894777821703234673441329900293871550931910178897920.000000 -5035644173667453791573041865691769543727963171647899192853485254232649579803331898846262962368343143727367200844429604747193876480.000000 0.000000
-5035644173667453791573041865691769543727963171647899192853485254232649579803331898846262962368343143727367200844429604747193876480.000000 966345322050140219458617216937081746945764270749603947304944739007471951229931744961426434570535118808147824974825667697089445888.000000 0.000000
0.000000 0.000000 0.000000
-61374234436011504061601975235938509671244413489589034522983189452678524239303098770671373910845463722141400055289534195831813439488.000000 -8742894725217908754942992317308297537062437595246614324942435449976029151653676255440496592813459205224710725199364680856836767744.000000 0.000000
-8742894725217908754942992317308297537062437595246614324942435449976029151653676255440496592813459205224710725199364680856836767744.000000 2236994204790462936164362600806999411692202119788791343776433845211608919177766817236393387924579418756811061343815748704838615040.000000 0.000000
0.000000 0.000000 0.000000
-5013217395619862765384864115238173263882739375214596586671742285500039240758967650749462712004689284260152966981271236244003618816.000000 -1606185834398058979311633314873271772646575149443507287546023752620392439066100910162401380454290269371663681418361087048990851072.000000 0.000000
-1606185834398058979311633314873271772646575149443507287546023752620392439066100910162401380454290269371663681418361087048990851072.000000 699312646158921838420063662764937798574708709349611208029843203514547371123262826963037830180323041790757918962601934604436766720.000000 0.000000
0.000000 0.000000 0.000000
271781207312395973819795448676621915829698428506390154673445412681445655556327452481820614996789035070195119949678470452551352320.000000 185643435007632899580873577110757580319202097802898889944919917766247736397479157627876427143371458314146169960448168006571261952.000000 0.000000
185643435007632899580873577110757580319202097802898889944919917766247736397479157627876427143371458314146169960448168006571261952.000000 65333101423843635657549818243726245549648523597081037760597517252173180590252886591384297783542324392071023829558011170692005888.000000 0.000000
0.000000 0.000000 0.000000
-358013632982638866844732321748440813553473254674121175171382223068729092728398992421726571565283409061037626206832788849059891773440.000000 -6372413386379535178137458313292497527069373421944303359420496511516980249971601268644086471578379112623950214149247585904129736704.000000 0.000000
-6372413386379535178137458313292497527069373421944303359420496511516980249971601268644086471578379112623950214149247585904129736704.000000 227988202481871650047966081957508898067396215520399991437268648349188075808790821724944158244790669196520487532503947581316923392.000000 0.000000
0.000000 0.000000 0.000000
-581149515667899708953555460429904387253150516247125876588325207489596670152629115297544049017065430599651192327116849230097940480.000000 -547149347426123996895226938794875077778692084436034803065495573921654917854362955399668323710520869654597354802315447082913103872.000000 0.000000
-547149347426123996895226938794875077778692084436034803065495573921654917854362955399668323710520869654597354802315447082913103872.000000 331415734577303086403387895243743505567934607394241750367586953102874738986181788807335729672292030207900242312045768247108173824.000000 0.000000
0.000000 0.000000 0.000000
-33471950832137915735702231149920451292370695332287618999753616389646639687239775424917139131203158363177304980178066389392687104.000000 -299834049572615039263131343589364174833197967650465303026361049408354685756702081003887374035177333379204766319415125817407045632.000000 0.000000
-299834049572615039263131343589364174833197967650465303026361049408354685756702081003887374035177333379204766319415125817407045632.000000 169256200294154215930407271658929510602259531931418556861040502040093150675137823697077390897325161024193771533377798889545924608.000000 0.000000
0.000000 0.000000 0.000000
-2417767071365172828768049541202349291406449103102983695929216220714603874893159186001030209168486208461110610954794494925027147776.000000 1530657792300478343472778650084876370357105695317825524336126610619138641176338635708882871959939068982641112642595442634075930624.000000 0.000000
1530657792300478343472778650084876370357105695317825524336126610619138641176338635708882871959939068982641112642595442634075930624.000000 825300915693375217750919990614445388181842236787135145113580024065700761386717252311993209428223580674134271029132520577180893184.000000 0.000000
0.000000 0.000000 0.000000
-178502879392826016433046248686995219805839317281994175076936751299854511026386674255886238170469152777103365118011406320704019234816.000000 -2779529403228562819425869744430984062039576507898891863272809168103804195307814242287448895645914184280309877242922049338729299968.000000 0.000000
-2779529403228562819425869744430984062039576507898891863272809168103804195307814242287448895645914184280309877242922049338729299968.000000 86662447253904806078611022806265193742200620184753801103855613008088874829966574190313892200251159617967350332810679039169658880.000000 0.000000
0.000000 0.000000 0.000000
-6074575880673289723048271899583921264337321046923674666764242823472366939363868341254118988391366338489074988754185812146179276800.000000 -810867019064816911820216343440898111908378748930400048714865328721822058456785162112532923690159860687792957085760092691071238144.000000 0.000000
-810867019064816911820216343440898111908378748930400048714865328721822058456785162112532923690159860687792957085760092691071238144.000000 196572606877789475905284733554270708693376327713489060903703618906621061319631344172439349035238082786273381914525741013337636864.000000 0.000000
0.000000 0.000000 0.000000
-696217150281672124528886659187909393779367924835937543918180021208658496030010095703564040648068112307571865620752491039401443328.000000 1037735373453893403943007203730578743398284195646395707389038418803027141401425866649515028034929968432532566004695188152883609600.000000 0.000000
1037735373453893403943007203730578743398284195646395707389038418803027141401425866649515028034929968432532566004695188152883609600.000000 598196964221695097869590178947243287744291883522299063313093599535786693052301436285862414293747502673749468953068543853027393536.000000 0.000000
0.000000 0.000000 0.000000
1429932015569053112800302521930753567483659371268955718697913885876269950844694889790030114452165745548353407146081223688687976448.000000 1479342345432230306843687834820683056280886839278020358824214750626012451193015501341468348098307033683231558438208665423475376128.000000 0.000000
1479342345432230306843687834820683056280886839278020358824214750626012451193015501341468348098307033683231558438208665423475376128.000000 631778528854197381459127065685093656447003345733387023806541076825643559600822455747710315002612667043738307091654974367965642752.000000 0.000000
0.000000 0.000000 0.000000
-20773158589682104874593738463043782835101684155504972151568974798464547395673827911774029396408443077269850223433076684894502912.000000 -270053716964154338842321316069960369818074302317487599939242488180054875284445092309546008641185735714376477898618801174406496256.000000 0.000000
-270053716964154338842321316069960369818074302317487599939242488180054875284445092309546008641185735714376477898618801174406496256.000000 151755092357256958935355215834480042516826615153698876280325896149272086988562088645995376028719779740998454446229834224994615296.000000 0.000000
0.000000 0.000000 0.000000
-9988062049393617057644948459826280642349276743442335186810228041492098766139109290287019901418154537919436730332569107660013568.000000 2344913308854568188789251035262457189158723900080768208779621066906928362241798259264484988266129045351044747425757365794766848.000000 0.000000
2344913308854568188789251035262457189158723900080768208779621066906928362241798259264484988266129045351044747425757365794766848.000000 859660941208085462931608988732167581194406473521492824519681354643298014814799066354947451348119468318678730176683784204713984.000000 0.000000
0.000000 0.000000 0.000000
-124295046790211613121321962479652268388572287710660200442488248700305378573335369797425481457745600220619921943138632729687993876480.000000 -16431673874015492717761178424829711168819850828039798897648195693683894036496344579154797070865488294023974631535842366766966636544.000000 0.000000
-16431673874015492717761178424829711168819850828039798897648195693683894036496344579154797070865488294023974631535842366766966636544.000000 3957823151228961732293089584713597140165581933299784149514834131225789321874207263921852851600199023963323190171464462725594218496.000000 0.000000
0.000000 0.000000 0.000000
1466233137235476219403599231945401200905460065290335270352349526029799227874118719174520564014000096906022926678959475380885389312.000000 682036419142431144587571789992984455616903946398485276543734497361140219080394806384100623737115106027462984901745845821237100544.000000 0.000000
682036419142431144587571789992984455616903946398485276543734497361140219080394806384100623737115106027462984901745845821237100544.000000 185179956239131704004925239813142259748350825552531530859974953305079328094350185847309935865512860569051181540460945986717483008.000000 0.000000
0.000000 0.000000 0.000000
1400596381946370008032701530280677445378910636113142044947884077805380897758238729364780608006451884678830104872481812635115847680.000000 -2193715020314455309758614133971585063176073520719906673813697639964687218086808626094340053440802259280876031487548067183866150912.000000 0.000000
-2193715020314455309758614133971585063176073520719906673813697639964687218086808626094340053440802259280876031487548067183866150912.000000 1056115808695982129021381088635635075108057174610666688360631021375462976823848553843641596976229454193117720960906308627818610688.000000 0.000000
0.000000 0.000000 0.000000
661847978766551253471201988008085236410892418781888980409785335313616712334725825184151747737465795196868579274243305061438455808.000000 -534420633327187959213724423592876741143614801494064625240135286478913364723650053178346606760331853249081911786021181962569383936.000000 0.000000
-534420633327187959213724423592876741143614801494064625240135286478913364723650053178346606760331853249081911786021181962569383936.000000 205387103875007433842583566061326555000790388762369743434790563025432309207380156320387675495176615220818978148790956243000754176.000000 0.000000
0.000000 0.000000 0.000000
185250197790684347517125967099475570643358788620154567179847820754841072309457912430704929556138263696520288153015423352000479232.000000 -161308673162511758163033770616904361400980580268066071952200247942615597295253940713149886177111634621501755446780449981108060160.000000 0.000000
-161308673162511758163033770616904361400980580268066071952200247942615597295253940713149886177111634621501755446780449981108060160.000000 64261655655967873093841083914841710710449396044642604401846592935689220388194224291990524463620963544093886775542049579647107072.000000 0.000000
0.000000 0.000000 0.000000
-319104741647603037173986200539625040655516157079652957880338129534823876228108282220644718256694989284204938783469568973699284992.000000 -212783278421619181841800181290793302922169915923150054023890417941149846845511371544505924363558936984143743241090193796099997696.000000 0.000000
-212783278421619181841800181290793302922169915923150054023890417941149846845511371544505924363558936984143743241090193796099997696.000000 116917101235575993937775943137586926247796181603099398506525354736301782445156993951341560532160359097359191961194540608520192000.000000 0.000000
0.000000 0.000000 0.000000
-194539502102141831935860657573696197153737606581325589408261432310268025336130667191017540453080876159145050726080558393129435136.000000 465294762814535514471335136842494394709773443852829802727155654734829580535088239661268973856684973541257361391893463433232777216.000000 0.000000
465294762814535514471335136842494394709773443852829802727155654734829580535088239661268973856684973541257361391893463433232777216.000000 267446226475559517066040933281375583849480529757211418313314418379624652191966667706812686943096983014918405568404478148369973248.000000 0.000000
0.000000 0.000000 0.000000
317877541328379817071016773983554805396359237908988201797210187894767724632700990247908756360072301064831368140455843208171094016.000000 133146548732506062474814470171106825402496732517688295470919385881213695389962238877337203644414225856246489652111660545663303680.000000 0.000000
133146548732506062474814470171106825402496732517688295470919385881213695389962238877337203644414225856246489652111660545663303680.000000 33699893284073171420245903325383695885228568424097067765665623270032624850018310485956037004869463297189881584668570974098030592.000000 0.000000
0.000000 0.000000 0.000000
1756071392852152733881774750947476866552597902824959539772724355134053823369313003431441407864272604558315393926840521045204533248.000000 518391997193253324932079312409409253890221515003500558465023001043379100455681295664511064066044481270660979976911109783969333248.000000 0.000000
518391997193253324932079312409409253890221515003500558465023001043379100455681295664511064066044481270660979976911109783969333248.000000 96634114958070143450488917256810948342679866446546787024744920862503184164792695423709336679849543813183357855831171734209298432.000000 0.000000
0.000000 0.000000 0.000000
355244421276070934211199516299985610446573714533714199211835843993053112409522583378559467920918204459337768293597091136498827264.000000 143324330223183313971334869652990061118222870519741079488745566401024480621707327460423976476457931025177334056343000122111557632.000000 0.000000
143324330223183313971334869652990061118222870519741079488745566401024480621707327460423976476457931025177334056343000122111557632.000000 34822391682459971486907702864670543365650703179978778811694867839370841727280651828259704177410343418706204359639278781995155456.000000 0.000000
0.000000 0.000000 0.000000
1002302732455612109399949812407629896972660412817311136677124748532354082793897056627790071661259240400975077977011341589246640128.000000 -1436396810887476932388061644834863362513200789816543978730843554613536862921351963508039667614965689177205944362076415928368627712.000000 0.000000
-1436396810887476932388061644834863362513200789816543978730843554613536862921351963508039667614965689177205944362076415928368627712.000000 675283403899717411527983253115923649786636628239035024418806486944984361525196851048427747394143071156881220077140731274148708352.000000 0.000000
0.000000 0.000000 0.000000
-54976499805613261290987029067464334409769608855156547888079055018190897103484816045641936932853131235527272902553544986585989120.000000 -61598617470070445051955894949878756174097200915895401849064722893651507228496272566101742889844464287711608258189174971257847808.000000 0.000000
-61598617470070445051955894949878756174097200915895401849064722893651507228496272566101742889844464287711608258189174971257847808.000000 35287819439809159155317342521162993726675968517108841677775509688517371608113725665304042657147470104933289273267448921989316608.000000 0.000000
0.000000 0.000000 0.000000
1044267815952891021180012928769978591580381106701923896633866852013969477811690730158502962301452847212845336522128335728128557056.000000 537731572230262779765428297025533778134502269016464368668450455910619111703417359849465354257256623989831733887487706167647404032.000000 0.000000
537731572230262779765428297025533778134502269016464368668450455910619111703417359849465354257256623989831733887487706167647404032.000000 156638204292476982936879518895471747155667023021506301100976235702935252630049843584889622712744785121898037348128524081467228160.000000 0.000000
0.000000 0.000000 0.000000
-13682199802264494038416846545205248340210970065565369426288165266385609429121994744252345389092549237905727904321498803677727555584.000000 3671966042462415464845873332757394497002642632266406495204729461025870906914120582507989177040130212908023313704725989476683218944.000000 0.000000
3671966042462415464845873332757394497002642632266406495204729461025870906914120582507989177040130212908023313704725989476683218944.000000 1456181681687409805672196035997661796968696546274585066687003527306085246075023696790889519322257794972973343949140130853835243520.000000 0.000000
0.000000 0.000000 0.000000
-4244028685006879362548960850837492727713669513284599157275161407309826035979680938594641872286958504326772984284780676893644947456.000000 -488028264301792605068225918663958254018791252928688750828000163484996424633617558250127162487717754788796432039554953190685278208.000000 0.000000
-488028264301792605068225918663958254018791252928688750828000163484996424633617558250127162487717754788796432039554953190685278208.000000 105197949022924189163419173048358063916368533154778273812625528276658448070580407052012732733030376023608399719090276663488937984.000000 0.000000
0.000000 0.000000 0.000000
-207126638964185648303317981550919239691327438670301399975038141429776837478364491893373205171013198673448305272411689626632192.000000 -731285880283217958583572365730181372305289914813305045958328605319793849832492840310999085725817063594477223890428206556119040.000000 0.000000
-731285880283217958583572365730181372305289914813305045958328605319793849832492840310999085725817063594477223890428206556119040.000000 439346260903105288960134815434999837150754392063263369931269290203758275261382446758797493726838550311629003048127507353042944.000000 0.000000
0.000000 0.000000 0.000000
-83156980575551504314508260419294897155613137644370033830384542369327412117702600997970103325342914488701540921764970889476046848.000000 -641229251025275746512620807769438644416793014847322970859935240239506628473056231289611565318144171779718274880790541576290959360.000000 0.000000
-641229251025275746512620807769438644416793014847322970859935240239506628473056231289611565318144171779718274880790541576290959360.000000 362438814532545354814387661387745874123999176461955569605031385666782260371269235067170788659692729703122733813474795641848725504.000000 0.000000
0.000000 0.000000 0.000000
89086829745553178116181892891452467658689578243762926797929884667206207536492956732918968535860923195064569673659306202135265280.000000 -81943203089512873316128959128439897290693282733482339629632346007210005491023813883172161439941351636990219139462457931788713984.000000 0.000000
-81943203089512873316128959128439897290693282733482339629632346007210005491023813883172161439941351636990219139462457931788713984.000000 48639716357586197077768788152991163436719219901875655050350428284695936943821152396246813246990280378514452723414035892556267520.000000 0.000000
0.000000 0.000000 0.000000
371148792214612862612087004847714718551149143374235754767962696394210508403238843171290512665834716835800703903338704966516736.000000 1033916720471060759089056857418791327535579306463039282037401125971510334009619569105204289098059242481925924093754990789656576.000000 0.000000
1033916720471060759089056857418791327535579306463039282037401125971510334009619569105204289098059242481925924093754990789656576.000000 536619931058271606724170440516873928735417465784190435381618767376447373996197676469877995095518608872065179297117374412488704.000000 0.000000
0.000000 0.000000 0.000000
13694943343927368190635540043405187015694308044775903973822402900833465363265809766038014017112225987892716042751740472960483328.000000 14859563205965773134751414926957123534088938525364558686762052807287204568969136010538717358933674459818453626499255239763296256.000000 0.000000
14859563205965773134751414926957123534088938525364558686762052807287204568969136010538717358933674459818453626499255239763296256.000000 6453989536409849947994414593165985085961208642589139343214944965609777905624336979693358734582349891601191407018304601222807552.000000 0.000000
0.000000 0.000000 0.000000
470814206909401255900480121307339076981510514929726720468407075149985094400405830379307464428537071739389148093806037398800302080.000000 -518382919235494788644872584111173922806271997432109235925008001021392071021572968432212865196022501372969717578648085330978144256.000000 0.000000
-518382919235494788644872584111173922806271997432109235925008001021392071021572968432212865196022501372969717578648085330978144256.000000 226576994272628701275308871492460824518643067979163179767907202136991385125040644355653803703327883454194102486858134540137791488.000000 0.000000
0.000000 0.000000 0.000000
721870605318394720417266507634110478480530419812066075632748362783378127803453776452745354263314941673827218146473850499070164992.000000 -278188948707468268267418211805814536360555233671179882284008676731877561496860621884694509173234325995984520291111716878397997056.000000 0.000000
-278188948707468268267418211805814536360555233671179882284008676731877561496860621884694509173234325995984520291111716878397997056.000000 65589559875335558173895891447168257340985411033024212038984759871718780986027599967051728115151902441073534352557249094679003136.000000 0.000000
0.000000 0.000000 0.000000
-336694527216659723707823662503070493220214091988437851141525071920692571843340334037844235063839877853192080330758693498627555328.000000 193524316121436769526579066077990199152915028434874094938785928788603574162367817418469107673756418625452450742768284438494183424.000000 0.000000
193524316121436769526579066077990199152915028434874094938785928788603574162367817418469107673756418625452450742768284438494183424.000000 102361334600559639921839081549200888641432996142986229754974178911294823393392295720446413013426469639590132580803573840753983488.000000 0.000000
0.000000 0.000000 0.000000
-619211724278808170955032310995166228626568281011555996919015088095842707184318406253335906687957790108276567185371000327301496832.000000 279140389605278650685616636507909591728277027038387096240268288625043241438919266714297735402049339971114018202344972605798219776.000000 0.000000
279140389605278650685616636507909591728277027038387096240268288625043241438919266714297735402049339971114018202344972605798219776.000000 138773398520171132834755863320871927664066574241382898014834463781335453736688130845189058582466123393204480058747573681535320064.000000 0.000000
0.000000 0.000000 0.000000
-6155865995052983775326189787082949909383026343918876662016337427227265487283503775617726588124482929255614498215414203561598255104.000000 1335248756999694770576194093793306398307200517476299274057997804338216224459190700066444436234634182732500481201240410377578086400.000000 0.000000
1335248756999694770576194093793306398307200517476299274057997804338216224459190700066444436234634182732500481201240410377578086400.000000 466553378989705663659985522283713742753449542813579514274792065529155576704580085018722053122610842830660091354498505062765035520.000000 0.000000
0.000000 0.000000 0.000000
368667437800391763341415605464580781584956602595423241666730204430421978460189208584137428410679227700275276941327490236767272960.000000 -32140844553293036492888465783613007837018983472176727559181083708134936533739183822035917723376872566512196491343131992041455616.000000 0.000000
-32140844553293036492888465783613007837018983472176727559181083708134936533739183822035917723376872566512196491343131992041455616.000000 1867803753261372924259478095233507126503389277752095219548531022381785853812128467418818372769031036553010423903434493225074688.000000 0.000000
0.000000 0.000000 0.000000
2362669987559213292000310353831706290250398792831961590056005877432190412028765928690514053651092574838021552881984138995474366464.000000 4534876092837653211219690962385384634968336809338114592497665045207687654565598947565496697007020115374936983136191498654064836608.000000 0.000000
4534876092837653211219690962385384634968336809338114592497665045207687654565598947565496697007020115374936983136191498654064836608.000000 2251859802506192152313269152455838617720175713009601666401348983722525466728355348526005621761204015804437304482111387229162045440.000000 0.000000
0.000000 0.000000 0.000000
74558723750584307757552245395011272106414462768556813801050557577273331899594597363436667949429714255247980958898265134437761024.000000 -262441249285213553428966027838913114361787786122521689136177931342989556446891317916885254981532822254007628118140309347231596544.000000 0.000000
-262441249285213553428966027838913114361787786122521689136177931342989556446891317916885254981532822254007628118140309347231596544.000000 99281288975308822213140731234824648947529103016554220823847633212249396226216265492141550139691760834289022436672008567081926656.000000 0.000000
0.000000 0.000000 0.000000
-9110597226057402477830108837223636330035602196728482846831532743135604104541653538507057487723432762294730642179183128916999012352.000000 -2821971517469704973545958849891445195373110078264267613543749656878575645718079632533295553766519511602426421935565831280728735744.000000 0.000000
-2821971517469704973545958849891445195373110078264267613543749656878575645718079632533295553766519511602426421935565831280728735744.000000 1208851820358739692810136354423662905263832519747717201351756917432146656563358111919113971053139143748778084244632190179879157760.000000 0.000000
0.000000 0.000000 0.000000
405437950892743147418075962301369398518922281721476409829517989992290376862240596806340706931647232682936194602310325882408927232.000000 -531083538618505534300173287973620789190795466951029607835159440540133374409163067515148871014445997437928142436564122962759778304.000000 0.000000
-531083538618505534300173287973620789190795466951029607835159440540133374409163067515148871014445997437928142436564122962759778304.000000 244162740374496631450318308766309171158621436430126515231939771743750812647925042974916406521374791050944941172211159943090274304.000000 0.000000
0.000000 0.000000 0.000000
239394533135551627065701503950421570043777088141104444772578613715541887180052737305917281212691233777684365182729670482102059008.000000 7383571333091638895806980678158219724839194645043930252083209672210502264321798812895904589269059977734438160631065904402137088.000000 0.000000
7383571333091638895806980678158219724839194645043930252083209672210502264321798812895904589269059977734438160631065904402137088.000000 283486471340677731984858895660137113508988883668018603641353230493890621139452887634318519708240183364678405081881308704014336.000000 0.000000
0.000000 0.000000 0.000000
829115924485341286902920797692081563239250458868989098785986476410139101688368313758917717035098976391664812410187586235006976.000000 3480504025049380237119852196199477941855542785706194859652992137319708983072877138240323562932307526584180293229865078429319168.000000 0.000000
3480504025049380237119852196199477941855542785706194859652992137319708983072877138240323562932307526584180293229865078429319168.000000 1949625954057118365146231434036744714813817594797201945616961965660920916252289094499777471619268802306455874442797270844833792.000000 0.000000
0.000000 0.000000 0.000000
3453564738703955879979268711626855096068007970987406643274442237029921831698528545031887348871856835497333801770777058116261380096.000000 2506135272841271641879638945767207580660756831757672458151765657201571277672755759705166269488490389904229610183112259430023954432.000000 0.000000
2506135272841271641879638945767207580660756831757672458151765657201571277672755759705166269488490389904229610183112259430023954432.000000 911792246245745512748822027696402930551038946276546701992677498742754364449384460277584274704433597736090887179232319062027534336.000000 0.000000
0.000000 0.000000 0.000000
548531280681069083932286582302659281798773724836475877118828162714057246177082264759696121702549423594524829824126528919120642048.000000 1684323515574521220525798824645709237398075195455542687433774947097609861028154301674561763709623009193601972717534963391470239744.000000 0.000000
1684323515574521220525798824645709237398075195455542687433774947097609861028154301674561763709623009193601972717534963391470239744.000000 884094708645719191934855871537767580550191244002896357249374019421519823205246497612646219069061719139744661295976144536183242752.000000 0.000000
0.000000 0.000000 0.000000
-1036936054538926926923485737271101306442200861472230709518013781233416507095556766670455112793907890387677004458042051513955647488.000000 -439591546380394073409256490400340864479143208258771771381276836378099965500358991020545978063872699827756391635795094289097162752.000000 0.000000
-439591546380394073409256490400340864479143208258771771381276836378099965500358991020545978063872699827756391635795094289097162752.000000 215265962499492289038005231997483484021923385463483332015301470491484324550471834148938493682077062765427786407933294748545056768.000000 0.000000
0.000000 0.000000 0.000000
725368151330627787529069460421303721310484593188109898031665650061449246527224599760097451480680891987627938601867261828600430592.000000 2855310036497478268361531517092281783223615535471292844172637313015207542561032564573881702466500819930291356503462490208554975232.000000 0.000000
2855310036497478268361531517092281783223615535471292844172637313015207542561032564573881702466500819930291356503462490208554975232.000000 1518306403156869476911324569791861869527060913724048082723831033225664685806126006464563549607161741847873263148575262527878856704.000000 0.000000
0.000000 0.000000 0.000000
352946239144544471565853467763157473325892258562218259392901010722617442165917123288801382676660299749021676392660420654526365696.000000 86833746886702814306108154010715059110240756421542420594143890654080962541684053241105680079329433010346047844010236261473189888.000000 0.000000
86833746886702814306108154010715059110240756421542420594143890654080962541684053241105680079329433010346047844010236261473189888.000000 13695498896682454004654184718283029567266065323275380946168505468243600425806159139676817604979876352023191071384041140839776256.000000 0.000000
0.000000 0.000000 0.000000
-72965126149743714279266594222707711007122628216396743584759223512395841972743952926593977785956002842087938770320525023510528.000000 578391570115414731650839867743845258921758454275069994336255750790561114723045406565420974087431876687488999988112376924733440.000000 0.000000
578391570115414731650839867743845258921758454275069994336255750790561114723045406565420974087431876687488999988112376924733440.000000 326961859179960886024832426171771475889794289165278461748568432830960475437887278147040882073134028845625894507378349206142976.000000 0.000000
0.000000 0.000000 0.000000
2835310257599006673748291680759737372769134747105313589959387214840622433502235973261035920347392250059223180464875133692278734848.000000 1727091192084661055195437715982360694055451090749165324926973594184860908548187243313745376000479619076446328461129605775842344960.000000 0.000000
1727091192084661055195437715982360694055451090749165324926973594184860908548187243313745376000479619076446328461129605775842344960.000000 566225631696753257576554909598454217437738426802601215160456265559467095011490266427248155372746118349624337968195300850682298368.000000 0.000000
0.000000 0.000000 0.000000
2497048924425517987265776258033369092638684945239752237818139049204576062860272831763877077552216826187867316167481377214835982336.000000 -511977855746669076197219139322681370561240796220619177572002314492741401423192187364775623716199969530908550929358281703562412032.000000 0.000000
-511977855746669076197219139322681370561240796220619177572002314492741401423192187364775623716199969530908550929358281703562412032.000000 68271779215916197502193924016989037283812074788780475301620145062079674586528059852345531355863566069642596930291481665593147392.000000 0.000000
0.000000 0.000000 0.000000
293629977550224010524202774874449955242974837258907275722775552071488346373904462995181938703135470762094032183400283823776202752.000000 -50413186142653018897420562315936902360296614422855803673556512610654276303467512498810517007013491630174540653948827112442953728.000000 0.000000
-50413186142653018897420562315936902360296614422855803673556512610654276303467512498810517007013491630174540653948827112442953728.000000 5742084754332786181343514939694973364323874171469870834278042163405471871167893845847080865627528735016942238465862488417107968.000000 0.000000
0.000000 0.000000 0.000000
2105739140964710675218195464165684927779300623586721635284149861337954331101320633001797017369068109751073287247008533791452954624.000000 3120009153019444263860632040117632107668087637218695778206321273905564056936504384502386854497586887689212864044071674974239195136.000000 0.000000
3120009153019444263860632040117632107668087637218695778206321273905564056936504384502386854497586887689212864044071674974239195136.000000 1477940000373591665602250060109162037370082937114459430568563397044329996182616199387903850902370184980257557613267524794259079168.000000 0.000000
0.000000 0.000000 0.000000
1236435893574628941860742447518357200510067719439774630778614955563444147306870811987169082585834416606393343240338318286651392.000000 -714728146806934442825450632713554519289792376143540109302473765517880410329579758798690531953303328909982154444309829794136064.000000 0.000000
-714728146806934442825450632713554519289792376143540109302473765517880410329579758798690531953303328909982154444309829794136064.000000 226482827046561923870166501012023328388265225903122955239120326765684497309550308671623443188332429791082818949185236577026048.000000 0.000000
0.000000 0.000000 0.000000
1120746859331009740744647457104772088284672228975481066095908447020194739221854685743210317480177204371763730113194473775010152448.000000 250376791700889820834681283718012481174893880576864828199449520354143026921394760975281828767176851398193164272626348900743118848.000000 0.000000
250376791700889820834681283718012481174893880576864828199449520354143026921394760975281828767176851398193164272626348900743118848.000000 36267109056677216004961580747099231340247695584136317091343934264750921704614997215024082880321710566665305585633423772209905664.000000 0.000000
0.000000 0.000000 0.000000
-2630806468707227046400702993831223288645784439125462378430724998681970408449306133151321886812599397363158762005699672109010124800.000000 -751685142085612402916959226735687375779683238912087957494007013584223055136948352720035655264395232336937420580517065051391131648.000000 0.000000
-751685142085612402916959226735687375779683238912087957494007013584223055136948352720035655264395232336937420580517065051391131648.000000 308979565897683353072780037786467002360003500123779775738765382195075195565788997212545851126840528490713898344343560836383506432.000000 0.000000
0.000000 0.000000 0.000000
498298116011472793962444472516441998809163010365751221800904759309061242863714857151997557430028525766823908076171786376689221632.000000 750641015026946885918378444173402354548338456865500353995178866352232414414309060111827248335757023917406080910093574999189225472.000000 0.000000
750641015026946885918378444173402354548338456865500353995178866352232414414309060111827248335757023917406080910093574999189225472.000000 356868089488792022424932235041094310136033740950718008259672705327448241008684249192296593389612381524022431020824059110693535744.000000 0.000000
0.000000 0.000000 0.000000
-4039692790892041769942756381504098124067720177047741702419669267817987813370076029452058400401999679263517714149516120320479592448.000000 2138701822820242205795691787564197468071934513066160937070296320219692670616390653809028531893594636310664171460577492566580133888.000000 0.000000
2138701822820242205795691787564197468071934513066160937070296320219692670616390653809028531893594636310664171460577492566580133888.000000 1109734604734331203213583220555447440521333157302644397985930249176047081789754515838009179962124129431286939466590880482247835648.000000 0.000000
0.000000 0.000000 0.000000
-6862632869739772679874130274421483293626951361268021852589947955751251530129136537690630615170329333961927254982917058379907072.000000 -3013581369662995192159849228830418063762075053641628152720151297958678547103905903489257039855494961852029000815370032772022272.000000 0.000000
-3013581369662995192159849228830418063762075053641628152720151297958678547103905903489257039855494961852029000815370032772022272.000000 1473534186752195773543485104111636628584379997827577883852976897204832362590735876152697635012622785425627220140365753352192000.000000 0.000000
0.000000 0.000000 0.000000
-887684146432856974798012814070174400123414896258780164661911432274528199221671438967857562978447778434259093669265848141873152.000000 820317465556218994799379348359217245888088331936244140423288738105098975406794078343582826565590583857320413998843705469960192.000000 0.000000
820317465556218994799379348359217245888088331936244140423288738105098975406794078343582826565590583857320413998843705469960192.000000 502839037760999845372747612883240465581862726360986577824788866467186644592989712684435768516990578944553750547534717476929536.000000 0.000000
0.000000 0.000000 0.000000
622837546452615449451820020192792839264135175368416684098864898729163564744309179278655923044786655574852809762810901067372429312.000000 -412422170244981282342399140080462089225005192927734887816042474037230388307945621472716214094275927909194949841461974212632641536.000000 0.000000
-412422170244981282342399140080462089225005192927734887816042474037230388307945621472716214094275927909194949841461974212632641536.000000 141999852025685993379136605394377630270773598919273491785066607970788324280552053960087037563635818401515763101708481242205257728.000000 0.000000
0.000000 0.000000 0.000000
-7498376337991080292868347116166488547110005430136872751561611965625464193690511211565023327092579452953759820994116470063975366656.000000 -1270747174485625073407051089503909986896281558837750467639764141896662369787502507739515085138043065957039139977480776591412822016.000000 0.000000
-1270747174485625073407051089503909986896281558837750467639764141896662369787502507739515085138043065957039139977480776591412822016.000000 372438143262587641965746250102983380672310521530966694492356207494435739842649527422982872224250560640517140411484892334596816896.000000 0.000000
0.000000 0.000000 0.000000
637973394285546324164746525137207301283137892478468111017332962723988643696499875731445628613453684106216493013873701857599160320.000000 -971877910801192000421096342392046712697973891322285448335734656563385423778434104358164422765599709797730269737778885977761120256.000000 0.000000
-971877910801192000421096342392046712697973891322285448335734656563385423778434104358164422765599709797730269737778885977761120256.000000 463495986232090563549511569911314798656639769880680616631255610995246976674900544041378606471531344119898262808452278212079124480.000000 0.000000
0.000000 0.000000 0.000000
1727980271347944394702920515677978181761504905766613718797422531408025130674634298378248619090331813218557612004356674189252362240.000000 -1726745185615735213800422417115178543425548399684951141494691740804884621697421780237303158040033517982958947636200704809243770880.000000 0.000000
-1726745185615735213800422417115178543425548399684951141494691740804884621697421780237303158040033517982958947636200704809243770880.000000 728179866117748074492673895504635547424341694458751953663520220090654595689286249614560305161823066158722884116175764018855673856.000000 0.000000
0.000000 0.000000 0.000000
490119491632546792912270679159618350846090588864767208270777823516666852219230202780006582738729355611482534333128280405058781184.000000 283027368694606091951982985412231532339172102412014955148462743578041165643559415976230606541177221562767017296983930436054941696.000000 0.000000
283027368694606091951982985412231532339172102412014955148462743578041165643559415976230606541177221562767017296983930436054941696.000000 89733351367112639434010309771183439212182683937527213528290764751768457390377307530319446459517843953053914838821103483106623488.000000 0.000000
0.000000 0.000000 0.000000
849078448474750429629420678902649195510807501623267015094853185708151800943403866384344175603581944626122336017503684634502758400.000000 -158792985162053352493400404499843267204580351068294811668393680112081335053986155028036279823104361258222227728366403315983974400.000000 0.000000
-158792985162053352493400404499843267204580351068294811668393680112081335053986155028036279823104361258222227728366403315983974400.000000 19394740890238507279879746367304171926059114321153158090842127569731706768335760487018622086506188322153073385883896954079936512.000000 0.000000
0.000000 0.000000 0.000000
-8494855667580349490768616594587923863155956594848659567027436625744456837403237101582360506573858090520543967377582723108026974208.000000 1290860527001955526560687976873313487959221293374258010291062811644128970779622954277877426684131634822235205196961841005216137216.000000 0.000000
1290860527001955526560687976873313487959221293374258010291062811644128970779622954277877426684131634822235205196961841005216137216.000000 347783856194203082760621492959672976132724095219081745208117072905411179262585499233680293111645794258135758654600924108528025600.000000 0.000000
0.000000 0.000000 0.000000
2294598234002814432784443350738708784820968284837321103382992235587171443238379896721906736251309197764188842196830976089394249728.000000 104519721836694208760370173039689430823525563153025614080252987252430452968279780981682752516164823069257596534575791019260903424.000000 0.000000
104519721836694208760370173039689430823525563153025614080252987252430452968279780981682752516164823069257596534575791019260903424.000000 3546638628774230360499286500923891672258946612540387401748266696917889744780039443343026513476309543202348519123943224032362496.000000 0.000000
0.000000 0.000000 0.000000
58961096344379180424141171145638291133190167690231947784596305956174839769644664956456543461543559758711239379421726427249115136.000000 127556461155510375197057703607710987878103293610857752752482309224254142389577009512821382892050178151122966786090158862240841728.000000 0.000000
127556461155510375197057703607710987878103293610857752752482309224254142389577009512821382892050178151122966786090158862240841728.000000 64458652478008101433355056268822899376554504723156558657238772486182467537088612593323314875078347216189998016319573395140247552.000000 0.000000
0.000000 0.000000 0.000000
-2487233275925226561192030436660639544201747478658085220584222579182884905784239081298364253137743437459587258163573453762670362624.000000 1188469025697460311135711784568989285851372674225581453614388264557627040049350585758266192952906519238712688540757124743635664896.000000 0.000000
1188469025697460311135711784568989285851372674225581453614388264557627040049350585758266192952906519238712688540757124743635664896.000000 600250994153741913890602021025778632078797581464142833631721950391940976036693318054831353952213564134991497128980746626956001280.000000 0.000000
0.000000 0.000000 0.000000
232355091755307019675278961997677682143553339410580997115473145360623937916172459805439953070787550055078788952954498653452500992.000000 -693781581949058186064709160689044824556063993783032887399431009847399604636753482155194773487031065552494666638275496925456236544.000000 0.000000
-693781581949058186064709160689044824556063993783032887399431009847399604636753482155194773487031065552494666638275496925456236544.000000 362289886280441349726464989391273425928343712173363189494095867419542545761222747206466688642534390585765806524041937747233996800.000000 0.000000
0.000000 0.000000 0.000000
77674441975889327828720152216413384474552372503166297382613998925654933826840364128884379161768096148429087680870699649340538880.000000 -247411108079338089444124322031763894971017975359593599490590680028402817225379824228692011468747396999866366926445304903293206528.000000 0.000000
-247411108079338089444124322031763894971017975359593599490590680028402817225379824228692011468747396999866366926445304903293206528.000000 129776589990797633414058486728505242908220114960960124759062147958891250760087769642926930382019973240844329587104236212823523328.000000 0.000000
0.000000 0.000000 0.000000
1879822978888225906306011390282361841780410489211712773349540045388209628472728779187221610462456349793483205738428936637957275648.000000 23035034127177316178893516530050312610984951801033202584114063188607389761066649756842356920384455750285438004724868239690039296.000000 0.000000
23035034127177316178893516530050312610984951801033202584114063188607389761066649756842356920384455750285438004724868239690039296.000000 1457005755270725191757903486440097507038522932208657685435459563856484602662350435628217894522316347787936797173874820942659584.000000 0.000000
0.000000 0.000000 0.000000
2017711528995856741172990618028169127317283656514048472491706172111685958302688586544923124138542606525150860739941008472312643584.000000 -829939436862703016857910148197179164309332821139727606772667345471443924611069629000169044486934867542183983197153655591693975552.000000 0.000000
-829939436862703016857910148197179164309332821139727606772667345471443924611069629000169044486934867542183983197153655591693975552.000000 210029956254286571198344246337517265347517616530918734296566434439602124494311079665166419091403442474932221909749586560009895936.000000 0.000000
0.000000 0.000000 0.000000
1828700643740673639902985755626665924476312180373438557101756209027198771071657056390897220033354433740971343245436726538141696.000000 -10899746872704232141407445469482199337274166498219549975923629850512114630614661210290094670204496573335547815908812633610911744.000000 0.000000
-10899746872704232141407445469482199337274166498219549975923629850512114630614661210290094670204496573335547815908812633610911744.000000 6736665957401484585785484214268323224423071206586301004591227017323127666826020646777338931636774566434865273704848577087406080.000000 0.000000
0.000000 0.000000 0.000000
-989588994595289397975858347998072819448541831809493463919682803958982892649826597968139783665486886412689882535404973750430466048.000000 751226263407513380477982414035731394652288856113668504986841970133440165716630498650801081074039146832603093434930307377995448320.000000 0.000000
751226263407513380477982414035731394652288856113668504986841970133440165716630498650801081074039146832603093434930307377995448320.000000 417766378484951890589257334598974982120956417513888271834279013251654614958417068733687613079605288622123966387236732557978501120.000000 0.000000
0.000000 0.000000 0.000000
210123860146228385524070324186398315015240784060426652760395791184968462433485457704816285705366012778539867372779797344971390976.000000 161886702244646687309488954834458282895379975003113423316008999213941118467905391166794899238075871878505755256962657429825257472.000000 0.000000
161886702244646687309488954834458282895379975003113423316008999213941118467905391166794899238075871878505755256962657429825257472.000000 60762845002421103574675156720332144739674755071051628957215078458861714705905979610177928521473596700113781169079618836178665472.000000 0.000000
0.000000 0.000000 0.000000
449045795087356493220813370138891546145534681151493842975760844334284106630651664210970970032661333810415826564317081894534512640.000000 -218828364162385643002057332280512406551709939338386345878178957001439613911866810276458602969626562111652118833310767429210603520.000000 0.000000
-218828364162385643002057332280512406551709939338386345878178957001439613911866810276458602969626562111652118833310767429210603520.000000 61398340438519708340918382450938977172155795196371133604990638945155844402859123632986921915609578264989477726234334097450205184.000000 0.000000
0.000000 0.000000 0.000000
513936238407580782985758085001360959648701129112910925045338765498455636996796461544400903053270575428905782889849540192694697984.000000 -247620785835106630712315654237995204149277494813188923232678774199735608300209030525003411514170052629326475347597587034916519936.000000 0.000000
-247620785835106630712315654237995204149277494813188923232678774199735608300209030525003411514170052629326475347597587034916519936.000000 69645858368784699884708345513656643207421591864355953138735990171608448135914765655214292361495167375248696835761133549319618560.000000 0.000000
0.000000 0.000000 0.000000
-21542722031120311051741670453829561411319912337605125423996959260169471448824513590276035677079017923662999500258062432454311936.000000 -10919402189158102038644625854965168028235388329157747913843653001300908686222635044057382111846386583366599366840842213379801088.000000 0.000000
-10919402189158102038644625854965168028235388329157747913843653001300908686222635044057382111846386583366599366840842213379801088.000000 7232820020550045871229416671063997832877704131880211038207953349227079421773079281689089627880021067861372528460631054034665472.000000 0.000000
0.000000 0.000000 0.000000
-916638086670836915703896931441385538165860214367849084476667638825722999523991125136790976653627274975265436476157363185837408256.000000 -483963098555092135508933245743748625394360339308788839993474492741014127596646702316366683860519642071897519254515662267315388416.000000 0.000000
-483963098555092135508933245743748625394360339308788839993474492741014127596646702316366683860519642071897519254515662267315388416.000000 249723689595814772360840143213463745515326197034293383190101320007664571608154759995128048227374486481591979372915670768066494464.000000 0.000000
0.000000 0.000000 0.000000
209151216672355709088617583475575833036533628275696106684415357615836390043116651537032569141605175172576409712547806980601806848.000000 -215668820753271821222416344173271512150498663898146392308012726249872027536108147078539118535925755811750355339692924495202353152.000000 0.000000
-215668820753271821222416344173271512150498663898146392308012726249872027536108147078539118535925755811750355339692924495202353152.000000 92035408313822657389137470667514584278991743137948988932352777790941215074696353996138559982986338685131357286393881472939327488.000000 0.000000
0.000000 0.000000 0.000000
6317737389967891621088915180176804234597218237229347480487728616328960214662654829746046350553437605832109947473651567010250752.000000 2075139263212969646301594955634856547429611220602829257273868767968444744749846859617355631248775289415216190741673319124172800.000000 0.000000
2075139263212969646301594955634856547429611220602829257273868767968444744749846859617355631248775289415216190741673319124172800.000000 488696599350597118571625030650331336920119491718658635052000097905013391436311514239156215492362894541872075147734341054889984.000000 0.000000
0.000000 0.000000 0.000000
-196797148579805663165397252444025929093064550941755272917526951177095220002792095224973924281754639817459815572626136122492190720.000000 -132608380510974110604276912137020161445146649752296047689731427922927917356424641607309528208094686387710085440373201745582489600.000000 0.000000
-132608380510974110604276912137020161445146649752296047689731427922927917356424641607309528208094686387710085440373201745582489600.000000 74131448687310623456989489096215513383377203717519898310864458080843607568090387415129459279796933292983782767327003134757175296.000000 0.000000
0.000000 0.000000 0.000000
427310223507888048200446332378240099482401282541726576224676154297940198078155330107146398651114303452824849342599984775524515840.000000 981101560244243779504301871637534153006100420259654548671676017628365190844090395370592814479541158539418553161150509616864428032.000000 0.000000
981101560244243779504301871637534153006100420259654548671676017628365190844090395370592814479541158539418553161150509616864428032.000000 499287756504612063842812525582628208886754568582042418927588919616901846630825933279038156777973554475284038839717917002488086528.000000 0.000000
0.000000 0.000000 0.000000
-949666944662374309929193814317357931418781583507121683699539312075030600240917543731866339231633474251954900872473296622321664000.000000 -903242408701860390443651734974786630480376488278974328653594886109732399402150708995579863460417628184398053697948831805989715968.000000 0.000000
-903242408701860390443651734974786630480376488278974328653594886109732399402150708995579863460417628184398053697948831805989715968.000000 512595584207347992724608589177353606081415581426287551889364282171903685884534658695807504427578100650029551429415679961644138496.000000 0.000000
0.000000 0.000000 0.000000
-11790700715796770356791873983514039981090064179527312748785420896012199513437990629347514935906401462455784765852457021103669248.000000 1860310830996664733096897154083934041653555916430872179633042350554068220772510644404859238619159702368018259999902113252507648.000000 0.000000
1860310830996664733096897154083934041653555916430872179633042350554068220772510644404859238619159702368018259999902113252507648.000000 516726743251920982196421879094832715176565637101380035409442763583263608769239131224302945206843451036337067936862302973722624.000000 0.000000
0.000000 0.000000 0.000000
72958226818947083279222425216890864823946532721312489119408170391276508064133409175709876713647065120483545124262186829245054976.000000 32817931803796811796571573173023215630663112783542010239724051283512761781858668580898007890786495281933911632315182341100142592.000000 0.000000
32817931803796811796571573173023215630663112783542010239724051283512761781858668580898007890786495281933911632315182341100142592.000000 9393020931519191359324308522037427370702773704511338548037322241153491474391264547833625041393519432789143397676690461046079488.000000 0.000000
0.000000 0.000000 0.000000
710915638115622839090479174252414216909027224181072995522374167938729217639592848564819527802362632840078511059717315127062560768.000000 -492050260555568236562922258848594169327860538946981305022865194838841233927502598427657893502821279083327500122825923885166231552.000000 0.000000
-492050260555568236562922258848594169327860538946981305022865194838841233927502598427657893502821279083327500122825923885166231552.000000 174144129700939459488849377224915582376373606439169980567759538188369210263275833687585379799284672785690620794292307246322810880.000000 0.000000
0.000000 0.000000 0.000000
892898620936739493417267977660723214456904623392972068209192041676837660869086845813881829588587638456838018624833531907625975808.000000 16058962518498368940573584407919491813683990772370811725146015441593294664338818896627556584036496104246560577267723804675670016.000000 0.000000
16058962518498368940573584407919491813683990772370811725146015441593294664338818896627556584036496104246560577267723804675670016.000000 475594912407358440252062379798442924266057285042676479801033312533918437804571804039700220716709347779616823423647527615856640.000000 0.000000
0.000000 0.000000 0.000000
105644334784118445094843991159050755813911372419123810211709975233626712679948957480303766014102962807112825721140969780952432640.000000 192395703708496204817933267395971838926152159744056691960076471233001055716387113054524989540004378288959960039635490924700631040.000000 0.000000
192395703708496204817933267395971838926152159744056691960076471233001055716387113054524989540004378288959960039635490924700631040.000000 95847394316407198433045458325818180275742004848770258390482882963013324954077749099580229295899457676026357529632801525206089728.000000 0.000000
0.000000 0.000000 0.000000
540158911141718821924906707494182930485671708121155319273816637743120751825355272457055747281046256093153582943602917341849976832.000000 -672546054221165602624714158724687375129090822568782554388794497601892174809474186966573577178618252289950330175385690190169243648.000000 0.000000
-672546054221165602624714158724687375129090822568782554388794497601892174809474186966573577178618252289950330175385690190169243648.000000 309314641593613912664871870123463949196694988223363217825928434236815006596005129948688779028246549237653224815743456973170933760.000000 0.000000
0.000000 0.000000 0.000000
1724562563520334433923966162492128086857518183382104356976979626459075966526945246781591219671783338551110586248527818930041913344.000000 2474652239154843195816487928397006366904199702890363846194332746495814740840444554418192540375048549031965170828067460250396000256.000000 0.000000
2474652239154843195816487928397006366904199702890363846194332746495814740840444554418192540375048549031965170828067460250396000256.000000 1163754565904569129785232006487364898277152726110013513336908587202890672523097015854565983671353258263477988953787370072770084864.000000 0.000000
0.000000 0.000000 0.000000
-793014317689262005367305782110532475090235022370677171061952293502035790886178383560129489105369927899180324520244723759991226368.000000 -429994947687822731465372007144891966514046083547414378010947278624534758245476808480395895927834136498591608951083837918124441600.000000 0.000000
-429994947687822731465372007144891966514046083547414378010947278624534758245476808480395895927834136498591608951083837918124441600.000000 223115259394189772333084987003981315361554976389793130672190079439481734660543120182253781329403906408269725937986214068792328192.000000 0.000000
0.000000 0.000000 0.000000
-2478585367418732325314043434666243792485295025950517671774754950746685860129429013122465153818442596969084105364275530611818496.000000 -47628160025884312682431922657880169395615233937336019343161358971701123462746440680564087225214880559081198259517195825413357568.000000 0.000000
-47628160025884312682431922657880169395615233937336019343161358971701123462746440680564087225214880559081198259517195825413357568.000000 27105153865417329939571265078266712410224259056421973200828702129288543364432889776177698273960009305330938400789816149880602624.000000 0.000000
0.000000 0.000000 0.000000
172104322293387742678586884667766253945656997175477820732921123394205811528356425607928194507298185724222079054917637135925248.000000 5516982717922833349014772317995958067021492392902584320464711638963160688559575600901093656202082375121051823936973091897344.000000 0.000000
5516982717922833349014772317995958067021492392902584320464711638963160688559575600901093656202082375121051823936973091897344.000000 28438113647300940466571092393870891642335664860859189092129491851246204747187059775279255705032483545681105271427517709811712.000000 0.000000
0.000000 0.000000 0.000000
529810554267549797502734287640396843595539481876105567459090325776918133194072445787502486546393949008497041517177945409496023040.000000 -951331583517430359343445933152682806936749937689026979765961336261754956139903455457257690093453715739206103165664057523055886336.000000 0.000000
-951331583517430359343445933152682806936749937689026979765961336261754956139903455457257690093453715739206103165664057523055886336.000000 467699647561754008720451742348200543858882263531560798517467668402169204019271830909412024348031564777803242105191175371192532992.000000 0.000000
0.000000 0.000000 0.000000
204696924941457438841967305102194118784374858462859273736778568919313618476897264198857188732451346645237763066196428324545232896.000000 190249200877587959037804178744055428614364351337950456196309470822503489416687777447287867855584680049425152261638095214330511360.000000 0.000000
190249200877587959037804178744055428614364351337950456196309470822503489416687777447287867855584680049425152261638095214330511360.000000 81404596753462699040503786777856726291072806573140873260182932477429014886738775150678908911527098389385677857775983839152177152.000000 0.000000
0.000000 0.000000 0.000000
-501081780519172824672521385661628601646695254456299345535072918713373885770185263473088780768779852176685127577562080411408924672.000000 -898496385226969490539821353986856664050840370265840961641511701863679787264422650931963717249563005537901166699541225167178956800.000000 0.000000
-898496385226969490539821353986856664050840370265840961641511701863679787264422650931963717249563005537901166699541225167178956800.000000 518443088362005291040381927456047072033786534800043009276552215607767382346300547396709334496440387438787486865955113079775690752.000000 0.000000
0.000000 0.000000 0.000000
-600267793717763444885469048584507772076812785297513475323813606278548690230521319208628635720425390101291844743509882154264821760.000000 -469956055157536130783323021617929790576280276699312089860198848608071595463677563482987321782026587360001382919507574936924323840.000000 0.000000
-469956055157536130783323021617929790576280276699312089860198848608071595463677563482987321782026587360001382919507574936924323840.000000 261236515705987273813790162280120414254573950830084438022162661182810469935304600848457574949414187486617208259693828698865139712.000000 0.000000
0.000000 0.000000 0.000000
-68954946989131977576537918552976207052315795090281518158737917090628580075968993035459342352337193230701403558902322726220857344.000000 -1714888779510096701438433326646822742827753807352175404652960819319838324256939595500037522647094029067067752665647542311202062336.000000 0.000000
-1714888779510096701438433326646822742827753807352175404652960819319838324256939595500037522647094029067067752665647542311202062336.000000 958807255292120478556318783227806463974737031702792609684787890737421236221454412248406997281073210576674044628530771133833674752.000000 0.000000
0.000000 0.000000 0.000000
1074793059811596757739313497989214491376068800524349946503241496824991096930451753890496585250055555569212077765413396963490004992.000000 -363826129370206467612795633837935621635486988787125783805916090093069938539281526412977928762131735624615440401072037670261096448.000000 0.000000
-363826129370206467612795633837935621635486988787125783805916090093069938539281526412977928762131735624615440401072037670261096448.000000 76887028141349675371504546840455629597837835768858770905334724806846153628886690433135157261517777855951419317707834267770290176.000000 0.000000
0.000000 0.000000 0.000000
83478629343104109679378555846908755163841184774822305208455378703656460861150516235263734374468188000682086012185060302953381888.000000 -626965082984217650792876444031106099366704421833136797989775601558697685463293133766917258037283694937871572017703055364422893568.000000 0.000000
-626965082984217650792876444031106099366704421833136797989775601558697685463293133766917258037283694937871572017703055364422893568.000000 342694461948300833458761048048210030686726596085422414919681585876348029705117592648653539498756519112580068523795133084590931968.000000 0.000000
0.000000 0.000000 0.000000
1098712514400050218518137627682693109983392853499536749152645880536925428781131121890674986339391130154100977760800242839836426240.000000 1209259948184680452989876156222363577781780754977627241417965202719822003762452704465039897583602639574221175813623724721171333120.000000 0.000000
1209259948184680452989876156222363577781780754977627241417965202719822003762452704465039897583602639574221175813623724721171333120.000000 527600096834762829558811111268655204919993482825290985772987043390722627464424080972255687366193834891237456877502054665793044480.000000 0.000000
0.000000 0.000000 0.000000
244650199234726874443723946257429524622258404160919255393453769644062849758226521429747342210998209386207735025744943339536384000.000000 -334004486208372947947816753653757547555991455976400885215746524708765714735970561203349314235529175646328626356885030639146893312.000000 0.000000
-334004486208372947947816753653757547555991455976400885215746524708765714735970561203349314235529175646328626356885030639146893312.000000 155608160480370195287752129855378319402951635589252516261685821295886693425136960212012820170437764203110959688317209933607075840.000000 0.000000
0.000000 0.000000 0.000000
4837708791343781182923358042638518455756059832115477229471933472897743971369439930525696970753839381950211077950901248193462272.000000 4112919664104912878606513264733301945543175070135676394121855435630052268705036379101096045421959226435322001461644341578563584.000000 0.000000
4112919664104912878606513264733301945543175070135676394121855435630052268705036379101096045421959226435322001461644341578563584.000000 1619815562303766936666484818454270189389687623880244783501167592887147446442877639392319229246742048178695322467883777697775616.000000 0.000000
0.000000 0.000000 0.000000
273584342244135026791279407330487203699060605523706790116751110441277216983430679482088559113419273269030876310770095507160170496.000000 -226078892195413510868655810379037150904068262363756313506867560231675668361412304364340184744101745051589611828208358176556318720.000000 0.000000
-226078892195413510868655810379037150904068262363756313506867560231675668361412304364340184744101745051589611828208358176556318720.000000 87679955943245712443680716937754321450210367776174569968526739532323372661963973418209530028884845873587707399967029786847477760.000000 0.000000
0.000000 0.000000 0.000000
475970584350308748229418724794158368894441962274840376915378012829373151777958682385697887549326254210513226761436969179962933248.000000 552969039548208044930670633065829690979749214898583403860249720549775418191169984386470971995517447462252437792485130575653371904.000000 0.000000
552969039548208044930670633065829690979749214898583403860249720549775418191169984386470971995517447462252437792485130575653371904.000000 245578609980254120972204995354767093733129588824301871273665978995368228466724942395434526371687867163559051447129624571182841856.000000 0.000000
0.000000 0.000000 0.000000
953054780118472695634516951647583564041468706608415695703723818215338128552896824820312332913100081777525089073471562624083689472.000000 -182672625121913331986099014578723423961889254206520755968613297161425188328268914008487363894592010617003257147399547097339396096.000000 0.000000
-182672625121913331986099014578723423961889254206520755968613297161425188328268914008487363894592010617003257147399547097339396096.000000 23360054677272725958176723844713040447722708774260602093867682899877795838599224933660198652858376777438898979188698324362330112.000000 0.000000
0.000000 0.000000 0.000000
2034173658605384950615292387979519031368213425551422386441058156270340118063341195250473675600705698076993779604693663150212382720.000000 -1144179806191616587720797429681239702799999004924426484790185375080057924415891928561504454703604576666049265055185834010195525632.000000 0.000000
-1144179806191616587720797429681239702799999004924426484790185375080057924415891928561504454703604576666049265055185834010195525632.000000 356034249436323839877845894426591596919468306224937564668108013329487778521006260257198156365600693140549347339596453843029721088.000000 0.000000
0.000000 0.000000 0.000000
348944277983734459150262595457104567527079855104360360966807902730651427604625881107193214400116739997055272695457185765928206336.000000 436366978987022862802830118079264714776172681370297519465103088998919635907415924565493342728810142595077370136343673761798553600.000000 0.000000
436366978987022862802830118079264714776172681370297519465103088998919635907415924565493342728810142595077370136343673761798553600.000000 197060765640012466236414179315974165291089879553139235696883596312460812991304907876839326129508765476716724799995032631397842944.000000 0.000000
0.000000 0.000000 0.000000
582317348952991233696069608020241306643342714261048144390522497165916473531680801664840014163606468488096557676252083677881696256.000000 -324366581583196710574267364507167536545604634093724367619736925774886165573913050224551866619485418455257633930235325351051919360.000000 0.000000
-324366581583196710574267364507167536545604634093724367619736925774886165573913050224551866619485418455257633930235325351051919360.000000 100286382061282486691801642494468972921618857110223918731788369692191505009597979848442564119307982218467384056861135907789471744.000000 0.000000
0.000000 0.000000 0.000000
-5335113548144015436223735085194662375311894804348902489748441684503763430267934635068437838497583612261321956222081958022217728.000000 -728025621304042558417697033364057372801578117915255974671373438738360727111297786509117543010985259985486013412302775545948536832.000000 0.000000
-728025621304042558417697033364057372801578117915255974671373438738360727111297786509117543010985259985486013412302775545948536832.000000 408521278180708497251644324208453586682418950588151618134672854912194066600764022233875451025618233286869530618629412751467872256.000000 0.000000
0.000000 0.000000 0.000000
210998368208718525414568577245855182125311251318587073460070399587811221044152041510403144790732931091078212903690989748583661568.000000 59953572309823333651849444823534092875651093181056456190668340567195099248064371938129641298227992824847842267776750924695863296.000000 0.000000
59953572309823333651849444823534092875651093181056456190668340567195099248064371938129641298227992824847842267776750924695863296.000000 11244283367973051271352145067190895452190495053065970733128257368716833898236136608854129911174249920895218332591173074579095552.000000 0.000000
0.000000 0.000000 0.000000
-48059769359124844723958690882691902159143771929302741488001773840784402650504709097138450774160501000776781654016714550760003600384.000000 -3061372281374145698056681808222277129017302998966827113755428801719529233928619715068937658692157994413213109438469810839160356864.000000 0.000000
-3061372281374145698056681808222277129017302998966827113755428801719529233928619715068937658692157994413213109438469810839160356864.000000 380722692931689839246232159945167878051139330489589237882254498762460155078134234034947498554884679051134609289805856798920409088.000000 0.000000
0.000000 0.000000 0.000000
109137938528435779148047122002269725059522838894122475664061223496787765494462023886502094970295003288245358487284300388331683840.000000 293616934989284462138575241117797748693920060444782281840369380129844693338448582258262451685070547355182091560636752140699697152.000000 0.000000
293616934989284462138575241117797748693920060444782281840369380129844693338448582258262451685070547355182091560636752140699697152.000000 151900132774217844704579782878692145373748776280123599489619621803695828284087656095159003063804064129433002220474807647532482560.000000 0.000000
0.000000 0.000000 0.000000
5992324710012528253361495777851162395325835176316739549695578241792832978266738781610862816744603923045837446260504949105360896.000000 125076870174272694883844501388239959432784124661730305641655498306492222599571218300130354033196888808740443048770550396255993856.000000 0.000000
125076870174272694883844501388239959432784124661730305641655498306492222599571218300130354033196888808740443048770550396255993856.000000 71979010284894305223828731736429203295590332090685917574834724054313579971837530425780284409652963529963229382197263335113621504.000000 0.000000
0.000000 0.000000 0.000000
2367701759496456115463926738095298758543438467219375780552539697780938551515555991621823111466335536601473171866884889023541673984.000000 2720502397944022837617869306820968292610935027041004558061415808532170177356160960627878675497230657393842976062918523556009607168.000000 0.000000
2720502397944022837617869306820968292610935027041004558061415808532170177356160960627878675497230657393842976062918523556009607168.000000 1203969170935682997824461318205961629340367140300280150671487016505431215383864802801716152909595778991307578187057679630147256320.000000 0.000000
0.000000 0.000000 0.000000
3598340410529225105658288355756555403551967182187946427484808914149159471965239383534552075292874460655475777501331354641187733504.000000 -392101135780216729527876785215743697427377352764733831590852539700190054840766209200746275121431324920968274941252428146814222336.000000 0.000000
-392101135780216729527876785215743697427377352764733831590852539700190054840766209200746275121431324920968274941252428146814222336.000000 28559852070630543703084743695729223209201427622786215866855968894431132628207195406027725594504252445347698574092769980047163392.000000 0.000000
0.000000 0.000000 0.000000
135666807170899220640291133755258269946162858241065027785487652884260272515662765951065602268184583237872628020767649717637087232.000000 117347361454047807638459131762102400344624332284165994286432716658762174402031078852411733489648127962875571886619590437040553984.000000 0.000000
117347361454047807638459131762102400344624332284165994286432716658762174402031078852411733489648127962875571886619590437040553984.000000 47463835791064654524456540938424788219234876573935599819300035587079791255836724670373208794182097116215861915030082334777933824.000000 0.000000
0.000000 0.000000 0.000000
73864674434781554681698169857007341508361662094290909140827257330098443923735158743727169940486984032365749453220319173151817728.000000 -628184915776129815573786173115518767872890795886185480549820867040554798256571480377088019905755872313104926179273879746315812864.000000 0.000000
-628184915776129815573786173115518767872890795886185480549820867040554798256571480377088019905755872313104926179273879746315812864.000000 342932256238917471469452331099149297500223330293526454875292773119769305678624387659900330960132870190097605169088096495191719936.000000 0.000000
0.000000 0.000000 0.000000
1013029392219325308780593931102363692024897325544046293903166120513660649181281766907220133673254048522162551710153756679446986752.000000 982072327982397481100526553928515918251153737146935312343540316327745889758303534645688961082450292292848152537550717503240404992.000000 0.000000
982072327982397481100526553928515918251153737146935312343540316327745889758303534645688961082450292292848152537550717503240404992.000000 424163875412171695977187156422224300271355975880803356371289566148604706469133519331811701586346321061933910278112015622822952960.000000 0.000000
0.000000 0.000000 0.000000
212596689596241054093477877490475698975415076725914878204680291514512936247364789698440630799991768006044379634714502752460865536.000000 -242239621359357762410267920520758279075769081510502545928752475992674884534844543785727265264096671054669682763683284717544669184.000000 0.000000
-242239621359357762410267920520758279075769081510502545928752475992674884534844543785727265264096671054669682763683284717544669184.000000 107006444036427613381644351230359407941854718249027969686377627333521680167517876044192097568161740743123473453531088459074109440.000000 0.000000
0.000000 0.000000 0.000000
1601672579874977713771444570035481696852650802117446688532554859869310580682358506554661095496703315748219891096558639326819254272.000000 9215905005645323617871727732067327713510912665203879991199603495553801252340874055055971799434002687327613282796064455878468698112.000000 0.000000
9215905005645323617871727732067327713510912665203879991199603495553801252340874055055971799434002687327613282796064455878468698112.000000 4980682832430964815711376506967073227777323846485742010576885632414245219169724180768786319455363341723771551298584178398905499648.000000 0.000000
0.000000 0.000000 0.000000
443562741490493033455096051077499678456013435276800631685398517117786617698184881221736446621988649758485343648641503830676078592.000000 327948087699468125249420835992322521151975748698419664236629487957150196027495809333769156679311639154099175695523469981823008768.000000 0.000000
327948087699468125249420835992322521151975748698419664236629487957150196027495809333769156679311639154099175695523469981823008768.000000 120469427195162821996275009433982544250596241585651980573320909093178830295031748065844187663724468978554356379317679128091557888.000000 0.000000
0.000000 0.000000 0.000000
-1365849754637445035876790842064715561498073457904875630190386735341077324266086910374666005542179299846067180039650113816704843776.000000 -729634719728431439992830700542711180186196831271202803085924547905206854903295004493786490769948595110188210789852344453842337792.000000 0.000000
-729634719728431439992830700542711180186196831271202803085924547905206854903295004493786490769948595110188210789852344453842337792.000000 379635221297842889068491078897677706642703027188492415582332494847134474548069397856332419493556562671761047724604462317871038464.000000 0.000000
0.000000 0.000000 0.000000
1855737963277782385010674324954288522249839362084597647241401731612525415114126773232619040713066446075789712793529114349797376.000000 -1095176277069780668695425937480092629064798268288107210024682211376540076504040057606569596406082635602946286461123725250002944.000000 0.000000
-1095176277069780668695425937480092629064798268288107210024682211376540076504040057606569596406082635602946286461123725250002944.000000 396576748549640264808071106855622468975423679500724029481240213964663498571585980794473052089157694327612768284490356320370688.000000 0.000000
0.000000 0.000000 0.000000
120268456343302919958571336531203203164516688084348471534273869949918352939707458717787944328770137005294677288863029312266174464.000000 -721149166274451045290349237749943050331668095296393898447442840385276717793735339650946342234166316525781975558206409871747710976.000000 0.000000
-721149166274451045290349237749943050331668095296393898447442840385276717793735339650946342234166316525781975558206409871747710976.000000 390243996833965606684826425493551397485738221581531742910026757803399458808168257030600656557819193987776808380789886138839990272.000000 0.000000
0.000000 0.000000 0.000000
85595927148963767035521742637235302660705433168387111221449153042082262895310424942682855498740095134764301066038264672873873408.000000 -50914012371424118961550260231868662855283861032878826926235743436881794730875352186975819394035198037399399105772840209403084800.000000 0.000000
-50914012371424118961550260231868662855283861032878826926235743436881794730875352186975819394035198037399399105772840209403084800.000000 16432269021790555896299090696068999814425416442735044975086234903135001816526707313536876619356816660549358924713512635174223872.000000 0.000000
0.000000 0.000000 0.000000
-3178003418981350811485974447707455184422572041719401879269109103296664728049099049339921056164164478911574401646606413776027648.000000 803071639277589125406251055271571003248032562726151958697029172863483488540624418506075256816756058716261446093232772975951872.000000 0.000000
803071639277589125406251055271571003248032562726151958697029172863483488540624418506075256816756058716261446093232772975951872.000000 309146200703316486871048087699591202477114560338960749213152666758288282204275254849692679422986331063089703688660948260749312.000000 0.000000
0.000000 0.000000 0.000000
609838227014271332474841500753852669420003274718247177742348031019523752579240737166595841151301870909163864142012977746188173312.000000 -2654129526569768069401031820796743778163210218544113162023600364373936264807629843140451349339840655296088448841010075461379686400.000000 0.000000
-2654129526569768069401031820796743778163210218544113162023600364373936264807629843140451349339840655296088448841010075461379686400.000000 1419138490319525706219866335979919767263849637598660166134984868584719085857456003605239060504544507408867048307031201862624739328.000000 0.000000
0.000000 0.000000 0.000000
54916364008409396237633114976881619960639113254171668689191978391809536737387225352900165060751142593917605307021808961413185536.000000 50137836837588753597788945020490216486982054679024968594003189992900788653867313949831383507668121344765702801174922776566300672.000000 0.000000
50137836837588753597788945020490216486982054679024968594003189992900788653867313949831383507668121344765702801174922776566300672.000000 20383592757457034880036202552517292425255569894282640437481117843989158429151217485675269803041409612708826981577039959136665600.000000 0.000000
0.000000 0.000000 0.000000
-893187515579861249384952351039111850816520988533805972599582723722696044317941335986120006723635050525997470959285919885234798592.000000 -144349653026548109483594182664672170459915464945602005732057041694333144085225083701579095162893656130595939312679407215978741760.000000 0.000000
-144349653026548109483594182664672170459915464945602005732057041694333144085225083701579095162893656130595939312679407215978741760.000000 40795237033836591002059086444317299503232183774131944537840441144645759900045103651628543921701742267796350352643302973522313216.000000 0.000000
0.000000 0.000000 0.000000
1040550321378037906608844679319349363540111307125910829979749356305509025793624657332823214716400983511177558559740038048127123456.000000 543498846507292251852399289976437836779185397426708182928416465816681365211173994776681765694217514032263148655139737508763402240.000000 0.000000
543498846507292251852399289976437836779185397426708182928416465816681365211173994776681765694217514032263148655139737508763402240.000000 160663794490389869156544792760113263937756039368941323608995322585813024640202002364054608677726921386641938970645068095359549440.000000 0.000000
0.000000 0.000000 0.000000
263631492598140892663835728920995388875050200854953619637531435480502879603818316390738942694763151061039594696113460124380561408.000000 35678197401463578417894393303947711950183909914377700303470590153789625812382464819460850400240881262415141837863304156426534912.000000 0.000000
35678197401463578417894393303947711950183909914377700303470590153789625812382464819460850400240881262415141837863304156426534912.000000 3200750600070116710719585396563793531238215084000602143939658172985361293122762165881168620561872223638733861406132512286048256.000000 0.000000
0.000000 0.000000 0.000000
2647492050498515547988891508793523424473741001183129663933371636768105687682347148426958819291608807493780903703891082164790362112.000000 2284278174017626787669968578613806585236734693089575701008411662555076634444865856506206215889716422922958606237032994692462018560.000000 0.000000
2284278174017626787669968578613806585236734693089575701008411662555076634444865856506206215889716422922958606237032994692462018560.000000 905732607141926102752012673318644907866678457918438839059812013289459636632287849699919984426297638568499153688313583546669203456.000000 0.000000
0.000000 0.000000 0.000000
-8273488015553382512021540868916008835557101825561500567459035090943301271845741577397929621030835326427205148909877330588135849984.000000 1685561802961460549072011910869816234467022699380442407696407266137920844814674946986484691940712512192988665754512150894093533184.000000 0.000000
1685561802961460549072011910869816234467022699380442407696407266137920844814674946986484691940712512192988665754512150894093533184.000000 563973502399348307847180377454211652908975354011853077620037865827599851707103298254065390767576949100078446084183801314204975104.000000 0.000000
0.000000 0.000000 0.000000
8440748813547272437541275157603740509779601867868274117643037435509846636409052863636088485769970511306644624767510543719202816.000000 -238810983585135951907276119632654457726396273226012588589168678736678865680058880779879015957494375243124136219720517149062594560.000000 0.000000
-238810983585135951907276119632654457726396273226012588589168678736678865680058880779879015957494375243124136219720517149062594560.000000 135624098310470758531536023930502435685714783064928633604494075256555041789193237672101638901892351281685195158182676563687899136.000000 0.000000
0.000000 0.000000 0.000000
-233776603507508364001687394529580834985068296447209246634191151063163255813185852819487857427447050725589089939289314080849920.000000 -72728239316448210674476505652219164750063725071921424262647309243252328947777219165701432461363270398241578627308499639468032.000000 0.000000
-72728239316448210674476505652219164750063725071921424262647309243252328947777219165701432461363270398241578627308499639468032.000000 9911772949179657343804160803328260236663527697220847855165473815966472116727148224172151246679821712872096209951794070028288.000000 0.000000
0.000000 0.000000 0.000000
14235827179799381499091246792077831152257814625969429907412195072507543024346313376908771219421011809555238176155682256550100992.000000 -10866248359499782058336331465881617855935971275036242561932937815889280929628603576690893567486995197970275876373481060642586624.000000 0.000000
-10866248359499782058336331465881617855935971275036242561932937815889280929628603576690893567486995197970275876373481060642586624.000000 7045872916956847545873530730211137924853704165764088058672257504890820782600346950466207826185472024722373854738575205156782080.000000 0.000000
0.000000 0.000000 0.000000
54537402188291032888215612941239020196244191527747552353546907565802665380794333657975141080617753886122272532240561881414107136.000000 -47475428031539171708933969504835406710937870747355918536606666313976209709868727442207938418792463482228239838972081688694226944.000000 0.000000
-47475428031539171708933969504835406710937870747355918536606666313976209709868727442207938418792463482228239838972081688694226944.000000 18461509147820257874912042995700622024758862114574378158503152270241154254895468998105541010188267724541456187438535926628745216.000000 0.000000
0.000000 0.000000 0.000000
1199114842292437577161480721492191778553415243336365212705792833954450452569454361934895242843002454808799168219558800802235547648.000000 -1103421079050471677910849052291764420233902700749545615228740741722571096195519211205392957378401725672837549672836892246960766976.000000 0.000000
-1103421079050471677910849052291764420233902700749545615228740741722571096195519211205392957378401725672837549672836892246960766976.000000 450062548101321508074256766690333478724705584188211217480844621154077946824565215137408914159708717400545151531033253535083921408.000000 0.000000
0.000000 0.000000 0.000000
413010391466859769456917185626527735672812595917556066417134992354883022898094515928789025410907461829680265305062756068966268928.000000 1607569915862359564960100067184084584309423732237107636789169835346028784704888014796909520089558648649255454067629388668742926336.000000 0.000000
1607569915862359564960100067184084584309423732237107636789169835346028784704888014796909520089558648649255454067629388668742926336.000000 857518167440224152043531765346833771225222457703265844741535556878959209200275830289454240125328887845867039284513075520119767040.000000 0.000000
0.000000 0.000000 0.000000
1837027203900775852849249897665576989697594981779995251360583121155992193307755673084876432222721535401889061730078781508679630848.000000 487451132816307827897826270096728529724699858956782889477658272955711135333613466100171631445164516319886289823173686412592545792.000000 0.000000
487451132816307827897826270096728529724699858956782889477658272955711135333613466100171631445164516319886289823173686412592545792.000000 82383438907658151812027578146761803907760804500946177862402689351099345457204529076379305604801250037277197637584850554003128320.000000 0.000000
0.000000 0.000000 0.000000
-25054933186692982002674350237071791506318823115648692655800152464243637701060130073211193442401942284292806262335924756390346752.000000 -99532289111346050391458583845900564994241400219205731278883011262326221758080902801348052404241831765967539564217063297643446272.000000 0.000000
-99532289111346050391458583845900564994241400219205731278883011262326221758080902801348052404241831765967539564217063297643446272.000000 57276951687732853753146626912115534267682688392736021418397876324089203265046350315370020562980746336581017458388724834193375232.000000 0.000000
0.000000 0.000000 0.000000
403358172445629788004990795076891450399195573718740991237327698721313256736814765008276969524652250635185920835555458592624607232.000000 -582207078989626640247857535800625449609115810195338562251402895662529116669854968088218952754155592988858740405955687199025397760.000000 0.000000
-582207078989626640247857535800625449609115810195338562251402895662529116669854968088218952754155592988858740405955687199025397760.000000 274589559624617857243405739868164517825918278391358406271365111171574409150224502874448342465405609454774548905619074216213086208.000000 0.000000
0.000000 0.000000 0.000000
178078474893898685166821653052953684479971323710395159217412251157057434827835094381050152684457440810989066114469203423132647424.000000 -543055757418713639944931465020803079787074950328812599118390956191098965917728276884525816853361710967417881490356923410333827072.000000 0.000000
-543055757418713639944931465020803079787074950328812599118390956191098965917728276884525816853361710967417881490356923410333827072.000000 284861857446223834423693902178387576220509228347201423968115639951786008687233432872037282724923347032276573196674804298740137984.000000 0.000000
0.000000 0.000000 0.000000
38327945965258824753901272562343111726529421292675218107107979480136951232594594963705268788901039563067343143646228351849332736.000000 -106279924872001787752959821684996908275231998426341607603786548727133694007751695766135773796926037886036647814095923796462534656.000000 0.000000
-106279924872001787752959821684996908275231998426341607603786548727133694007751695766135773796926037886036647814095923796462534656.000000 55107091908054331468001788745138707981823046338175464778431576268496301665291632578977471757481459705045506066123209597350051840.000000 0.000000
0.000000 0.000000 0.000000
33243459347456725198708690298069081070359425400155586752992962744349650634543836339188232970367743404880755071958870688966639616.000000 -149666250645617445934154154920316879532898984381563654476109405474757931298142974876225670783286442573066371607937544902827573248.000000 0.000000
-149666250645617445934154154920316879532898984381563654476109405474757931298142974876225670783286442573066371607937544902827573248.000000 82380084899838544038925216935419174074938172555877840623736146864956965437890951244350048272592176162651783972148334758461440000.000000 0.000000
0.000000 0.000000 0.000000
959626395388969382058072686644808763087519179053323263030581691805204113044228332508315832891226452418717097090612589338847870976.000000 -659418162278323863884932046059908368171121672507298418114161869683681079191475655752882069183437935020433570556027792344972525568.000000 0.000000
-659418162278323863884932046059908368171121672507298418114161869683681079191475655752882069183437935020433570556027792344972525568.000000 232583374571421866745021538429456765630223742275113569719901067473779892362816153942973523421400603794688806468606895071244058624.000000 0.000000
0.000000 0.000000 0.000000
-18894193951446910480296010769384162715683315748722406419681110286634155085091656788693183481092809556079186579745571000129945600.000000 -16897320813038648507033030363046022522284580024802635202538400305873501002222166370021402642867558048748691909370085354508386304.000000 0.000000
-16897320813038648507033030363046022522284580024802635202538400305873501002222166370021402642867558048748691909370085354508386304.000000 9531958708179337678857824260615622446730970488109580975445786156749631234080051777711146446358968781606706788879840611525459968.000000 0.000000
0.000000 0.000000 0.000000
553758723475932536457929294708598259000671897429129366243095983223660346763048271562582921099829061233215675623912417823035490304.000000 -239314519766518453659011986926220211153947840650208958702066974843115786400107000884597727564202657822116974958422160575133908992.000000 0.000000
-239314519766518453659011986926220211153947840650208958702066974843115786400107000884597727564202657822116974958422160575133908992.000000 61697839748513579768557536887444361628632014306428859655939924909909900067002347636056327855887492780355482066235038475554390016.000000 0.000000
0.000000 0.000000 0.000000
497382712024082155933670994801911863954486230819923091117381044311533813950717578877059823392124090446061036844291302354845696.000000 -614925810929313056167681591135799593713037682709261746649827814517858600131012199620120776173321682993132663721866452969455616.000000 0.000000
-614925810929313056167681591135799593713037682709261746649827814517858600131012199620120776173321682993132663721866452969455616.000000 275578421542904528069186550173097157871498223997926771290490789003378919817274698332048049315947814406132228596782511840821248.000000 0.000000
0.000000 0.000000 0.000000
2434721540415051410072740936585219982027151563228581981303570481015572676981416575134726472469505825551876526884743168593804394496.000000 -2109843543204049421881186290452870804877983244221990384804268818127876001766498854263971923258146994730919402077737402471339261952.000000 0.000000
-2109843543204049421881186290452870804877983244221990384804268818127876001766498854263971923258146994730919402077737402471339261952.000000 838227496876344146912399129748068703453056467516962777363731383474821981838553729561636545773774942617938352569150258298132365312.000000 0.000000
0.000000 0.000000 0.000000
357817286628119744106773629653112209224600460249294904702342729103886148802002748140795298528682214535980945651582011429995151360.000000 -404754242495799558827452627304607611262107310418511765816795782668403979084047254065582161803681335534768737479797073848528011264.000000 0.000000
-404754242495799558827452627304607611262107310418511765816795782668403979084047254065582161803681335534768737479797073848528011264.000000 187436985091667989173362635598293712367385208385539755857095731406656062355812301504708467553598079733408026056575492942188249088.000000 0.000000
0.000000 0.000000 0.000000
-33476337917232520659364022263421742066006770299863117354294176919284956386364842541086027990754663965453009651232438256370085527552.000000 -2444684994706184971378179728029064084022161310978945751490391221310496075161410752350459553726661900120242204453790499388564439040.000000 0.000000
-2444684994706184971378179728029064084022161310978945751490391221310496075161410752350459553726661900120242204453790499388564439040.000000 349918687502897882340494377638130706706710401881552808524352024008385559114518061549085097373845546321337007476487424419492265984.000000 0.000000
0.000000 0.000000 0.000000
-3031945723226575414602194777295219755481928627624446679507726686813270235741075938976103580866171880545479785559900808580796776448.000000 1000176611783374956231801185659612749618700881939004923823674991513085679053499705561270454586966975288915543791450335573255913472.000000 0.000000
1000176611783374956231801185659612749618700881939004923823674991513085679053499705561270454586966975288915543791450335573255913472.000000 441775105362773583729468327507161178676631885103340319605289942448236678605755813196824988374863666553443554193687960112351674368.000000 0.000000
0.000000 0.000000 0.000000
733994404722348949367160194956525970651548853988416048338498180419977075049718859341685976422053292288475124336756356568756256768.000000 -510836862194470706059200915592709629510954145558027292978293043261524569712496822229273272173992925324032032743056859140785700864.000000 0.000000
-510836862194470706059200915592709629510954145558027292978293043261524569712496822229273272173992925324032032743056859140785700864.000000 181448712645678750404838306480995136965652409883238399915528315565495550126798876903827231208912472606461848440094735746088304640.000000 0.000000
0.000000 0.000000 0.000000
68293295601806746771903600165838537868424523238400777943459597765052962567809344584520897796851925960418376407481523917996163072.000000 99271672131222118902243033659317025577270107474963055587159222112250972516456068485992114953591495913529318412168831364287692800.000000 0.000000
99271672131222118902243033659317025577270107474963055587159222112250972516456068485992114953591495913529318412168831364287692800.000000 46821259810988201688967733562594455138673102629703912544813468627833259741146909404369986725557567477254218410393317980501966848.000000 0.000000
0.000000 0.000000 0.000000
2981580947869350850618817590962417031020853219892259650965789082698425683496030634458175565007983298889729580564050383682404352.000000 2125696190445229066730186148317223706050071192492605340508475359829464034213272932670480731937598047412397990102751883720392704.000000 0.000000
2125696190445229066730186148317223706050071192492605340508475359829464034213272932670480731937598047412397990102751883720392704.000000 1330645326262801398954953474026127994627449317418328367763552743290738350931479635777554138730198234152918728465831717016436736.000000 0.000000
0.000000 0.000000 0.000000
-1127879447423545196417762485639939833808659819990904872106878202098739761307176002959754622049245472439468607910133890640221569024.000000 -481136216622343759038302330474855051085320192180899535354497502573976031232868397490579127921686120962862369724659588258510929920.000000 0.000000
-481136216622343759038302330474855051085320192180899535354497502573976031232868397490579127921686120962862369724659588258510929920.000000 235816268539440597289640244173465178305593142269478814910994788243835033545921780204178456389684466346512550214758186598392659968.000000 0.000000
0.000000 0.000000 0.000000
228066928469056439937043291830708954938427632136040902884298533115581727209313233116103965451874068389559520558887186040472207360.000000 687422012564172979601325690148276975654269795588780237015079651117452904600791673054647887260598221534766769411537254124380749824.000000 0.000000
687422012564172979601325690148276975654269795588780237015079651117452904600791673054647887260598221534766769411537254124380749824.000000 361411064345113853916040827607607773575314432686449222925645939521219859170313474316181131287802716595307923018196721864231878656.000000 0.000000
0.000000 0.000000 0.000000
929183886017804324429732902179502413437692773758545412046416620716257187483420870963245662134220594828662209670210534795483545600.000000 -1020452249960964645192375523644722455915379588816624898365283598547125662061046294778694472772066832385711310728041040136252686336.000000 0.000000
-1020452249960964645192375523644722455915379588816624898365283598547125662061046294778694472772066832385711310728041040136252686336.000000 444992708498040485856488559994864378601523026753085522006455038782588243841410736676128691762808113226052205333255172168446115840.000000 0.000000
0.000000 0.000000 0.000000
-11176689550916752500218239140748663720267982213515933604006951395580659800580645388340767504874470986455825672960937012198134251520.000000 7797347572485448883495184360252080690019794460573757121336658334377797929563943520848743667276878861865186104560238279868956016640.000000 0.000000
7797347572485448883495184360252080690019794460573757121336658334377797929563943520848743667276878861865186104560238279868956016640.000000 4276188943701802820845162820000294770225870282629470904603467012200156084267250986646991126712397833187573011098654871454547443712.000000 0.000000
0.000000 0.000000 0.000000
-205004735284411389089677759030544539918329287473183921499313526439995104507115767976898979422128020534752118409401846774152298496.000000 357332328541089833659693296517319897946549549949277463181114126915263079444900628919800732162630850645602297112295436652042518528.000000 0.000000
357332328541089833659693296517319897946549549949277463181114126915263079444900628919800732162630850645602297112295436652042518528.000000 206656153175413341516574296285938986817764656472109994542769734254134341515176371522086476308571324852708578397100642389721088000.000000 0.000000
0.000000 0.000000 0.000000
-10590274119111367198382132321399530896723091688687927264825803424606125606759892406343478788555597184162204496342218504124426616832.000000 -1940174992715648343986702383072353707192138742493078368535432428914821461125744742021148839911960484426637849638900828334058373120.000000 0.000000
-1940174992715648343986702383072353707192138742493078368535432428914821461125744742021148839911960484426637849638900828334058373120.000000 602220726613544389130110717022254284943850375646007161162588624615229370402249958839176390305154657299887586735688792927889260544.000000 0.000000
0.000000 0.000000 0.000000
-244906602688277225723520455709384559232497497966548611991390257063539668772791822545238271116858973270376058120539341354386325504.000000 49584253311773838843746957006129400336781618995306060134209155460469266571795750782533812212454348438923810944786659960455954432.000000 0.000000
49584253311773838843746957006129400336781618995306060134209155460469266571795750782533812212454348438923810944786659960455954432.000000 16517355507136684798231104412147380395155733665927706847653268732578655168364121235832054949091810769658025956529144364332482560.000000 0.000000
0.000000 0.000000 0.000000
-641263906957077974071724948620157672281172805179647288330163220214347010787098556738895042161734218046690054183756926010611728384.000000 -400706318879610996084130192576320539606785083971763144465841735609228176391824304529528426528015290061260187426648692844566413312.000000 0.000000
-400706318879610996084130192576320539606785083971763144465841735609228176391824304529528426528015290061260187426648692844566413312.000000 215355891875884428267491563149950650337647210349179809772400633404963808602634407152950339584075382885536147800922871122425282560.000000 0.000000
0.000000 0.000000 0.000000
13355066123656601072274516388018013901936826801859131970861877170591450431662064200182845601221297619438524432901749640288796672.000000 4500171135186231583980789388648848115697862309878054873262970180500210280436161023968982486894292589239442327941154923939364864.000000 0.000000
4500171135186231583980789388648848115697862309878054873262970180500210280436161023968982486894292589239442327941154923939364864.000000 945622017203860677980699633601283519472834585352994395015149389652771617484636153405971366647277882049925199808310315776475136.000000 0.000000
0.000000 0.000000 0.000000
-3783817740296333003302387233600701074595675181866840363034047721607051666541487791104183033544154886476772509073115023498692001792.000000 -850162194590395298870122059023466892254334510519708184520034602280029110827089776462629165136164328231335110623883400766002561024.000000 0.000000
-850162194590395298870122059023466892254334510519708184520034602280029110827089776462629165136164328231335110623883400766002561024.000000 305441481728897083753029472008111357544139815873549076298663471812231617715761654071495199738530111112666053814168938907443396608.000000 0.000000
0.000000 0.000000 0.000000
880271419413825872358517238635024366724602434591951058139928368793478800997679944720996410186190201275398583751724346733446037504.000000 479147234464765124430154527412238263869956423975575381766277882122239049200899692005347918088557431823471211393261864605844504576.000000 0.000000
479147234464765124430154527412238263869956423975575381766277882122239049200899692005347918088557431823471211393261864605844504576.000000 145868937251626005178312061230669400013219750935201947421581153532947904733799857936588233670257522848150046078415742559227740160.000000 0.000000
0.000000 0.000000 0.000000
-205225956488007198919563642967405272052237354648503796586243373624701807286670541403046283178750039283575690517649244230455918592.000000 -25189033774499942648801301941539884303017672458001139668881562062684680413988571872649944381201681933654707358039297048092606464.000000 0.000000
-25189033774499942648801301941539884303017672458001139668881562062684680413988571872649944381201681933654707358039297048092606464.000000 5702228031585503844595041935072671223680947776129681157555775089994952392264420632666287482827561055100573890121931835641430016.000000 0.000000
0.000000 0.000000 0.000000
1891760278522299494452911404131188226749744755275308685609293826120850405130655400942445739940320082976291962379813410308096.000000 1299431197965778301061429310882204532791202407201272746709280489980332797459046731561649681802841837245600326528589086326784.000000 0.000000
1299431197965778301061429310882204532791202407201272746709280489980332797459046731561649681802841837245600326528589086326784.000000 333900849742151476632063019103664857538629777855586311090530722783715717801100899345592284177084780181401108484549444108288.000000 0.000000
0.000000 0.000000 0.000000
-8151332715584255461212056707121438145652617497558961516929599385780031377491950190462500115861864190589812709519144833161101312.000000 -54401689094665850645870712327281646480311471447972137363227156203868081441943582985952286327690028764080473506177425189707448320.000000 0.000000
-54401689094665850645870712327281646480311471447972137363227156203868081441943582985952286327690028764080473506177425189707448320.000000 32640792323902681534949760799960449629763526761617399736206363202096206019977920354057792306436833918957951545635180572678553600.000000 0.000000
0.000000 0.000000 0.000000
-66755197586954671165223681106105354097464881640416856666512248830713277274962672556339786540541573712887621576726273442095038464.000000 -117985659834325803526903986869186618999549518331508608664347028749443582388892760707460902774900267438543648107742036171104976896.000000 0.000000
-117985659834325803526903986869186618999549518331508608664347028749443582388892760707460902774900267438543648107742036171104976896.000000 70301840919511237537999867724834432755829478448352668644675165404074523586429012188045419860840612790538648901623105811065602048.000000 0.000000
0.000000 0.000000 0.000000
446606266216517533104303369887917238468563459086231757884424346315380842667643808187899159675566782868318412432092590248369848320.000000 -355849618450597522852613306121031680079378733439423837045910038886362607596120574435031095395281012313823349319040740018238783488.000000 0.000000
-355849618450597522852613306121031680079378733439423837045910038886362607596120574435031095395281012313823349319040740018238783488.000000 135902757901823201255307847060876698281040405001195554049819379302392239123183676147180678989624003172003967009090111161241698304.000000 0.000000
0.000000 0.000000 0.000000
2059998657961004818101777423675307605888969807103780835062550077417367323917290673298517435491625359019955445251980698196492943360.000000 -546303256904196566468091388744117744909721335297868603051787452766923680141483304798864043672127265803154325257792546125415186432.000000 0.000000
-546303256904196566468091388744117744909721335297868603051787452766923680141483304798864043672127265803154325257792546125415186432.000000 92470639821232631962755588876141683121278574607208627887307191578046058422139136423154823439880347183056118589348249526650011648.000000 0.000000
0.000000 0.000000 0.000000
-5081864189420760188337309264028191219013542444623421132341348792293803777893878620843741652060785184907510956592984991619805609984.000000 -1461628785959578837068874660664753414138701319148201615344481167727289295107863268002328363051059220181003027983928276039856291840.000000 0.000000
-1461628785959578837068874660664753414138701319148201615344481167727289295107863268002328363051059220181003027983928276039856291840.000000 599802366027115346027576780577863915616407868299683426559326163422742803939402430985324187632233851108627541725238279079829962752.000000 0.000000
0.000000 0.000000 0.000000
849352444618645808110532580135520473252300248131691706188134629227570317650178328552799306743562617483893480590899419367342080.000000 331760695513097801198075208982344485775644832747315138720851135490297966452531768228554941103796197118776515454366787905257472.000000 0.000000
331760695513097801198075208982344485775644832747315138720851135490297966452531768228554941103796197118776515454366787905257472.000000 75448120396390982283879174900498856851946671615137152392491231901544680180814706784388087544381279526959666717957378921201664.000000 0.000000
0.000000 0.000000 0.000000
-939520699336817093251402721918525682166890529287717654995428893896883873262597773917888661250396913814845812150706382419584352256.000000 -779732166903484764643226517466291729480498342926171091775561943634825284094021220563254310023725337205393696800884162300204810240.000000 0.000000
-779732166903484764643226517466291729480498342926171091775561943634825284094021220563254310023725337205393696800884162300204810240.000000 437652908286864474693291926553912429680988785156846317122722163954017419389276598070148513148542861548440943349858585141579874304.000000 0.000000
0.000000 0.000000 0.000000
-2985023175835519946587552984633836018269076330516956812308481289584780703640182082910938876146968352735945933469308515972957601792.000000 413016281987402092803023929344591683338815043319728292001728031367880983544953614334031451096707805464870868190145067451167014912.000000 0.000000
413016281987402092803023929344591683338815043319728292001728031367880983544953614334031451096707805464870868190145067451167014912.000000 107372121720613886989997322592512689974038493159698226418205348726364457860977752668729797287007037261677971582077286843368341504.000000 0.000000
0.000000 0.000000 0.000000
-211174998478923221984966461602597464763463338483546975135972307877497875707202180762499249263407531238974272155541386924593774592.000000 864138270090658721129913872600462582844890958956575098295734901856933105884092127828904131434545714492626965160292529969637097472.000000 0.000000
864138270090658721129913872600462582844890958956575098295734901856933105884092127828904131434545714492626965160292529969637097472.000000 505647629492834661615507695306988944895244703498626652115166838466159878886789676187471466364936230395450708596539972420068442112.000000 0.000000
0.000000 0.000000 0.000000
67846792619677840708934799697607388861216479186948939264241107277316565055552242451750341018216939610863931657990516883238944768.000000 57989985001017350852860202529240479125406888346689194005828972354884351506756619481700150717878544710971254707663159875778641920.000000 0.000000
57989985001017350852860202529240479125406888346689194005828972354884351506756619481700150717878544710971254707663159875778641920.000000 22840386617404489828641548853211853832814911492045510950866865527049221337471678476776832039055681247650412922092840201886892032.000000 0.000000
0.000000 0.000000 0.000000
381165685433074118683728912534345194316023960957375534444775473829781045590630279873567471720941591084138285272581489594816528384.000000 -772821495670998364091737629388640027120338788670597259656272887316629901143057606656480469313142395784205228330161804486645907456.000000 0.000000
-772821495670998364091737629388640027120338788670597259656272887316629901143057606656480469313142395784205228330161804486645907456.000000 387335216363469075974216165601861112739688060702382239125873384182415975782754375509208474204116542339147153537595645639570489344.000000 0.000000
0.000000 0.000000 0.000000
431718527962426948995976806731855436120876189569255892387300482819629161097278446055045651376425145987733227941072400283447853056.000000 500796794831967967004938213006341542787339334820541721822133381266759235585900625618860000830027205906687732252426566098546065408.000000 0.000000
500796794831967967004938213006341542787339334820541721822133381266759235585900625618860000830027205906687732252426566098546065408.000000 222310392623985900331231827517326099526791212018152171475237808516601052455237767138142894722532994793075774975658687493421662208.000000 0.000000
0.000000 0.000000 0.000000
77944786930403360373939427912692111682830649476090379507590845392351978989009337923612550793516767947735583956487914193378344960.000000 -193470492695773770727526790070721465824100013827253599079724209305081003224036897810971624431093523595351193919596805443475734528.000000 0.000000
-193470492695773770727526790070721465824100013827253599079724209305081003224036897810971624431093523595351193919596805443475734528.000000 99271195138767334952902613894562476378979308218806514909230243025136993090728033771834978053776312003793276812402756506305429504.000000 0.000000
0.000000 0.000000 0.000000
129383310143648272473604051436902931635901598478388660931679578894536193468480070033998270438367059649742671785162980186117898240.000000 -102020489320249961898763238713763940245979644290559550243181794949810830258371321250020853729202392813656476288968438822570295296.000000 0.000000
-102020489320249961898763238713763940245979644290559550243181794949810830258371321250020853729202392813656476288968438822570295296.000000 43738115618838919662097446696207413576562279763192555848695742699036303774139875975550428185925420592785390363405942211108405248.000000 0.000000
0.000000 0.000000 0.000000
1597627771123487295154256093328088553576399707126752148411012657787307751893691420934884765307379971122123345412772006713098240.000000 -104432437269254977391776914388717866101950722686225952187004537126980986485375874598691062754972089643673995702682793505980416.000000 0.000000
-104432437269254977391776914388717866101950722686225952187004537126980986485375874598691062754972089643673995702682793505980416.000000 7370178145478196370741018564904580843393452688268589901152512095544821982876856809516127497671585004175014472836923487420416.000000 0.000000
0.000000 0.000000 0.000000
399637391391231431519839219608690252593815264356640917034064432723973371976589957095833037390767552732668426636966489688218009600.000000 2958976799873557478194506307145063983086111820700047398700688193857496052700501556733089142508119588927281481410674075033004933120.000000 0.000000
2958976799873557478194506307145063983086111820700047398700688193857496052700501556733089142508119588927281481410674075033004933120.000000 1610603015532338370879070577340560422805971510996363600188396584379727366988572831778359394428167779639474255003910523937101971456.000000 0.000000
0.000000 0.000000 0.000000
1476938977914834087093403674728548724370372914525873561831384981603307062586146770957379312327571818858792774827747613863317602304.000000 603283230832240071479644140764903591892699957727870062980684984343525810988702869199979502689966197843283365758507164718096973824.000000 0.000000
603283230832240071479644140764903591892699957727870062980684984343525810988702869199979502689966197843283365758507164718096973824.000000 147916336861306214219277920437273157916266363329035403828516268345660685219701216324725572754690895670362803218003045524986396672.000000 0.000000
0.000000 0.000000 0.000000
-1431058965369592007762689747397066674216901189985020994881596159323114189600657808666597206652955211464755123651306726069951791104.000000 1059918982556410336600505275949513445148624729343181692693279892079577840643720957757643316245643106304610121238934059843275718656.000000 0.000000
1059918982556410336600505275949513445148624729343181692693279892079577840643720957757643316245643106304610121238934059843275718656.000000 585375131620979178887663386293846836346159446770858190706416219267494958150537356590219912816028670079247974857977094761288302592.000000 0.000000
0.000000 0.000000 0.000000
-46272249332299433659309538539095913855037136152622570033809928725388861798925317136844461732190297941429322454068613903393226752.000000 -210486491269205589248773830212876443856809670562756471378932688131341674371461940078130438644179630777669198340168144783216214016.000000 0.000000
-210486491269205589248773830212876443856809670562756471378932688131341674371461940078130438644179630777669198340168144783216214016.000000 121791445553331720150712890707377735941317742348029088905756188083944636372597549182768807239179501932337664222426719984241606656.000000 0.000000
0.000000 0.000000 0.000000
1724480004914322816254992038295729915374807035891246201023762310291248796852835864570977667650941313368209669988047839437407649792.000000 -1054797399688127174199296603580145410055238744867540941933580300985047759203316289657514418386938859311426965466297859781292982272.000000 0.000000
-1054797399688127174199296603580145410055238744867540941933580300985047759203316289657514418386938859311426965466297859781292982272.000000 346720851039797678828318670171821218829851076288473457182607054863195357154274181830047156544108970309566950267592084416440041472.000000 0.000000
0.000000 0.000000 0.000000
215987451832481204852328345920597291784752849307679619593880014911792883995314743855779655943049148624490869384661708936266645504.000000 295010874014014253519941988350868026268475513779639651193908225759516607553266784831270284734805530594256993939429707039813664768.000000 0.000000
295010874014014253519941988350868026268475513779639651193908225759516607553266784831270284734805530594256993939429707039813664768.000000 137096189359809538457223332089547384478168678308648255661249067033907523986053950307494228016707940235497779480650555785052422144.000000 0.000000
0.000000 0.000000 0.000000
157897711388785422189428520123413941834509144670623461516888474187851092801840930065982923576305071437537536079657406200134238208.000000 -80364223800347669592161886975432962614361021543107695074463424108810848840865204124144035135043252657585819186828371956590444544.000000 0.000000
-80364223800347669592161886975432962614361021543107695074463424108810848840865204124144035135043252657585819186828371956590444544.000000 30479674996320270729973706360477232077383349536141442349394212015393691627225938661712103800229016021403228191322674305993539584.000000 0.000000
0.000000 0.000000 0.000000
344571010503106033607932057309731473290778592088336908668407579987188387721835283152909537556010078693838872671116167103083708416.000000 507793585931414288338837702353654518258572323828289969399032748305201940776236732356344452988682816491424019745748912600088838144.000000 0.000000
507793585931414288338837702353654518258572323828289969399032748305201940776236732356344452988682816491424019745748912600088838144.000000 240248364586036615693259039100733342101099861643381337491296215451331656546132951141347257839273361955806887270262820260756324352.000000 0.000000
0.000000 0.000000 0.000000
49280051199193794694297131891741640148055588752888044361700231717167176542178329941588557526264043919109823437396928479686033408.000000 -33268215892759596626526876516341257676887402154279435452918519035284182312118767806533734180016113279030939523498651275715674112.000000 0.000000
-33268215892759596626526876516341257676887402154279435452918519035284182312118767806533734180016113279030939523498651275715674112.000000 11662921770928018426616324791979048005250988720780694942509034520337951406531886333251053754002116012156038396296143802015416320.000000 0.000000
0.000000 0.000000 0.000000
534422220269160147703243026282038703849180805364596533953674985789963827940843510580370333707558244261889092343167572311254499328.000000 181468145500258972694639251105130030427355505451477044170606376745341916160634187176828805919771222146903390633814186389967732736.000000 0.000000
181468145500258972694639251105130030427355505451477044170606376745341916160634187176828805919771222146903390633814186389967732736.000000 38185824427279860253580680670933827847900356086398032611423060609841968991340458263721986073858836726414917822514456322780430336.000000 0.000000
0.000000 0.000000 0.000000
81893812910195305230638966537401807724204212106397888964799329243122697503254648937415063974296867303872886182749330010932248576.000000 -55632373139685660677486997273337494221459959828950882840799342954016387436991334291763879996987708964576081812164736952752406528.000000 0.000000
-55632373139685660677486997273337494221459959828950882840799342954016387436991334291763879996987708964576081812164736952752406528.000000 22353031854459355910274107513543189255825384914500332945143072575877281181110346772116656251061580307196531717949702768708026368.000000 0.000000
0.000000 0.000000 0.000000
1113213860259623277241861946052093333598450805720677405228494021034822352452575066546315211691926251488730833486179547872483082240.000000 647420645059430895068783522500956908713586044475788468104889293576302220510185207453517607898615186632548915310979304592905338880.000000 0.000000
647420645059430895068783522500956908713586044475788468104889293576302220510185207453517607898615186632548915310979304592905338880.000000 206476142739521311876070181670824688224301954651019035277251707902678215500267856090256019376013197496176296797670170758322585600.000000 0.000000
0.000000 0.000000 0.000000
-1140471757315564698661130180315360808161911627679978657518639063275140867802370901073336871809648346954544617292324142926966816768.000000 -523288202929137257232959071675938161192692217939366594906297845400458330476552603233291049103993900317549184023051935824291561472.000000 0.000000
-523288202929137257232959071675938161192692217939366594906297845400458330476552603233291049103993900317549184023051935824291561472.000000 260903740244066750533228420986522282041985217707721433515990843503459483447390108809796457001903832040763414057078398583241179136.000000 0.000000
0.000000 0.000000 0.000000
141850101714016713438921589075522178206983311303077634351351481734504553218213249283645687306275285973140851383979047881577332736.000000 -242715812406751352552759499241712853907726031061522740207824383927278999016952846512507040432741542489995772995530213315957489664.000000 0.000000
-242715812406751352552759499241712853907726031061522740207824383927278999016952846512507040432741542489995772995530213315957489664.000000 118928957666626391820751576818148884871751101898575232656302957841832148767103997392859309354305203533521161766608393085468540928.000000 0.000000
0.000000 0.000000 0.000000
-175897680891983205344233927148896568147478806589219396738556768097483344043849817817217039893727903719954680241498746930073698304.000000 77109903716391547491090588201942897195164015153952294697815817293898682859898894248254672618365892366478332979065277433423855616.000000 0.000000
77109903716391547491090588201942897195164015153952294697815817293898682859898894248254672618365892366478332979065277433423855616.000000 39153327223688743150816808072043640830685916449760243987021025508083805872687166661332677813906123296953514861649714836962017280.000000 0.000000
0.000000 0.000000 0.000000
-2929197056743546261467118401062499806366558888032698498668185099596694798632909023543029620088596600430720176220216967877600739328.000000 4338906077482465806517895808412089782898811861746750860030714810879714487335764055319252442319029270944649305222762662292459880448.000000 0.000000
4338906077482465806517895808412089782898811861746750860030714810879714487335764055319252442319029270944649305222762662292459880448.000000 2502213204701542908317622793526895508129523118970599684408048649014733216704427151391207270060161483967908205347333988891978891264.000000 0.000000
0.000000 0.000000 0.000000
-196155605052750992119368582195286364905092567805903256808217811140042337972570993465325852266223253407127107845422522241579483136.000000 -130799887748003847408457369081022859824585551964297107012851185771377019991993352124224526790912165056177552581382709223115194368.000000 0.000000
-130799887748003847408457369081022859824585551964297107012851185771377019991993352124224526790912165056177552581382709223115194368.000000 75883412350716869184963988748991295823834749592366884307205997990174759806287822145588815990929230944378114420443171963497611264.000000 0.000000
0.000000 0.000000 0.000000
-405343611409781788603264331133099745911369327799007648162036373608545675644600764548739390958250778119524398153111164752838524928.000000 66555887423412054427278652218414742112179150495524593982423030275696812528258555927859328811236660851497643848946807353630523392.000000 0.000000
66555887423412054427278652218414742112179150495524593982423030275696812528258555927859328811236660851497643848946807353630523392.000000 19171685053656718003456763683165292590827453645495294013232412821272136105009134817074799270950896784855426130167501771709087744.000000 0.000000
0.000000 0.000000 0.000000
248713804860724454723559928746911282104703895168034851934666900583549157211461764010594179869394580954266321206930674488975556608.000000 139397314461992906427601866620396294952598279662023217150373274270013859665352106482928716465615402218750446968461598051574743040.000000 0.000000
139397314461992906427601866620396294952598279662023217150373274270013859665352106482928716465615402218750446968461598051574743040.000000 43288225683226394403253185213945918820396046908479251068019243727822960470499944253897113002180184109543953695960215244945489920.000000 0.000000
0.000000 0.000000 0.000000
-111272270657150080327699352121556337880925264768563531991527099384985973638480376754000257859937233484571580048642305939210240.000000 2452534688267132077198324092746711175296521188953585872779706339301495171272443978811656996003289297043146439544847248392192.000000 0.000000
2452534688267132077198324092746711175296521188953585872779706339301495171272443978811656996003289297043146439544847248392192.000000 255695596533409616554866820033291250884881380198130894367626028096045452658697982901031367234419007548765427745759961284608.000000 0.000000
0.000000 0.000000 0.000000
-980946493336375521072567426786421826823436550276254605452952137413867588834490296916689404076218449587157137664443244609536.000000 14886978736929839245738015141625936351901959227171738892964612042225152340773440736591407840097072160735811354150059955453952.000000 0.000000
14886978736929839245738015141625936351901959227171738892964612042225152340773440736591407840097072160735811354150059955453952.000000 11144699270360995860817115528907294930176805191068572478200853987122489096176175153519233241426761669969098623515376144613376.000000 0.000000
0.000000 0.000000 0.000000
454635535010749843082824838919833827233165891242223899231330530231026013431385967013321067540746107459506147126323246264540463104.000000 -545749519180038379330538030318972076365129269536782563541073760929186314089705473903376589634316207793963684109979769734254559232.000000 0.000000
-545749519180038379330538030318972076365129269536782563541073760929186314089705473903376589634316207793963684109979769734254559232.000000 259789437667205723146976474875488264997632880053551897882028339686614492151763329719069184028909083127701157496425556580040179712.000000 0.000000
0.000000 0.000000 0.000000
-5995717638658095165554104711941099761681619286556461805272454378545137770206549625158765989423529872233249567328431048676077469696.000000 277515794283963012316756686783304270721969447950952035189944415721568481886893698763805382190892568477085649924548028574308761600.000000 0.000000
277515794283963012316756686783304270721969447950952035189944415721568481886893698763805382190892568477085649924548028574308761600.000000 27397469109977522235869708094906146642054821630914593829339779724893932495005328816119361053372412734033867025621907664176939008.000000 0.000000
0.000000 0.000000 0.000000
-9581346183471431646235832561352593330771809918371936615704485520905667298626652017421352316661380632086139389365040395218382225408.000000 -1071501436752372671938073345775597092203973863446435884322223507974161851539159376560742745204443195581826838799978573737012232192.000000 0.000000
-1071501436752372671938073345775597092203973863446435884322223507974161851539159376560742745204443195581826838799978573737012232192.000000 223385202797278463730167270745574180175832419879443458979168907902510805105951053054158322018757842344786019183779632132609015808.000000 0.000000
0.000000 0.000000 0.000000
854868641625117341497101950354046361311005965609483269902883594824603083346162566170063307058367735018911935579315282830293991424.000000 -572523133732018410576395687926964297340962068556043113593853012058331965295488494031718208897569988567484667279055348480300023808.000000 0.000000
-572523133732018410576395687926964297340962068556043113593853012058331965295488494031718208897569988567484667279055348480300023808.000000 204087027641193597082029134455821848504638565871529890630658249806592853548731841285361934063159933451050320164060739200167706624.000000 0.000000
0.000000 0.000000 0.000000
-121907229150420038607077184318298442882907031900246893279989960243890384408072310481327391688220649359030177309918631114068459520.000000 -1517246030318507797727898009974790183013561535735443223833477715208648378717149708918783842339631549959711391712152571304044658688.000000 0.000000
-1517246030318507797727898009974790183013561535735443223833477715208648378717149708918783842339631549959711391712152571304044658688.000000 852458400174333084011709825096642946368007695879064571267802718481500975329674403592478946015626289766637394797830979866503151616.000000 0.000000
0.000000 0.000000 0.000000
-43656069268180669455778886737404341596792493077904387116320558518330036591686095122375358073406364975149179090439483280987258880.000000 -259825708366929795933836204257084305784641461987633067226390450912259823535012107761357185338896574761335573817608101280954187776.000000 0.000000
-259825708366929795933836204257084305784641461987633067226390450912259823535012107761357185338896574761335573817608101280954187776.000000 147297464426817385807940337579260482657503007207161361441527120524915000979042707651606157112090137703676932674831613988926652416.000000 0.000000
0.000000 0.000000 0.000000
1006437911517807703981623021686331712249127394412414053342628986649927047569074458122116413207528481949978813877271468717367099392.000000 93356102812765892182317756970886364327999483261539943567481126081820296076814014723013595655441559365615449623490508491816173568.000000 0.000000
93356102812765892182317756970886364327999483261539943567481126081820296076814014723013595655441559365615449623490508491816173568.000000 5929584633652459779063613790454090327931039159387838015278050783273529808706156128998322323720942518453858658254184053487960064.000000 0.000000
0.000000 0.000000 0.000000
326723982633458870577242791037025629455884401156028864615972448880477568101551558525756655268958984947415130507274124879869247488.000000 272268437623552619750538204075343474482306007672573806640397778810235889783002546929895107601177837409741639326737579145617735680.000000 0.000000
272268437623552619750538204075343474482306007672573806640397778810235889783002546929895107601177837409741639326737579145617735680.000000 106219078196008966990285243540469948298233472514584048027417231705850657791028186163997288704297499455115528967832477718930259968.000000 0.000000
0.000000 0.000000 0.000000
124632729481219372611643299690223705890506371009453800298288767218889970236735930302505764820588768025673512879186859561978953728.000000 482542754820825800752697969616643505794464579564679527031916738599473578656712288018339077263497150102172859720276558231694737408.000000 0.000000
482542754820825800752697969616643505794464579564679527031916738599473578656712288018339077263497150102172859720276558231694737408.000000 256341854542888366683702020571032331453957847266699338800315146697866905213662910638149655307386451646641477056234072690770575360.000000 0.000000
0.000000 0.000000 0.000000
467365391527802927760353015974709732070403493728514704479169732007236015211350434869152968281925491146052836441448556067316301824.000000 -374614851484896860631593048371669388311810386540069078259691386678128189107704747227594485667993032980185662088596372277778448384.000000 0.000000
-374614851484896860631593048371669388311810386540069078259691386678128189107704747227594485667993032980185662088596372277778448384.000000 143480086753686789774936085495079138179002220281748885950006299263949776931517345774497911720296384407052716706207139848131706880.000000 0.000000
0.000000 0.000000 0.000000
2069932490119227210156194931960376188815771606713604672777694175535280737102489687210311732121961595714840854524277754283545329664.000000 -647342781416264560894233540169028886265868750877575436438783896497401153874866570916343183899531503296646572386571998100486881280.000000 0.000000
-647342781416264560894233540169028886265868750877575436438783896497401153874866570916343183899531503296646572386571998100486881280.000000 126743555147153430207456138282513769477795367370650448645692769213166785237775908571957024353706279433592774240960258323393806336.000000 0.000000
0.000000 0.000000 0.000000
-1977692197797696476580073245353343743045325509887555850000912094386184680333424873761652680103973961936895429306909694592387383296.000000 4525471475838544184770775715588428104546642006657264352884725370102569568221531737626775058198856148822594735757048554958910128128.000000 0.000000
4525471475838544184770775715588428104546642006657264352884725370102569568221531737626775058198856148822594735757048554958910128128.000000 2607149298461087171471431876669544865937200566145032799196986234564856565298352602536788577452555844019485521313171653788335865856.000000 0.000000
0.000000 0.000000 0.000000
516555947053824431269810130458958000043933495799808675718280937611305924435493949338477723798673064571926223919999644177751080960.000000 -491325309801608257398474364491552238436124289074705292708390482521557317300033172843441488268521070603732035715619681556748042240.000000 0.000000
-491325309801608257398474364491552238436124289074705292708390482521557317300033172843441488268521070603732035715619681556748042240.000000 203256256347332797912097454757893826650299729732267952734959899605214384247510981649601170898370980694867196464916338127189049344.000000 0.000000
0.000000 0.000000 0.000000
283858617749966357313662456240992059777020452489434486839069495452879665716197298617671319194742555758690765380342061098061529088.000000 -285261313657406366005369486962180277300461853099979075433036635165871276139924872141453585859185670432142408468718758597448695808.000000 0.000000
-285261313657406366005369486962180277300461853099979075433036635165871276139924872141453585859185670432142408468718758597448695808.000000 121234047155205589698111308325971686871557632715375779326846088413987759596478333515370197974367578910188835485303962881348337664.000000 0.000000
0.000000 0.000000 0.000000
5332024975955005681281291710716828204427650633011128336076643377152926154290748084953061328526275563604821475370667689029664768.000000 -229683798481399202602789436831082290765048159302278413194115924912887847761374664015069915523819053072650494743855838514905088.000000 0.000000
-229683798481399202602789436831082290765048159302278413194115924912887847761374664015069915523819053072650494743855838514905088.000000 17062513570909430707764032544779655967342787453904439326433666401457629973356468537497150724575143380591008623340111991406592.000000 0.000000
0.000000 0.000000 0.000000
4030716032656520027079648026244589065077125212348486778001287713033556697812254177126923758468390065652415794920599775195575615488.000000 1409166206068636392509428061540523683180808969824862586607643093408318334546986817300255466538403542817046240304003849131122491392.000000 0.000000
1409166206068636392509428061540523683180808969824862586607643093408318334546986817300255466538403542817046240304003849131122491392.000000 303782300433746935789683901567605997397690809757260083186835889071310176271609805730535940458059028598742454771881332728582373376.000000 0.000000
0.000000 0.000000 0.000000
41793375604008668409929402548634367547805555498872122019444785646979256869915613610812002437667228869009473291746191362406481920.000000 677122493670022177618588936430037876502622047578069553863357205824865630798463129373294399198549384435966633250015703694573568.000000 0.000000
677122493670022177618588936430037876502622047578069553863357205824865630798463129373294399198549384435966633250015703694573568.000000 2152358067896875103510236064525390982713253176177586409236428613975000131309927866601923190886499934940789413462763533890486272.000000 0.000000
0.000000 0.000000 0.000000
-28073689893423898074350319857085921955511499695908110500844315847678116870301069860718175287235968529246558841554364896733298688.000000 61593698492688534435628166467301839323930185672008495829198716472825497211999707723110250442643608153621846887630022040065409024.000000 0.000000
61593698492688534435628166467301839323930185672008495829198716472825497211999707723110250442643608153621846887630022040065409024.000000 36686593931452450469427361877275951095898688753207801156840081176150951360136279487083316137609058747290249379926752219587674112.000000 0.000000
0.000000 0.000000 0.000000
297868762439731673999865489214563111949296172697120677959452166058044622055278122886323114011003691897879477767766686847584960512.000000 -632456206882811827901674904811576943295044760043965463201024912103505532781858126964135112001778314034470351520641388721458905088.000000 0.000000
-632456206882811827901674904811576943295044760043965463201024912103505532781858126964135112001778314034470351520641388721458905088.000000 318725411749702608383598946832769494987661020009641131223512991898263917229171311522704026006561142357749722680206310525370368000.000000 0.000000
0.000000 0.000000 0.000000
425132055770858655465530740059881485817240803350128910711215545809018619648717769230681377352198213040949795002498910620965928960.000000 678265126931436410740225494983715367741622951767942152805286422565967170036905354517076217722315975540930625030585886907828273152.000000 0.000000
678265126931436410740225494983715367741622951767942152805286422565967170036905354517076217722315975540930625030585886907828273152.000000 326299516031740851449185861289061112883181291439158058691352878969695370545599187551516864525632744349112813976253280634244431872.000000 0.000000
0.000000 0.000000 0.000000
377798504063548209729225799317035820869495061458703357285179661218445947645931674917982354901026243671798047623729108601821724672.000000 328393492435576279888744388429256014947984699353107041685934987674835437090375608557192212060901251019520468905942925054092247040.000000 0.000000
328393492435576279888744388429256014947984699353107041685934987674835437090375608557192212060901251019520468905942925054092247040.000000 130542038066346540180433838738505046577764917282759273345922011904781458323915129816657019711658360325563235432065806013845995520.000000 0.000000
0.000000 0.000000 0.000000
1715257817391190851146429398746474210781067594801834511245242588158788342628239132784033593960047147461853229333112469040660480.000000 -1099204658522542169093017213428973703752657558918817351349344292680546384257385920229424747347759416855449487506289721092341760.000000 0.000000
-1099204658522542169093017213428973703752657558918817351349344292680546384257385920229424747347759416855449487506289721092341760.000000 368377853985946399929195641718874565666904166395375736905336485449439216967116815045446785488611154805685196155743526688129024.000000 0.000000
0.000000 0.000000 0.000000
562634299440051825602346415068691193886311618224470902460056857815945211184550716246960607919387070210133516928778909868466634752.000000 -74101735093710339079290651307872660939900774099798429963097560639938834910938531361790878573070573434333120172215185773678297088.000000 0.000000
-74101735093710339079290651307872660939900774099798429963097560639938834910938531361790878573070573434333120172215185773678297088.000000 6433376464645296793208069475708942812570289810078026596794191748214233295003665648856267940978268128487947399437113971309543424.000000 0.000000
0.000000 0.000000 0.000000
294313538387162733367365295301122015116998098071430879611445026030510344572341929906936792570404120193882575247328720325017862144.000000 -237449562104678281814541459443372353032724181276183320566923911336140638610771111806826514218153624564039494598731634324690436096.000000 0.000000
-237449562104678281814541459443372353032724181276183320566923911336140638610771111806826514218153624564039494598731634324690436096.000000 91658401762833037138233782430605217351179918671539174487362777455814648499751342540092760147081198441837539230847144680931459072.000000 0.000000
0.000000 0.000000 0.000000
-85273594339498008778029059499763884315355218550536991630955345696411039592729612865904895695680414129391085372275741335100588032.000000 -176756853410372865986370981781225489159303190300187240409788924969726202787914748068881903051765896933264330726576029712609443840.000000 0.000000
-176756853410372865986370981781225489159303190300187240409788924969726202787914748068881903051765896933264330726576029712609443840.000000 104241762341915876264399116212308098509946923897555722623409565163127841114407146629369280336669403575787410256591484729446891520.000000 0.000000
0.000000 0.000000 0.000000
-3064525998862379464670149437461791228313152473779054769716576301993573065603407533285359722568749629526083581645289835422021582848.000000 1235010885576535312748698508543801192212518075364926395653718104206096215184105508500842754873154041238224469097631463580561833984.000000 0.000000
1235010885576535312748698508543801192212518075364926395653718104206096215184105508500842754873154041238224469097631463580561833984.000000 590217012650320812993797189979750174508513299646305672249899059722050758492929077378121990101695494775237008204800373863313571840.000000 0.000000
0.000000 0.000000 0.000000
-1566369046389009276928056993842923381214596973223540647535087482240340079528713914063243371386022584601528383653737944647406190592.000000 537223371744453429670622796286218413852984531951909694362523923670501494121416029687457134812876835798996429169989218963975831552.000000 0.000000
537223371744453429670622796286218413852984531951909694362523923670501494121416029687457134812876835798996429169989218963975831552.000000 241089414058520205458943463176871904465990451175603383102867042476977526462502243887579790728490192696033445087220613098080567296.000000 0.000000
0.000000 0.000000 0.000000
915991509369183292740296123264744608228456882881001473092706735139885076423345900378179592318157329502465558956303535238788677632.000000 -372221327287806702145111977683595103265496138444625363575372384270775929618805578548926876062171652797539046540080837622360965120.000000 0.000000
-372221327287806702145111977683595103265496138444625363575372384270775929618805578548926876062171652797539046540080837622360965120.000000 91970730268835742034066629558063425292496703448292425419672115122058234912335579302248873786384724582762981109857202758305710080.000000 0.000000
0.000000 0.000000 0.000000
68469824612492883642907507619077582073921309841683426870138453272507878073680700051314235275481721498912984249478201183483985920.000000 1008876295830514773866160508502703273779905093142593493871787584175415184304642729194814594613290215632643001170028974695855947776.000000 0.000000
1008876295830514773866160508502703273779905093142593493871787584175415184304642729194814594613290215632643001170028974695855947776.000000 555411418036694391964189391530696710456953784434264125250957727420784675909506308201308359953276121918212580472297209767525351424.000000 0.000000
0.000000 0.000000 0.000000
-3605142954694679948080623557366751341639659693186134524717321603761898167098778228752282804753298060865066315905522906572735381504.000000 1447456747457501486446512973408164066504498334381979525993380214994134808318576459200782680693556037286326034469060247796796358656.000000 0.000000
1447456747457501486446512973408164066504498334381979525993380214994134808318576459200782680693556037286326034469060247796796358656.000000 690748061559891104003886703057176035105234570858563868716591276126180235682111526612305983792160993662767121140686014865431592960.000000 0.000000
0.000000 0.000000 0.000000
-52107326582991848617842336686308791388821703035735234796991053103079748903072197707483527492701329067857911467443607043285046823747584.000000 -80345545701830780728679666708848250297509225351623568998225108100673157658621835873399993385329853117510980493014232228586858741760.000000 0.000000
-80345545701830780728679666708848250297509225351623568998225108100673157658621835873399993385329853117510980493014232228586858741760.000000 247695445683481530431540664381178560231102546404489971317445910788816187963911477034147277534221663165060639049678150825741910016.000000 0.000000
0.000000 0.000000 0.000000
183941509171223926686662403301128748122632114798158997735800512682169512824260330690820891592166855471356833056739037837965393920.000000 -560764876553368877165318130837636843617889364914173646676104490969274442280513032028269145236881300544808508223932496074623680512.000000 0.000000
-560764876553368877165318130837636843617889364914173646676104490969274442280513032028269145236881300544808508223932496074623680512.000000 293229593185260693232984542229919129109743253626633347174035692657868403438144927126637884133214479385063962997453312947021414400.000000 0.000000
0.000000 0.000000 0.000000
-285581154966990696237819474875893307937607244697784441251242137794329654638007560486520056539072796787959843202446314170035994624.000000 324483567855722558971573836189957030824181882652293979016217638814592019285760166447781623578149224144544258534484531907286532096.000000 0.000000
324483567855722558971573836189957030824181882652293979016217638814592019285760166447781623578149224144544258534484531907286532096.000000 188735225596549747984236911495563885428099565415876597367640854959946194217199308108139921514221606515388025085935102283055366144.000000 0.000000
0.000000 0.000000 0.000000
-12592438995901266839275771731424213428050240510592498498554766143589094735809772784403876441489163645444876794873946046464.000000 366186440424332640462208232790078834439512751434788407832523537648927282939280899512785416557529806006782212407581430775808.000000 0.000000
366186440424332640462208232790078834439512751434788407832523537648927282939280899512785416557529806006782212407581430775808.000000 180060602250783199076442740330390965199160444789263225768725975367666297080225932948970903847329139590555750509322805706752.000000 0.000000
0.000000 0.000000 0.000000
-61015550354918829816605146280803659360566200174792337267077931508626274675954341893791912861436570915685366883004268844572213248.000000 -11468281023987851866053224916085055753765677574385927607656252972283909595331802909425858471983051690944581556369667708225060864.000000 0.000000
-11468281023987851866053224916085055753765677574385927607656252972283909595331802909425858471983051690944581556369667708225060864.000000 3690617990282947094791339870982042668945609603942020070984697236678965194563745824460036407982219555916018385132083678193647616.000000 0.000000
0.000000 0.000000 0.000000
612112756733312684406740651960383178470969261600735224709057036234396184809925466787645116940055405446060917870417333259862016.000000 -918041452823779648718390584856718270830088413578240954832095657795395178601610889889598035253480994809134894956233521578901504.000000 0.000000
-918041452823779648718390584856718270830088413578240954832095657795395178601610889889598035253480994809134894956233521578901504.000000 436038003975701465601294907605997930252881916756567677589335617809084723288241750154000342979326254208671766380435842657157120.000000 0.000000
0.000000 0.000000 0.000000
394860054710024058444475631134629588202634041594094207738535464386833300397046514734389792112833419608683144820928781293191168.000000 511479644199630561259693534451615417811086869134900321349953962213172330282020942323987785278646977457664287358969855847956480.000000 0.000000
511479644199630561259693534451615417811086869134900321349953962213172330282020942323987785278646977457664287358969855847956480.000000 256931772180773875286001002030325060929415070637766781908275636122791501299469561495169946683479914071304251138880322148499456.000000 0.000000
0.000000 0.000000 0.000000
295351465023314361962974957942163496387119827191967665692377253053337222532789358925014523476705076941016348938746402034837094400.000000 -539326952928053670573544138812197867460527208994147316845817099516115120961421976576477427249915442863941357195396299366764380160.000000 0.000000
-539326952928053670573544138812197867460527208994147316845817099516115120961421976576477427249915442863941357195396299366764380160.000000 265870401029711981357915569370839034043665531094785754254643031241306630770584883755008877064287262660776077067413617228650643456.000000 0.000000
0.000000 0.000000 0.000000
517725458414093256905439146367707834910131202495202613641066818968832988302999106910298267637287997867531618183643094369553088512.000000 -69464415531744933837911717354995492968855118040162255561954348119613323266202740635305390220740449392496958479113157567410339840.000000 0.000000
-69464415531744933837911717354995492968855118040162255561954348119613323266202740635305390220740449392496958479113157567410339840.000000 6165742171612453527161867392741984882611900590184591384938086847886373296724525241599762393713311708392319534107677795853271040.000000 0.000000
0.000000 0.000000 0.000000
531839998579706588462002367156795949491205926650407157492111512894336636470806592867277061361627742631741096074457879968430948352.000000 940587705960253171748533451166265475085120967400426499726713412445767246337837768543458758216410011313149563871505955933963419648.000000 0.000000
940587705960253171748533451166265475085120967400426499726713412445767246337837768543458758216410011313149563871505955933963419648.000000 461046602418510455551456029464119408033542756978755164367879638161685300431589925291417955544619428649796799324367958663871070208.000000 0.000000
0.000000 0.000000 0.000000
-4629817359445168845920457986123225071415886110055856479648820975989895230889891869804505228806522100363134890994664476124850946048.000000 2856719054749954179803400803368744749234936976676311073555893732902348366757139924714005622840149621606147850730798230631016824832.000000 0.000000
2856719054749954179803400803368744749234936976676311073555893732902348366757139924714005622840149621606147850730798230631016824832.000000 1552962339587050131139603287101190165039195151992537911214975480599548907916823865658503731080175699894551727765395429594918551552.000000 0.000000
0.000000 0.000000 0.000000
-5903509098919984208580100091047240352463999508525878113436546355320298393480554463799129595889294453252201461912365588796221161472.000000 -1405506305677347436609596956576304577154879710763515140181941370820004521325536823609769009996982860896104314754134483919389589504.000000 0.000000
-1405506305677347436609596956576304577154879710763515140181941370820004521325536823609769009996982860896104314754134483919389589504.000000 521069271022168815325924359281818545074013029715959327322111273997349562563325983924838088348592139965714389126638260444047867904.000000 0.000000
0.000000 0.000000 0.000000
186476972601712458430948630300325740210308123874561158130497738928186724956700424959889831204358129796107726241059931905568276480.000000 -706429973717520529312498607769566066524032589968195137813493085249785081977740457673444545764447986508086890513150648987108245504.000000 0.000000
-706429973717520529312498607769566066524032589968195137813493085249785081977740457673444545764447986508086890513150648987108245504.000000 371528949869102583717919837528600162551013948775518179232995001816547985698991387170779785827786882646817374162763516508343631872.000000 0.000000
0.000000 0.000000 0.000000
256661822976711624694260393537276360802124606052627610071642596340057456004558007025634649720895117541944528983035021162744643584.000000 293868869147976928828264997017239900323914406342085966457640607011622259671074348245107079902119861766810612860973801115907784704.000000 0.000000
293868869147976928828264997017239900323914406342085966457640607011622259671074348245107079902119861766810612860973801115907784704.000000 129907822448089880257090595460102094392003755372721134576648615681988389723380230150398848599683419577941140406849966032040230912.000000 0.000000
0.000000 0.000000 0.000000
1000220499360013076079510996766759402508557680914189371482019968525511218907167608719698014128667068445986621904022350011140407296.000000 390008906205577088299426499630513106062876495726681522105024135105948496708760270190623698927612229657840692448266024992989249536.000000 0.000000
390008906205577088299426499630513106062876495726681522105024135105948496708760270190623698927612229657840692448266024992989249536.000000 92175769090926308333534229153724167616872252520927186216508473732667794574825486499572734796907606420489586305655292984259772416.000000 0.000000
0.000000 0.000000 0.000000
29841039001242688124854620930038617540651960281851659691967212108678364931992589382147929519004040843638389853964483073312555008.000000 281245515649412189067519014467054616480261477288358065576435075003200281786983304597226792478544229302313603205242700702530142208.000000 0.000000
281245515649412189067519014467054616480261477288358065576435075003200281786983304597226792478544229302313603205242700702530142208.000000 153824968786634434110643793032096134982748318444993541986231160722497189574342397497656200515688916893981559331083401638648479744.000000 0.000000
0.000000 0.000000 0.000000
-99186826732854824886402280389648831336710778060030490543524190648564029952457381863471318493711232836239315898406199963519287296.000000 873721321737435227248896795107003541049964427272209978756155114131467120308077708044304457091924046213900957245473113157664768.000000 0.000000
873721321737435227248896795107003541049964427272209978756155114131467120308077708044304457091924046213900957245473113157664768.000000 61234022046661599945323018144394059579542662083615829117053210636466550983284976246165589928030661133084191908707112457338880.000000 0.000000
0.000000 0.000000 0.000000
-62934820607533096447579111284528384471444220859916981845954335529949058484599656017169621142130630747519531466987809100397543424.000000 218672101674203521164988436993326678540637866347427619791802571142013877477449291502512622097873619717738237726301499426462498816.000000 0.000000
218672101674203521164988436993326678540637866347427619791802571142013877477449291502512622097873619717738237726301499426462498816.000000 125202887469342557052465627453253545104770205445095274637971406067017680570339619244606292482072918501801614503095686948748001280.000000 0.000000
0.000000 0.000000 0.000000
-777755805079241096091310427283698101773636927496295331739747820915894395806779458947397516828665358707586800075961156297929261056.000000 133488695144753252044461877504406576402541184041160200863810818286336550987812044441665485693492479350872193668185888946376409088.000000 0.000000
133488695144753252044461877504406576402541184041160200863810818286336550987812044441665485693492479350872193668185888946376409088.000000 39545014975073774857185899108843742480035263067974434224112358838062015811707682175061674402646071511126022360185032960924188672.000000 0.000000
0.000000 0.000000 0.000000
-1130642894831310661729007210693817477414448667510754951742704184940757179474619656005539603142767454977528728194010264873442738176.000000 -50039301917967241697979949781031167490717268706225865833760724477479902358613546100637819665216795589725456949943327652201889792.000000 0.000000
-50039301917967241697979949781031167490717268706225865833760724477479902358613546100637819665216795589725456949943327652201889792.000000 4558201323457724302472251576476816695939999093179794206472111705361866674213505037814212071367697183561321482487302233903857664.000000 0.000000
0.000000 0.000000 0.000000
-10426027245056667141132771728301829658361899853590408197676152354393687904309619661679846037401159800761297578430283244025417826304.000000 -4488513004026617807050886893756033293786088466115569922602138059172393181937898377099007197065105568740604206394661891881278898176.000000 0.000000
-4488513004026617807050886893756033293786088466115569922602138059172393181937898377099007197065105568740604206394661891881278898176.000000 2197774175731966747687328954146503721605442303764097372051538680162074209523710091553538252478495497438324290701353881079392501760.000000 0.000000
0.000000 0.000000 0.000000
354436711607830616541898640329070907876300213064854169065490533268281961645217245299548483045706184809653758925413815615710298112.000000 -622167732587691921104310961073300700187218274658307202516321349298790806243988550485007970297037486947993389315116920428065456128.000000 0.000000
-622167732587691921104310961073300700187218274658307202516321349298790806243988550485007970297037486947993389315116920428065456128.000000 304710218573470982186313056061662699259467952821294002385392394987995417426766276076344219712156555012331830862153655099766865920.000000 0.000000
0.000000 0.000000 0.000000
-104674129354343195049515548454237573060918371292635687521858238186386413922754074846828222891405898353798580048807519072221273260032.000000 2896240695536313131449963217419643149659399617429852096199042492668759741973449560345990700731691282208891766034299054858864427008.000000 0.000000
2896240695536313131449963217419643149659399617429852096199042492668759741973449560345990700731691282208891766034299054858864427008.000000 159489119716933312376306078765100425967542545547047815890010696443473569999125379156864613291580129607475615900075672065089208320.000000 0.000000
0.000000 0.000000 0.000000
408892007266926265705528034115377434106931689336092898678617857871830273771844389903479550969076974742109605389293758609079926784.000000 -483052054194801286675423901224628466572999560616276569519287057794507242413327004990469735640901381649163024877344038243893510144.000000 0.000000
-483052054194801286675423901224628466572999560616276569519287057794507242413327004990469735640901381649163024877344038243893510144.000000 215647945333107358137603117101146068952082946766742896681640554121835756826221162904801598035850829040175236939665582445649985536.000000 0.000000
0.000000 0.000000 0.000000
1381380532969086743238651177764286069899028706316667680802179882097261116594695931083117168563936049186600382850293449155936256000.000000 1277612497021943251804645908281222967879660174979864817223094942727073838093621348162648615708728940304061396274865524955997536256.000000 0.000000
1277612497021943251804645908281222967879660174979864817223094942727073838093621348162648615708728940304061396274865524955997536256.000000 522685566291226739993896324922797696235624181034072127447658038416749796390097835747552898752714175891240158163488992080573759488.000000 0.000000
0.000000 0.000000 0.000000
-26920842429360861250775815107969373421285415588727237503916762944807095042595083637817623448606717186783112867088879767395500032.000000 282660147928695708465042462961856382706044277812623233313624673308443883741985084954075166985904398404418251058525154362724974592.000000 0.000000
282660147928695708465042462961856382706044277812623233313624673308443883741985084954075166985904398404418251058525154362724974592.000000 158862207628127286856075734045761906511142836259612724587388147228956670037434337693443851067642322372003661399725755068653240320.000000 0.000000
0.000000 0.000000 0.000000
-10912826853302879811043923648692209505652661783170679274132279696218713018721732928673546237386473924385856290914508063062766911488.000000 -3529382095629930740362023239364585913549382133855342341823021687480078776645018567698364686844400029827049425060965278024032321536.000000 0.000000
-3529382095629930740362023239364585913549382133855342341823021687480078776645018567698364686844400029827049425060965278024032321536.000000 1579690171532990786617463701054011128018701570674662787734259888834441458509416176908726050838136960145256868486970574961391960064.000000 0.000000
0.000000 0.000000 0.000000
24337821249683384471698746040912667148206656702665292286434829792397713587906514614856562055573708429423613308633212782490157056.000000 -15648177570609555718007705939752748962193782959067571956658680735242030722522563023609933231559968819927770117210695980126568448.000000 0.000000
-15648177570609555718007705939752748962193782959067571956658680735242030722522563023609933231559968819927770117210695980126568448.000000 6322244819015464202517564539091660971463668224761002441564380600660043623710242742513152241049608049943893893954448424672690176.000000 0.000000
0.000000 0.000000 0.000000
233050559496768839136035751816930460366169171453470703362407806824561963396017113510364785623307552649125926173821722097367384064.000000 275102686279976082559207166600620010240556231880763418569974525853337111312672074355910244187001397293962667313776790815285182464.000000 0.000000
275102686279976082559207166600620010240556231880763418569974525853337111312672074355910244187001397293962667313776790815285182464.000000 128180452859993626823590320224924870295880658890611161471671698581670988482668616531472805736989149890694117513077785107065995264.000000 0.000000
0.000000 0.000000 0.000000
267011859028113247325601619866436907297981396619777499565447080786640645864216404412995073331701607362385706668669091344124215296.000000 -348107868896075431172254172602507846942413060361067933227967091501696424802571940306994203061569343626371029452358886835227721728.000000 0.000000
-348107868896075431172254172602507846942413060361067933227967091501696424802571940306994203061569343626371029452358886835227721728.000000 159851041698522192706210453208089482320435193029688518061955571045524817057149880185176738377208178794376735037693152411407876096.000000 0.000000
0.000000 0.000000 0.000000
356195146449395785641785294643812920815982144536676042627613091705356702500687122862702388706094483150240683358088546563328573440.000000 531084034926382598531651221522208778525281100893893553341827138867494869501667901668164762655232619703141257988166245565253812224.000000 0.000000
531084034926382598531651221522208778525281100893893553341827138867494869501667901668164762655232619703141257988166245565253812224.000000 251687550909035791635764480029356635473727271279504088562717291330780430297458447781072332253922985697774003951847969613376651264.000000 0.000000
0.000000 0.000000 0.000000
-91371068585082761215540417661206905341765744903900548509493768172854924322947203372093786391947740769136728881239999518691295232.000000 5179647827430973247818582500053513115066138199896522365558046519759224262212994656367500944969509340963079278839298407826194432.000000 0.000000
5179647827430973247818582500053513115066138199896522365558046519759224262212994656367500944969509340963079278839298407826194432.000000 500333241717991291314073889844985199887151259491660212407071842697927343495627283194472485451906524350973840007460126730485760.000000 0.000000
0.000000 0.000000 0.000000
71592087764543490176472688930825147860958558641778893677651976413757602220821264148452470115194384212261627174365325291228758016.000000 -49460474052371410193803199687567363539857203555944562506865885007184435166000666145546595518106703024378625659260642067568656384.000000 0.000000
-49460474052371410193803199687567363539857203555944562506865885007184435166000666145546595518106703024378625659260642067568656384.000000 17423020646366955175116066827441518687774849534930782437634139199063516745115949628231840284694124735639645209748652470011166720.000000 0.000000
0.000000 0.000000 0.000000
36202103861732577071762223045251042272061558291273987246423876837803071086712301905841053388578787566706069769311053538048081920.000000 -661644517581320563525364777601623515479208438113257776409041346533952624079114530519174069065247397897656272492505792584645345280.000000 0.000000
-661644517581320563525364777601623515479208438113257776409041346533952624079114530519174069065247397897656272492505792584645345280.000000 365351784033513307109938452978387698221564770076176044902151019085298347702084849098494112590077915411580614524391723434701225984.000000 0.000000
0.000000 0.000000 0.000000
309281920612168124557005391674800318790942257319159557899722977039623504096785831086236549708157291517184190479452690968477696.000000 -3948793299690311802431543709533990236642437974558931335945292546544452240187436624602298346947957911696256613109845433526517760.000000 0.000000
-3948793299690311802431543709533990236642437974558931335945292546544452240187436624602298346947957911696256613109845433526517760.000000 2176027883377425665481646151583214391140222201811536874326452259824366860079646501302134650759417131971623895885170685167796224.000000 0.000000
0.000000 0.000000 0.000000
162527015998306022946139620760517611832055598029020517235425172207619694589137874098100139258750906090086491746386769467557281792.000000 251525956700149059211612664278351070566122686207101036092080515622850191415609206000687165437125349692373824247158534024489598976.000000 0.000000
251525956700149059211612664278351070566122686207101036092080515622850191415609206000687165437125349692373824247158534024489598976.000000 124333213277453965559961340756837399694545574459447603806274991821182680839605310679079907575014244157430213347838991256046796800.000000 0.000000
0.000000 0.000000 0.000000
-5314147337828537592193119883072568768508541748841797442869000316027055958312568452579516879694214199624140234930107831025664.000000 -27860068801285913580276016067881216439817149698841741920192198003605226429310764603904271631762207214599797428024446071865344.000000 0.000000
-27860068801285913580276016067881216439817149698841741920192198003605226429310764603904271631762207214599797428024446071865344.000000 13853118703036484512632421401766022560113130162503780643929712169930114609071089008942039688275071407087142307290927480176640.000000 0.000000
0.000000 0.000000 0.000000
-281377763567967837597134353749640429411233273094235797384242077351872108550838359628590971964978905417521452732179841677288013824.000000 -176348448910999346557095293559914331744345713702075131540274132179754655416330389394314866480319072895483544751742155921997955072.000000 0.000000
-176348448910999346557095293559914331744345713702075131540274132179754655416330389394314866480319072895483544751742155921997955072.000000 95271300190919834602450634030914065105744267442242930443116497866780592834700873063988624736516064929015796255861559864074436608.000000 0.000000
0.000000 0.000000 0.000000
-9628793505337949378373246014943603248074886298828923241870099535853572840592459053349480392895501801207512786448097229949370368.000000 1351136809221215177620809639167094555203028720835246927575957724144140423650663718367164193077534382095421294920254408322187264.000000 0.000000
1351136809221215177620809639167094555203028720835246927575957724144140423650663718367164193077534382095421294920254408322187264.000000 344455425381386546921076153333514666102459445939178547619168079449778278944804592544096949301444651166131222138032288396476416.000000 0.000000
0.000000 0.000000 0.000000
2399450651269496671937494449739988941849614610065752193086349621966309052885893460958864063816662763558274146807938446581492088832.000000 1626476273445632464907136538648986564052141030990011203486398007754037793235508416133756860859836811811088321652357002914904932352.000000 0.000000
1626476273445632464907136538648986564052141030990011203486398007754037793235508416133756860859836811811088321652357002914904932352.000000 575025412537854390275611631505014595443900554728901718872064656279468439104459999473325092313952986209191070454311971354379812864.000000 0.000000
0.000000 0.000000 0.000000
98991796786740812771733027938914076161245530787346886304124137612783534305116970369991212386597697158815734075908012662501408768.000000 -1475840594220153949757455740507899952030354070286663156432039688828654311640419860054227035716679038902987806561827584821166080.000000 0.000000
-1475840594220153949757455740507899952030354070286663156432039688828654311640419860054227035716679038902987806561827584821166080.000000 15932888026447028559183916995987624960488195875135615903032389852120133319958652937108317960575509019164135936438995771195392.000000 0.000000
0.000000 0.000000 0.000000
-1789545872681333333201560163993247033623896212100316712495919223290612190588379486173853450093743543461421923349926594182129909760.000000 -846201939023929359344937268880329279698261469525421891742946694090039337628030749067196490162685361301069304969987503431675281408.000000 0.000000
-846201939023929359344937268880329279698261469525421891742946694090039337628030749067196490162685361301069304969987503431675281408.000000 429452652517078639660139130605749522543206749132013148155139134281145078772426517156365700307604872279006368776610738405069815808.000000 0.000000
0.000000 0.000000 0.000000
450114693226659282255726899381266411253641502911998910943340490732131000541087859545340446494044417744142018195757445047910400.000000 -423167250851350482033480898734592544533219501478074582537958271172961526750091184404050741650374019604239887953598401455587328.000000 0.000000
-423167250851350482033480898734592544533219501478074582537958271172961526750091184404050741650374019604239887953598401455587328.000000 198452120524594537357132003282703793871654865017864835140441215864078667806828809694078217202885116020956703059957807925166080.000000 0.000000
0.000000 0.000000 0.000000
1163975675846092383089283205712947635407610066839549498774774632313419726249356308949690296267118226503648238768512588820391133184.000000 127483446782814513208773016602476252037208445979895447438443260311614564121430407319147326151580257307112837067549779760070524928.000000 0.000000
127483446782814513208773016602476252037208445979895447438443260311614564121430407319147326151580257307112837067549779760070524928.000000 10014521979252182715822429805934447433088129812142882114126385046030912713484545271706978136130360529727448797835199738313441280.000000 0.000000
0.000000 0.000000 0.000000
334843958405177209760030457146925816763037145161518128044230649079546893987137000764292555915313860918018305159934231624869216256.000000 -363079588766976580738935031468000984690592421299517417918128696924966423631226417183317321300760118520104034601902341474488418304.000000 0.000000
-363079588766976580738935031468000984690592421299517417918128696924966423631226417183317321300760118520104034601902341474488418304.000000 158588762473425638071822929643384826314761689242787468650436761168347039665275965437123335381017900470880360210217811265949007872.000000 0.000000
0.000000 0.000000 0.000000
324464941957520467627865746735461883296185317712583656412067065416044804113484201907776781987265854713919467842785652166885376.000000 -167257805768299178808697365866839250187799952900932505160042710733761982205688818961034665036005197401583206546424492669796352.000000 0.000000
-167257805768299178808697365866839250187799952900932505160042710733761982205688818961034665036005197401583206546424492669796352.000000 49537282028656708863904898082743644989216995855545066534344829150791776884202895296719820588612123088365639243990181269733376.000000 0.000000
0.000000 0.000000 0.000000
-2631981285771137788873832217112506616887644866745081053352156914989838954992789458901667844953455074569534758565874170586820771840.000000 2303555600576229559850068379200934237991602065487657929710986148084368754292034160131533846791986219211366881465659313839665053696.000000 0.000000
2303555600576229559850068379200934237991602065487657929710986148084368754292034160131533846791986219211366881465659313839665053696.000000 1297229488515663462795846046111817934682954541287562172872311119976570797977812055106159113229051266524872341094901070855275544576.000000 0.000000
0.000000 0.000000 0.000000
5745739937085375855282093839583767928365598774313526589980714908880829961813905558727245332575015726615971385052188621716586496.000000 4596291198996949101758538638403947760192966487260899336909970714781498545991375546979873865243045644537292040770096098615230464.000000 0.000000
4596291198996949101758538638403947760192966487260899336909970714781498545991375546979873865243045644537292040770096098615230464.000000 1758375773652225816101717083427673743783908202865311716645685725360002538210853258784779988567150643718191761739362430267424768.000000 0.000000
0.000000 0.000000 0.000000
-218055948843681188838139476935313052191069307232024237107539170527499753865983255576183182389255208848006664107605495295277793280.000000 17109621103411503540770583835409930537119823935086195164708938442087706581300536419846029095458847267174864067231500818951700480.000000 0.000000
17109621103411503540770583835409930537119823935086195164708938442087706581300536419846029095458847267174864067231500818951700480.000000 4176084643490352953575586942288509641429215554536864775413604789974362058273801384457491973485539455583470584726678241374371840.000000 0.000000
0.000000 0.000000 0.000000
-93763925501549586363775973613776877944588014084488560505864311697145655370629263537746764919424213006978917511416591180365824.000000 -530351549385772725622300267040458491750667138804203007831742445604485666254349216417582583041562207510646742538696961208352768.000000 0.000000
-530351549385772725622300267040458491750667138804203007831742445604485666254349216417582583041562207510646742538696961208352768.000000 302644856344504730355492854655306507246269916013300586199723317058665431744445818707685147895913366662990316350069539352870912.000000 0.000000
0.000000 0.000000 0.000000
144957192255685595862025814467690885950630009905771645246260773812349172154724359560056362520790131856532350440684762634106437632.000000 -391749062456701776369241022251842780663209049007419200744721583547129474302498614338218569153379634510439004944934202912802865152.000000 0.000000
-391749062456701776369241022251842780663209049007419200744721583547129474302498614338218569153379634510439004944934202912802865152.000000 203684049788165509170239432544586788075457157977138321883638768754055605749476643853509300803238794276859020650224151215311159296.000000 0.000000
0.000000 0.000000 0.000000
302422992581216490499616889630082342948252517768343767983730178502132188451692228913044479567377359738290621011883019282153472.000000 243147705164154918651941689450963917933071076088791456582247710331018423674617493007877393768711863548287084408840831744606208.000000 0.000000
243147705164154918651941689450963917933071076088791456582247710331018423674617493007877393768711863548287084408840831744606208.000000 105389763496469059594595302072802912622986263544783604770378409812260626357915802189867116811049736378659906409054156435226624.000000 0.000000
0.000000 0.000000 0.000000
-729976747128849650135098652835055587408612919424269005785370007973151711022005517201306151839939662480659972151956683379565395968.000000 638501174890405591557018555907728682984272184495225463549252512322830473862739302427504943583284650707419659323251606769044029440.000000 0.000000
638501174890405591557018555907728682984272184495225463549252512322830473862739302427504943583284650707419659323251606769044029440.000000 358192151848234273157518933497789369376899470505294365893757605229853167286956361017593001405063932099344959125892148224004718592.000000 0.000000
0.000000 0.000000 0.000000
47538673632317306399566118432939921256635762258159645437825482708126578214069002787833507615440235526758091973899447715359621120.000000 78293778122675677294274851424304752789873324332350927786613392243991482104021941135518018642804871104700111908604072738519252992.000000 0.000000
78293778122675677294274851424304752789873324332350927786613392243991482104021941135518018642804871104700111908604072738519252992.000000 37904744504838141884466180537058535523992269267300958243788104861209202577940251922002909585039798272084807989062975321779732480.000000 0.000000
0.000000 0.000000 0.000000
144141790638622033372012965961077867994494420844037154017920497466587978414940562776149229912241064903024518293196412812305367040.000000 -43934485045785300501565876791818789846471187735194867691504203724553494823408818365280460386731427310349605718689242492748955648.000000 0.000000
-43934485045785300501565876791818789846471187735194867691504203724553494823408818365280460386731427310349605718689242492748955648.000000 8450077823596243674867941150522427425118878881025070787878015883119381781947422892375912921807638533374011960358939908705878016.000000 0.000000
0.000000 0.000000 0.000000
-204787727519905431506364055197356361382555942215328383033153464406602451798398693390081305673747753859747797573041439857637851136.000000 57729704648946424536243702992256765005308588358588506941303917029016541454278026673237444472002539662827685336325093495526129664.000000 0.000000
57729704648946424536243702992256765005308588358588506941303917029016541454278026673237444472002539662827685336325093495526129664.000000 23588269913796572035956519783257632274224063566133537494401401437365789992265952523115257121271959959601448701323463767678255104.000000 0.000000
0.000000 0.000000 0.000000
361186747899459694702674396663982989624193758948422879510829956733166969954862174534440179843777852548720338123887459343664152576.000000 11614782571361520619801021598067320080036879008513506794874074232526207168118989672035504108629788720461473816369935272825061376.000000 0.000000
11614782571361520619801021598067320080036879008513506794874074232526207168118989672035504108629788720461473816369935272825061376.000000 494866399198984892865319331761487260264943476389584960094209807329031235841853986793971042705947249261192221036245168775233536.000000 0.000000
0.000000 0.000000 0.000000
215528742805977122749194946752563286692841077372011826506306224863951453223426807570632597612828487722054017644864352810019323904.000000 316039264994099222502402430594863576455406506858559631830191523688638175780910813859515127058332251771654804609312166653399662592.000000 0.000000
316039264994099222502402430594863576455406506858559631830191523688638175780910813859515127058332251771654804609312166653399662592.000000 149351614843722157045824697037955042955342881089903914777037014316560800906614294265010286398045653768011360908576393081022054400.000000 0.000000
0.000000 0.000000 0.000000
-53372531823008594595438981002651009737924443312480858766567866675812515390709003253335883775071342494654394176865673764543660032.000000 38406056150343479452231929557015194383619196829382568967037949502461599397776824419725228971833308067721075712182907178342940672.000000 0.000000
38406056150343479452231929557015194383619196829382568967037949502461599397776824419725228971833308067721075712182907178342940672.000000 21138929355871018517549447603531156553419036840352969186899723228701014948393600934966826001884155395188462913955667225771769856.000000 0.000000
0.000000 0.000000 0.000000
-1052979419864292766048642510764209039499727375691764496034724668465470516632376440277885816269628527912637800372083152504714428416.000000 -53016495658713853823777080194221244362008843461088143337637723221444595220889341706452888898132410345334359119124804958341300224.000000 0.000000
-53016495658713853823777080194221244362008843461088143337637723221444595220889341706452888898132410345334359119124804958341300224.000000 5298813303849409339874059757991018429642392001450728718162578787927502668197573884678400647252808786318887732512892378889060352.000000 0.000000
0.000000 0.000000 0.000000
943910264566210623830894590174875676620489377907718809172305157323378104823460874200700541658318946604603355823481341945728466944.000000 74011199307407064526056723781783529835203942594832727584651209979869507160050446046363278904401083966463828832359227412011024384.000000 0.000000
74011199307407064526056723781783529835203942594832727584651209979869507160050446046363278904401083966463828832359227412011024384.000000 5324541293092026803914264174292958205804439342792096275387178907246947804809751834048577720704053768681628151617036346028195840.000000 0.000000
0.000000 0.000000 0.000000
-345796872630922083432664041843705560910490249677346262612935429598981779094069691710371175647155588778788457391593161007969599488.000000 -404407911259911441697841519179744472828821741805612467991080235296522649260668432250912683052016381674373148037412235550058872832.000000 0.000000
-404407911259911441697841519179744472828821741805612467991080235296522649260668432250912683052016381674373148037412235550058872832.000000 231894992545598408214957901750085264351787076470401954784379754024277539918523550483061248403985701942784964212013427412338475008.000000 0.000000
0.000000 0.000000 0.000000
199942822144751138652982797464361243486942636203120110612592611666483269528055429497006518921835380559937540258537865599896256512.000000 -642124833799151331143699402239493301073690324493070284114384925876117916109012997322792239046762270121889983035590149075135102976.000000 0.000000
-642124833799151331143699402239493301073690324493070284114384925876117916109012997322792239046762270121889983035590149075135102976.000000 338981600912078431232057848472231611691485548537041516494108614160564575213605416698802294835174759905092021284248859344130539520.000000 0.000000
0.000000 0.000000 0.000000
381253499620509121511551283055710128659435230220719098239932776816976202721979750324527448342118345257176672966491309616004071424.000000 54012475355956802617876479831786894074387407193252121315610075873595427892642488407249749020512136748776267097756754367519653888.000000 0.000000
54012475355956802617876479831786894074387407193252121315610075873595427892642488407249749020512136748776267097756754367519653888.000000 5705784396890243133320344529102639624614239079919559728283978325980580894441745539758248488100118371447771926027557786605322240.000000 0.000000
0.000000 0.000000 0.000000
104896298443377643912157383145869999868119016953791829312321334617979177849839221076543938859793790487576501191484021126104875008.000000 52436653479663660295224089742396884265279280305694783824857347128568337024126806525623251426524966402566604407430232285036675072.000000 0.000000
52436653479663660295224089742396884265279280305694783824857347128568337024126806525623251426524966402566604407430232285036675072.000000 15051649527207966484841114758549010457749635690608999922447361662014234673652542552944239141849878586551270175136289678992343040.000000 0.000000
0.000000 0.000000 0.000000
66356458705248544056458379713255858705674033238834629141060845642381090270402705294561945687570419163878763826349429978166198272.000000 -46660163157569883176527386006795465914228198148216106617088221254252723992769136845894509758924356142480207839541724052505755648.000000 0.000000
-46660163157569883176527386006795465914228198148216106617088221254252723992769136845894509758924356142480207839541724052505755648.000000 16679325618541602620797542313967782021824944726330054961080497277804496350034433808507454396161896203462459921561727116544835584.000000 0.000000
0.000000 0.000000 0.000000
341384241379121044154050221001327323309260757737980189908210401873706039770123615122808864406358939503094734146822271645656285184.000000 614138869465184485011280012573063933619965053693508782125862025432195027789586564790823676149251330619532853451464291897183305728.000000 0.000000
614138869465184485011280012573063933619965053693508782125862025432195027789586564790823676149251330619532853451464291897183305728.000000 301988788087405813440533292796795165929377724332701984634161329734415737340819835253958936244810698008150049028079013929202745344.000000 0.000000
0.000000 0.000000 0.000000
-25259068146807620978018996886171514929174134066686488411140239607557052629570211986432593936996520889193340542934543608517230592.000000 -172596369173512587976258242368790202507546795511365285073193601821883794964076355642788290561419376544479856331779603827366297600.000000 0.000000
-172596369173512587976258242368790202507546795511365285073193601821883794964076355642788290561419376544479856331779603827366297600.000000 97841939769001285684621798762226218182570335694888136347968014158464784547399103065900537123367404150797980124372421980832399360.000000 0.000000
0.000000 0.000000 0.000000
-177788100921657261776214218285498636970290675246277200985397224454645667634113872680072413535994367268328482647427399452156749676544.000000 3937261487222666219135830672590993226829771290872407518405133202202461193642891961159580919488548901988958579762641327051180605440.000000 0.000000
3937261487222666219135830672590993226829771290872407518405133202202461193642891961159580919488548901988958579762641327051180605440.000000 174185757932978810367259798429541001514860359939284465621423294930594389977555802066059005833319756784260192026076887409380818944.000000 0.000000
0.000000 0.000000 0.000000
174805061902275380056561301835466392684425190833996635479527380612720985326131169323694707802405921202265649016665290190094336.000000 -24677964802872555233151663974174107261131589523871309568245670210004175354235721684770445373549830661338426659577257367961600.000000 0.000000
-24677964802872555233151663974174107261131589523871309568245670210004175354235721684770445373549830661338426659577257367961600.000000 17550632381885243358991130003121218656462111140917222933957513078046584772569646118455836149716541076572218465242844544106496.000000 0.000000
0.000000 0.000000 0.000000
283427802616302891989266043723355777117637021523825021401807868879801000711542925208755281862771171783992896821615719075964518400.000000 -159538874665345652625469009301991619282551304582541251334299740202103816811770457833971478556683967661643686606585198687266275328.000000 0.000000
-159538874665345652625469009301991619282551304582541251334299740202103816811770457833971478556683967661643686606585198687266275328.000000 49567747208124892858532509533637068815613184015981777519582871088484384833144407903317882517363620478597146816351265166597292032.000000 0.000000
0.000000 0.000000 0.000000
-318957307563763156921363285768506104671756755314681358795052851755410253327416558582337787380490446461480596092282584428563136512.000000 391557741043474404954496070582833021976751750817469183254709630395774024451947820770929806063933798310353203135220802111546589184.000000 0.000000
391557741043474404954496070582833021976751750817469183254709630395774024451947820770929806063933798310353203135220802111546589184.000000 227325370635339495549470048068416482435367599109027585779231645276475123392081045594159962260510041142990238863110896726388506624.000000 0.000000
0.000000 0.000000 0.000000
35799725872414134009670990455192601101393748294767992721093423071345174372461341105198388873066734840064991694618650071793664.000000 -17432854008559528755382383811082648551812832220963893449669656675380171658307588854783368905672171416409262283456758004318208.000000 0.000000
-17432854008559528755382383811082648551812832220963893449669656675380171658307588854783368905672171416409262283456758004318208.000000 5284860554687845431124368766130256335292918192998995483307799542830202064035414710455756721346373468754512287603906463137792.000000 0.000000
0.000000 0.000000 0.000000
2529640458263864738121050787283374482317443785479741795198457453039926943083677624557097662809364533452316625068252535656332394496.000000 -1527198507217552522919196339948868182175143234753558985852134722151126756328863862417800708911120995481622538571935527783310032896.000000 0.000000
-1527198507217552522919196339948868182175143234753558985852134722151126756328863862417800708911120995481622538571935527783310032896.000000 497870065817628419732094162235857220053973102844693390984903107068569498794249798497445340896386821159623107060556015052544540672.000000 0.000000
0.000000 0.000000 0.000000
16518188363562687635219004787106512110229134395583739978235483040660686447662943774295083657656810405250486565727629385494691840.000000 -103156912912103661310264410433126331999711985009758580268168590229424240536647041281437735018447321634759891025101761552043737088.000000 0.000000
-103156912912103661310264410433126331999711985009758580268168590229424240536647041281437735018447321634759891025101761552043737088.000000 55870099217449204290741187502394823898578399381579050537503605099997307853093436001529553797157750968403646434004948915756990464.000000 0.000000
0.000000 0.000000 0.000000
322817968406052779050539305715822650617995923359931051355599336133268641912181224785017214044865579746945966785352618264647172096.000000 -317849415252431192691263870098885102846588084383113372641293317426997882495989171837488490286124600085500108755856050727671562240.000000 0.000000
-317849415252431192691263870098885102846588084383113372641293317426997882495989171837488490286124600085500108755856050727671562240.000000 133706507616381486403654622201599819228086499318081312507353743200702279031384695195415416681932652412713717848422326020606001152.000000 0.000000
0.000000 0.000000 0.000000
700428820654990517915714283753557109054361198907451663603221161017120263418106269578674365974393941110653754637302983726989312.000000 -312130147476047306869958402075393641955734095165369503269752355828581087338779930843559124295623873086394512955079546674085888.000000 0.000000
-312130147476047306869958402075393641955734095165369503269752355828581087338779930843559124295623873086394512955079546674085888.000000 123069703836939658245957491626181835203815160408091167923659882158856669278818128547891399613261134213622474732726417943953408.000000 0.000000
0.000000 0.000000 0.000000
-367394073922510725466786940151557345074125546845340084268646211513841140074419676409404398729598175344064773354207987792315678720.000000 -534302220096039101716064403104213404981019590748575537518477805860519784930945586951433704998109878324113157319679279132722593792.000000 0.000000
-534302220096039101716064403104213404981019590748575537518477805860519784930945586951433704998109878324113157319679279132722593792.000000 308065388793506176089712093248682657662283942439874784711714511613397163133859740293319306015753897583723528581965959669720547328.000000 0.000000
0.000000 0.000000 0.000000
1214617024154582600074061066770273192178626919199000401635344395073026137679445363208063191550853132137614559958974834839623041024.000000 -217280019685487124720625039217659284279063776734571510727013086200704582171752249116296458913987909158121913862208041996095848448.000000 0.000000
-217280019685487124720625039217659284279063776734571510727013086200704582171752249116296458913987909158121913862208041996095848448.000000 25823808157241269295931021749047438811520939065386875071482739223238598473671787707218491529160568254851706240473053851495170048.000000 0.000000
0.000000 0.000000 0.000000
241759103717884481385782609340600169192463347887204888272264429568150188934729647793185924625902739463997083011224413631491866624.000000 10115048490887374426921359944354146311782200056466745904903596077471234033631652591300748226969775123796031015617799354706821120.000000 0.000000
10115048490887374426921359944354146311782200056466745904903596077471234033631652591300748226969775123796031015617799354706821120.000000 785511593957705583952043779413363114430587903956369974973923958489421175934405372649337779156129251531033117860336461678641152.000000 0.000000
0.000000 0.000000 0.000000
-88360802012856102919882283172326156929023926541931263350261795626764282332368603697551893777291696362685553207352412210838110208.000000 -212254758859888258756089408851696006723099323539792855724810336247056532582481252365313289598474037994520086778906108775446347776.000000 0.000000
-212254758859888258756089408851696006723099323539792855724810336247056532582481252365313289598474037994520086778906108775446347776.000000 122148014385835423677263203933201354736216424704548883999827658334791837119211271849183197468216601458819599490585001570978496512.000000 0.000000
0.000000 0.000000 0.000000
-34545449618803056056064226375775275572231347250172278451138540228636458091305665633995999913504203549327479011623384495459139584.000000 109069692002616083586596450966262516854703350436587416556197949949185541783935823868372076435884153287830699885577697939618267136.000000 0.000000
109069692002616083586596450966262516854703350436587416556197949949185541783935823868372076435884153287830699885577697939618267136.000000 62523522439170345608710194873789965559700074112106818698127870770504393917584101430133007444295972419551641727237113010951553024.000000 0.000000
0.000000 0.000000 0.000000
-349204008372756723928210090196580382142173497033333217942898126075527205402734610207422236240285287898790269283626856621344292864.000000 -313078342507966161118211416358331440753605037151321920337348882536266252066486674910991732832580490786715939180249038487080140800.000000 0.000000
-313078342507966161118211416358331440753605037151321920337348882536266252066486674910991732832580490786715939180249038487080140800.000000 176586663422896422857428604541151404784148167426746457845413217505113278276941615258231978943919890488796182353541437349370527744.000000 0.000000
0.000000 0.000000 0.000000
378603106514502418219549026394286833802726686000994584078627758836531768535909083421689858913815680688137122845047870235422490624.000000 -405612697732709172162793204620790900730881819463858732069888222510768083107623505432093931228861105578108955859887451903251972096.000000 0.000000
-405612697732709172162793204620790900730881819463858732069888222510768083107623505432093931228861105578108955859887451903251972096.000000 175737255117968500927846182972659802185872253624997945182511394260829512545250859549054008986057123868918323341496964968242741248.000000 0.000000
0.000000 0.000000 0.000000
77081046926160797960022834874747490315774756164062105909699306543366719405872595040033175426134269728937982779898427264951386112.000000 9204926617876287969250807288876982065312526563577400582626186149826436322494325054142825236918878577105516920836548339227951104.000000 0.000000
9204926617876287969250807288876982065312526563577400582626186149826436322494325054142825236918878577105516920836548339227951104.000000 731307019604374277356958017524592485308136801884818894686266486154350738394070918553857481992877351820045037465077791854690304.000000 0.000000
0.000000 0.000000 0.000000
92972057175494110306709949542647474051058740064380459263580824733043903247387275987627819687797037360462362505767862507828936704.000000 6211900805381264595587707612460676773269400870639266759066627792300946679693521525999004355335197979881892285522828015645491200.000000 0.000000
6211900805381264595587707612460676773269400870639266759066627792300946679693521525999004355335197979881892285522828015645491200.000000 557098871683052051316365747398642103880066929145616319363586390228691740643722536975602783336090492122070569882670200740904960.000000 0.000000
0.000000 0.000000 0.000000
-5128149432199886969887728607893974345499861373895060113952246782799710704504971833362258871130347476108574423100620660715552768.000000 180706599901930201107369116610078969020651802527237685023857121404935909631020931910171464167881115341836641545844742545806983168.000000 0.000000
180706599901930201107369116610078969020651802527237685023857121404935909631020931910171464167881115341836641545844742545806983168.000000 105630774976944989697056656737436341946222273143044956721867040941334300804378463761106579073091593276707954522770446639786098688.000000 0.000000
0.000000 0.000000 0.000000
-103600460936476277874042682499492144905669851017787390730546372999444369047008251574375816744466531041270839331802949437005758464.000000 174740678799482674629973202202084676428269465533972492329328840853322814408357830837864681177842495311713102162100889264395911168.000000 0.000000
174740678799482674629973202202084676428269465533972492329328840853322814408357830837864681177842495311713102162100889264395911168.000000 100860864731342632856229337037193196797354999923582519723302031079658225732187644180004465091397150701035877473046061824568459264.000000 0.000000
0.000000 0.000000 0.000000
-164237453898692371009899285181833351760108041886965889512409696540956973805155297774984370326677464525169275181936524694573285376.000000 688094158467399116991809888252781272641155571573561909695050525436755111982967301072668832827031876317119027091561999884737314816.000000 0.000000
688094158467399116991809888252781272641155571573561909695050525436755111982967301072668832827031876317119027091561999884737314816.000000 392430189744956116917988505142555892436080033884754260115923060509442776160166059959281287206451807706178756125929567066097975296.000000 0.000000
0.000000 0.000000 0.000000
-39344027006420483794148955019599807893859261921820125124995040065045947997077423087412058725303589369729431924148905275583220416512.000000 3652228065727655226731451893618578010738192997555768175828796261546217507809027812547783654862602823443183421581668340490913710080.000000 0.000000
3652228065727655226731451893618578010738192997555768175828796261546217507809027812547783654862602823443183421581668340490913710080.000000 645596208928919264143653327405112701822572475196882873574610900910877400247348202264051122393715893846894726227918378971451883520.000000 0.000000
0.000000 0.000000 0.000000
-126972109843773934734028591574356093081085369057721685286248135989444942395510944142031592263793486928368386278836446936510234624.000000 132786639650303347119500578537894025528481358823491472265883795236922495958509382452868492154740152105753132906983056420273913856.000000 0.000000
132786639650303347119500578537894025528481358823491472265883795236922495958509382452868492154740152105753132906983056420273913856.000000 81524903127014488945700681510944828906667809254331628356125840343784892813166947602949370421169367625445643661311383495159840768.000000 0.000000
0.000000 0.000000 0.000000
151789341335247612761290124742954027288447725409744235068078525285278036039219707015940823040406874374454436854306145472767590400.000000 204987696346422068607878925466413548833127888079090687766848563455422442931086089303261649822995901025686663592455353051237056512.000000 0.000000
204987696346422068607878925466413548833127888079090687766848563455422442931086089303261649822995901025686663592455353051237056512.000000 95030728693098011546199612127761299510679011174638532694577709271497943873125739550699188256122103880348970295958603528111390720.000000 0.000000
0.000000 0.000000 0.000000
4308191247029362573749995403021238411806456537781538464945924487953254731740773476273008092721572260002431389652873344188416.000000 -6068460198418106188769827621594922656270113300735009990101458437763037664239459822422929257661552380624083151717699361439744.000000 0.000000
-6068460198418106188769827621594922656270113300735009990101458437763037664239459822422929257661552380624083151717699361439744.000000 2840957040756096387908699016326607349007877544355438389803290249719647223899348525937973977012665557569113016123463294779392.000000 0.000000
0.000000 0.000000 0.000000
77176886774003389757751958799112938953213227150140868985617703042425502053632820261991764792510995221372141358225811115270471680.000000 52225842230921523963436231878769079494510085845776362565852602947567551847618906104289954130760472191245854958163075221363359744.000000 0.000000
52225842230921523963436231878769079494510085845776362565852602947567551847618906104289954130760472191245854958163075221363359744.000000 18584306085051477095748756167948978043495165447440805485871719237781917774401384664462549741338050461973016895902839700851785728.000000 0.000000
0.000000 0.000000 0.000000
-1464275498188320879095729711883918745984312147482156942885969197519209128926339965106041783845987318235393607479880144903122976768.000000 -1159698341968655570888254266813255768047342791573421464998533918940263368210713756742083503697256502730250590233425066038237593600.000000 0.000000
-1159698341968655570888254266813255768047342791573421464998533918940263368210713756742083503697256502730250590233425066038237593600.000000 646223897150357719807696465814216084930451596562688400255611338283573760720894561593715073582028964299506399684094183833501433856.000000 0.000000
0.000000 0.000000 0.000000
35314368402401681701711769260320152765067019784596264551324412521182381575107873408373333719941811365661018054992329579876581376.000000 -622744422706181434345086218429338416863836974993598100538133056451940097332759791415305864061312432093214886376787019706302201856.000000 0.000000
-622744422706181434345086218429338416863836974993598100538133056451940097332759791415305864061312432093214886376787019706302201856.000000 343438397653818704061418783691339951427063965730436031053007601962590398339103428860622116330035563796117082099806962371025436672.000000 0.000000
0.000000 0.000000 0.000000
542532123099746213590968764240679066110902322093110009349429302008879418817624188160763189411014641826495426619815313232367714304.000000 -49153324570740714750089312989081673059421604269063068130483998406283080390088489568852917505265186216150432618174203502625030144.000000 0.000000
-49153324570740714750089312989081673059421604269063068130483998406283080390088489568852917505265186216150432618174203502625030144.000000 3021794890524974109718634524202094340928098737670361314300406972516119432963613537222949408469976444867438528022819381243281408.000000 0.000000
0.000000 0.000000 0.000000
116963495040788585350354449415205948353545241379080653043875619996638965405664707580968472315983524460871339739752783785601531904.000000 72940863038258741927302340003047962310058253749385087321983956992307649591132416896498019175053130614696429748248794073105694720.000000 0.000000
72940863038258741927302340003047962310058253749385087321983956992307649591132416896498019175053130614696429748248794073105694720.000000 24275774981667220665360935178758273584578323948440668876157788914291018923176257302453919017183318248035134778292916784608575488.000000 0.000000
0.000000 0.000000 0.000000
13154621226010369784714536446224968203686279708627655831934921404694950198386159351783847330066202836460166105079152281135349760.000000 -9131703635087074555726384184493429395542551620246484344190567725903052596073340470577489478000821064449144306230109453032620032.000000 0.000000
-9131703635087074555726384184493429395542551620246484344190567725903052596073340470577489478000821064449144306230109453032620032.000000 2620623037922795785605168416363503216200892875406579888344583697409619349755100948433694783677240878050888399728648927307628544.000000 0.000000
0.000000 0.000000 0.000000
11420262016516908023022581029159330925539101668924924980289329233941586558846068406455899445871826627083113205880687286487613440.000000 160620220979551501595868678262958726483975071741506931202565466713964490770063822427306477332244431690777723889998940103396818944.000000 0.000000
160620220979551501595868678262958726483975071741506931202565466713964490770063822427306477332244431690777723889998940103396818944.000000 88707671407534909426596212905216380897644416442337329884756343639362880404447911269797381759832814440825823987438106424599642112.000000 0.000000
0.000000 0.000000 0.000000
-30422581544128549408510400300492885237100327638743013137482102688740670654133418019014668079445872363170619303763040753168678912.000000 -261297787423355471845313476000293246352317251708666595034956389858406245475779501495664490153325454310226235424620031747370778624.000000 0.000000
-261297787423355471845313476000293246352317251708666595034956389858406245475779501495664490153325454310226235424620031747370778624.000000 159297265068071447806326084487865069314628499343738599039256253303756115954554051870097016363244208331915192948306995392114851840.000000 0.000000
0.000000 0.000000 0.000000
144023272023624540960725914473145559357868355663143406625799211231655941028793484587358968653918019541118158477512626218729472.000000 15689648736700437754166330184372915844113066642343397020761291488420924805907262109064096759118498971723824881783573533687808.000000 0.000000
15689648736700437754166330184372915844113066642343397020761291488420924805907262109064096759118498971723824881783573533687808.000000 8711723249528738670268714476772166065111033154381043928102614422196114356744489383258932370355352818027502605106608267591680.000000 0.000000
0.000000 0.000000 0.000000
6589253793212186848130363872998850722996073342358458739600440951056739887998062004622842857469815233968032969479479033054887936.000000 -3202428299303051835242380105175490259150878004777207301713305216416104084175755144664935028089145374776635637601991919329607680.000000 0.000000
-3202428299303051835242380105175490259150878004777207301713305216416104084175755144664935028089145374776635637601991919329607680.000000 908062128774071575068551001935105774624093742871599028680267096002561641778733083435708916606023506803911091841847975273824256.000000 0.000000
0.000000 0.000000 0.000000
622700222369785335077170599656904324870447707871812338518943594675888496450453382390426234768578572905141938244446527709069180928.000000 55397045702784096891959451171719878565800124011295231568223868361612303181278094855902882534081920098934702669195041546757472256.000000 0.000000
55397045702784096891959451171719878565800124011295231568223868361612303181278094855902882534081920098934702669195041546757472256.000000 3286929508327510885638961753266635955359071431216830027929541116593247843413055615318942934703198478090106498093707316875493376.000000 0.000000
0.000000 0.000000 0.000000
330057241133598117776807162515442429444698773000366221842282781672630558023364796327674678967471143740167445875434912084112965632.000000 222654993517804208334492312193566840498233877860619199807958716103521108971206072229616484676054802199613640969474499446210297856.000000 0.000000
222654993517804208334492312193566840498233877860619199807958716103521108971206072229616484676054802199613640969474499446210297856.000000 77695895059930095790007635110321344896402093772694369386671816889505256065673616915486636085429458051393642074519213315463315456.000000 0.000000
0.000000 0.000000 0.000000
-37147939151675967923816531517706456752476756652290502801383961615964544319195400857076169717899002499081239032974648499928825856.000000 -64049507665537475093386828557244314188883696501942792146478926528718942997861485415399292245709541254261909289108932851616710656.000000 0.000000
-64049507665537475093386828557244314188883696501942792146478926528718942997861485415399292245709541254261909289108932851616710656.000000 36970469844594266735816283553614548643911874700764466136384077809484028167681707674610526483957110481622988500562871266553364480.000000 0.000000
0.000000 0.000000 0.000000
-947707449335226027670518646710437448366143809166218253858130471613898081849222443912574501009040426536279228825409654807762829312.000000 -1389475474776924616222590859455769954625356549410344901877038335710628378921987218817664590268237286407117409192588804955832320.000000 0.000000
-1389475474776924616222590859455769954625356549410344901877038335710628378921987218817664590268237286407117409192588804955832320.000000 189447735270888009261311630275529712527613629682094159560719509614199899866696839874663941011370748158391246994899935617351680.000000 0.000000
0.000000 0.000000 0.000000
-321500947259591502053262700049645052696448469092646541959484705498506257372197129614366209066585248961464284526924401878522396672.000000 1175061048241763469173200860468526394434366195471042627793412954595288785041293723886972005168841473727458813912470705139194265600.000000 0.000000
1175061048241763469173200860468526394434366195471042627793412954595288785041293723886972005168841473727458813912470705139194265600.000000 671810597626646405755235917690072446043009438269251945441170122579406684054459587126918010472010934999683160763963802951572520960.000000 0.000000
0.000000 0.000000 0.000000
-198125033290131408385120436126488400938742084991542429409658895372000959136319421714606284832390923889633124549239142665303359488.000000 -182673001843102730627644469133638948936443349653441764317566002562643362191714013238710014643739254783623400883398612667227701248.000000 0.000000
-182673001843102730627644469133638948936443349653441764317566002562643362191714013238710014643739254783623400883398612667227701248.000000 104007441689097080256687185078891965241731092415927216150265181395809230335361440979192163638259191545890908917547687187539034112.000000 0.000000
0.000000 0.000000 0.000000
85523839198393680918573769395913703733813250634898024858972264060448143434670601155177808540258790090391786274731227052739919872.000000 -334314512055668181006227614445445436035001799625393115082030843906770063887839952664223094134675127222049682269587141224724168704.000000 0.000000
-334314512055668181006227614445445436035001799625393115082030843906770063887839952664223094134675127222049682269587141224724168704.000000 177693738175280543846172787942652910127391295699218277618643449548828640255020752613553957263871114284675439448250110183087276032.000000 0.000000
0.000000 0.000000 0.000000
-376109053222251346769759562393134601130487264846827451452367121792103232626779545425252537277125599734335262261709113462408347648.000000 -380606596983944932837146056625909767182659216906199992935107205457048678532357261303369178958067295952190726500407852489827680256.000000 0.000000
-380606596983944932837146056625909767182659216906199992935107205457048678532357261303369178958067295952190726500407852489827680256.000000 216895980837226261225277171849819354966982700834130373987377670900826864762069810055977025120833008941041886050773637603805626368.000000 0.000000
0.000000 0.000000 0.000000
6909499578847146337625904615650642496665668536882062994903770757221655784962713463662932965128748054896724725158943536447488.000000 -1186465672437886894353861553698537885125222543550984055159313372576173409439692129996507197890308481467072859179904502473949184.000000 0.000000
-1186465672437886894353861553698537885125222543550984055159313372576173409439692129996507197890308481467072859179904502473949184.000000 658390046158171235157116326503885129090581097140330593742466487625623485460793268322546085173684757416347640153883748048306176.000000 0.000000
0.000000 0.000000 0.000000
-1649188096382482435547675741639148991478872378463310994464873204093794304628388208080644212615358950793182112868048147590238175232.000000 190139103013779336196695043089235534756075186636865970268888400745790348541085931557190879611396188499317901448239089949995958272.000000 0.000000
190139103013779336196695043089235534756075186636865970268888400745790348541085931557190879611396188499317901448239089949995958272.000000 40782012836631145707565058736361391641427322661058783414810004724794880325843514462550824013112927138859120530905251773318955008.000000 0.000000
0.000000 0.000000 0.000000
-19766239834835491641365811819981079733954793094391770564755260916501863815622821914564265825419911976127425412616453804945483759616.000000 -1215154834380372190832503923830659960425644527320221683374845006455565230002808514013335046702022433197428901060951903713364017152.000000 0.000000
-1215154834380372190832503923830659960425644527320221683374845006455565230002808514013335046702022433197428901060951903713364017152.000000 146517961414242806539650324415486379539210722597353364475399430681721634472913274843859247758076333737645889855326225366423437312.000000 0.000000
0.000000 0.000000 0.000000
748586455063619474371631561743058421258394170005951338647152948973932890247599622924846827307240759284158872974040626595253714944.000000 -460785858173312359097195147579631320422605135241729081559136849898895897755668536199408200845857947867732062798663971421634428928.000000 0.000000
-460785858173312359097195147579631320422605135241729081559136849898895897755668536199408200845857947867732062798663971421634428928.000000 152211098654036095269435279029642117375016017155027927757321704775130278722703307729910909261034318508605139608633860006095093760.000000 0.000000
0.000000 0.000000 0.000000
4802909403929845557053258816387887179774880870905177927344779174955558397559715370158766579624781511005522047497875125019569291264.000000 3868694626844588906728406338601076530861067858807201539676105867436771675628607723462397512906326709051465728818205239647087362048.000000 0.000000
3868694626844588906728406338601076530861067858807201539676105867436771675628607723462397512906326709051465728818205239647087362048.000000 1485321282511770219347537292361704018015922310523372976677532095144311039612442819771801754073581130160079389196113392824750178304.000000 0.000000
0.000000 0.000000 0.000000
636587100555054404469212314351990825789022147275968082496677823847990662406491773596688896479260946631038674862588715908873584640.000000 -954739007633162362414761398162870869465687320294479668678655055339731593949655579678840704309218193796454740412003054082232156160.000000 0.000000
-954739007633162362414761398162870869465687320294479668678655055339731593949655579678840704309218193796454740412003054082232156160.000000 453579866843507529434218221681795835396580383726093758777542046199484498488693177389313167873951419868928667670372408702326013952.000000 0.000000
0.000000 0.000000 0.000000
75505579702895916643543415498997109282451498253737490896275262962499976444436612945513689369859153370085976240650644966300712960.000000 -70853111000948454106949802383057148503507775417694658695906113335423718296286778473961843756724019165221854401225556778272423936.000000 0.000000
-70853111000948454106949802383057148503507775417694658695906113335423718296286778473961843756724019165221854401225556778272423936.000000 29131916264386967142011805227771347442484596567314864413444318884866541346897926207260516337413744325958981878972161839270461440.000000 0.000000
0.000000 0.000000 0.000000
158428074882268314154824347658526788198444911822342731354007397241031631309376993403851474635678611342067610384819225457709809664.000000 -48565210864468499714377536155186656609971151481675801663960154657363022043983166900329375116741851760748054830294370334294409216.000000 0.000000
-48565210864468499714377536155186656609971151481675801663960154657363022043983166900329375116741851760748054830294370334294409216.000000 9340980510310942896111294669943761990683852548436499721188513869176186076018046266468315850037944261346960550910855092212072448.000000 0.000000
0.000000 0.000000 0.000000
287738807866169484052679578941715360269305124897366129986599002388665870529243826399810666458563521627619441352157356617646473216.000000 -224035615212032193213576705781870505846827204209020919775996489332593014182758466512971544828738629481749397318302572580284923904.000000 0.000000
-224035615212032193213576705781870505846827204209020919775996489332593014182758466512971544828738629481749397318302572580284923904.000000 84513479565540052867064437788174322344365080934269519489194210291105911152162704417736556388067653030852422448189713085546627072.000000 0.000000
0.000000 0.000000 0.000000
-906728943680876788679556522730395649605060476780695269554833131641480094940484943755925089526896979920523511131191698261209513984.000000 289972938725214655203266456038890567335763310439866963600732746929922567331709307378376292807333511862680618741435721066892754944.000000 0.000000
289972938725214655203266456038890567335763310439866963600732746929922567331709307378376292807333511862680618741435721066892754944.000000 129372797490548924407815559722098058325020265178379283895761826282759803335628570436313134400780872053862702764953015025571725312.000000 0.000000
0.000000 0.000000 0.000000
467990667331549378622148163615862500516562529035141047158890452836184482295485786585509800786732758635838854420954832298835968.000000 271697491427012094563840274181492753875572839014456677348085789076373324400166715333607629048091034375311758815627116472696832.000000 0.000000
271697491427012094563840274181492753875572839014456677348085789076373324400166715333607629048091034375311758815627116472696832.000000 86358359148681429837695996863276523120196379855558687947939439580321056987662985304270436521450018726444863382110678391193600.000000 0.000000
0.000000 0.000000 0.000000
2609040293297057090922513559773494175036219948293493344154864550382243739883800051654532432074489880380495354686250872402345984.000000 -4832601518147056929167439720981783047193972191535550016020663186577652779112703212705616783419441094383860475293765563454586880.000000 0.000000
-4832601518147056929167439720981783047193972191535550016020663186577652779112703212705616783419441094383860475293765563454586880.000000 2386136077598194931111474013648581476658109051500024573803953296043084937317076574199782044829682256243881654218223847619952640.000000 0.000000
0.000000 0.000000 0.000000
-5307214574316660567776090141896434701964597639211727900158470171801040778566687010113948210165320649356534142145053469731454976.000000 -336204026322597922734004033586569275038934579934620313959694722477924013050571509651160419026535934286345667454771919720789573632.000000 0.000000
-336204026322597922734004033586569275038934579934620313959694722477924013050571509651160419026535934286345667454771919720789573632.000000 187386039290173925115905149412204462291055440731161262513881238581212474386701858934758917502658091514506563094044204821945253888.000000 0.000000
0.000000 0.000000 0.000000
-70988159140429909596779108238930136372872687105453743611193823460027768178716277340380571339572138258341395969597271711940608.000000 -71308061148678243044736687881204550953091730253728628516854758315681464299721377871460639260838738910480421992337142808838144.000000 0.000000
-71308061148678243044736687881204550953091730253728628516854758315681464299721377871460639260838738910480421992337142808838144.000000 15027341899431392087809151371051215224149736798838743341941093189047058923314665801653978671231435953214693999164645171003392.000000 0.000000
0.000000 0.000000 0.000000
1428176251911069736577995191255708743451067814324850986633994957224431120054943486449593010944968896631146517621403430893849149440.000000 -5366355953214649989260513566357479514811078873166599479294963203749055644287664533518021845658341575303843756868137442078017716224.000000 0.000000
-5366355953214649989260513566357479514811078873166599479294963203749055644287664533518021845658341575303843756868137442078017716224.000000 2848515958227643437638709200867611276623398734860323043976395223339449308094135989019448020204739477550914812632374391964648341504.000000 0.000000
0.000000 0.000000 0.000000
-12294394259123058219339644025742855216332538405538354627196456079235906663971120758434224160654005596282520715952466930767495168.000000 -686847041069050391585468079107808027870394933309635946345655612395877785844832715619247932395567118207275230450633990613883682816.000000 0.000000
-686847041069050391585468079107808027870394933309635946345655612395877785844832715619247932395567118207275230450633990613883682816.000000 384121019952913867115007746090222939808419873131579705575742858250937756912038017877040754356630934605717551573108155670855680000.000000 0.000000
0.000000 0.000000 0.000000
-11981024328149858513401505214545497245557565513679146691705943076639205469382584855548069162576173727321912397291644643685672419328.000000 -3042437758294696396438621229949199366114889014455357181137025124879343453392355401523350019457634187287979765909062011170852962304.000000 0.000000
-3042437758294696396438621229949199366114889014455357181137025124879343453392355401523350019457634187287979765909062011170852962304.000000 1169143815800998862004963067937066223721852421318128426357193826492307092079806415055610278008898401570018332107196682255684599808.000000 0.000000
0.000000 0.000000 0.000000
63521232067316194637730022204692688687342704943459492054890689080888005852174596120631383293477267106581575033480402052854054912.000000 55765740424866947760883566619895694743166238096284955273866880987577978210795489828118758403598480333219989262950455711664963584.000000 0.000000
55765740424866947760883566619895694743166238096284955273866880987577978210795489828118758403598480333219989262950455711664963584.000000 22293532346359553861372046346831324887320165791388955198248582949656409647863058193185096953483875932660568814984147867101298688.000000 0.000000
0.000000 0.000000 0.000000
-149989356191666195604182224437810609081187119605558650557348776219162767408502450323146603347567439188479350428821194145246740480.000000 -123323092925655002666986511353806616312386841857841573852933572852024101626899640076136879979215330944352994150507077239836770304.000000 0.000000
-123323092925655002666986511353806616312386841857841573852933572852024101626899640076136879979215330944352994150507077239836770304.000000 69005344390955290767977869697209888853351365998815601715270502341693755869578895449839216750051487286939226082674006809856966656.000000 0.000000
0.000000 0.000000 0.000000
-703880643634281293247469576621901142879377934840082281050895917883281897304737999677018373087489138230073816615549100328955817230336.000000 -130565819427276400882170278979524173985875052314007061141976909299413172029114775804344478672551406247246431666197956454248349696.000000 0.000000
-130565819427276400882170278979524173985875052314007061141976909299413172029114775804344478672551406247246431666197956454248349696.000000 203993423564235219921903952731472862768179462667120179737202700665926494762048688948317595646698624990478020414512003696033792.000000 0.000000
0.000000 0.000000 0.000000
853794376467763923573462425724774523746664929070042327811828701045314398404173593424965858399934823289371307247169529014386688.000000 -112189650297842990830936396830266827301022266186154066599164426855212649372405147275760417976476397751991990180304478474862592.000000 0.000000
-112189650297842990830936396830266827301022266186154066599164426855212649372405147275760417976476397751991990180304478474862592.000000 9859094306391457483483873796632014761436413754451273227127829001868539986077507382345048313683113358059148193540042269917184.000000 0.000000
0.000000 0.000000 0.000000
999471210342900051858246891961636280124068154976553048567385216156955283797827968776425866443151908748108011518759634252421136384.000000 -113908485782340520035766661073194119683326505992003374665915536501666902180590303127076286512515751432759222520701800530961235968.000000 0.000000
-113908485782340520035766661073194119683326505992003374665915536501666902180590303127076286512515751432759222520701800530961235968.000000 8582217441375973473114806688900690062117952668581248216812522498097061424291599454893096411730007809223918416529232808812478464.000000 0.000000
0.000000 0.000000 0.000000
530202167232252536097002373133971933862272607336443286153145563664277706698883602501842029001770453485478089462068398144964526080.000000 -35310829210403426924128588879270108033260293914833889540977436866455253578570731998320959400349333561028614443749768232301494272.000000 0.000000
-35310829210403426924128588879270108033260293914833889540977436866455253578570731998320959400349333561028614443749768232301494272.000000 1739183730767333287140254755097808239352725251352656993760661341610853959862609841863233436068234252302166144757180695431872512.000000 0.000000
0.000000 0.000000 0.000000
2161691877513148441290736124401137636422332962635276497383296772391805333777310658878582254744969772591575112659812637892149248.000000 -912417984222199769871410773757232560837454096328551927565764555453907832576346780605797986652320058985164708701525653336358912.000000 0.000000
-912417984222199769871410773757232560837454096328551927565764555453907832576346780605797986652320058985164708701525653336358912.000000 230220083298951213354647565981801666331743360762817772464978986138866329780375866046292403984248961276037842602621568962002944.000000 0.000000
0.000000 0.000000 0.000000
221985273948112835194775436912382216329572270958704726254577662047777309095315381809302873458703629676531985586903748592202153984.000000 -429334346424811375918126412007300401083365067089457404889663161030984931065859648547376859280671092002346643829489153148268314624.000000 0.000000
-429334346424811375918126412007300401083365067089457404889663161030984931065859648547376859280671092002346643829489153148268314624.000000 213451124187317837472197267163337552760577393816758986256636525036036617493027410759406953530025354607918862326604079270157352960.000000 0.000000
0.000000 0.000000 0.000000
245554430570680879708284343148944555031767566813760416079478706838519598854099622040111271188215242540701787568977044550046449664.000000 194757796336151261791084611356924978747005115880338487836875482541983484001633002773189228994900755917071984100683331141330010112.000000 0.000000
194757796336151261791084611356924978747005115880338487836875482541983484001633002773189228994900755917071984100683331141330010112.000000 68130971646234609937728236147038703244182762162733353602307052097415595231684747648636202389294226215526729329681904633674465280.000000 0.000000
0.000000 0.000000 0.000000
-66129834622819769272481260255309990935682812748507932827081348614587588538532021884610365833602604512129559091050036305632165888.000000 -25274017797784713460314962518931332101132190028187177694559150391784973718231039721527040074617754991742898835011115774149394432.000000 0.000000
-25274017797784713460314962518931332101132190028187177694559150391784973718231039721527040074617754991742898835011115774149394432.000000 12652063357708025300512714118236502067761063745455306909389254233877355774354751917826368585574527485734106808036133373434920960.000000 0.000000
0.000000 0.000000 0.000000
131228453051846395703662805382457136220856514498778419918504538173588949513089972409258323569954872682321002520923009299525926912.000000 16603688804425738196507140178126063319627876368147941313047456826730845336170709857614210798526601793935581738941354676586545152.000000 0.000000
16603688804425738196507140178126063319627876368147941313047456826730845336170709857614210798526601793935581738941354676586545152.000000 2365403239528789228956247538968792407731206386347025988186682487737922091445781786284667272530431864511066622549392986975764480.000000 0.000000
0.000000 0.000000 0.000000
-1508836281353630686944327673975031698938227522922414271810837118662813320215637447382674883997155592516519440970145510580354547712.000000 -201950871050852899311157693447895393199984187517829211747188836566507738072259233135186744843723602336593325384805168131656908800.000000 0.000000
-201950871050852899311157693447895393199984187517829211747188836566507738072259233135186744843723602336593325384805168131656908800.000000 50999433186633514623408062009415299574182511770147971608835361531749043131406828261330575752350983150858881027488119755758370816.000000 0.000000
0.000000 0.000000 0.000000
-222781649394613458837762245695610490216682872101836198101332815801931325597702468135473208945015588822818435591486805993888677888.000000 1045085555801628406686103951901300142371225304205134929727284876471224822811899303242965439345618673936512080362716632160657211392.000000 0.000000
1045085555801628406686103951901300142371225304205134929727284876471224822811899303242965439345618673936512080362716632160657211392.000000 594915645578179299897479416781636431067825515900018501525351324924674745166193591619593248512230594019108985219482827100476407808.000000 0.000000
0.000000 0.000000 0.000000
1153356583985507765147807918432516146974316839446518808463150647314209720474260420466618741851541077303115648481599337714363138048.000000 -207430755269268567214356181639402044859483497841168769188438437631256406274991338680245258813962082700908151639451799279040987136.000000 0.000000
-207430755269268567214356181639402044859483497841168769188438437631256406274991338680245258813962082700908151639451799279040987136.000000 24386270380190704612300952658912092282581750136180432047657434477905106373039890445427163632108811590697465581986545814307078144.000000 0.000000
0.000000 0.000000 0.000000
260643036643190939126334146749659277064615414579223555797846220683499831515557690216102416164789237552888440166409081963428184064.000000 -886757007072950596585962834607492594385152260013390075596803562607899962163628829373185880068442947229857501777890834706077843456.000000 0.000000
-886757007072950596585962834607492594385152260013390075596803562607899962163628829373185880068442947229857501777890834706077843456.000000 467375250872722213076872362548495328207546567139324976013657180019367670959997073574744765777006768157178678452005780272711729152.000000 0.000000
0.000000 0.000000 0.000000
-443839132495175142362524162890085462707318099383734002957635581991618985760927929523968826995732998632184661193738745924120739840.000000 205030298036850971696254136444156162024233428770744874263713259325405506845883295692985625507167095303303367592190391325460267008.000000 0.000000
205030298036850971696254136444156162024233428770744874263713259325405506845883295692985625507167095303303367592190391325460267008.000000 103923466512829438009065881760537459649187056094360247930406589496265146767876612346669635789144085266875843274406297502994137088.000000 0.000000
0.000000 0.000000 0.000000
143907950341898069016060346380963040735427103799056788687731665287755159639474738104439484431643959272189608730433617741389758464.000000 114356144827871805548432434010141317552120208357745724904127056727173381198970829100541539974470386862706821682055032160712130560.000000 0.000000
114356144827871805548432434010141317552120208357745724904127056727173381198970829100541539974470386862706821682055032160712130560.000000 43599111737513414596202577790656219214094514663803685042521860619097039594795506607151984519260610492113407158344769271125508096.000000 0.000000
0.000000 0.000000 0.000000
-10142857131876824036092924079443486868209025171732979778840059722981503644216587252325072918691136442979292869008924459260706816.000000 -1705876632873014950127934161833986390482795541936037121606947594658462020045431128876918363985866574645944567922864733877698560.000000 0.000000
-1705876632873014950127934161833986390482795541936037121606947594658462020045431128876918363985866574645944567922864733877698560.000000 497090370375838630648306367319086259292691169465574291507551473165000711001446158801415805315525370097435755940528136833204224.000000 0.000000
0.000000 0.000000 0.000000
-16313969276404717458727089227544942791826724727012084609596204929627012382939038104519436316707199113931791082937427708883238912.000000 -110587729853502803161355183885714102109349820334848619212186024962291428483588637407133484942481671491149365416128295595807866880.000000 0.000000
-110587729853502803161355183885714102109349820334848619212186024962291428483588637407133484942481671491149365416128295595807866880.000000 69667858798249974738184071966684354949794807022233423168845494107692586888341794089251894510787897618762665630665629088970964992.000000 0.000000
0.000000 0.000000 0.000000
204201448187170238559741566091078965576813945803059478665098204473822596378784317840077054833697843632266746261289105908704477184.000000 -315191319139745345536094014133529407882018276910219035215173515734856531192876076018867946603199263371443717390375368351524323328.000000 0.000000
-315191319139745345536094014133529407882018276910219035215173515734856531192876076018867946603199263371443717390375368351524323328.000000 150996330648198549810991330044621228502239231710176235871394729008530323541945848749540741900647863790164357782612149131882266624.000000 0.000000
0.000000 0.000000 0.000000
472649101414566447718922425335636212848156019330114919436111038737003267851927351040684469671688712785266058189858114993582505984.000000 -608475333184085171377999635686332571440634493214823702726615487709039762971549942230835689487644668625899536249109233672480882688.000000 0.000000
-608475333184085171377999635686332571440634493214823702726615487709039762971549942230835689487644668625899536249109233672480882688.000000 278469779720474564349598012033422947872840926602215840737861392497240115222769949198301147398882782730737617644235515372547080192.000000 0.000000
0.000000 0.000000 0.000000
-2620709300363173074034222676070563984075991820921820414955623514131663899654292455743934235199696400448644121330258925509272403968.000000 404236106092829564480276213153271059413458404735078330269431659562290790721112103415993137119529576386621071824035982536375009280.000000 0.000000
404236106092829564480276213153271059413458404735078330269431659562290790721112103415993137119529576386621071824035982536375009280.000000 113288559764208168886897852502097662267916767836429633050393414803555005259201039123294547480900261413613219175094983695987113984.000000 0.000000
0.000000 0.000000 0.000000
110901658012859044562519082267476698048935027828721858981724361225811503300505663747800002390901300789491581914018701534369415168.000000 719598202027248445059899308402436843871982960266617349249846978868699258428694804649718263576308160610912065149973857874179260416.000000 0.000000
719598202027248445059899308402436843871982960266617349249846978868699258428694804649718263576308160610912065149973857874179260416.000000 390324010491920993617523523641805062817388316260784304400510683500679044597206268577128987964045140339766738102490342275254583296.000000 0.000000
0.000000 0.000000 0.000000
-259621417447077801725752710646018825311752545570031423514672092362154280789167657093002548788031903258963642358480667482842464256.000000 321658211296696150091672013867608607012163549812544666155345497383334304020996575774767082030950022612501277309457490608574693376.000000 0.000000
321658211296696150091672013867608607012163549812544666155345497383334304020996575774767082030950022612501277309457490608574693376.000000 187214873210184464005059185197489329260928537239134665417489929713747624166258266542162686834719510382920889282924586170656489472.000000 0.000000
0.000000 0.000000 0.000000
353575727411300798271238975580219584117460563049288553216093094084930400101304714288860628555641448403649549628826260974696660992.000000 141372943539840336365020042901149243390984942543800171778798779419685407392577521560793076228947071294128766386349438078709399552.000000 0.000000
141372943539840336365020042901149243390984942543800171778798779419685407392577521560793076228947071294128766386349438078709399552.000000 34320755375193430066694881698853842883299790261714726483170493796065121271509691189268044840780270270318824077022796861335928832.000000 0.000000
0.000000 0.000000 0.000000
-1761820358327007519142652620026806692002190652784930177295906663864495762422196621556242029820360512689611214735652390167606460416.000000 1170040278676353066168192852294356696047937937733286457125324405900380524496811423011349572289221360725019486765413219852248678400.000000 0.000000
1170040278676353066168192852294356696047937937733286457125324405900380524496811423011349572289221360725019486765413219852248678400.000000 635619941263807410539013893390444648569534111706461101419293269555792925857785419244848187328991577429164148360846687706722336768.000000 0.000000
0.000000 0.000000 0.000000
-15834812717726489279257658500410167880146352237497542403915603418165465188256375934214807268130064885785175741557485015176321171456.000000 -4962947605419568813664516221845318290697446735922894817201316728181086910732768254276105941407249513744630289479481829741146669056.000000 0.000000
-4962947605419568813664516221845318290697446735922894817201316728181086910732768254276105941407249513744630289479481829741146669056.000000 2133011120889524684842635753203330923909593777568915193784790078464539979116315918366102807272540247011296087615158389247045533696.000000 0.000000
0.000000 0.000000 0.000000
576613804658103903803367334774742370166888980995543181205177328582770660150554057074901574084565290556911885792481032562756550656.000000 -399544900588856874738351212700549736633202805429892712070383277102283570420058260433333674842441054360076514478435065545172713472.000000 0.000000
-399544900588856874738351212700549736633202805429892712070383277102283570420058260433333674842441054360076514478435065545172713472.000000 141568163723153976301784928212678436384531312726666218288650804127798801832666723118818941773448455816702780028856848366297939968.000000 0.000000
0.000000 0.000000 0.000000
42886046913571715454121815599870271754303939030205645983393339432965973275064827836353463254743891586523896188045030430659837952.000000 469917275953008430155323308021459725611895747593099320388635279973047463698457114557351299398380209019366792043366698064950591488.000000 0.000000
469917275953008430155323308021459725611895747593099320388635279973047463698457114557351299398380209019366792043366698064950591488.000000 259721424913378684504194619898188142357719252455493489357845267314869522118627594200091735448772968356670338392136015772062318592.000000 0.000000
0.000000 0.000000 0.000000
1758032002126935699073609014585836921924697470272168479088981522714563231270823463508459373105944201679485161734310022539573723136.000000 119724325518641513217343415902341724872646409699186875445206279089845131702916691232802676591440857047942267802390669577271902208.000000 0.000000
119724325518641513217343415902341724872646409699186875445206279089845131702916691232802676591440857047942267802390669577271902208.000000 5418391605454104096872120173280666048139659853209235865582696088268709701894200838233635563576522528227906191803861220877926400.000000 0.000000
0.000000 0.000000 0.000000
-208592324624076516416040727964073071329201627560630995232139736606976302111501262859489909919899644424723322332603081904263004160.000000 -66809600654128283008363380622903732072917900429211490326736008381417310167238646332573010502785842396984281268011295975208386560.000000 0.000000
-66809600654128283008363380622903732072917900429211490326736008381417310167238646332573010502785842396984281268011295975208386560.000000 30640975234780623293311853014338786609920238676702613254487945813376884316272488844838302935815099244714884038459468744354693120.000000 0.000000
0.000000 0.000000 0.000000
112096966035940857776402663686604718732976550053564666088694655527668396395412723298807742767764058375633476029438190665334784.000000 -135798184767193226282676467161522971623640776143598935608187977575653093089630352703277575311278567084784819475162125498843136.000000 0.000000
-135798184767193226282676467161522971623640776143598935608187977575653093089630352703277575311278567084784819475162125498843136.000000 60110247606718605924670642246357143762064922116627890944687029621187568409627795278349937550630241427634189814460612438130688.000000 0.000000
0.000000 0.000000 0.000000
192349586154506445490204499364319986258079217601319094941150217225413073382235511350108208677494495928985175744831562804942077952.000000 451077706285408552119739616466210501080514275768495399775590950039428959788843247713417489544991549649104172791720993142337437696.000000 0.000000
451077706285408552119739616466210501080514275768495399775590950039428959788843247713417489544991549649104172791720993142337437696.000000 230113419233387154100608871303257126029746914725774144292770544071947270084687858716125280050077138668550065645921414108504129536.000000 0.000000
0.000000 0.000000 0.000000
4875028176453981935813679179279863545514531194733320259942886178821811917919143795106920781259425600037461232131965533623943168.000000 -600212382789840497176068730736819477766048581110005954537317882753091602119227669284695681697967581881278228891912819353583616.000000 0.000000
-600212382789840497176068730736819477766048581110005954537317882753091602119227669284695681697967581881278228891912819353583616.000000 49880682492027786839831998344647296966657565578164928138900757603451405230244655550590910854005022630632087206949662438195200.000000 0.000000
0.000000 0.000000 0.000000
-1743393938904137254199914453942064682421413165343713480749565225837056421406648555214090158471557897452576280838078730866987630592.000000 -298692745381528506002355853691310007896003307327023155045725660964977669513939175496380178530287000864470307226247789177395478528.000000 0.000000
-298692745381528506002355853691310007896003307327023155045725660964977669513939175496380178530287000864470307226247789177395478528.000000 91603665356038119368676018855217787546063086235635339471563223138305253970358617592207243409991966984226532422279815882562600960.000000 0.000000
0.000000 0.000000 0.000000
50558344455389052494029184300269630902987095113232307431606026697996842982906221643430942954345129568669721670792883412035174400.000000 80273294553541778068962914523011087992882217793923445199133113314865979989461799264088950714900862353697791154803108614653345792.000000 0.000000
80273294553541778068962914523011087992882217793923445199133113314865979989461799264088950714900862353697791154803108614653345792.000000 38581450386376477079261746067756222421450410958763450645032427214111977282612794171023085406835459809418771487376433569555546112.000000 0.000000
0.000000 0.000000 0.000000
10688283730227431941442578769637844678053848941805723226086023544165396424762628584961681367546005444611087001416828074168680448.000000 94049829462809592140836237020239234402122012488540111029247991521068992711790178448247345329040477909086286417309219076043702272.000000 0.000000
94049829462809592140836237020239234402122012488540111029247991521068992711790178448247345329040477909086286417309219076043702272.000000 51462604505549368940227815458940583151827819887126231907463068372205493104004161446984151424051330575065298732378814606880014336.000000 0.000000
0.000000 0.000000 0.000000
-1198557712370634950908891670144026862319500742207439373780336269200123822952581753049749154370546540740965709781108514681937461248.000000 -450293447859742785941626649891780080213313820415575908002656197002665736498055014935375175430657830999769533575529777133732757504.000000 0.000000
-450293447859742785941626649891780080213313820415575908002656197002665736498055014935375175430657830999769533575529777133732757504.000000 209533009891082626858328299915302171106520621252914835322928484170066864395501639099822778157938980616631221986178137122999894016.000000 0.000000
0.000000 0.000000 0.000000
293537321826025470824226648627905393298002595205734337732180834883358317854308410213620588617114719604677591169393955624617771008.000000 -207139944026114800484839456295877533129769914771617557822884707244860491143955893624556673920918968637615937103254948652028788736.000000 0.000000
-207139944026114800484839456295877533129769914771617557822884707244860491143955893624556673920918968637615937103254948652028788736.000000 75800137284937882455896261285412462761527718811726073684595703209170593690017703435076156885483667454489076602817714887388561408.000000 0.000000
0.000000 0.000000 0.000000
85202132019754087264046991365902182983432507751626519151037737312029831037297633811231598483575090806139522873179217203608682496.000000 -83620473167619701059572363077348503285883061762134368524220544670397842919588301253410723939502437605197055353169536218726137856.000000 0.000000
-83620473167619701059572363077348503285883061762134368524220544670397842919588301253410723939502437605197055353169536218726137856.000000 34682677301112965652486720133655814562047723094898290431616266551155061442584160045965314603983049993581660057637918380899958784.000000 0.000000
0.000000 0.000000 0.000000
4566810796549605015606515176328788469547602788953806526101256683621598541807597674746733220301564244341299309622085401131876352.000000 -216823584291663161767759822476646413681669180616477421831505564963117082649848852715557165705510533698952851093455646443010260992.000000 0.000000
-216823584291663161767759822476646413681669180616477421831505564963117082649848852715557165705510533698952851093455646443010260992.000000 120217619143530563016796224797875194268875384748225131544393259532164911366930162933173255460315999109380087079752704740324016128.000000 0.000000
0.000000 0.000000 0.000000
2914512672514708308383676653122100178021683575787615953330017263818184965583997646647882376530020269616564896766399044396764889088.000000 -978310185067233905826684396526225935904216854396406679407800676184305099103852943105810172667445197453690275427436963727482552320.000000 0.000000
-978310185067233905826684396526225935904216854396406679407800676184305099103852943105810172667445197453690275427436963727482552320.000000 203748105223509773418182126233044024882457477979522935726065778582975715709303032361085592070534336635224518042861591011293921280.000000 0.000000
0.000000 0.000000 0.000000
2219898975881766146544720025875350869650352328933227134076598550294034731496535852661891666518892481550848719705413393461651963904.000000 582132047800530535151245549114792432723912913132333616557263558804877254288752048054999830611332858541173475626861114408633892864.000000 0.000000
582132047800530535151245549114792432723912913132333616557263558804877254288752048054999830611332858541173475626861114408633892864.000000 97704765137005743930523000205618137579882160999544115758822071025424209973597846938734814323051887134474459275791065140080672768.000000 0.000000
0.000000 0.000000 0.000000
32082080933300423975859056839600189506606697524518544997402568097697962733879310423263877718302369497509438632627079407573401600.000000 58278113900352863087762710246986759701134347900544002665185421230589712665400903531101908827363028204875153153769476873512812544.000000 0.000000
58278113900352863087762710246986759701134347900544002665185421230589712665400903531101908827363028204875153153769476873512812544.000000 33202376130012943610059039740711209557454902895705182841248202977770439721067196995583889704886586580681400329240210857718185984.000000 0.000000
0.000000 0.000000 0.000000
806714182661224634662045202832804126758352198772481898872385015350933826576155108358448922995073006132939689629982504335699869696.000000 -758755711733128302946490404903661813565381106002826515388874142996804352532678516692600284490194391975467686041880223446393159680.000000 0.000000
-758755711733128302946490404903661813565381106002826515388874142996804352532678516692600284490194391975467686041880223446393159680.000000 312919227697109045570653043314331379232237503441670314906486466387190956377315624944498982088498562089737193943583504841847078912.000000 0.000000
0.000000 0.000000 0.000000
881329642636616393369844748029958762383815891666764357546897033463096717571311203214367879830869508265438112635270483192370429952.000000 -1196725056874617442848421015087785871481163832769183918829368956088789582251100153735798757360258020623771126934346420801687781376.000000 0.000000
-1196725056874617442848421015087785871481163832769183918829368956088789582251100153735798757360258020623771126934346420801687781376.000000 555279075161680205144077516516631230044662532297335766872991321254973614691150076372297364995715956754611393539922331428783652864.000000 0.000000
0.000000 0.000000 0.000000
-128795718883593324283153834183822255019418870952974325457560689490316556174220505149008432924747629794451983693991311826277629952.000000 -169867492395123549696904649117673297373254220877925944430287749624848653540982538975980978855465433048763529260385583533790330880.000000 0.000000
-169867492395123549696904649117673297373254220877925944430287749624848653540982538975980978855465433048763529260385583533790330880.000000 97750554104946429117198538471366176129907118945630417817915755980565578340500440444119864518115408747599262357901938206013652992.000000 0.000000
0.000000 0.000000 0.000000
-3488175917861608515099690440276931027748427810921911410306328770116847138205942111045916864744645609951993398502081285941362688.000000 227620890611629167032009309681672040275962150817174239364484562486668720343831134623445139830271014228661870490047747504453189632.000000 0.000000
227620890611629167032009309681672040275962150817174239364484562486668720343831134623445139830271014228661870490047747504453189632.000000 126856841812212865843684110895635436688968761593565974452812937666742727460617938023700892253249256939606156913887256406747250688.000000 0.000000
0.000000 0.000000 0.000000
253095021007036447373618837246608489765017959386959566201732924721810203438834767395069400339639591297658610740444644507748663296.000000 -64842376970762768365379696800249794392495711664676765734682720964634133243336619658878678798779021465737489054611629599298158592.000000 0.000000
-64842376970762768365379696800249794392495711664676765734682720964634133243336619658878678798779021465737489054611629599298158592.000000 10610310064005618525164264133758400386658244100403052699663481686251804470175109585736204710640340484553860370164736166920716288.000000 0.000000
0.000000 0.000000 0.000000
-2131187999006771247261089237973770370230666347242776430209331003476936653212351328253666452445221521347457852765776520924821979136.000000 -207394367798199856172705050483280952271731693241710197045315557400384698606347350392280516993604528321797435825629358081156579328.000000 0.000000
-207394367798199856172705050483280952271731693241710197045315557400384698606347350392280516993604528321797435825629358081156579328.000000 38253806018218114020927913905459097374631182074093823267029275599255572126194048262342890750855329247940612563808589910839918592.000000 0.000000
0.000000 0.000000 0.000000
142613769009678503213286532961916027754475968396137362286258095587589711720807752225976145856516756644969057465210637854953177088.000000 -49621567821131809871459994830326399644256487789233288749496796850759114676780654093340669424355252263991936334107060804599676928.000000 0.000000
-49621567821131809871459994830326399644256487789233288749496796850759114676780654093340669424355252263991936334107060804599676928.000000 10664864843042775620398002473234161614906970395984313485409220908758165651870838850747100031100952923845790715636915971431596032.000000 0.000000
0.000000 0.000000 0.000000
-323441467800870247867029776610929528387463160033014142143137683947641154178761072230558930351079495207770595334965317065011888128.000000 -1126857293268910271972871367785652997197347819187917854782041067682376718358754342692628658095862429319142254424568609424204103680.000000 0.000000
-1126857293268910271972871367785652997197347819187917854782041067682376718358754342692628658095862429319142254424568609424204103680.000000 644835270155975024058666280759260785656428425255884995399102499574641071340509338976263516062574399910002187819913967890245615616.000000 0.000000
0.000000 0.000000 0.000000
993108475044080873759395327184238806480114172230434188374876445573066987749613325068422495327744199108544330942049212067395665920.000000 848374526589580601374329521505761234714218878161504146077070155953054773498365464964362918213647378463844395151659421837530497024.000000 0.000000
848374526589580601374329521505761234714218878161504146077070155953054773498365464964362918213647378463844395151659421837530497024.000000 334943614640475264100049501373173747679968214272834523420063376898390927132810730764582321334103916492155421339707346826364452864.000000 0.000000
0.000000 0.000000 0.000000
-163054778781408382566651208825762712552025058796746565211527597060781447706434195491765923677421178818680925946134264897752530944.000000 142823400702091564016319111730611236570600123780531651463327853402845756224183280256126536444909159809268827888525477084148006912.000000 0.000000
142823400702091564016319111730611236570600123780531651463327853402845756224183280256126536444909159809268827888525477084148006912.000000 80412627321740650930486220611237272042343982504055796006002667482762663696971451999750450114655782799102612348978802518954868736.000000 0.000000
0.000000 0.000000 0.000000
-10055908026589986736519808044985586509571481030768671864847301915508012273621418924199963479334642813004533605211330949945491456.000000 27064986322716323580241683196949504344042006630258368775727494805245322693435282498594930261040399195868370150586748520957476864.000000 0.000000
27064986322716323580241683196949504344042006630258368775727494805245322693435282498594930261040399195868370150586748520957476864.000000 15519814701984901374106944907598273835706648941919713068720506547197914949348276355729305597955927039568076630469586313648537600.000000 0.000000
0.000000 0.000000 0.000000
-53437383817516910833939989122203517786892203911834005960552830017544404821224153149595050615757781095674611408219789658475724800.000000 37251995224003617465034261048321094758749416257670408066831727796745091224760254239899131819633247592699687470284652622827749376.000000 0.000000
37251995224003617465034261048321094758749416257670408066831727796745091224760254239899131819633247592699687470284652622827749376.000000 20578786289872827038420915003772391984016419094535662744054658029407612507510083229628011873353302141631279693939142982595772416.000000 0.000000
0.000000 0.000000 0.000000
-488465451862807311262787398983214163109399898715270489700980612223859244799962915274527214896848542998364333158351926471004436561920.000000 -8745587516803895324353662586604461934148282764364542236362386214820991286880594645784038877499639658142356237158948084638019485696.000000 0.000000
-8745587516803895324353662586604461934148282764364542236362386214820991286880594645784038877499639658142356237158948084638019485696.000000 312551643663146403084692968400036603215619636237096189710302348286197973838772701303780499622435483736812272922115108491522736128.000000 0.000000
0.000000 0.000000 0.000000
-2123666004507133716943361184944378888932334829245522410399643556880554450376477600625693400739833159662715812241185686455377199104.000000 1077489109641227434118115401465225934265534478452814810106007208783230690599459571524283670287022416493425523988130043814763036672.000000 0.000000
1077489109641227434118115401465225934265534478452814810106007208783230690599459571524283670287022416493425523988130043814763036672.000000 553258310606316589757299921419611996383179203482599531933085793462035370395256673974460106782227413320223970405620659204814536704.000000 0.000000
0.000000 0.000000 0.000000
-9093870420939449602554400855651915320720013408712528560443008283679341280313966398633759532974908599265216118283160197957637111808.000000 567234101335300039644475590613784803620345860498318364031797199539521007031471586257468357469503509422487827787203320398525497344.000000 0.000000
567234101335300039644475590613784803620345860498318364031797199539521007031471586257468357469503509422487827787203320398525497344.000000 69174424504966290541838662238605715667336335197470707829724769578204936860678526214141795643620562988188766765065698407669039104.000000 0.000000
0.000000 0.000000 0.000000
152179081277617614855742002343559785678458311755532160635665649038777854158866853765561177079352010382976094028369980729747046400.000000 86176101720582199613215524445159829095393857368363019276067790616729000107661071658244950524823056229968784626351168133596708864.000000 0.000000
86176101720582199613215524445159829095393857368363019276067790616729000107661071658244950524823056229968784626351168133596708864.000000 26941990802680035690319735784332444727707520833458667352831695719092052022516005642039629654778329962210793685817273299444432896.000000 0.000000
0.000000 0.000000 0.000000
407748670661799775714122031964308110462050766301350117632720336765234833832563691012352641433247729354724646948265732023026450432.000000 16654171498264526354194934397268345040838220024011112741531293623897541902378105463826456291220404714456801445282428243033456640.000000 0.000000
16654171498264526354194934397268345040838220024011112741531293623897541902378105463826456291220404714456801445282428243033456640.000000 501425025841029986102094921995947173902203630325720711610222978320356424375851441745447614581264731082735036818789224874508288.000000 0.000000
0.000000 0.000000 0.000000
145865851106449003610891204462543051490269536192946198421289316743014973990089354431803221264145802592977587117098302853200478208.000000 -56227683027191782002446993142828041201412449036563894602773031964156804381292372703554086717072080802427213168208478921853763584.000000 0.000000
-56227683027191782002446993142828041201412449036563894602773031964156804381292372703554086717072080802427213168208478921853763584.000000 13366548963810064202773684553914033252460650083826972798611989997404899085022969004134176886037332069600269440228556944468606976.000000 0.000000
0.000000 0.000000 0.000000
-75083775519498045668733038935216232793854088847367385699777167246337098981539527915366018446209797612310313586187330559749914624.000000 259602975453180074234627957176432407125854045082189366135280244219566188994160881209159423195389426323370290055149278790735101952.000000 0.000000
259602975453180074234627957176432407125854045082189366135280244219566188994160881209159423195389426323370290055149278790735101952.000000 148587532782648593960943207683708700758107588440750444677713041324573931287383317582574913739499773550839295542709972773034262528.000000 0.000000
0.000000 0.000000 0.000000
393176538079657695710654739497362408456345577941468553297838604634485535876560371523101655512013493725110550858021399851603853312.000000 -484900981756596040810378314609769390476844412099384341335166054445742754186000434559895101892403606777506672946425049931627626496.000000 0.000000
-484900981756596040810378314609769390476844412099384341335166054445742754186000434559895101892403606777506672946425049931627626496.000000 219548383598018699072226927870144048234260308406610102695902524947573195291931014164067663523332258292273304307136724786646876160.000000 0.000000
0.000000 0.000000 0.000000
1706842850458951064694736855415386989122006970234773648108788047035991590354676673605426591113056061115199783164567033604997120.000000 711222755921940039369376430919516858603166020201198214795046652933116338321886677193430341269304441805517229795995341641744384.000000 0.000000
711222755921940039369376430919516858603166020201198214795046652933116338321886677193430341269304441805517229795995341641744384.000000 178638644712654304048540663675547034654821756193429598213214422189307505547894376234256441324684320415066231694685102554480640.000000 0.000000
0.000000 0.000000 0.000000
-121544874847054035795842341606264789892372565856132167349921635452706131048425570479320936894647746056799193963831635701814788096.000000 -547212763626082893170847137006153744329806580823189333928626408782923305456967573460038807102439465265297621997931334829720207360.000000 0.000000
-547212763626082893170847137006153744329806580823189333928626408782923305456967573460038807102439465265297621997931334829720207360.000000 311563860659334029603640123659827051049394995369115187714799807902382859324977347529740839530310712689471064456125119099878506496.000000 0.000000
0.000000 0.000000 0.000000
-228019350766600444718574223952375389477723531551639136666146542378993242757065844742391886186027099206170761004862937313973370880.000000 -902057858134742415535718332272475606886491142514353352974198187508642224442540699752900603782665405234399136607079035011443195904.000000 0.000000
-902057858134742415535718332272475606886491142514353352974198187508642224442540699752900603782665405234399136607079035011443195904.000000 515040952675390078008001048750374225383309042973049831117873460954012993818666180136965484083165823834229681639951246338979528704.000000 0.000000
0.000000 0.000000 0.000000
-227920336633590388634171441461835275374409801560949449715843841365017348917518926324912572907134709426529494407793253084628516864.000000 12904889965884538323033599224944402271094636914904033213323082361601709862757432722272794100208443700801464684086535470805155840.000000 0.000000
12904889965884538323033599224944402271094636914904033213323082361601709862757432722272794100208443700801464684086535470805155840.000000 5792032780230297644868931674173680530230013328612232090212494978100040000804188453162087317598817996876109199949446695780089856.000000 0.000000
0.000000 0.000000 0.000000
-16989748785766006895355087721411985085551228067895408461592630310675466019407456121335223098695283294695716478016358602230808444928.000000 -9588726183908194712447256450722660592482414001431039083326438960913634301395242632300334074004638214690944722586776913045557870592.000000 0.000000
-9588726183908194712447256450722660592482414001431039083326438960913634301395242632300334074004638214690944722586776913045557870592.000000 5098916914543867667005736163673197581950422142020957673404626382524234130287023218870005651911025411762900695953504930731183308800.000000 0.000000
0.000000 0.000000 0.000000
95414159378402327287204619956304686258895224532856866700972421882481409458436174316229910940519525069776411059303622191144239104.000000 -10256004642901055773874913533816246260192730531961724574331216419544068957702233432556536810330122222786429178818259781198807040.000000 0.000000
-10256004642901055773874913533816246260192730531961724574331216419544068957702233432556536810330122222786429178818259781198807040.000000 1834142545380989825831116003300896216256148986690498440553986031187593150587442136121044054879861334035471130497993235052363776.000000 0.000000
0.000000 0.000000 0.000000
-212503106057403967131477139768605616010177956497602969728532677760773982443262384198044110159477266914975642110247593666674688.000000 -329234921053599119519615635034953963997308248602739078114253872866685214524816438201730957435894607738725078388374538555490304.000000 0.000000
-329234921053599119519615635034953963997308248602739078114253872866685214524816438201730957435894607738725078388374538555490304.000000 202010822890650210163517850914219301933996158789979392957130829572587112481097227259191010854641973166322055896264612390109184.000000 0.000000
0.000000 0.000000 0.000000
19523625893913988384096651078591044621376246657236799339633383372383434175164502532610880297285015311799720074353562791817773056.000000 87631472709880323965346805515168568411090725327886525796672283910656535258443725657823921929849374645532247663784377941883879424.000000 0.000000
87631472709880323965346805515168568411090725327886525796672283910656535258443725657823921929849374645532247663784377941883879424.000000 46722412357292493201005314387680081088095743078657917642605744368526204086402935013319145573620252228408465859636570699646107648.000000 0.000000
0.000000 0.000000 0.000000
-33115870385894579460361216278579992502145558000069742937578837938926905562879422795893890350804326856806427054161659726659584.000000 18536576752590882481127022239537023477805263921942387228005528233394528659509796749121360527818470874359359987204645210554368.000000 0.000000
18536576752590882481127022239537023477805263921942387228005528233394528659509796749121360527818470874359359987204645210554368.000000 9536098332304292924815058227524959046844811731503991674670151432886994028770854169294304644334509640579866378785921683161088.000000 0.000000
0.000000 0.000000 0.000000
-8003346750219152898890639852500427670992224968511600085778864518952426601198477625548225264324762588150193199621837736040726528.000000 6651569706319142427224394492091066720727750550538010687663858785216926179184541661895586052398091642160381470837279595614437376.000000 0.000000
6651569706319142427224394492091066720727750550538010687663858785216926179184541661895586052398091642160381470837279595614437376.000000 3832691995803285434707318105455126332250398115224211212805548114021803449535164355615179999753316724592535326810182217380134912.000000 0.000000
0.000000 0.000000 0.000000
-386472567703534899483065395765071067812743597555609306310316159947458574826344350093826395558143863027278606145576015114653359144960.000000 10287242927407903008745149913901033213961129722208154645670755503699493856511411555159124810246591645983521108818427128744310210560.000000 0.000000
10287242927407903008745149913901033213961129722208154645670755503699493856511411555159124810246591645983521108818427128744310210560.000000 545268303565091154166876970305507432366744639021945509380963239081953867420825962811718253133340731316759300756627184390462504960.000000 0.000000
0.000000 0.000000 0.000000
-739727052434542237783463083871987095573041690957010456521388155493512877297534656032547698276970389989266999651602902567069155328.000000 16350233802378289125388491686730298868182065779488905135060894623465472066572311841928915566356227708268275102524614553817317376.000000 0.000000
16350233802378289125388491686730298868182065779488905135060894623465472066572311841928915566356227708268275102524614553817317376.000000 4554392634652043054796528938579652772041672475586247666267627346419323584166658533110434383568512401408388939927873892414128128.000000 0.000000
0.000000 0.000000 0.000000
-236454884305995765612166429524569319511500315914971765502845894672580843096875220783589475151287327935905597186793183466143875072.000000 282290782009484096107080865414543748463626312186625541494049216507080484055646242179876438256690916666474216275009083609651871744.000000 0.000000
282290782009484096107080865414543748463626312186625541494049216507080484055646242179876438256690916666474216275009083609651871744.000000 161990082519731584854303177106559550361574874382138419580237540955628920753906189596881983351080114008973555116386411996373843968.000000 0.000000
0.000000 0.000000 0.000000
990882081551995398418172652595741265688648352409200799869257292129566511371398148984117300122586594183231660489054778428137406464.000000 -1175922535957029460638006905890630410459714885584799773556358242310575073375724478446386114315573294789043500578939750598293061632.000000 0.000000
-1175922535957029460638006905890630410459714885584799773556358242310575073375724478446386114315573294789043500578939750598293061632.000000 525741554803925103587101246743714101214769129509881919151059591898994203881444780205982439745077695851019316300619712349087989760.000000 0.000000
0.000000 0.000000 0.000000
508686408146643571284868069896815247256406480016752259906126930457930373725825666036113496947409146855461502158239782611898597376.000000 1073595895530213497645142171959883711874120384974711444130357901922004897510794526615915106964247136315939421855053832835829858304.000000 0.000000
1073595895530213497645142171959883711874120384974711444130357901922004897510794526615915106964247136315939421855053832835829858304.000000 540627029401839808209074425753481629464089433476138269292018543834830454033358332838757478160019007709405721627096434802054660096.000000 0.000000
0.000000 0.000000 0.000000
767602541541842003648781965391864573843066173865254457762894269200716252484759268322532391647274627639173092554112100845903413248.000000 479782496172254951332738152519389972621545492034184563634945695734939934685598288638470151598525310151010343200503013681844453376.000000 0.000000
479782496172254951332738152519389972621545492034184563634945695734939934685598288638470151598525310151010343200503013681844453376.000000 160620810858054902715796934283288646950067509083312383792637116335015941995518675213660279050920627729861401132457687632526180352.000000 0.000000
0.000000 0.000000 0.000000
-499693009294672778952332075985571630651828102544508280244481303115537591725888046588854639394219274130380903418783366460051816448.000000 991761256584093060102685266381657139187722667846199050972952578662422068903422584006703603543473482649053486588897279716355997696.000000 0.000000
991761256584093060102685266381657139187722667846199050972952578662422068903422584006703603543473482649053486588897279716355997696.000000 572166046678600375848420404062048101177694288003921835778125424363921695390394259157205100800574001652900538789834865329775312896.000000 0.000000
0.000000 0.000000 0.000000
1293919873481240273624845242638631926146487749094367497682189706512239363564076738166103970330288728527793212165249184353585463296.000000 1182434595017888037404329158073563509917104835380313028683785962958280443556196976991422994469945603971133249191796530243182788608.000000 0.000000
1182434595017888037404329158073563509917104835380313028683785962958280443556196976991422994469945603971133249191796530243182788608.000000 485675075351438070363180361708225863290498508179065343056500233538656966496618090848337086974438155461010895263914694593254260736.000000 0.000000
0.000000 0.000000 0.000000
-1661800390871581638568856946195282197687710419900520660044556129582123536868485625180482937688858089271764139735632490388242038784.000000 -664298174315217503743388200315022213469065694667783369157577860657000282161238252079234820882295097469830617575482880390768623616.000000 0.000000
-664298174315217503743388200315022213469065694667783369157577860657000282161238252079234820882295097469830617575482880390768623616.000000 318653588288142574236569074035300672451261718071863599010344385449433424419119362663659360386371185913363800712188095574986194944.000000 0.000000
0.000000 0.000000 0.000000
251842679062164439179296427590133376745195671320122710621381937001263124311998023549725447987855942516665243253369588777289252864.000000 -239971898050604714231570947737813801063098186609759002096359979764627793777808605012879847842064288746702717134509438381655588864.000000 0.000000
-239971898050604714231570947737813801063098186609759002096359979764627793777808605012879847842064288746702717134509438381655588864.000000 99858131012118671336124854547758405938976025800838017562995403608978882797532366983958856442049918059024954392614421030452068352.000000 0.000000
0.000000 0.000000 0.000000
-538075686447006296562289926438589968773978000234526112740742537018464253760102652793234725404449408531226988830491233357209272320.000000 174533116007389029544345082236791197988498162487757408005261331925158847663142652603551821976903993911953607574052262268538716160.000000 0.000000
174533116007389029544345082236791197988498162487757408005261331925158847663142652603551821976903993911953607574052262268538716160.000000 76462515127571191393758406613105121146735421155676907541245070130363652988285989542296101547766143502353307963341883621532237824.000000 0.000000
0.000000 0.000000 0.000000
73968957953638028314912748526731497188763109823543067763709600527464491514681973607109173422003342922507674308790647805939023872.000000 40589734455075370659962171894884999004208375588902449279929963022513407143900991946428296793738260057115637020250080621153484800.000000 0.000000
40589734455075370659962171894884999004208375588902449279929963022513407143900991946428296793738260057115637020250080621153484800.000000 13873156078131292161397814533521579843724752888019566650128997694531542827997972657800147142542862544910255275321671453767630848.000000 0.000000
0.000000 0.000000 0.000000
884221369081700718323855968187045907956171730711776246127369396824996801572371086031297802769398069980620252991344557646334132224.000000 999260424464143298073706439565482401468940681665563235561425941891894942549716163286646444539073519529719050510293639692921339904.000000 0.000000
999260424464143298073706439565482401468940681665563235561425941891894942549716163286646444539073519529719050510293639692921339904.000000 439921586618964539929780640017512946230770059223414509823567942513565756566582115785221138936110123140975403120846141938942869504.000000 0.000000
0.000000 0.000000 0.000000
250515725360820406725470668697596304943287718692081191513266334833157544497977851935518826185214287157184979279929657776385556480.000000 493978634523775385262545340474717883866894054119114262206112893105161784113265051155603203283257937585239956642013783362384166912.000000 0.000000
493978634523775385262545340474717883866894054119114262206112893105161784113265051155603203283257937585239956642013783362384166912.000000 246727620778879220079482338694748518228831827631660519768559691520112677327963076379350858418898638353104446447795915645574447104.000000 0.000000
0.000000 0.000000 0.000000
-6774242490236538464331616894358579908877899014726675890501451162765280082707672387783168991649808477358929628135408033445118476288.000000 -1845022814127513157149548771115102878315648145759443988671301360685246712393924898259321411609695866445024531710985361464900976640.000000 0.000000
-1845022814127513157149548771115102878315648145759443988671301360685246712393924898259321411609695866445024531710985361464900976640.000000 737663401855688547608184318595763510705834093308143265360733544043474002815663133269316841152765125327568511458275673207476322304.000000 0.000000
0.000000 0.000000 0.000000
1434308047725749025429570857942370680710056596224524800709864748218773430838648080263761398623803004912326173997083942288764174336.000000 6531250660337159066583690097933721364592126818594590621026208225814623324908287867801842415868160353277430516482248186009747456.000000 0.000000
6531250660337159066583690097933721364592126818594590621026208225814623324908287867801842415868160353277430516482248186009747456.000000 247412796849508408606953098095277467434949026233165829026482747852990704951800761482233236844752319480087802134895954747195392.000000 0.000000
0.000000 0.000000 0.000000
-548222016094875356771398226844525218313333001602125386414862552469435982496129055177778994301155981382730610084024776996583112704.000000 -3031868224473507836884183616401373432084023136191518933675688397899221695325879881151386200709392877401068041214761790575380267008.000000 0.000000
-3031868224473507836884183616401373432084023136191518933675688397899221695325879881151386200709392877401068041214761790575380267008.000000 1721110050736926489330642670297725306661750224698112789834672177942002093664675748644489594789879243853677169236722895244918521856.000000 0.000000
0.000000 0.000000 0.000000
-2226755197108308247003126672188592150881104875619759423295184450599881657061409802348508306457634678882165085923904329445959270400.000000 -2602519002315873166467331189981041625526375786689511601287955959614535758505641935257059545175201652961987603477551492467083182080.000000 0.000000
-2602519002315873166467331189981041625526375786689511601287955959614535758505641935257059545175201652961987603477551492467083182080.000000 1492268513186801809732057519329653268287996279367300980182449717043301676706075096419235991069079232162232611082827048374297952256.000000 0.000000
0.000000 0.000000 0.000000
61270598329916236737989395351829984732080733328044313682175343499196005688481111292090907010058596721537225526273587304787345408.000000 -46453526650796593871922272821587250287006727818829556000662944927728989620542654927467643554120416607889151023677315721765847040.000000 0.000000
-46453526650796593871922272821587250287006727818829556000662944927728989620542654927467643554120416607889151023677315721765847040.000000 22504860736395462608102681251362274365946735246410343175842695026608392392439625249328590222033209880489242815886873034066231296.000000 0.000000
0.000000 0.000000 0.000000
397720676215409027381932995903860125248620283977429636099291409079707368940403400748047521527380931171870756482802352094193909760.000000 -1383980521914158680877766976141532720189584096415066107438332235491806685653071876738783450624258602299507312376324721292309692416.000000 0.000000
-1383980521914158680877766976141532720189584096415066107438332235491806685653071876738783450624258602299507312376324721292309692416.000000 730525470104953529478571644863338275136385921575476561537566370745432459334782830142605543508324865546063255475986052765091627008.000000 0.000000
0.000000 0.000000 0.000000
-11794403360586669638580166075828572059013560891507459794174418352019707272785322600024120153961046248882839034242679833503645827072.000000 1742166721280998897006558417640460185616606157574977521767510003161780538031596579538110442211287845782662135991920820150549348352.000000 0.000000
1742166721280998897006558417640460185616606157574977521767510003161780538031596579538110442211287845782662135991920820150549348352.000000 459156994316004128499386721347643707302109153060851899829166563866856186491729617202921907877745585832911114224917950819779739648.000000 0.000000
0.000000 0.000000 0.000000
451930536836175052880594600341687986001952372884902840096834691347332780086918684649740299020605250069919343339395859782943375360.000000 -724518363826119236518389264036192619334858464258705572370577073879427873263591481927162843731152893857853712824480431033118883840.000000 0.000000
-724518363826119236518389264036192619334858464258705572370577073879427873263591481927162843731152893857853712824480431033118883840.000000 349406543654285050017741352365055370331847847117050509081403739739951557466913503466062274907483612758625345982924315611969355776.000000 0.000000
0.000000 0.000000 0.000000
226503622717978581839469222596855963955728743939312894692886707359866825587139727626036206752720665600907049692342281502304763904.000000 192083409467556352680409918553208786250587442225829131516811175134957262319398618374567618688459244696862933379257125144753078272.000000 0.000000
192083409467556352680409918553208786250587442225829131516811175134957262319398618374567618688459244696862933379257125144753078272.000000 81571042688171792169434288643211329911614472931704420534878907453832833776634206746888456806922803623142272545999941063598407680.000000 0.000000
0.000000 0.000000 0.000000
-4150457629161149004347152762061592875236322404294986397494308832337459252694967446775962399770674570180571522650635484741123440640.000000 -318516620621248101447246004793910635525816022283076732745760274715613162649123907935158852010746870829451553099355404355911024640.000000 0.000000
-318516620621248101447246004793910635525816022283076732745760274715613162649123907935158852010746870829451553099355404355911024640.000000 47241011697568605509765810064242679499844423331417728006833709767263042125915074455135232230140449098089269197658509837091209216.000000 0.000000
0.000000 0.000000 0.000000
33256016932186642925373796578889776135030990776696528590504322148555806790559074563890065487755484248135675572983445240460345344.000000 44060939258786604907275908123321115548561149356957426675645852431254745580947035898444288872606685075082944964011003817670737920.000000 0.000000
44060939258786604907275908123321115548561149356957426675645852431254745580947035898444288872606685075082944964011003817670737920.000000 26544972220693704242736345069549661161131623824195999888159802217625642508025498964453437585045851477685121087138910731631591424.000000 0.000000
0.000000 0.000000 0.000000
966560174574723106045271861608596905393723833927188421319819189600894343378494174002359718883523877143979935553995877553423777792.000000 -829298684916310340958375799478409315092221303610156974776465892348234500923494040993923219295674858172524932839981480325790302208.000000 0.000000
-829298684916310340958375799478409315092221303610156974776465892348234500923494040993923219295674858172524932839981480325790302208.000000 327986265772394313454432387495131950680793660278155167174090560634683860056686854915760447792409441155020947425367613832641380352.000000 0.000000
0.000000 0.000000 0.000000
88939867699651621075304201581222234285887972132248909331986067224402340277831646860688964862039286997623600533402496687719579648.000000 231705584715334023149779188368465514622284574779411675741132677490818386750184640856381599761396538407664746200238715010503671808.000000 0.000000
231705584715334023149779188368465514622284574779411675741132677490818386750184640856381599761396538407664746200238715010503671808.000000 119513339602455309339738924408731057721304313099653062708675417421544976101725442399682506163288330547170140227069167139848978432.000000 0.000000
0.000000 0.000000 0.000000
151335068914813800254327122989571447701643770079953925519994879177787554987123590101072190539268262187069571258155998891770642432.000000 -149905671658808049832940786527292975553434010358219311487149372244320052800577648233650111703612343245788659617536086359419125760.000000 0.000000
-149905671658808049832940786527292975553434010358219311487149372244320052800577648233650111703612343245788659617536086359419125760.000000 62953021597135179939477820131302345622474479509128181161739715608070944996345382251055970880452421138606286613983686350044397568.000000 0.000000
0.000000 0.000000 0.000000
-21062231040642716661720999699728818167657740629564050261359928227894900562281074548211005831147342400985679124173437578214637568.000000 -500419276909511377917627086332030476887122539999588335505019371871733567096977370265806414983914775600767136034933499685509267456.000000 0.000000
-500419276909511377917627086332030476887122539999588335505019371871733567096977370265806414983914775600767136034933499685509267456.000000 279886244978289567148783931054770475757429698785748339503084563321923787222152645033864212499393470359908837532363417022963384320.000000 0.000000
0.000000 0.000000 0.000000
-144398616414347072649282519290627435307519058838989757132620911760982990275525200771270312855393715585347879149149722379691229184.000000 47924407829418313155092422372848184997858606367121922275901756087298184739422312060341928079720165296930610853916251817393520640.000000 0.000000
47924407829418313155092422372848184997858606367121922275901756087298184739422312060341928079720165296930610853916251817393520640.000000 21159266598055594348784908620335183892806948111980557357463457817808367775170334276551895165491101588029435508657742206004625408.000000 0.000000
0.000000 0.000000 0.000000
645579822885210958946968499183152710707274033037816135021271535009013295796156842418843001608954615136367985190888869163113119744.000000 -184326798210815713033091136586803035051837512849867124498393474568444499792199366463505483900842786707259161010763820898120105984.000000 0.000000
-184326798210815713033091136586803035051837512849867124498393474568444499792199366463505483900842786707259161010763820898120105984.000000 34171102276460497259252396226752531504144133952481390713175878113804047533182254246812262386102707930825737603317917281970814976.000000 0.000000
0.000000 0.000000 0.000000
534844658337086330122480918727909563999934558887342562645408152578395152046718467038905749473676391105317312760426982165685731328.000000 -198678261421955341696913048253333146485249176871074425719777927184128239264436569165485130540778106789484595514703095112356855808.000000 0.000000
-198678261421955341696913048253333146485249176871074425719777927184128239264436569165485130540778106789484595514703095112356855808.000000 45095771703343487400228350027851066930064565601372780565378880930366044515278016799358135953222430649542493085289968245206417408.000000 0.000000
0.000000 0.000000 0.000000
4788741449185923801020636400451183122745978465677554935163155149842169362044031513312579466136184339295241486118056879684459692032.000000 234217099755563158928654266960771356731707642356673254909323822119898495970161948648640568694589366791026672377436569241101795328.000000 0.000000
234217099755563158928654266960771356731707642356673254909323822119898495970161948648640568694589366791026672377436569241101795328.000000 7766119314389721002319352778287671382520828305764502586423148847789602785851400124943758326967025044047356418378642531874242560.000000 0.000000
0.000000 0.000000 0.000000
623955452753916104635747826858335501152743404437664736939611818095371869932102289215015728220857752864685757132368940600907530240.000000 -41678288022909557199580049992856966688834294596008673430426595114606239074759884569633220105117758663811799950958505281355513856.000000 0.000000
-41678288022909557199580049992856966688834294596008673430426595114606239074759884569633220105117758663811799950958505281355513856.000000 2460678123709683316746558573163000599504117991914176914360771852409067280058668727933154990065836233309217782956729973256224768.000000 0.000000
0.000000 0.000000 0.000000
3956547073844620523623855945149214153812896890304764960152546789151987235726561582925022821573220676872911412046808340841642328064.000000 2172443000608569585001412999301896534421692264597486138619536310420599528909828281131059681935711868649095852258564745294742814720.000000 0.000000
2172443000608569585001412999301896534421692264597486138619536310420599528909828281131059681935711868649095852258564745294742814720.000000 664946286134297993178462881414582380910509345592378339815936779483886900193993894193664835518390424328730898592494702964452098048.000000 0.000000
0.000000 0.000000 0.000000
17185070563160851160870781444573266137815357404656074769721981669905412097463170078350410032290785613954878324229816599802019840.000000 -108094748816433421367978341649414520575964334962167970626808353074650227745502395055136987048335824447033037175761647134440423424.000000 0.000000
-108094748816433421367978341649414520575964334962167970626808353074650227745502395055136987048335824447033037175761647134440423424.000000 58586909859406657801483729302747914281019506869810304466989603258289176495191662451480880959598046755350486677823475230089150464.000000 0.000000
0.000000 0.000000 0.000000
-2712102437463522695250423228910451112247034153050955218008002327426155187465804174689414491260414858533508009914415605768219787264.000000 -3113646469802943359476520727912621218645859634085392835462937398923306346772669902385145537797467873097687676863913349696110723072.000000 0.000000
-3113646469802943359476520727912621218645859634085392835462937398923306346772669902385145537797467873097687676863913349696110723072.000000 1785329799183418317872106447428973477652752933539570272386456481735555207691098875829158257512776636500205631115662929155699245056.000000 0.000000
0.000000 0.000000 0.000000
1609061512581486189060181678997538919120991945316202812270805460505127618041098301974667887695495895986316455523873381832850407424.000000 -570194042680198735529579932749988451492912561293029845537591458875433521942404430472663516794612711696152422407136280505435029504.000000 0.000000
-570194042680198735529579932749988451492912561293029845537591458875433521942404430472663516794612711696152422407136280505435029504.000000 148119061616717648735602481932158707346486743989092192524895548690206772055220327118201633957312065075258597404270412503283924992.000000 0.000000
0.000000 0.000000 0.000000
-635988387281149911077889494078127793411621848645624553152688073972489428961313486193560252169940298421852760586427058399593103360.000000 856204020584476911788429188691275723856395709390993837363188702260267987098628267009015531740802468055407972351278944117426487296.000000 0.000000
856204020584476911788429188691275723856395709390993837363188702260267987098628267009015531740802468055407972351278944117426487296.000000 493731778650143933194430983055260622851028206776926726167119172172237085702790301365858887804720104646399430432874981871027486720.000000 0.000000
0.000000 0.000000 0.000000
47119724595958620822168081385415108263887700484891780470947323779286851977589822915173094896474716217246426803316576391994015744.000000 -196438153416471850676697358527530189949315815336703293221593215590707273413354794124249210381248640819847766991771963029249327104.000000 0.000000
-196438153416471850676697358527530189949315815336703293221593215590707273413354794124249210381248640819847766991771963029249327104.000000 104765560174295271958882411827511764403378132641400417846848223357187217967053869375206369667471222271321631298617138273482440704.000000 0.000000
0.000000 0.000000 0.000000
2682458115194584802667513729425217654349601841928818774688037772406896150325602584898815988597343419873745873580515810433040384.000000 2786975395048187092379610353534281435861212971176228020431957897783176807446043681997331279813322792282359742928624731853684736.000000 0.000000
2786975395048187092379610353534281435861212971176228020431957897783176807446043681997331279813322792282359742928624731853684736.000000 1192298309809238968873768063027005222652880815256066986578184984752860213308386500580180220732002739110229758561146706348474368.000000 0.000000
0.000000 0.000000 0.000000
171035293724640307407435925655580968851833489825192056376692288046940158462877464509217592448695247131657264237467703048369340416.000000 283863103948678073691487860990696609812374807392066259732092642100995515051977824094657259776004141636031656444141413804332285952.000000 0.000000
283863103948678073691487860990696609812374807392066259732092642100995515051977824094657259776004141636031656444141413804332285952.000000 137628921283097878558455036641581463469231916407275682274248166764018658355722377483982152537977995639944468778018204411177730048.000000 0.000000
0.000000 0.000000 0.000000
-78471483701080523273076748252472887458082874439639841523723630979000159710685743336294462998437231603541641874060534598537368829952.000000 3116876207336917590918303792837202656956779986456568752308416532522530813709805917378645276372194075222741362436508045982667112448.000000 0.000000
3116876207336917590918303792837202656956779986456568752308416532522530813709805917378645276372194075222741362436508045982667112448.000000 245388220265186528557627705889188263783297659941382249786859972763392552769260735434931161736565115057961813342760909551263809536.000000 0.000000
0.000000 0.000000 0.000000
26640016046495736618033879040091418510498564227912596042376575197899619512886054357546361625717695495484595980123483745923629056.000000 -15304446840270170359433604060300595881964246357355728985454710964618952591284948123534795154788182071204815004889152579950346240.000000 0.000000
-15304446840270170359433604060300595881964246357355728985454710964618952591284948123534795154788182071204815004889152579950346240.000000 4307272717361324062301294951333999974768064244940577247325942994888811371346880669491663068997318092204315566312173778606489600.000000 0.000000
0.000000 0.000000 0.000000
-86069834056784281199302797778421925711309852026144497107466974966764386976050100619994903853901649641845333973653357359792128.000000 -356885275511913613558008578993561482050182929665269271644020186532840312936920163317488885879444865884623804780856616626946048.000000 0.000000
-356885275511913613558008578993561482050182929665269271644020186532840312936920163317488885879444865884623804780856616626946048.000000 514651944341978109439027490217824813116422301716734162809565676065443994608472861371550111139821496988908539676900266900193280.000000 0.000000
0.000000 0.000000 0.000000
5490739080738857162084861692241789554822110751297463719420021309310504445977018415752185267352609839460976939172304314150420480.000000 3302860121469762052111748892100348909928080620398034866512256990776784616113468104623271815467937195075514116256111691697225728.000000 0.000000
3302860121469762052111748892100348909928080620398034866512256990776784616113468104623271815467937195075514116256111691697225728.000000 1212139240714679740276026057033086431423148706431269790250691286431877145810452814784570916649723289550787630735678970007650304.000000 0.000000
0.000000 0.000000 0.000000
-2123321065433083782264263463415787799499022673424264615085126049313835165295800302797669970868199747175445998208192022438270205952.000000 -899040471455622384745029107382776920988089781703315394642461545410212513141725198039946108046080990517762075633121844140338839552.000000 0.000000
-899040471455622384745029107382776920988089781703315394642461545410212513141725198039946108046080990517762075633121844140338839552.000000 446421435888006783622983361556142567156509781719917889928255707458947774596586649482120912904345674165381269519914037468295331840.000000 0.000000
0.000000 0.000000 0.000000
300613518846809419312584216951165660355597797694969262443919547960798645351494743526634004636499257773281939077756679540982153216.000000 76173043867088693211992136840923915702557558146357222384297066951801806172827929137017232199218195542861347316835599683688595456.000000 0.000000
76173043867088693211992136840923915702557558146357222384297066951801806172827929137017232199218195542861347316835599683688595456.000000 12358601065357530216686162852471434145257463256323875998816022040367159012367551098949967009936188892116530213471236744324055040.000000 0.000000
0.000000 0.000000 0.000000
1044421815049293074947739123552204850416321084614283023399586718574482113581540468184765599162203274060870751737350023157194424320.000000 394123091706606288468285562184303293364081816024858219060994858563129927292099963725553153803633499805344387972333226679485857792.000000 0.000000
394123091706606288468285562184303293364081816024858219060994858563129927292099963725553153803633499805344387972333226679485857792.000000 90600579449760473883007885235868895450012362024822525337599330873965886667469776470063883077166902771452593338677463315577307136.000000 0.000000
0.000000 0.000000 0.000000
1393376988367898191176622061993290686378796910176842414302807086762557732535815262322852384225683078410435342184949680175977594880.000000 -1536746284604491636600633860205373839390528090464322786402024900512945344178976315522350769452462646180779887669408246569977774080.000000 0.000000
-1536746284604491636600633860205373839390528090464322786402024900512945344178976315522350769452462646180779887669408246569977774080.000000 671439798455692506190082979413608523657065426913576096929623012355154429411336971006387890250019647634174670446412782391837851648.000000 0.000000
0.000000 0.000000 0.000000
-536633527168756320563536190136726331055747521002576834580088188576703242768537804327818732262980004012532445526774732298102243328.000000 -772147213432850654489493815392988853280589077061819730148006784424759773543954770174346410059719828378534532393709960121202769920.000000 0.000000
-772147213432850654489493815392988853280589077061819730148006784424759773543954770174346410059719828378534532393709960121202769920.000000 445391894502720250902530854711080150000729489404154950057121386651705929219827780310413172656097369289525732694091781365110407168.000000 0.000000
0.000000 0.000000 0.000000
-522254183876909972383714547989704687978292943368848376249349248084240652171322957471450865406053153443127901956799899621683888128.000000 134143729413281498839562166507242032537364949009377300752143143525647476499247333594995706479823929296655380305680645713941233664.000000 0.000000
134143729413281498839562166507242032537364949009377300752143143525647476499247333594995706479823929296655380305680645713941233664.000000 51896996748709546165031068053322381019095446952615460607262866586342250436957463249461231507586615597408369192889071111690518528.000000 0.000000
0.000000 0.000000 0.000000
-1107561627862399281931266509403733849124721386514213869790053565846313115003478290002217124220675134148845461084670438678842048512.000000 -394884034705057227208645337385811174784717374386626764022200094625533022338126517139206375538978550257911211011038182546920701952.000000 0.000000
-394884034705057227208645337385811174784717374386626764022200094625533022338126517139206375538978550257911211011038182546920701952.000000 179906286181031419556855295622920074195319538519471344649732711056738790535971308032292941524989194445602015954603355733491712000.000000 0.000000
0.000000 0.000000 0.000000
611105326589780836065242173503471026963416465360827554025521514493655706527894286735652418056470512796775943297595807294891753472.000000 658323328597802570589379973002967500155478046771835191449226274489186426528101303412632609109371739742249546802595427851842879488.000000 0.000000
658323328597802570589379973002967500155478046771835191449226274489186426528101303412632609109371739742249546802595427851842879488.000000 285215317222656154219449145834170972719933887014156414034151452757674277440958632269186281343289086161427239004913077206065872896.000000 0.000000
0.000000 0.000000 0.000000
884592749079618375909291714532797729944185659989010911774150445354377703710677186081072834628880444398452125256066405635916300288.000000 -1152194357766952841139971236267136728122203974184805318652018331029199233849655099051708944818859693251631492804314745381977063424.000000 0.000000
-1152194357766952841139971236267136728122203974184805318652018331029199233849655099051708944818859693251631492804314745381977063424.000000 529466497297192273753050092833640318827715419852338284196978773319534278932805848542347118955865566679410232068299483272448049152.000000 0.000000
0.000000 0.000000 0.000000
1128625972281927262004593721527575771154159009724850589312029166247198516548729159043548622067464873265202206265043776081085071360.000000 -130335895634530639664383717596683426500495193789062615218439698596091385662618330640120618166761499723646296072827588466213650432.000000 0.000000
-130335895634530639664383717596683426500495193789062615218439698596091385662618330640120618166761499723646296072827588466213650432.000000 10013678817791253162379978124306989987773740707681648172310204826347907946426323221472126253364877390261483008336749057923874816.000000 0.000000
0.000000 0.000000 0.000000
-48983120336642893650639872562714390190868563851307640900821441722753562303903121921697418355434442114108669148887034401786953728.000000 -82964836368033727226600784203797082426153415932267432298609216486448815540948940615378356365595259302664023550979432860555935744.000000 0.000000
-82964836368033727226600784203797082426153415932267432298609216486448815540948940615378356365595259302664023550979432860555935744.000000 31237422137280122971156749611654140752807193178773012839940695347981014459338444579316167014201517137801758113774224856938708992.000000 0.000000
0.000000 0.000000 0.000000
7725549684906006593140419896032938606680593836837335484537020807899244819289475192444710129682780912009864163686295405072482304.000000 1708812680013271695504404657870772379759396173306899294628872396812370415467640965368635049432594550723931274964802957433896960.000000 0.000000
1708812680013271695504404657870772379759396173306899294628872396812370415467640965368635049432594550723931274964802957433896960.000000 245485586618154424805829120407532775657526571389463306687853849895895792541764778018788046977810444326802193257309040262774784.000000 0.000000
0.000000 0.000000 0.000000
-127326399906058643394158979712047575175841541378128786910396615622132261075082934388071795689273912700078457535441004919791812608.000000 -39959859010010753352141565987543365850880720665767960477243934824777615315151375198809278829184948522574462641466460786011406336.000000 0.000000
-39959859010010753352141565987543365850880720665767960477243934824777615315151375198809278829184948522574462641466460786011406336.000000 17188617774237091252340515862457219215803813751267281070145157762994659636577476576285368580419582012435893992432400328640430080.000000 0.000000
0.000000 0.000000 0.000000
421801465071830592221026960935362873563674587426738564064399189644293658949410158457528663985756537726767396310229815210442489856.000000 688621783247713771109871756029954099143204079258173124331375123396176667310919720424307185332026579600054579275862261801364226048.000000 0.000000
688621783247713771109871756029954099143204079258173124331375123396176667310919720424307185332026579600054579275862261801364226048.000000 333301490646739477435779440808295929990956946481363603371711876147160693269873253887057927665965394418907563989638291947568234496.000000 0.000000
0.000000 0.000000 0.000000
393395803556764571051336712102309340235624981042139289816010541172286317293367417442203500014733242068435731880530640276803289088.000000 -240405673894442944912157434288979127849001926537720705898107996750057346807594521861476658217664980546655594582123136850426068992.000000 0.000000
-240405673894442944912157434288979127849001926537720705898107996750057346807594521861476658217664980546655594582123136850426068992.000000 79046270870339464842440041667094508241669358726352185867779481140029328216882391738285113043415581482217577217493929866767106048.000000 0.000000
0.000000 0.000000 0.000000
-401596350421056791064243147789048760712824783813737220041032608090017854866323960921442561748569379068929216579368241764035985408.000000 519907907775583004790552271692925154769955310002680222078517539166917131057259889661656072026148600388088783448024731290039222272.000000 0.000000
519907907775583004790552271692925154769955310002680222078517539166917131057259889661656072026148600388088783448024731290039222272.000000 299199555627149098762958405785914935522836199037418563744611091206976380572415819518232930257201424296186678562296306940562636800.000000 0.000000
0.000000 0.000000 0.000000
-22740952538656120736303043420306342225072155219119127341667868013765515297557516905614773685213481933618700969783673108278804480.000000 5073404413341425094708367106770697495924761703353655768735801892283439758038713904530498762855411862344814179113646311253999616.000000 0.000000
5073404413341425094708367106770697495924761703353655768735801892283439758038713904530498762855411862344814179113646311253999616.000000 1824494161921651365107438032430743825967546944265941135934706320385636478424191213892943537036868607026686928631302473297952768.000000 0.000000
0.000000 0.000000 0.000000
-1362922794841412983463042723015735326650533376582739671599861884260939531126611780925434815334167060079518090814518765825755709440.000000 801121905254950487211842352222709321170550322087579644317527420687388137204028521923160631049662751242532699673918656715790745600.000000 0.000000
801121905254950487211842352222709321170550322087579644317527420687388137204028521923160631049662751242532699673918656715790745600.000000 427348574157692574467325137592639548490313100932463032790978240075017664659489670979307108537262845967610497658545331152846061568.000000 0.000000
0.000000 0.000000 0.000000
-2810502545359146706500238986563322991853552725446124490455751879623795062867471435049602826088407190971153744175981032476193587200.000000 918839070015190055549676567598879767059511940864282698914567978916066991978237698448415097370373519423808645316681363997998448640.000000 0.000000
918839070015190055549676567598879767059511940864282698914567978916066991978237698448415097370373519423808645316681363997998448640.000000 402811323797384074745789421842777329045626142678495284911585735064494382446522783546639240861246933117983837033783568559463464960.000000 0.000000
0.000000 0.000000 0.000000
-96812589674900181232755105143630003714160593411367506072103198975715893061516619149007909944159744723112431535847172548329472.000000 6477453550346847350815018447753875308051630450156967616903637369937359289206231537283937835729697060817015744117283470966784.000000 0.000000
6477453550346847350815018447753875308051630450156967616903637369937359289206231537283937835729697060817015744117283470966784.000000 1570545850410255436008858384516897262320002285614359251518646776296497623266222452040732788826736762963006103819937608892416.000000 0.000000
0.000000 0.000000 0.000000
-1640781778712264269568168730501000676446311789881667112221189782712635008823065155654578331651205123836679256273037717240859852800.000000 521881511551684352582598984267787064125917030296639321091188188914600742455857177812543451575371638376502052315390985887513837568.000000 0.000000
521881511551684352582598984267787064125917030296639321091188188914600742455857177812543451575371638376502052315390985887513837568.000000 224342422384364773245771636384658900204450457288436973913658651696217037101874025654615103917994250140285655405364845729193918464.000000 0.000000
0.000000 0.000000 0.000000
407757339237950935219859355435025396674663148045518938273257042959141966033412510850101643723335024578047036901352475940871995392.000000 58198193873685673827882929014350276610580933498140488479487126391201417890550784038670328680398316345103140443187607487865946112.000000 0.000000
58198193873685673827882929014350276610580933498140488479487126391201417890550784038670328680398316345103140443187607487865946112.000000 6206302502937802458611607910498476210517382737864497651139789417340068738704502061879721292231538819463730249651530271421366272.000000 0.000000
0.000000 0.000000 0.000000
-20301476998321443113288331028006457591652962054004550167442571221897604498286010482672225606757217641907595669715321041698422784.000000 856459862469568837048215893389208913621725362788625896076376447281713511931376025652795567205933290307283130854609994048100892672.000000 0.000000
856459862469568837048215893389208913621725362788625896076376447281713511931376025652795567205933290307283130854609994048100892672.000000 477791910126483904941026750461154209637828256964076115141186619354628676991764364407475878859712707151356142076646456870848954368.000000 0.000000
0.000000 0.000000 0.000000
62637551612737537134909436555948559332475745319643366267985779956896694354970517957323146031906368487042927759675233110822223872.000000 -89175483085664704497195308043386132097609406262780330816807669264295326390132054360911139814752417507987275364559127923847593984.000000 0.000000
-89175483085664704497195308043386132097609406262780330816807669264295326390132054360911139814752417507987275364559127923847593984.000000 41895811323104181071022248256474381667305476366733445647854383209644588395312190323771985749382378840503486691007493787841724416.000000 0.000000
0.000000 0.000000 0.000000
290578351191800648408067279809687974909497133632261495535943338419865359239516369775594776658462129095106699387773563527753629696.000000 -62761060641810163510948170246992315021220522187850718207069829522762490805080683355952630350221620016485591393955949019708522496.000000 0.000000
-62761060641810163510948170246992315021220522187850718207069829522762490805080683355952630350221620016485591393955949019708522496.000000 8777631705552351997405037922009133146615567851974661565224747770967285040467445259885624365349688127217252475333097316925046784.000000 0.000000
0.000000 0.000000 0.000000
-159149091337328295818912627612080334859782638513180070063356092666675688050797203311050780912813042425303957963468203871977865216.000000 4051348755888931002936092684489491755379496092467970431860914536358838718393540237622827435677765608068580654002259311577792512.000000 0.000000
4051348755888931002936092684489491755379496092467970431860914536358838718393540237622827435677765608068580654002259311577792512.000000 205642446548987015813789595159582115340241957448996888713474255749908873036253814701214126117852347782411243884023070110777344.000000 0.000000
0.000000 0.000000 0.000000
-25283204873322685316508067779721082893469366619362754066699337459445031787621495594374520984029303159334998990991256035971301376.000000 210599385374615275778782837898830877581734235080099129896884847530960925709904465415142815849670106061335265238978975412709752832.000000 0.000000
210599385374615275778782837898830877581734235080099129896884847530960925709904465415142815849670106061335265238978975412709752832.000000 119234484292725345421508319446682539350133886725850960529194817298308330129815208532315146881892886198654552481661159415253827584.000000 0.000000
0.000000 0.000000 0.000000
31228983011877065074994780677745003012751853381151532191144128148953532821705978892772337584871634232972375532063534407462420480.000000 -1953535071594902445767774835708112409548924217164528077013107762179255177123186038442410387582194124103398184046524403975979008.000000 0.000000
-1953535071594902445767774835708112409548924217164528077013107762179255177123186038442410387582194124103398184046524403975979008.000000 1525301560408858420375035645347194855864621890383322182989545972900678772499031257745687913794647228489995582124233536458194944.000000 0.000000
0.000000 0.000000 0.000000
210792088704276598251268674170613766436082100673125510808147128289994988759711907178636264342644682716661597923586032358484082688.000000 873536715967026015016854790965253894638273117290138693313778555456882936376482851470587520178799161097788767625364597362527305728.000000 0.000000
873536715967026015016854790965253894638273117290138693313778555456882936376482851470587520178799161097788767625364597362527305728.000000 465793734853914879265593992629265463407339997629765875828108049425836505522485718903318087029111870602350520774183206195923255296.000000 0.000000
0.000000 0.000000 0.000000
206984785535583519497792379589055135881913313651770199620011754091546709299768916670962540925294006901749515844144763071836979200.000000 -130390037668802559857845027708386669125079278109116003824210431581620013763548859419109475654072493128241838947570180613413535744.000000 0.000000
-130390037668802559857845027708386669125079278109116003824210431581620013763548859419109475654072493128241838947570180613413535744.000000 43699120516918725938089381720396807565554936338983608948265078008341910798836596362158734716302569409235659188570392613290508288.000000 0.000000
0.000000 0.000000 0.000000
-1359314456292923703657352819162565035202055728113759424431095575867304185489069216251434151675200849251086217258987137475465445376.000000 332167178608005785147060794821233607336241971468731962879634308759462178666803967942788781326116545389348357262862857716816150528.000000 0.000000
332167178608005785147060794821233607336241971468731962879634308759462178666803967942788781326116545389348357262862857716816150528.000000 124757711050401066093805329902088396821629072290078140535361972333213362961766652061777378348868061145158372244761608180725710848.000000 0.000000
0.000000 0.000000 0.000000
-26291817803766119963488274402147203287976560884651706087758030907159187583466554856078480112053226652406085235757688339226951680.000000 -67989851238656006752244872315296368749611348406757408516977727745097828410354868361871565963983494554868025067217459240769683456.000000 0.000000
-67989851238656006752244872315296368749611348406757408516977727745097828410354868361871565963983494554868025067217459240769683456.000000 39103327032113596048808673127203055543923129414745624787357463812105088125429828475642633109631560482225341857697563272707833856.000000 0.000000
0.000000 0.000000 0.000000
784707447004229984834271053451059307014809927492148446254621493266826843923375411667429716966504923201531119942892292820451721216.000000 212408288077717123160397051946073732318170150312283007095748716307014012677883920078003323818479290415118140472588309737374744576.000000 0.000000
212408288077717123160397051946073732318170150312283007095748716307014012677883920078003323818479290415118140472588309737374744576.000000 36849280969231954802075568097301924308164593107445910129359333488888402438748576962060014939575454165245395877886910046285070336.000000 0.000000
0.000000 0.000000 0.000000
372974943496812196167188221530258583840727439800900293417259941178801633604127874529740385408855350401070199739535644169716367360.000000 -185443636453608401243203085465551540214676807107313341286639393853026028059878539011163318446372120487025175375158804983601692672.000000 0.000000
-185443636453608401243203085465551540214676807107313341286639393853026028059878539011163318446372120487025175375158804983601692672.000000 52922630631169981288696725745022685179959006267592185720664191428895000602596824596083371953108234670491845762012984744563703808.000000 0.000000
0.000000 0.000000 0.000000
2187116900348863859348826443060912847759126809989278071751157987842304563290111287700480385734488975715650966714899990092709888.000000 453796109727182348204895641745232596127755641733522319270996514348406130426902674439984955235165203925211847061114973958701056.000000 0.000000
453796109727182348204895641745232596127755641733522319270996514348406130426902674439984955235165203925211847061114973958701056.000000 61490185722854410651030430994166439659743006217395834889218465121998577488149797773263725793388338530458339409850537359704064.000000 0.000000
0.000000 0.000000 0.000000
-260686448378795995749672866139076521981994513727133841307753737581650988308476096969379004118318255165469450052223610932867104768.000000 -1239755629695614154873156054813375195413373318262534102155103898826560299764619812469830411796272932343712141706770668990599528448.000000 0.000000
-1239755629695614154873156054813375195413373318262534102155103898826560299764619812469830411796272932343712141706770668990599528448.000000 705547105169645578010527456387864099964485306512879325809371174191544538157034515331139709684206069800312589996820287794031099904.000000 0.000000
0.000000 0.000000 0.000000
-2886317216182901692750424627499993082173324799706006199001942929298054788690870736399624200095846959271986692947664430841787842560.000000 1444478241665845281931079653241427287161476745609892517131247007386054735261116989828338575603489670936379838261933535144148205568.000000 0.000000
1444478241665845281931079653241427287161476745609892517131247007386054735261116989828338575603489670936379838261933535144148205568.000000 738867787777999835397992037632000784414116301487514092674446227379870661362496464368322971418390359480186180895096774149541986304.000000 0.000000
0.000000 0.000000 0.000000
-96432333565641725662408686013261756415619129192964828334661549161416093833883616843399243067111549409345064267311674415973924864.000000 130702259869133385214876906797638666185067238949822551385375665604303546030967956040223858034267392324233427899373470511934734336.000000 0.000000
130702259869133385214876906797638666185067238949822551385375665604303546030967956040223858034267392324233427899373470511934734336.000000 75199159939566540070951270688452795100887461463028549044587684776577164100609751246171573025686730230341892844104822121553723392.000000 0.000000
0.000000 0.000000 0.000000
-27452313743345664481371686969040381160012734827269773660453311058050546003760888001712421637818273475786403664893125441169129472.000000 -131235333308847766820622957979377380379727227486863270006668841289201462598972171107671004585963995989146652417813191045282791424.000000 0.000000
-131235333308847766820622957979377380379727227486863270006668841289201462598972171107671004585963995989146652417813191045282791424.000000 85083270503997305905330141176289447269777463729916962667735708110893165706661698515586956877427864302655557046641745646418132992.000000 0.000000
0.000000 0.000000 0.000000
55106065269059765781315296522156978906399839545885866466624884370377738511167224094550753219279057162913141184042692523889524736.000000 -42311560009721844573668719137015150315993009155176467962613265695322016734809422149166267939387200444978675857312652828023455744.000000 0.000000
-42311560009721844573668719137015150315993009155176467962613265695322016734809422149166267939387200444978675857312652828023455744.000000 15854144894116179589320563152140999668080964648772824096869404851757254467494571862415753017992158503613866466439647473925357568.000000 0.000000
0.000000 0.000000 0.000000
1003582056095989085456946389665362226866420377684175039535604564843289437804872369393256102061412095652307476169841363408094494720.000000 -2044328565806729072742026504053641874878160374794143570850679861558175581658241732135618572113295538336987793810786175711868616704.000000 0.000000
-2044328565806729072742026504053641874878160374794143570850679861558175581658241732135618572113295538336987793810786175711868616704.000000 1024425806225915347370871774476448061509451907030675108756611569738152585568993307223472252900722842024473967847561001062698582016.000000 0.000000
0.000000 0.000000 0.000000
125475578618805922308352769290422214812111993028866253547231613262693412693831972308292147893475017429545105329287371197067034624.000000 -45877189991602513422042545218219223893759950150238076330051261222953561148811872879045898599657934399001229694562912970947428352.000000 0.000000
-45877189991602513422042545218219223893759950150238076330051261222953561148811872879045898599657934399001229694562912970947428352.000000 10482180533989221007406410052286365048514830745975132583627471565107840545339147536258249300493276373273515779336063586073051136.000000 0.000000
0.000000 0.000000 0.000000
-500201285051842473682629541482861729364532086806748520915920604469119506617242507512442957001199851549344503903590376779234148352.000000 1098538991181078417360697807881677478492744008284272698615354383737025505043612507039060839823939098079883596816208006673715953664.000000 0.000000
1098538991181078417360697807881677478492744008284272698615354383737025505043612507039060839823939098079883596816208006673715953664.000000 633181989076845190628886707213386171211290220421140170634536516059926699603341819219095225806760927341965552881989147487700516864.000000 0.000000
0.000000 0.000000 0.000000
113268407569636375221247292396076393955028343543100530580714596063923582511158249219607086370764412437740439091114210663560380416.000000 719984771965740860163726521021648121495512579392368447723402241727076338707399802217261013902454878897410075806190553501913841664.000000 0.000000
719984771965740860163726521021648121495512579392368447723402241727076338707399802217261013902454878897410075806190553501913841664.000000 389548540874255883689115261518441207627466492594720899252973267331956623997538294447545437410640404679798069156882612192089735168.000000 0.000000
0.000000 0.000000 0.000000
-757352713490743577910123686975207690686473686424122187470035328826318239642892469767085024699389730057684857340156008232053112832.000000 -827210283137926187832580998019130477071167134988014479706052804785535623055273380031002746110726635471944665085330854872141004800.000000 0.000000
-827210283137926187832580998019130477071167134988014479706052804785535623055273380031002746110726635471944665085330854872141004800.000000 473303307311714255160659321288179068869694661744189162321270388181298778663254442100324108132057271928027742848030387295299305472.000000 0.000000
0.000000 0.000000 0.000000
11826643887756343445971756577985529237897631673618771068134800144170786399790755021118072185700627797347351788536551066856062976.000000 -649738601432843237583229734871365258656084199565565574467085274922026291083184716066111963841117654199204118687771570082938880.000000 0.000000
-649738601432843237583229734871365258656084199565565574467085274922026291083184716066111963841117654199204118687771570082938880.000000 8968249195518015311465165930063220651639561091538831321970992036620034508124248088421092862826448817064502353174822791086604288.000000 0.000000
0.000000 0.000000 0.000000
6846493920523345317810214162033450661150224320625203982470960817102251907429268355287284562499244799629170946084682057383936.000000 8530112467985660579286297785535479928677322056346984504314913135382676950334327581889693148885888899328610545673591416946688.000000 0.000000
8530112467985660579286297785535479928677322056346984504314913135382676950334327581889693148885888899328610545673591416946688.000000 4263578156573418097017830708408279246377755342393784391769127776288836846498499670657583551333983416339436296407243938594816.000000 0.000000
0.000000 0.000000 0.000000
-71399247878339318242314647843510389041633890757286566740818171292633010129153681012908416669358040182857713278541136313895092224.000000 -7224365002697676261863244060236266245863130722636376981812190124116850231133760610012776934864880521263091879964003818532765696.000000 0.000000
-7224365002697676261863244060236266245863130722636376981812190124116850231133760610012776934864880521263091879964003818532765696.000000 1399471508722601089565537513917610423004651729495095701101286603606975872893349323839239358104267321533792546953307695647555584.000000 0.000000
0.000000 0.000000 0.000000
-3720190741141484661644197332343907166589870205240582889098570087032079974409477050667291091904957174094084988302984588996640768.000000 -2989966028281138852724102886024638243761528259114851662157082690852231694085398731791759539633377676190314927229784381439606784.000000 0.000000
-2989966028281138852724102886024638243761528259114851662157082690852231694085398731791759539633377676190314927229784381439606784.000000 1672513525980527794434049046522573365895458364105395179769262702229500511871370366323523790638292193540057535069604957667721216.000000 0.000000
0.000000 0.000000 0.000000
-116632254135436358188870060829828013999478163616060372088095006309062949829366557767439035993149049652996926541586798079155109888.000000 -299511924505792811712764329163477781492844289741172789070036547783622262023330214245418396912933265486143398319154615758979334144.000000 0.000000
-299511924505792811712764329163477781492844289741172789070036547783622262023330214245418396912933265486143398319154615758979334144.000000 172768187679353602736858597387697759608897579699406090558408569076231432059534802637743502194379007363091973784776030450427625472.000000 0.000000
0.000000 0.000000 0.000000
156043597693199273880762019711838775756515052700910399418744703420512336949798568129635478454960202156375994102659283897387319296.000000 83527481224814142055352093082085366985930287604803409058651664021957827789320702337182074194963441140366952975945547702960390144.000000 0.000000
83527481224814142055352093082085366985930287604803409058651664021957827789320702337182074194963441140366952975945547702960390144.000000 25133099091833816137831595222520380083729506255760713778052375277886477096026998918137658310756029887831745812330094820266606592.000000 0.000000
0.000000 0.000000 0.000000
-11036668264775050092589327944233759717104179645652873546336783670327005373194723662135573009589068495755589459831033704189263872.000000 100978415370049234306389715856673223375245467678290163087548342483885004420721252507967527357852592836965758201791675442636259328.000000 0.000000
100978415370049234306389715856673223375245467678290163087548342483885004420721252507967527357852592836965758201791675442636259328.000000 56837884075478634389050665925037950567763220060271746863422800961101787886486748555026719396870360110966543819373669082797703168.000000 0.000000
0.000000 0.000000 0.000000
62648800528689148551055810233344323883272096869381957977711716915106579649849557639189282021294834709121548794138672923955691520.000000 182844434043772796614962182813418903791595264362667093922346483586753320314652316947486823706555757172598920567484032510574198784.000000 0.000000
182844434043772796614962182813418903791595264362667093922346483586753320314652316947486823706555757172598920567484032510574198784.000000 95689731075604922747165783777709676466729557137048873710270638722776236061649077451876825783092293451219562425232110906136068096.000000 0.000000
0.000000 0.000000 0.000000
-159566380369111112763935857506124963347649949734924358523573752508798527889938200640850803439594290010321697140200442262036938752.000000 -204987906073585571599154820815646787919141436978251429485535345797081854287770689787789611134566230952934272696895026013109485568.000000 0.000000
-204987906073585571599154820815646787919141436978251429485535345797081854287770689787789611134566230952934272696895026013109485568.000000 118004098744653154991451025706765528983286648446104063190686546532956520298830307389215638203073483825377573057689376619027759104.000000 0.000000
0.000000 0.000000 0.000000
225669749300966795995256681242340927430283964408111920693617212921503566109661341853879822082058859706108596769291293664470892544.000000 42124980693792543623696666125765048037076567725990708788102836990960628280206982048859338289724429038964189512245333865892151296.000000 0.000000
42124980693792543623696666125765048037076567725990708788102836990960628280206982048859338289724429038964189512245333865892151296.000000 5396310791422115926342677302691470009176945108434512233504457426669770036721885014595213810656574202594089896097610251152392192.000000 0.000000
0.000000 0.000000 0.000000
35025275857913829620974015102844167504007432717913746154236779096079578586545325909804310876658859917459107991444671242113646592.000000 -157325355319675097126806073596838586868779067688690326394437477065043648076955456155646116016744591662994153443784888396107743232.000000 0.000000
-157325355319675097126806073596838586868779067688690326394437477065043648076955456155646116016744591662994153443784888396107743232.000000 84062833340085025928896370623853347477014856635956662801006542954394227388154771318803709827805804631445406703985323310338539520.000000 0.000000
0.000000 0.000000 0.000000
301244123356802097186047916179666305426098499860018590213131074064683434878647683927274394164976079642052001521178829992243494912.000000 -492082405952407710688134760599301995205039006138811414074149376411965866079823402338826855605633028886089873876599630117080137728.000000 0.000000
-492082405952407710688134760599301995205039006138811414074149376411965866079823402338826855605633028886089873876599630117080137728.000000 237854440197639198823112061385535014325142771781198528005273236454695132371162476872444235252934729018208808913230063573854584832.000000 0.000000
0.000000 0.000000 0.000000
-642321322613565169164940169573930868103132844446111537530265636324441308034160115509994038032710857947820933417754692505433014272.000000 79100232390487526101459185547121768330212106732512925204237705427455721063206129787710224651549454368548897579919105485229260800.000000 0.000000
79100232390487526101459185547121768330212106732512925204237705427455721063206129787710224651549454368548897579919105485229260800.000000 17932586026225185485553404216065500735816129593133167499343907741936650566189634784147951507386599678679285912140531598840823808.000000 0.000000
0.000000 0.000000 0.000000
-751406660810299595885617021602704581956902387215002914272746357056179287880402195482941220896393566181567429394769804680220377088.000000 14967905054666698819371470276673479294112395407401553385687714169504684925499732293488356822736944147971856511781798455422222336.000000 0.000000
14967905054666698819371470276673479294112395407401553385687714169504684925499732293488356822736944147971856511781798455422222336.000000 2859498987437091070513788138589933596264250555515140661853296723223435838171671106087715538360396388105176091625020446189027328.000000 0.000000
0.000000 0.000000 0.000000
179375537036781816204001051514762868869034989833075298456276456767968971395908941535896326388566014298897148319647856487668121600.000000 -45706872237914574771194682807736484911267138019394591106138511670434417171305695974720322643264556186890259014453358705994891264.000000 0.000000
-45706872237914574771194682807736484911267138019394591106138511670434417171305695974720322643264556186890259014453358705994891264.000000 8153135439717481336470785070686846065595703639397426238988586117740259232137043081653299632898173564568276253442995785868247040.000000 0.000000
0.000000 0.000000 0.000000
751814218738353119441039121099427104144975930308407702243919457293460208318433990926971870910912628602402357405314231985078534144.000000 -844727971416069984169883516766436166830932103119074658457787645295078512052330808085372724262686212015517681588663965787076165632.000000 0.000000
-844727971416069984169883516766436166830932103119074658457787645295078512052330808085372724262686212015517681588663965787076165632.000000 371177451443410528380267014756120888011990175304294881103566303182178507533527917949239611451119665399380719908751780695393697792.000000 0.000000
0.000000 0.000000 0.000000
-26874645475741153925971561429660289232952473265675763914628766535331766465269575464699846076821620767371788802538953232021979136.000000 27779785585750663094213025464371121153457858458793412950057056352302292044320817950239929973032364660768177299447355892717060096.000000 0.000000
27779785585750663094213025464371121153457858458793412950057056352302292044320817950239929973032364660768177299447355892717060096.000000 15261902772544063906719825024187981248249022369936309205916853388203089519604069398792725408522630725313608175213621208441421824.000000 0.000000
0.000000 0.000000 0.000000
263388889673014319208058857721866089900171731237174933810105179788368118286984379726394242866340696742151723128966884550193971200.000000 -228017501089218034469303828764068550958590603847714966195737486989470058071098069319250088327648952921055274908278230282514989056.000000 0.000000
-228017501089218034469303828764068550958590603847714966195737486989470058071098069319250088327648952921055274908278230282514989056.000000 90591212874361609891921626550080259499314837601862236789512701583504849311314663946842606988596181166110603413255230556278358016.000000 0.000000
0.000000 0.000000 0.000000
92202418843138092704270344271960729894410061614020478051493040662394902974358443259653666067879297966326157460806298389383741440.000000 68446149693201211828463160850481238772397658449245362509259054026729554888262188876883670310619946536919108061851960939789680640.000000 0.000000
68446149693201211828463160850481238772397658449245362509259054026729554888262188876883670310619946536919108061851960939789680640.000000 25228698330448086205109270789540330856335076287042538832703770827118122989809568716854152846044779461847368942941883647165202432.000000 0.000000
0.000000 0.000000 0.000000
283948586181331369448796919344417257589342812680639005344259379531046913183166338281581424139997029886838314929353529853239885824.000000 -598453650707821550537200798636702280833854183422965889845325821164299026961919936759962402837414916914322255905686193982738006016.000000 0.000000
-598453650707821550537200798636702280833854183422965889845325821164299026961919936759962402837414916914322255905686193982738006016.000000 303763062232798385369628156035773632148813658746325520384845935976876817647384716853898202914999577459744092506232881901455015936.000000 0.000000
0.000000 0.000000 0.000000
-1515957396513418714636219979462753026079253675258207658742816265691272721756261133225955067324607757209211679569210515954195234816.000000 -362986220446280144311068316014163934846108497794546826644136966658440831274676193555247648318352444086593093012402599253810085888.000000 0.000000
-362986220446280144311068316014163934846108497794546826644136966658440831274676193555247648318352444086593093012402599253810085888.000000 134680413289087167283830082839275039058275233753074281551199420955373153551578171299673093067924739615736433743213602573425573888.000000 0.000000
0.000000 0.000000 0.000000
171885247283675107572813660650280591536305385271185673831072658034904603876306498810906437532368698399192209533365705748844118016.000000 -38650089028451726240290338158924165612000201309562072533637461687252052933373595956763161540490509956865670140720210211793534976.000000 0.000000
-38650089028451726240290338158924165612000201309562072533637461687252052933373595956763161540490509956865670140720210211793534976.000000 5687690660869244747617964021833228905395270153605451302043214447982333214385194719247699038913769860142454885969466231084810240.000000 0.000000
0.000000 0.000000 0.000000
-73057891633284022140537155725329576257123490665158084748653489662643741604099743920830486626809636548745045573385754304629964800.000000 208220707453064312033078460995157052177711603453269951193428077841686877081313456234874426021895121553906331487948038346924621824.000000 0.000000
208220707453064312033078460995157052177711603453269951193428077841686877081313456234874426021895121553906331487948038346924621824.000000 119434769743410130050521966847407538943471679753156210766246917589355470324051645127365722713140804976416705717507051705520357376.000000 0.000000
0.000000 0.000000 0.000000
-355268856491819896248239416722577377425252604406196359449811900037753285515586246042261384556913983325105445281960217978410631168.000000 -241724702984113404782755199944303174884748292024000805506892731343802142468076154359582198759183535897084137695902386634507681792.000000 0.000000
-241724702984113404782755199944303174884748292024000805506892731343802142468076154359582198759183535897084137695902386634507681792.000000 131935492995254882448680122688646656057707527723179985616403835516379749310791440476283156212620111113810958793875985568762953728.000000 0.000000
0.000000 0.000000 0.000000
-123775425109059443129503125262958076679866115967252558929622762851368297111561357926899402495290649675586625485844226901419229184.000000 135745302915687495290427359491614145637437925794003976814558274277256631089122342991431882916473206117680438574568587564404441088.000000 0.000000
135745302915687495290427359491614145637437925794003976814558274277256631089122342991431882916473206117680438574568587564404441088.000000 79513769689959877407924218073130757428054130462594742192037932019573827407707536626065747949774016162027572757910963361486471168.000000 0.000000
0.000000 0.000000 0.000000
-97709558592437147860788199066878392626070205057425441152045758570896982138672652905639142297556288361809810082331177012749664256.000000 -137246965549080838870782926485392258721299527521739246492236877456573059030306873551667281494372255261947631189007990446610186240.000000 0.000000
-137246965549080838870782926485392258721299527521739246492236877456573059030306873551667281494372255261947631189007990446610186240.000000 79073216340241605144219398719903430100722698074800472629100308215654473911152301666996770713099583811262148218191247485985357824.000000 0.000000
0.000000 0.000000 0.000000
292776935142146480199196148624419522242818627973410311991681538108842358519574140783777713182912935939148728154889577905927487488.000000 -139831879129116824229775281956683142314376610593368321759896283749483921788012909238130137660362632247142488587116368022808297472.000000 0.000000
-139831879129116824229775281956683142314376610593368321759896283749483921788012909238130137660362632247142488587116368022808297472.000000 38847099025213306365174023245703974672176507093438713611266691263593139564302976945407244061092439402790686030958985971159269376.000000 0.000000
0.000000 0.000000 0.000000
7793614576981324415332229495067697847111782510492235820278901319642291197803621090354687842463240936695500065155786819015540736.000000 63158346241562987764065624972349672105967966956675427699336256500772869165953007080966491748483974337514633134597979340508495872.000000 0.000000
63158346241562987764065624972349672105967966956675427699336256500772869165953007080966491748483974337514633134597979340508495872.000000 34445489580279982420469814511325700529947610197174445949564398641814646067594933808352768675775767811277753334315442437896536064.000000 0.000000
0.000000 0.000000 0.000000
57234460695875266541185823535076101535653131167277906465920940700268944303185442968683316566567068722238333227765663471935422464.000000 32715546413136502241994410607040024213993334745455444518811071156308470931930402842412464888206169282848729478536742721682407424.000000 0.000000
32715546413136502241994410607040024213993334745455444518811071156308470931930402842412464888206169282848729478536742721682407424.000000 19340602811738858411494533776631632805725612896767388403553421179553565727794915430804556261493132689895199008223146457958449152.000000 0.000000
0.000000 0.000000 0.000000
137082264841953188223268314245213905548543739535530085148325555904925909024807805659116187681252251773266892223886595216455499776.000000 -32094068586015378706855378638865351598102496268041520539342154791237837726675887457688898187837770091678278518940980356937940992.000000 0.000000
-32094068586015378706855378638865351598102496268041520539342154791237837726675887457688898187837770091678278518940980356937940992.000000 5594571015622395287465829434015587146471272515392150781799575832175721047597711843512946052971660297772981768770880169524068352.000000 0.000000
0.000000 0.000000 0.000000
82961219858543938228768409937296637797271931927505978452608958184962278746540865403943802848952575618074927928989130769460887552.000000 1142080382612779906493095587468814589712811495627444050380700809591878084325631087703638869613028183642467144000239729941195784192.000000 0.000000
1142080382612779906493095587468814589712811495627444050380700809591878084325631087703638869613028183642467144000239729941195784192.000000 628268965849523357860317778772646151954221802755966986544926494002217300286430489526122928669714461027254178776957441653056995328.000000 0.000000
0.000000 0.000000 0.000000
516945037109821649204099942727459973889525596214886989609080385567047869720933467017344064517083891898415355743691665900891537408.000000 -25153467860763726059168368492715390803338800199487158747174260899013934397370970669506110850954157335364418527382721800454537216.000000 0.000000
-25153467860763726059168368492715390803338800199487158747174260899013934397370970669506110850954157335364418527382721800454537216.000000 843179552922031157445169377061569652874222683758384900577870527851901564765568255442313525329033082396360399629135371235753984.000000 0.000000
0.000000 0.000000 0.000000
240681041744066717341581165735051826276796770660786100559869974300679854550544339926109744169036198714753539987470695167319605248.000000 -143737974614888371598280653042184242175568732376494815621922436948024363539205423432192428235071397388043558902887173667508191232.000000 0.000000
-143737974614888371598280653042184242175568732376494815621922436948024363539205423432192428235071397388043558902887173667508191232.000000 46529668197644140999463552640199800902359518304331390322220548391438713752171458218819907634043000012300425581248638770456035328.000000 0.000000
0.000000 0.000000 0.000000
-209762821526823778872041280961186538369527375757230967239978077746146521353978246518338623330913157007168792439874310429076357120.000000 -6319088766709702625418792687318032720361708143760064689235213974475980544357984074706856001593368657859407536392849611695325184.000000 0.000000
-6319088766709702625418792687318032720361708143760064689235213974475980544357984074706856001593368657859407536392849611695325184.000000 2132950102992071029286267622950204356547006156363478378986511740696979599436642035185247289159117059956824170255456727608590336.000000 0.000000
0.000000 0.000000 0.000000
76450012302846606144270101103127441698738576155003215571892899534699505277014006318531545232527665133175876400043004136655945728.000000 -130678329485760049540074538597166891990375915369695805719890729828062345845510832305950703892945070122076088290672652274345443328.000000 0.000000
-130678329485760049540074538597166891990375915369695805719890729828062345845510832305950703892945070122076088290672652274345443328.000000 63695265626892984047092074793464289058183949824383012712265267686845372109696058182680229117904769694831330510249824171885330432.000000 0.000000
0.000000 0.000000 0.000000
1015334510747541886817768896899665197667123248603267319603461162641270829222349494168290493733989315506359363546599912734982144.000000 47446564134043968894044103352216425463352228344887282838515446835633906771783848970715755038593684547706419080219268567007232.000000 0.000000
47446564134043968894044103352216425463352228344887282838515446835633906771783848970715755038593684547706419080219268567007232.000000 1604254492750253762601280753617566863674877702507754925465063415994257802609121903056861355286760716004746485606535349141504.000000 0.000000
0.000000 0.000000 0.000000
-25394616695039393239203392748716061486296748190698613735209962688734965279262832075046013312642857024441092655924878108922835107840.000000 -1093288137512726910240221869156553101026804997318436531707356429787588524438809841067007464795446476475524681779687514593829060608.000000 0.000000
-1093288137512726910240221869156553101026804997318436531707356429787588524438809841067007464795446476475524681779687514593829060608.000000 93673254835643296179320372977601923630517936963938849605404490766141629322472250137502184286912037759842126654557374485276655616.000000 0.000000
0.000000 0.000000 0.000000
-553981624092226486999160517230773668071260613502753057379382123270325865453134942171326033836032688253639570067719851943540031488.000000 96241760792318451111584796647410437993614329931050038453401285427595773403308305583699751148172707693440648924764901655598596096.000000 0.000000
96241760792318451111584796647410437993614329931050038453401285427595773403308305583699751148172707693440648924764901655598596096.000000 28530329191535025844165352371940394242230999979707788951548416494289808368422898913533386772747788682405363161613741636580278272.000000 0.000000
0.000000 0.000000 0.000000
-1937913366622214144560535144053867409525659516835709053081516445473585229960574853435721633295780335543667121743524880233579675648.000000 309916284227460160200030767308448174111281205441856294853286538688325359872533235035726008899098113938815901281899299686544572416.000000 0.000000
309916284227460160200030767308448174111281205441856294853286538688325359872533235035726008899098113938815901281899299686544572416.000000 86370446839323602779519519621305174657111152121170822592424180454822829238847315927550746164349358491707689475632866317851164672.000000 0.000000
0.000000 0.000000 0.000000
111736141498349993100643433835880462672545551529984728394638259554743847015634226677743746780375965491362230745082948428379455488.000000 -111302136388902351192890410016173855328849547632364401290310830355576267619471444180862500576510150918492297463385462655219138560.000000 0.000000
-111302136388902351192890410016173855328849547632364401290310830355576267619471444180862500576510150918492297463385462655219138560.000000 46892768163644638250249689674226064910670242330790150166701767964945855093641035337429427915485380227796758344361671682217213952.000000 0.000000
0.000000 0.000000 0.000000
-55614146417738096775828749839547782133505884781245067218531868116642526306703244463373400342609182051129988582282100969941499904.000000 -71077221876516606477082172417228168721687659598234368344358400214364940483223510465727382473203170018239330673549747523944448000.000000 0.000000
-71077221876516606477082172417228168721687659598234368344358400214364940483223510465727382473203170018239330673549747523944448000.000000 40875746995913822229737631069055200501542445454623480744249576973854636369878451174707861730681329238258049932303424736871841792.000000 0.000000
0.000000 0.000000 0.000000
-55614146417689180955147923197263983569319060983344962122293997805044255537181616168644869259611369174199790878172359343151775744.000000 -71077221876516616096712591458849070157000184047358832475154120542843130900287329861655549342639354445550428057562355142750109696.000000 0.000000
-71077221876516616096712591458849070157000184047358832475154120542843130900287329861655549342639354445550428057562355142750109696.000000 40875746995914822671301211397628949774044988163567750347004491135586439744515668351237216152044509678612177869614617092660658176.000000 0.000000
0.000000 0.000000 0.000000
-19210263998443342339919885138534153097566843251148459909708455898728168361359173995707278108708262997442904046804013878207315968.000000 -4337799529131785284995098479451948606945654053631785534330982655926078981456420725203442849980415879912505215239088830729420800.000000 0.000000
-4337799529131785284995098479451948606945654053631785534330982655926078981456420725203442849980415879912505215239088830729420800.000000 1123915111708552911744180952905103854396315541273173408570753706921491577529005405344233667251735171075986025026505378396897280.000000 0.000000
0.000000 0.000000 0.000000
-417024658092486294352769693652053978887981848114427198515891092716885839788368242418563819093782878416016119609734575974748698487816192.000000 -319350397825738468636960694877826754575828669356526169652618264743717345921786524938756615291914405260374344389877299266423422451712.000000 0.000000
-319350397825738468636960694877826754575828669356526169652618264743717345921786524938756615291914405260374344389877299266423422451712.000000 489060420820625430805096104258224005640638719290213555252314871642541097726058008636152574426590504540634484056519532190793465856.000000 0.000000
0.000000 0.000000 0.000000
-417024657846997689200581679793685895771266641092740383432956705018213699703705981345810452639317743558135586289551224569410657122779136.000000 -319350397742193567456615356319968047991652061989725691802925698399286552502602831906493878191109896820550505173446548999388084043776.000000 0.000000
-319350397742193567456615356319968047991652061989725691802925698399286552502602831906493878191109896820550505173446548999388084043776.000000 489060420852626862927513483678610831109473132662548190759217213469037735592766054950313790392601151822079931118032860609444315136.000000 0.000000
0.000000 0.000000 0.000000
648252320358647005695035924957916152514637500509396632838716981449130273431972867511584835793980368900524096148299219267179511808.000000 -216870091261796090211423251032282513324621524917585449640328796853679378311308987753126001834804271226799331479785456553401778176.000000 0.000000
-216870091261796090211423251032282513324621524917585449640328796853679378311308987753126001834804271226799331479785456553401778176.000000 45079370681433782718780679224354396270431573599616461896143136026028543979523912644452168048566744687864816589255465592292376576.000000 0.000000
0.000000 0.000000 0.000000
264651753558343651395979671559067553077375603791069013053737078427347991357612844760912637142950754848786502286262576034493759488.000000 -187456628062278540402903671377553348997190594928301667268135075841038352700739031258218152726172111195077718208899502258037719040.000000 0.000000
-187456628062278540402903671377553348997190594928301667268135075841038352700739031258218152726172111195077718208899502258037719040.000000 67262483316920925345794035644474268671161026625018349696676217932563783238340323160396161849213226513793863732159490143419367424.000000 0.000000
0.000000 0.000000 0.000000
171586070226647701308783548181281981481798797699209862910823001251080523391250746692330139618669539526754393189629402353238016000.000000 -40072825901580390072460587710086137269233082214808806203399645634797820631996644912266822011255105590264754102059322477572521984.000000 0.000000
-40072825901580390072460587710086137269233082214808806203399645634797820631996644912266822011255105590264754102059322477572521984.000000 6064355686407206455795307198468891332960018709271812670490409207223081264579166106260049203032960259263075064347362656134365184.000000 0.000000
0.000000 0.000000 0.000000
387968652681032253572902649854808325002068063725424012971122048012836415066909742836439444025121853001259517150969221326441545728.000000 764610650832706486274614259665802825127171216445835849836543661174270039549355215199965053682973740743880738062648218385364549632.000000 0.000000
764610650832706486274614259665802825127171216445835849836543661174270039549355215199965053682973740743880738062648218385364549632.000000 381476095307210774894196740029897841072536216980101200744130149511503873891433408460660378923314628629311813984449798262459727872.000000 0.000000
0.000000 0.000000 0.000000
122495512797824832980328562546957967363725099925460126373081078941315508486609499959550866743951700467518809591565832770006548480.000000 373480889182876695041941156800304198260765275651163484551612166834302993311261954352756384749362493593551366315767377136271228928.000000 0.000000
373480889182876695041941156800304198260765275651163484551612166834302993311261954352756384749362493593551366315767377136271228928.000000 195331911112527212934687115719220077407181737182790303426419563381031091016118985666821342907917181734097339021565676128177225728.000000 0.000000
0.000000 0.000000 0.000000
1957176842785986684341299044818522817672955015744444258586326949138007474566525396668812678702985646281979296520544908315035959296.000000 -853211990257958653373186323669440435690821575629517869297262849497703712595868605667865494894130826166686922054096762986918051840.000000 0.000000
-853211990257958653373186323669440435690821575629517869297262849497703712595868605667865494894130826166686922054096762986918051840.000000 220395301781233983142896293474832867798629328259944431578241856147044973568399773903203681500987659142564866117956073641186689024.000000 0.000000
0.000000 0.000000 0.000000
97112040370130798884906635153667254149009292501502656400366664805613179177877294067024877603818418721546379319065361802460135424.000000 39462166740384546015787525163747162054530974006125105982785053218704803338820681415034254412908076779168145089295081901618364416.000000 0.000000
39462166740384546015787525163747162054530974006125105982785053218704803338820681415034254412908076779168145089295081901618364416.000000 9640323962767423926557584351729413044103097213065243298429380253398767533923256356173917906880406898928430150050311801134907392.000000 0.000000
0.000000 0.000000 0.000000
86256911135922008112933424561067738364343969951609524058961418295001994204634231673192000701533102687365678611451168048948445184.000000 127922197387227984357602137315554432298287398768230779640731118931674105681018994170551234117125475254378051467590428628596293632.000000 0.000000
127922197387227984357602137315554432298287398768230779640731118931674105681018994170551234117125475254378051467590428628596293632.000000 59392422726334200737219292563987585802855078837344903652216833365398365894142193812093819800402314818894629488717322901484732416.000000 0.000000
0.000000 0.000000 0.000000
1073162657995196463571331472499108415254242103926437140499207845379799599337260338450845757210599698819506138201169662360581832704.000000 2512633748024595090066256482206253798916047259672850351615503974624999518696873034016594827844078110865990637101353217079554080768.000000 0.000000
2512633748024595090066256482206253798916047259672850351615503974624999518696873034016594827844078110865990637101353217079554080768.000000 1281556009875340660102247480071137886604342455882986005138215410124825792518020978458776123569749137477502379628484021736871821312.000000 0.000000
0.000000 0.000000 0.000000
-18428645356495322434365067804383240592762043972292430119580423023369903934439217394835836522060647141577396284604783598533345280.000000 -68827355635168335486712360726373121750411590032075674766770849404973164783846282491698341802164187077255199029673667115366744064.000000 0.000000
-68827355635168335486712360726373121750411590032075674766770849404973164783846282491698341802164187077255199029673667115366744064.000000 27089169291276539294111984060738004198221639290022171972966003358539692201129063840693000040683285262437881313600307461607129088.000000 0.000000
0.000000 0.000000 0.000000
358974713165880622504460501182885665361976562003430778873247734411680556762627611963750744217548080867559508373155905539271557120.000000 -67477892022264709655412267159519643159792298667223899387773368190186537038187060426855393164671177818655160472942914301534928896.000000 0.000000
-67477892022264709655412267159519643159792298667223899387773368190186537038187060426855393164671177818655160472942914301534928896.000000 8275689272068989428204829978387574866506671366941816810817717924964422128057469925852362727067662014640676141448711065726615552.000000 0.000000
0.000000 0.000000 0.000000
-11271556986850609895853308860701599281712490218515530750714350649470524729868969407804980720729537968766470771288058272082296832.000000 -15443332573657348454868073614935574330347241573525591263496085810993039935884184819755870627442545717722252760850024690501025792.000000 0.000000
-15443332573657348454868073614935574330347241573525591263496085810993039935884184819755870627442545717722252760850024690501025792.000000 8708621098365401189087879997860272184300055987190869910205341864275800125481347168862167428527211457303195745276374964286521344.000000 0.000000
0.000000 0.000000 0.000000
162923800273070098504567547179154511339018218890449310486387364668374807289083856262353471983640314731439058328436980353775697920.000000 -180291587586007707129395455631300766953471381008048558534341537656738838818419004820419372595672042010736223142176494215455834112.000000 0.000000
-180291587586007707129395455631300766953471381008048558534341537656738838818419004820419372595672042010736223142176494215455834112.000000 78817569480174330678322203468366859006521434601479641257804338786126062189892906610862061864496858747256794043633890211414409216.000000 0.000000
0.000000 0.000000 0.000000
733292229826310344970859801891095346209252555592218471151089794774873995723153755447651391687430283909162396017179571316047478784.000000 10540244506706523709073393427378345228291664458084228108504270847472811115968917611144928518951285037391962625263689036380241920.000000 0.000000
10540244506706523709073393427378345228291664458084228108504270847472811115968917611144928518951285037391962625263689036380241920.000000 320137187526324497098046980805728850668705502233266006778552190478780281631355455746736176224450489945296133693845531315404800.000000 0.000000
0.000000 0.000000 0.000000
582971804893399922518493132327497556009000675950342205729545732110737233797314910373012099487208634760757551481860181893792661504.000000 -652072377406438545848444939842615706564191263360162602157823617214421662435016247802683699037639893207911113292954221023221252096.000000 0.000000
-652072377406438545848444939842615706564191263360162602157823617214421662435016247802683699037639893207911113292954221023221252096.000000 286116725904579476387351310054822957763328549828250539068981848163182288320599018195249220103203486651430692380300029629913104384.000000 0.000000
0.000000 0.000000 0.000000
-16471436972989202101745765172466331610895166981294762599393614238591664840738401540590939215032368557206434517818817844157733666816.000000 -2870298609397558333752763583254872193061141534405770495187165038432085992884424235685520638430260579828801527159883344050567249920.000000 0.000000
-2870298609397558333752763583254872193061141534405770495187165038432085992884424235685520638430260579828801527159883344050567249920.000000 858820807079834349623308328942847970771881646197538670131629724282717471942618422734744113089208595393792679253936996478080778240.000000 0.000000
0.000000 0.000000 0.000000
130948611160956899806696276006706491939410018545831211347371674415828977204976742872341391070577162646395385718279893386610606080.000000 38183966457415114686556255391597092480673595825520459958632661071822609377174596868197506297653088424873361881500322749151707136.000000 0.000000
38183966457415114686556255391597092480673595825520459958632661071822609377174596868197506297653088424873361881500322749151707136.000000 7025563887029918280428551638800519600145068919578480628176500077046242160688381809562565002682590786846605145625642118710034432.000000 0.000000
0.000000 0.000000 0.000000
-76630332267966202542922400161446061096935705296725235307764326784842393594325903008500951957408192460727496426029864346533756928.000000 168707223213544641218782252580432824608361518899880887827713532763312281761469575996679700938183492709572688979078068165796691968.000000 0.000000
168707223213544641218782252580432824608361518899880887827713532763312281761469575996679700938183492709572688979078068165796691968.000000 97173525393344017874026346038743492723295392243930108940804934980183387613873392705519121194779567104155827329229514699503042560.000000 0.000000
0.000000 0.000000 0.000000
-160375276636722372571657861001036521574944829911779775886845002513386751747519708816549351664230937083311706049049129610966466560.000000 150195150236633588342762002536943891235585920280219040560206115576063584656086980518038722614823992576785563985614258275463725056.000000 0.000000
150195150236633588342762002536943891235585920280219040560206115576063584656086980518038722614823992576785563985614258275463725056.000000 85172077164100408503354492732559877810056957381335056360484618655313737706138250661787479456692139792724463777255407933181657088.000000 0.000000
0.000000 0.000000 0.000000
-420590741608117610303339652404938350667912828035413908913524363151355090777788941371977322935919005689856384166217656347656192.000000 -299037991268984809770000417887179121229679930505153378017036122981020969943807422733263517485075499244470761365501774209166082048.000000 0.000000
-299037991268984809770000417887179121229679930505153378017036122981020969943807422733263517485075499244470761365501774209166082048.000000 168568670732704685833591059598302893488414132938132906269883834101839443747716367165615549491662970664717726693918650066783961088.000000 0.000000
0.000000 0.000000 0.000000
41121177450905037488617097052771791379733770019357350886668329041808026019785979595079151534173754576445963589770929888085147648.000000 38697766632789543581752407958240782965433164598131114717594313426993886456067934870121093424533087830142957399376444845289635840.000000 0.000000
38697766632789543581752407958240782965433164598131114717594313426993886456067934870121093424533087830142957399376444845289635840.000000 15949671936077001677731134302715734428196856819987891116328303484340426419120928868327875401998977089686478886530031986839388160.000000 0.000000
0.000000 0.000000 0.000000
-227844413055830215854293107135368653257321924362523920445678622021635918939876375766129327570662465606260449388478719304868560896.000000 -827402377143240515018806005380643282119875655419001577057563665218888538850328472790656190159739446517264358923690644579962322944.000000 0.000000
-827402377143240515018806005380643282119875655419001577057563665218888538850328472790656190159739446517264358923690644579962322944.000000 473698116762605370436830630694374478505621905474516104047829627564547910352189423271090861335216872322377952636416013969733451776.000000 0.000000
0.000000 0.000000 0.000000
-35103402609588439161380018071980114650896440603231136942045562354969801745972441228991819364594745990452148398687116750789541888.000000 -114026687180639817572943405728937320926249549694507215491074421801384153491467207936595055420423568525802727645743496436522156032.000000 0.000000
-114026687180639817572943405728937320926249549694507215491074421801384153491467207936595055420423568525802727645743496436522156032.000000 65331989621566480977290775792943615138423831314169004583744291108831464401535127777831899565020046984599404907983931427797336064.000000 0.000000
0.000000 0.000000 0.000000
264255130013337542847859846496354705487773651213454314683386620226300416768654316092631230081731966335175833420801548064691060736.000000 -525642288975451781877229160557093863210620520738227317187806062422327491665607559342585697776281375151774167285139088680698249216.000000 0.000000
-525642288975451781877229160557093863210620520738227317187806062422327491665607559342585697776281375151774167285139088680698249216.000000 262570674863524860481679326284013280839160265855933324073375865503726446535385532008053326058504671059266602113890588085117255680.000000 0.000000
0.000000 0.000000 0.000000
173238421342093375138545394286362022781417461946048914805951045495491627349209203670546816924233069419654779731221027290477494272.000000 -153891294084668861988449416145273453867509589141256789006061017201987697618099363733611019076431666786101349558520481760503922688.000000 0.000000
-153891294084668861988449416145273453867509589141256789006061017201987697618099363733611019076431666786101349558520481760503922688.000000 63642737522792296423383517422212023434200365381529213429788805740052892246372773608283683617133663886558611830346423778511159296.000000 0.000000
0.000000 0.000000 0.000000
-1079780051896804732482522869137550538138995454513011429577167038290381650283148856515147491104851469759511022783240991183732736000.000000 530983106674183267219478650165242144239646985330158312570146827745459523860427427178526703255846708941945183527671398441020293120.000000 0.000000
530983106674183267219478650165242144239646985330158312570146827745459523860427427178526703255846708941945183527671398441020293120.000000 273583676061399365251989005589770023075398425780671716820524611891335877323158894620467705665100041645225986692985200320641499136.000000 0.000000
0.000000 0.000000 0.000000
66223978002842633335867552759326245359683417208593036926305118459347100517108870556643808663138007770975154058892599819101011968.000000 96662053093210637618251114986418422803972921447164621494794225310437453032661034990507841874185108560974090606433341337078071296.000000 0.000000
96662053093210637618251114986418422803972921447164621494794225310437453032661034990507841874185108560974090606433341337078071296.000000 48694148080241518209748843359926663990062635313148956705958683659805866794416960334723643795789134668823058375788847382858301440.000000 0.000000
0.000000 0.000000 0.000000
143674573338226151196983494162416207028306172065166395014417048495472460660430112558212637210459236601087060943396804515944464384.000000 -179004595929268063438561739555641232810272163495457519891247883661544428109202685555978883752695033477042636475229792168002453504.000000 0.000000
-179004595929268063438561739555641232810272163495457519891247883661544428109202685555978883752695033477042636475229792168002453504.000000 84895393284050205712529184267956426913120142219962382459690208146300355314328232796699227527222001047279215236927931757681967104.000000 0.000000
0.000000 0.000000 0.000000
1107235446225220957030758392655089388107965976579712096951882595918748851068751899464859652448833391398186936626128717151748489216.000000 -520798785413697838035644032774260146829012395563172739629625722234919430190294328516113558102002296448958290273016088190756323328.000000 0.000000
-520798785413697838035644032774260146829012395563172739629625722234919430190294328516113558102002296448958290273016088190756323328.000000 142679082002004581059077831606884283416540746247316575885301223604246996950120661997484104963517917835193735850937854950100697088.000000 0.000000
0.000000 0.000000 0.000000
-525307796863781252404014201558231762231074375669488828312641777646445120508301675547891453379097083514355537388504210647023616.000000 1156256409483399692624178538883447049287048717415970358771314875212997083299889532620304334424913454079370404860367065774555136.000000 0.000000
1156256409483399692624178538883447049287048717415970358771314875212997083299889532620304334424913454079370404860367065774555136.000000 677524169058142269905888825808475128558766401587743170854854941675528837379305264266582015924235439244212843507319661733609472.000000 0.000000
0.000000 0.000000 0.000000
276107287181153673961627043322594916688078047383545772907455063549189094097123503021490645556939479252806912124535358502811467776.000000 172278496727360581547112519997816270591210299175273351093797788857206235122904002689281260066436925336431755004938681724090449920.000000 0.000000
172278496727360581547112519997816270591210299175273351093797788857206235122904002689281260066436925336431755004938681724090449920.000000 57354241594094467561045146736330810572646277657036803530730741743595113005194402896478525994983090579587132534745183253944074240.000000 0.000000
0.000000 0.000000 0.000000
121654114268405152836925902108634564888502918458216398571742029208441905652709585409024461539592376533221891346239455150865383424.000000 -61530541342324970099202421916395173070752113105386815124080072364514919384719869791297402963930920575532902128196093518924480512.000000 0.000000
-61530541342324970099202421916395173070752113105386815124080072364514919384719869791297402963930920575532902128196093518924480512.000000 17767228588278684670778633117258436139529581001961521010789109544575991651269664392330208452804417465403815958298657954333720576.000000 0.000000
0.000000 0.000000 0.000000
1199081844145215400824245835471379066562229421776456573205213284263886163507767664358397814291261016265384569145651691462655475712.000000 -189977046465199532343386991220564245030818681170248938819683268602118018244553646099829736910352328262375633101096965574859161600.000000 0.000000
-189977046465199532343386991220564245030818681170248938819683268602118018244553646099829736910352328262375633101096965574859161600.000000 19738070808506420002607412255449778085247880659574069757255549983037569161350494444439472393819906834442180597643943973459329024.000000 0.000000
0.000000 0.000000 0.000000
136571846168691948925070192579875413725736930696379553692494172776816865179417070103619769119762500473480785087542335085029097472.000000 53742225412408818194330476506751815563151647070869246804179762296355827146477631867609174853549553895437093801862955713414823936.000000 0.000000
53742225412408818194330476506751815563151647070869246804179762296355827146477631867609174853549553895437093801862955713414823936.000000 12794834953800214236871761893634630815583078958316056099361910274024377307809899252884150327664416371625264104902689718295068672.000000 0.000000
0.000000 0.000000 0.000000
-955172390665917097371652453884976958697473446182905155124341552150541954550975246179058746881277952402203276095003582131077120.000000 -57177476158735635798449985327579140938909040805256489338366634186956783914121594461348976362432837493010662055950302140432384.000000 0.000000
-57177476158735635798449985327579140938909040805256489338366634186956783914121594461348976362432837493010662055950302140432384.000000 13229483697486712365006045711870321318855351857246080617997140743243521037452815114362514267044625049664649640738562764701696.000000 0.000000
0.000000 0.000000 0.000000
72173120622155857888216786420604424917505791713965594088800881978797441944465075236162946644130305547481524982192578150531072.000000 641472310193658420899891905713177405204329359235500806678337851706343030116476750528244608158714190998103978321461970955403264.000000 0.000000
641472310193658420899891905713177405204329359235500806678337851706343030116476750528244608158714190998103978321461970955403264.000000 384853573331513724731934417014996175534379890154943823951680173250691866409724839925247530843526847810536972308826796513558528.000000 0.000000
0.000000 0.000000 0.000000
55001492560682833307207277716736517899829965594729718042674359003105767969844201300353336740754546207697763615414821680626794496.000000 -73197952758024252588789094918478337799425849591390484850377646173594873260310479181734054365398114096693732918927111730052988928.000000 0.000000
-73197952758024252588789094918478337799425849591390484850377646173594873260310479181734054365398114096693732918927111730052988928.000000 33827685007891884901924098469258622484954675347999371314971960991800376195936560713169810086270210675529611974305143617535082496.000000 0.000000
0.000000 0.000000 0.000000
-5880380750631515346452194600972453144704664774920044426735764815257835461542545856015826118954583101736576722332737279027576832.000000 177080214203268620093987744512532100683325782591976320204629235517539330140080187774503562409902044562009832985827288553653010432.000000 0.000000
177080214203268620093987744512532100683325782591976320204629235517539330140080187774503562409902044562009832985827288553653010432.000000 99730626167894344386219297786861076814384776045556061986961541966896775719322337132019456259015086314562449083425625202088738816.000000 0.000000
0.000000 0.000000 0.000000
-162445713481533326197088600282974305604013134200748394271666105679632263459870857650768110306916882981229787843146490330069598208.000000 -57899048780317939558192989258980335796673261690819737855341773313045370903237475145352301786137974735813224323691112813087948800.000000 0.000000
-57899048780317939558192989258980335796673261690819737855341773313045370903237475145352301786137974735813224323691112813087948800.000000 26509127297009617640814131129803164400987845384922455797931420768237131765418932484737740958686389483903152702073851047521026048.000000 0.000000
0.000000 0.000000 0.000000
117507682724532599243780767323102264038327065285831506211091344840672685197778494389836216445142487799965087899251176871984889856.000000 -210295490326483864450915398789003108523918343847043508952728971527088592140084648675043787063802818446862029705263761092759257088.000000 0.000000
-210295490326483864450915398789003108523918343847043508952728971527088592140084648675043787063802818446862029705263761092759257088.000000 110090621068082778409424875782168604178213172564263109669796239020491634367718986943982397184766444455246342513284967962360414208.000000 0.000000
0.000000 0.000000 0.000000
87883319575846783937110015603370667412806076129791047450482929195275769343166541487163424115059466752712013351046356412695314432.000000 15650235719509179464718474818582789888193885238808046097867959217559832837420039787426773019717540243349893083085395707073396736.000000 0.000000
15650235719509179464718474818582789888193885238808046097867959217559832837420039787426773019717540243349893083085395707073396736.000000 1779772646653676764516771693932441503520507525936822450282973385893664120329492878438313164896522621493402635484966970403586048.000000 0.000000
0.000000 0.000000 0.000000
1286884560417868660384420477150562869345156851120961576301899466362871426345314876119716038985254076150156211173174348443593736192.000000 -192724469028824641096927825462691974878816974355287136974241715562017075537722139691705300537854404476632186867209325360852238336.000000 0.000000
-192724469028824641096927825462691974878816974355287136974241715562017075537722139691705300537854404476632186867209325360852238336.000000 18962272372530506532215990576654471564933506898872220728864983877369597808795089829047327356046808639136041069953359837518626816.000000 0.000000
0.000000 0.000000 0.000000
-13702377102231337132361910415466058720166851270601151058342303235725875447387913001771850415456320580541741095452752233751480631296.000000 5261776547758274732739126285742114935800850756682747569574930305921302610943678250341035899566245893731792771925570700715287904256.000000 0.000000
5261776547758274732739126285742114935800850756682747569574930305921302610943678250341035899566245893731792771925570700715287904256.000000 2475522164171901701930731412528945108353333230877363429975259183369522161650980682453185015482609040021394298743401480637334421504.000000 0.000000
0.000000 0.000000 0.000000
341732966467112330995187307485504767688896862110865578615246927173158016633139143545197269276289354643422973071478991747215785984.000000 -305274948002684685378167846922866227280133420105374599286035659460323370897858283037577604337165431104521103312540864272779968512.000000 0.000000
-305274948002684685378167846922866227280133420105374599286035659460323370897858283037577604337165431104521103312540864272779968512.000000 122940408720494648677309207017926763655655552965323722496862447851066260019429308563303111115082217792970145499243954656021315584.000000 0.000000
0.000000 0.000000 0.000000
-4281826031798981710290445046337062737364852134903282424233877202185818342881700155737203626967918763108486692085209453878575104.000000 -64484853385786661046012020128979822098312957042795400463716150047577528478572865631164437608744277300464310640601574864901373952.000000 0.000000
-64484853385786661046012020128979822098312957042795400463716150047577528478572865631164437608744277300464310640601574864901373952.000000 36170652911959952374551011638315723038698965466372675210868068167983246856383614373705681455030951559116574839204745085060120576.000000 0.000000
0.000000 0.000000 0.000000
23223622670305532096403606720701229905596494728789856753084228825190057191474618810099685069288121191808667715595279387479506944.000000 17040814926476605972520216764872451128219254175760200731737047944872151936306547871399054065874853610835447464236867724177833984.000000 0.000000
17040814926476605972520216764872451128219254175760200731737047944872151936306547871399054065874853610835447464236867724177833984.000000 6235390943217699966585910042687478389599786186697443317392600781159556399614378601443472248021610741937248612136657509286936576.000000 0.000000
0.000000 0.000000 0.000000
4104736471269907046074463852767639818026142805512773856606737314702558460351877732379575247882809393528217219474444016005677056.000000 19178675710788860569909839644203662801042889952457873849816630207361092205889578088007756630292967060659546035922438371309256704.000000 0.000000
19178675710788860569909839644203662801042889952457873849816630207361092205889578088007756630292967060659546035922438371309256704.000000 7245454900038741935736260482833902663995195771250950088184522853232310786891134088678403061738646962831802481373090752787120128.000000 0.000000
0.000000 0.000000 0.000000
-628185648807164393295798523466875551724635037495396603214366095551054121661151451579098849210862461598927494476276929853042836732116992.000000 391701440841465802450174526962874728130838617110126489538547697925981276734008723582381736112090949054237775702203530703549851762688.000000 0.000000
391701440841465802450174526962874728130838617110126489538547697925981276734008723582381736112090949054237775702203530703549851762688.000000 488468994626477538097224995855232186590526756088332278189341960097842438216652327430139474020589015541561420711906309812554563584.000000 0.000000
0.000000 0.000000 0.000000
-148354456103604741971735261543046196002388669907448241920054698366150293764199993271074627998498730712267459135932751092741971116032.000000 -4868694906969721213219752858805865648962299539032132776501044344483273693378921943597499805177507051935779618843297431258440663040.000000 0.000000
-4868694906969721213219752858805865648962299539032132776501044344483273693378921943597499805177507051935779618843297431258440663040.000000 317440405666413144076361048501799516098979371039357669811956383687322707519070312014904135869536511962650419749414576303233826816.000000 0.000000
0.000000 0.000000 0.000000
113322031330016139152451636659806617087220595572974542164501556149976481729474207642367521130194996285432516703334642340929208320.000000 109873338359698336523870910450739485335617679919751677363181040686108719765193781628401407575117665547984225584500102112135348224.000000 0.000000
109873338359698336523870910450739485335617679919751677363181040686108719765193781628401407575117665547984225584500102112135348224.000000 45792740399455027879992931247782902882451143559722287549806662942647544986078933457941641383785240572774911177908235520746455040.000000 0.000000
0.000000 0.000000 0.000000
5546798850304135880890262933269344074719461392992410365262611866054849747090205023686685644508947909129671471886773657204640710656.000000 -335467544468308358475763671984508295430035329155888322813649586885904234230589833951647584246229661343654006479311649291697651712.000000 0.000000
-335467544468308358475763671984508295430035329155888322813649586885904234230589833951647584246229661343654006479311649291697651712.000000 13491870411376362258788737204479185891612067255835115360637097070963274938705016658254608626652173412228475799430920143904964608.000000 0.000000
0.000000 0.000000 0.000000
-2295536145361855193184666383592542804670772749370811528484051382526645802140623719887324052925273597399193564564514006771815153664.000000 -397432318656801481868233213569271613848347059079282742538288540572380487367000945297991311436496199648591333796648130249874210816.000000 0.000000
-397432318656801481868233213569271613848347059079282742538288540572380487367000945297991311436496199648591333796648130249874210816.000000 229038000604696352957690743822177467193574942660958229190204196827631031963290821517268844487178127945431390503644290796002213888.000000 0.000000
0.000000 0.000000 0.000000
145842614143632173802081988524190796891522828949265228144894680459474984701160996112801380872323049572177877177610561653003255808.000000 -187348789277878447555557108763395750117517498735421450276119226730645838412180098063947226598596074267495299706344452883491061760.000000 0.000000
-187348789277878447555557108763395750117517498735421450276119226730645838412180098063947226598596074267495299706344452883491061760.000000 85679984487885085784308736333753116680505002895134365887524722275760263654852103929448472936637456879669375419502311172405723136.000000 0.000000
0.000000 0.000000 0.000000
55276689972492306640092533223046508502647555235521488366297042829790329150929649850667074006948678411468377169160075704658821120.000000 2588303873023006008457064789758060663178468013741914363094345322365103991703730783274449018414503181646635167510311085646282752.000000 0.000000
2588303873023006008457064789758060663178468013741914363094345322365103991703730783274449018414503181646635167510311085646282752.000000 90156032865534279775619356839515790098620735672942946983765723030651148822777689963391936854003584739593223846602120932360192.000000 0.000000
0.000000 0.000000 0.000000
-1503839029689150438694413984848461305530360500586600220327308684959092377590465889019652752017409505407791159196922990924388106240.000000 3936086240637195647798958556303572054931638997298721445248210526432372222098981512789778634214475501742442522804967601159121403904.000000 0.000000
3936086240637195647798958556303572054931638997298721445248210526432372222098981512789778634214475501742442522804967601159121403904.000000 2263361313241961660934902903444648231565900331928703028657667250909827005407956038479392274590686211067139061501782355907360849920.000000 0.000000
0.000000 0.000000 0.000000
954914133200499328439446014995296260393585224184836038332692620025632943908049368310545656211353106648072602862466400513748369408.000000 -943778595807676035471595203247007280388658155915275753565654297930842243069324527236251585006328114120515234309883897059660005376.000000 0.000000
-943778595807676035471595203247007280388658155915275753565654297930842243069324527236251585006328114120515234309883897059660005376.000000 397312541768828508733725107355107383161242277458551157219875389464794840968282556552965635070627433000046513125060756250745110528.000000 0.000000
0.000000 0.000000 0.000000
473428036513157096239032299727193869008210812870247695732069363056126133508327265937617915933910087383726896733642652525235535872.000000 64289823846077494458652275588967459598573348663129917748311742609054225270907140175164326361978161416905834873835891197296508928.000000 0.000000
64289823846077494458652275588967459598573348663129917748311742609054225270907140175164326361978161416905834873835891197296508928.000000 9408476325845683820420359002084015979037510168548100047929704439499611308400164352424767659067857931047491973065802525085532160.000000 0.000000
0.000000 0.000000 0.000000
1184055332822294044141139679803428853146331642012485510873325938566346592358470791453003289194854948022207452418650326465249280.000000 76314175217733238304247015584434359689945440377629056803320993646582831404580091236600209678392553318661248114186554011811840.000000 0.000000
76314175217733238304247015584434359689945440377629056803320993646582831404580091236600209678392553318661248114186554011811840.000000 5063494278308327439831219554787174273477128865514105438373235773220351507944059888070597507399579979104469290343382919413760.000000 0.000000
0.000000 0.000000 0.000000
5988413536808185818529444450301673481043423313072961412505826724946564427341887483160629434813038066826662577783221514024255488.000000 -246502578850017624056005087932973094448635257385545573161110045276728798882747257547286546286585474930759572872739889621237760.000000 0.000000
-246502578850017624056005087932973094448635257385545573161110045276728798882747257547286546286585474930759572872739889621237760.000000 1626758419903378240354198834186864708672963296249201857493394286877369360100033120110258715830802777616812609567156000257998848.000000 0.000000
0.000000 0.000000 0.000000
-45786127254895657527145504702619744623315487538599606804707785105192034070138073003966101765874437182974025793993498301462216704.000000 -1522705727406088764827448059165316520754757241943163704248988100021318381889967068146520779557489321999697316516242621357621248.000000 0.000000
-1522705727406088764827448059165316520754757241943163704248988100021318381889967068146520779557489321999697316516242621357621248.000000 5001898796779657716050467567758464504648585711918297306180547719328665836237553377427676740515646287887358081629585126662864896.000000 0.000000
0.000000 0.000000 0.000000
257867814278706698781827052490448994544514880202063129254204975342474334076162048824869241982079175438929185741249173922080882688.000000 290487480563527978523289573954333513994288607504688178788648232769840027762035796804920639447328103665111519772742496172099239936.000000 0.000000
290487480563527978523289573954333513994288607504688178788648232769840027762035796804920639447328103665111519772742496172099239936.000000 128134889765142924091745006082345360703765799706190896494261119109099054100167944582458216599838065096371354318825126691365453824.000000 0.000000
0.000000 0.000000 0.000000
1139449986209107091829897343143105968155741892093991608388950500861366479215628836934145046301784910467412806659402749886695735296.000000 -883348440018948967457246534694983956314541695432132086118395219112048924198759066845553863652824011652318067585657594675688636416.000000 0.000000
-883348440018948967457246534694983956314541695432132086118395219112048924198759066845553863652824011652318067585657594675688636416.000000 330152520543972967428797501516461728545488652049207309840495503202652745178909199512596213387018714198931482698112032082973687808.000000 0.000000
0.000000 0.000000 0.000000
-116156860653987152505219075007653899222370629455130276737491751437916862485340118085968612727138145390084185992489277816599216128.000000 52331241497727571612795352861850704329404659547103504110587202733464928625349171207111422184906939366520547331385581188990107648.000000 0.000000
52331241497727571612795352861850704329404659547103504110587202733464928625349171207111422184906939366520547331385581188990107648.000000 25390459019124886109810611985441442705036530684436345379471056755020091524480999806955658240229037917684065958701915663029501952.000000 0.000000
0.000000 0.000000 0.000000
193318414173164082654339638154987226987913610294113817702941850545453918429879923327649186142163820490682983018629093679895150592.000000 266453653258218960379692469212710793167895863055037978055437617655896637939812468649463209764218365345106626794443798858466066432.000000 0.000000
266453653258218960379692469212710793167895863055037978055437617655896637939812468649463209764218365345106626794443798858466066432.000000 125638913035099714817894408645872587122669154262201758472578325319221565112836794774823240667564064458372659216075996601587335168.000000 0.000000
0.000000 0.000000 0.000000
16588507388380364104737881931566809874942453863906052621584596882954241296350861670106012859283997428422683551901503693602684928.000000 -9642413362323174872740637333124662931627746104752728015106012178760609193778985726535470863071367825976609934996111421689823232.000000 0.000000
-9642413362323174872740637333124662931627746104752728015106012178760609193778985726535470863071367825976609934996111421689823232.000000 3123214941996188942399441324993060543521385922569937214162945813729842267489116387971389104831015018019408682688178753990819840.000000 0.000000
0.000000 0.000000 0.000000
209126386109704965249512087180897382328188290449994227060131562067485540030729645220242450370711417487837006259545990353532223488.000000 -194417301639801366127648952177247911658571419575107731554210470771462388788665463809333583633198773989052881655290810600681111552.000000 0.000000
-194417301639801366127648952177247911658571419575107731554210470771462388788665463809333583633198773989052881655290810600681111552.000000 80319267157292021126723481819429275719233279140404459938688828066295606112059012704735559258740771865589463753077413473729642496.000000 0.000000
0.000000 0.000000 0.000000
47809945302051198521150916294581262462278221161891657814715991337737210681224114429131904479685883080771533413852896466661539840.000000 -38277905773971379230127480811112070054999716397305163351301666445208271510864613654431315091307950779531936047298126925168377856.000000 0.000000
-38277905773971379230127480811112070054999716397305163351301666445208271510864613654431315091307950779531936047298126925168377856.000000 18671022801460005457146602166913207468781841627937780326483882792752519914135676280902039075597107078120612526808727605569650688.000000 0.000000
0.000000 0.000000 0.000000
218384235900374976589822638186324361932354130233935017742024140658548128590347721358843462315734962693953521158498245136089088.000000 402490203212166485601958384935888511370983586307763594753110818004278083370134310162679295442051229262874937421714769468981248.000000 0.000000
402490203212166485601958384935888511370983586307763594753110818004278083370134310162679295442051229262874937421714769468981248.000000 198817049882158920952403192328697126807846585057129658449136931924934704359734972772181421875625464370604821582269762022408192.000000 0.000000
0.000000 0.000000 0.000000
76615381317278020782385045820026597482430517168482513862220811285016092458850227942760006762292826574816912510876123109693325312.000000 128048636823838519864101090704809360189587019543531215419167786388745539737782059035754125712526631227045745877671641075500974080.000000 0.000000
128048636823838519864101090704809360189587019543531215419167786388745539737782059035754125712526631227045745877671641075500974080.000000 62158725760985073235532529148720424978126535976704757153969215848037294802898872312512104330923761846017213853475859477303394304.000000 0.000000
0.000000 0.000000 0.000000
-16578251624524139042704101862587039356118912985014226504858295876723270844200672861307631891663807061939902712808739736790237184.000000 311548323610687176174917261252884361511129467774299963327741115153452527557507826969502478259603087537773206675988595578878558208.000000 0.000000
311548323610687176174917261252884361511129467774299963327741115153452527557507826969502478259603087537773206675988595578878558208.000000 174100520508724391816043719365917289993406173524605238832891102010722578267981431089395752790702530010683273102772525969814061056.000000 0.000000
0.000000 0.000000 0.000000
288129647506197464019621772017046855476851632192056098816497030849808512723288798826047513133474223273294035592837035402037559296.000000 3465942976264087636293031233952363952884874650747164204110278551896864572024685690146523687480363815102489423915176590711980032.000000 0.000000
3465942976264087636293031233952363952884874650747164204110278551896864572024685690146523687480363815102489423915176590711980032.000000 33714548206763181251768844659396056769268137983546015276306383470882994483792150946567841400107449538504114716308328408940544.000000 0.000000
0.000000 0.000000 0.000000
313432258246837692450442276111487976252953435310168704549053545239726288648914753786567172623134868661109723749817553612963840.000000 808737768755712051282801765340132432685794118285510120108879130524264835314374628219062213093973141013279385516966484899790848.000000 0.000000
808737768755712051282801765340132432685794118285510120108879130524264835314374628219062213093973141013279385516966484899790848.000000 416876873853937315050918319988914986984754720269115282150990021321810484979741067289723139959959345985573769422408049278058496.000000 0.000000
0.000000 0.000000 0.000000
-14176839682988395673617773451911565341057120732358768413714279996734366177402259747596060609936289440996177653878598005631511166976.000000 -919699392162387259268522769677590601047591506021291469827773282760629900774941211901391619857841700399601956945882717252919230464.000000 0.000000
-919699392162387259268522769677590601047591506021291469827773282760629900774941211901391619857841700399601956945882717252919230464.000000 116461509159837324003162982081028342217032556807003016036566286647530495435777488929667623161669301833863319470967166962361171968.000000 0.000000
0.000000 0.000000 0.000000
1425836462734859764754076782199126328773353955406173393270652363868769095701917834833379397021173241459027607144170517119893504.000000 -845477460472078165497546961039689395898564598755637849956416484056954895464921926212040890703311006785271245351757788271869952.000000 0.000000
-845477460472078165497546961039689395898564598755637849956416484056954895464921926212040890703311006785271245351757788271869952.000000 272795663906284442304843984968781549245386837480949784411501595708934449536012723627005255346729286816125367515600948471791616.000000 0.000000
0.000000 0.000000 0.000000
2501685215040115367670796425144847933842376176366888114574338740280735141977198638954491617702586971481148213672769101995442176.000000 63906338127445614211675139732210171277135272799927815519119281533467191120526802864992710728128558072006266008920711241270296576.000000 0.000000
63906338127445614211675139732210171277135272799927815519119281533467191120526802864992710728128558072006266008920711241270296576.000000 35307128874276026211115604589605289041557634078385269873760297725498740719423642874202577761020473413779292547400335945860382720.000000 0.000000
0.000000 0.000000 0.000000
256651147066240642397808305296432547832858395494794532285219000419941971078414070495521721570365009430930717089295711639932239872.000000 -473303513683017394158307854920483331442748235890734801997831848188522369464747265306934154251061578669737174292114689346945155072.000000 0.000000
-473303513683017394158307854920483331442748235890734801997831848188522369464747265306934154251061578669737174292114689346945155072.000000 234302987307723832335714531348371845174583564702496979854164930662926843214481755105513385334198493640326274504173118577801428992.000000 0.000000
0.000000 0.000000 0.000000
684634997274880027327029008238737716812399666585126553235418275234326490219083269207264809493798252598404034437399955810002403328.000000 373814596306432299541654782229640732568398692995694379836840495219664727672909188508841673858033351046725145825960510766784184320.000000 0.000000
373814596306432299541654782229640732568398692995694379836840495219664727672909188508841673858033351046725145825960510766784184320.000000 115583083799041428126201806991054867323172309380958145914941548751041481750614633953072135905323431073897306978140905814024519680.000000 0.000000
0.000000 0.000000 0.000000
672176399734038070898202635560111046836303743597277970964085653693099233439119997767977231556587127836154982538198044249212059648.000000 -360892650461655352721337580587925877923454153850499454463915615633981290810855582312291292617943248070748208450325042167254351872.000000 0.000000
-360892650461655352721337580587925877923454153850499454463915615633981290810855582312291292617943248070748208450325042167254351872.000000 108165471417569422960676977812278815362057008532856274963148364797821360924602555800651537322982823184986056476116647839094800384.000000 0.000000
0.000000 0.000000 0.000000
-86180211529664915419689002830215659925758605574986696022034550018379420101072756580043443230636964027512332309730502377606217728.000000 -203094686516811489573603236839783727183673795536026186772168330306546397115947786204350797790258685777828723698388241007704539136.000000 0.000000
-203094686516811489573603236839783727183673795536026186772168330306546397115947786204350797790258685777828723698388241007704539136.000000 116963601488099768504298377023453080750487631637246694769996151917205201388722022508001445782493298021332030925362339863987224576.000000 0.000000
0.000000 0.000000 0.000000
21741342010735930381814453035137197558085448559516858496863945900581393330391312163725860761863438009507875129594661342858444800.000000 10700073557902774352473123032424749404206174700746024962585742882774166712455035083619179214452283516859371031165946959927181312.000000 0.000000
10700073557902774352473123032424749404206174700746024962585742882774166712455035083619179214452283516859371031165946959927181312.000000 3033471223422925169182119801013122171067628242942664518406277515614973681662355967692318096004329555023771601346870311353581568.000000 0.000000
0.000000 0.000000 0.000000
95137437866156840359253556769093527152068134251469958274569345337266152144606691805102884628117554770489259426913855792480256.000000 76194648431446934164130177026991689665307696766497230329846139437104456724185073810527943000164991244440747356918977981841408.000000 0.000000
76194648431446934164130177026991689665307696766497230329846139437104456724185073810527943000164991244440747356918977981841408.000000 33761363906977774731434016373859433727931531990348503399910555875706095859956652060604509592098008451804503337303145766191104.000000 0.000000
0.000000 0.000000 0.000000
845117501878456045736472800872452550271399609652788547290572896673711151858003422736087075500027838062355537086193366384771072.000000 347084791104622491949728374720733725469636977917186753271693337234565764214710133150609124672627635320583702021893911562158080.000000 0.000000
347084791104622491949728374720733725469636977917186753271693337234565764214710133150609124672627635320583702021893911562158080.000000 85498183238941419479334718019174836669901292442939593910522073360702643435797065850807966807173122398249681738854737333190656.000000 0.000000
0.000000 0.000000 0.000000
-173632075739201610014069210809238894813044510096923865991712862730171188666261835084199695777096521542585674584827598767235530752.000000 -75040833545678333834156644558204501765830211598211340332324222742118453283905470871171127928672352001033756358170606511203549184.000000 0.000000
-75040833545678333834156644558204501765830211598211340332324222742118453283905470871171127928672352001033756358170606511203549184.000000 36652166652773475001942862937789815208249503449823341140986040529921216021068622717544849491258983102046009914331800622147305472.000000 0.000000
0.000000 0.000000 0.000000
3320457820483339623929401099135421398366341206444625799865736583046995295601334918298868270372320298647858513936468209255887929344.000000 2470286382629172813785291556081373588735997773396156557684380250640098425216761491437884039106058098580462968855514867087852961792.000000 0.000000
2470286382629172813785291556081373588735997773396156557684380250640098425216761491437884039106058098580462968855514867087852961792.000000 910380871441789104639701664470080229394882418350031071494383393025634458800465143301568893328505827485822301822351385913962004480.000000 0.000000
0.000000 0.000000 0.000000
539159698624542410035911090445646531896881296121769669371250998296992666706812584480580765810921328016539385166199007830081536.000000 -610010942556004297979747536082857807562755082864999388560529680305483863898287576230774166345581699010030418618965009606115328.000000 0.000000
-610010942556004297979747536082857807562755082864999388560529680305483863898287576230774166345581699010030418618965009606115328.000000 271973144366056478136537725014988377647380497555301644261929024655150648241967199278684017313649697906630477960510652863741952.000000 0.000000
0.000000 0.000000 0.000000
-52922933308161983903020259376359609430080349266859344855926876182816361797765124743605118156803703331014499995198228653269843968.000000 -90246421827382939443787812614307695304009125669988291158962202031806397785263580736360364597421195233477048526437403727574859776.000000 0.000000
-90246421827382939443787812614307695304009125669988291158962202031806397785263580736360364597421195233477048526437403727574859776.000000 52091237679270462267184800386261545722209319294200411938618438463389238689113863504039808818947712552644987616058232432012296192.000000 0.000000
0.000000 0.000000 0.000000
707675969207826096741182794060382109855763350011734779125320758193672884605893842331590746593204243653622839653772984324009754624.000000 367624441553306146650929682995494770329252018153588525058827444784856406247975877649517565794938758924521575019877598759330250752.000000 0.000000
367624441553306146650929682995494770329252018153588525058827444784856406247975877649517565794938758924521575019877598759330250752.000000 108247238167838460449325673420004828011641541725766988560492032524273557874320033796393495270971452304950047306199296241053990912.000000 0.000000
0.000000 0.000000 0.000000
267062507351231478628531040966424871845985892260443315816615395889401509654558045345962563513191853807667571727258486151393050624.000000 -1041073689147207983237820950983501897021871524637206077674609257368642536959284659280587364419270752236476894655058381327386542080.000000 0.000000
-1041073689147207983237820950983501897021871524637206077674609257368642536959284659280587364419270752236476894655058381327386542080.000000 553623890647475403829036166023808547273395757986689081202366211946746273547021103539136217597387810464264892442865433085126639616.000000 0.000000
0.000000 0.000000 0.000000
913107561318471763702670558215793896594569737947905065166307597786793454745314020841290879272455456709888972495594312255825510400.000000 -158983611515168203970719243150471497866144319299827794757592462033776274699683200179818316660748193602932939700396815467700813824.000000 0.000000
-158983611515168203970719243150471497866144319299827794757592462033776274699683200179818316660748193602932939700396815467700813824.000000 30772333676301705270951017523311136014634538687197783062192570491724600968922827429121372114217421714867080766505380757209350144.000000 0.000000
0.000000 0.000000 0.000000
2491263465529045274525257849936229015375086594262884423235184327263193520131501813961466181163881452057415543150245202698247864320.000000 4269080362243209121881676776024140659052752458638790547097809881277158088588853265870565196182317151474346569769182734071313203200.000000 0.000000
4269080362243209121881676776024140659052752458638790547097809881277158088588853265870565196182317151474346569769182734071313203200.000000 2081860869348296166203916358206005189314830664244498228567764032069889183825539009529594364402397334675359686079077811608036048896.000000 0.000000
0.000000 0.000000 0.000000
104357903721998751767551108691059920759276704750481030103771738268687348927913090678630233199449270617590579319671634058710876160.000000 179545784019240906199676173741698375994378287912434961111114349835581947684169269793502326079289828393712224022153738267947696128.000000 0.000000
179545784019240906199676173741698375994378287912434961111114349835581947684169269793502326079289828393712224022153738267947696128.000000 89590554460058874017940396161037976853264316417082044084407484272422633139937651546391685740038767190638031294558497183117606912.000000 0.000000
0.000000 0.000000 0.000000
184158519105350640782868917533069902805184658448555481575102823749115063077312219291836731990509392687493625139649048697276203008.000000 86026815597906377849093951269875658839725205920749409859197601051145720451845580076736632029356990857250689821379351013379538944.000000 0.000000
86026815597906377849093951269875658839725205920749409859197601051145720451845580076736632029356990857250689821379351013379538944.000000 23556602838127075526441331998587556371443722947942674870952456780728149557561506391001217102973481616758740355567728130909011968.000000 0.000000
0.000000 0.000000 0.000000
-9842737273460922550189147446034537539470195211344971419395255085080359086430594292576420351647917228420321830050843269459420905472.000000 2449710399239201099246407031753084320755482167410138419937600769160342769399819963415823456920312916467330869429827689237981429760.000000 0.000000
2449710399239201099246407031753084320755482167410138419937600769160342769399819963415823456920312916467330869429827689237981429760.000000 930351772542836060962984878641820372139307440598027910639219401642942206591857069979127539667132846370477738506995865303279206400.000000 0.000000
0.000000 0.000000 0.000000
-664449343379717122815252485150646376130027378729007863535400959821523930681355810148804097653314518663360631805033136953229312.000000 386881024092045941216324621248077385454185961913310868397789757383465023839765184598395253558311291929159470786294870016262144.000000 0.000000
386881024092045941216324621248077385454185961913310868397789757383465023839765184598395253558311291929159470786294870016262144.000000 206130556313533865451061847206259211880187128966597324823655851078326167698991958615882702104307168961877386208233644858802176.000000 0.000000
0.000000 0.000000 0.000000
16471928011427264454518736907094690557198613994793213100814633682635592878267212773803269049747863696413523845944167554476933120.000000 44317048953643951885356135493460960739371272602967915711706724231825203286842330921820652445274817306310617669902078876648996864.000000 0.000000
44317048953643951885356135493460960739371272602967915711706724231825203286842330921820652445274817306310617669902078876648996864.000000 25340836952303848318051640451470226484796701244523246530110398840143357643788332932974781649316853719750287573798397042195693568.000000 0.000000
0.000000 0.000000 0.000000
521152994526258694800496452746097121652541029710791012715170846940633960335683560924233755738238637082557158207166282740006912.000000 -99143975501006544304307498609942593848663697470965258354803158041225729741231246492741732474951239041832332139678711293149184.000000 0.000000
-99143975501006544304307498609942593848663697470965258354803158041225729741231246492741732474951239041832332139678711293149184.000000 12277103698757168824411633206448729209142644467623175535785432252554564546526563803240927747175951364758006074313269554708480.000000 0.000000
0.000000 0.000000 0.000000
18584078102142005130936809840413292760405346486050177972997087887870282159225769140006247997544721608163918199851037435147321344.000000 -77454623067937666246667665754545120351251399034598682058114356394180879509429346410939972250829294200688159006303291105758674944.000000 0.000000
-77454623067937666246667665754545120351251399034598682058114356394180879509429346410939972250829294200688159006303291105758674944.000000 41303679372384200523173800792346224318039856138455675958454697779187665648229329601097375456936581443720703922938901202269634560.000000 0.000000
0.000000 0.000000 0.000000
-28089385109799328518214580488054731432359741158351148382673090783903604750739944465035505269235171813587836243374329873563648.000000 5146848038115939459687742734557001358824408926506022683478282383342558430947531544559375288926279202281420614964183318921216.000000 0.000000
5146848038115939459687742734557001358824408926506022683478282383342558430947531544559375288926279202281420614964183318921216.000000 8060011559643706057900618653780781506326505097573891999265177267204254366913598007216359481816066790694684614139549409345536.000000 0.000000
0.000000 0.000000 0.000000
-49964861370659995329975467256021213025000455095974639102890401577013798525301221931431414733595745693680130769636816266356326400.000000 -26886160233774184107494466711437733178502357738328516346966205669511824596485029167896878931019458362553545206075748358251610112.000000 0.000000
-26886160233774184107494466711437733178502357738328516346966205669511824596485029167896878931019458362553545206075748358251610112.000000 14009426596780486000945745232070786139372353714150645159112080611540986654875740662338633815843730345504758173202508552297512960.000000 0.000000
0.000000 0.000000 0.000000
67256040847396844468310846380833360009295332589334344047814616871680911874566444032987952951458336917053215200911921002152198144.000000 -478333761292652895356613108031211477857557136099356217154153014519058704046064348367083624392897743052647879160305953357692928000.000000 0.000000
-478333761292652895356613108031211477857557136099356217154153014519058704046064348367083624392897743052647879160305953357692928000.000000 260098023547943652211830667558527623939332825296005598697506621184216030820063221439907851729317556107952471522964880034138947584.000000 0.000000
0.000000 0.000000 0.000000
178434555901400553818415737259366440662846996643703511775618627483873978196880335750783488789217269246406665362978016290720972800.000000 196037379690797868902924987139798413403341344526646939850423132843787160717471319644735546913390371125711141788895590183822426112.000000 0.000000
196037379690797868902924987139798413403341344526646939850423132843787160717471319644735546913390371125711141788895590183822426112.000000 86987379680177860388771861278378893243668478796593683469297371756614866720298291379508325468371679894214464983991487497488039936.000000 0.000000
0.000000 0.000000 0.000000
-1092294633004306563019891465536323497579122471997500814720755396613994385878211247838325127673080517853734357723966195460210688.000000 -3302505238612386190283698242893270111809471451948675122618586589029714626310143194559381200510905956364612050005368389345738752.000000 0.000000
-3302505238612386190283698242893270111809471451948675122618586589029714626310143194559381200510905956364612050005368389345738752.000000 1928916844426025365958195323973104008798778515807875211584380193996494798308999188185005635414842809578487641350370298840481792.000000 0.000000
0.000000 0.000000 0.000000
-176020305507913630813230711578648465795756183432558406689746199911718265447175316574871377921941161473416240199276614060018237440.000000 -210565781311941722403348158370339069237662738478395064029457216319860759543793047952009213440475478309504859575907412921246810112.000000 0.000000
-210565781311941722403348158370339069237662738478395064029457216319860759543793047952009213440475478309504859575907412921246810112.000000 120991427335939125730285690882403705170008379783668126628632525202032314338884692349303282390274424641882640116039284072936112128.000000 0.000000
0.000000 0.000000 0.000000
126254518659013318805992245272680795041089052146036802718322814305491408727523595191953561057407702531710793463368357777372086272.000000 14502274383142689862345967288787466792484187156222368044632646412694969357857041199672944819193181302037571287585780988421079040.000000 0.000000
14502274383142689862345967288787466792484187156222368044632646412694969357857041199672944819193181302037571287585780988421079040.000000 1640155119169108000561745980625518282149538363466566158023167625802560386700957814820453426353527148199060701845107299212853248.000000 0.000000
0.000000 0.000000 0.000000
90487414653081752473216807083111196462266148670064237120762578149288172695853313176474763436936724004038822227377461599701827584.000000 -436739406339173653358188145120848660448246570639518637870213670920959752113621709666825353250312808609241888229296479653525979136.000000 0.000000
-436739406339173653358188145120848660448246570639518637870213670920959752113621709666825353250312808609241888229296479653525979136.000000 238478254898888707710235417019873555786985327482868082448583346738686775102819822066297989831897091669650519524362948630336765952.000000 0.000000
0.000000 0.000000 0.000000
-549964137886508618764124582929605775932725734848200969794894163402218181334560398305846984593377970954648809558399815705339887616.000000 -303328350865718873715660743709323500864508384174556995521273117943690956141288325798250830184053988419559694085297138329970540544.000000 0.000000
-303328350865718873715660743709323500864508384174556995521273117943690956141288325798250830184053988419559694085297138329970540544.000000 158970591082320744865961986281258482144428476907389504978565711792005703575769070288726403404761149569140507320876086921831383040.000000 0.000000
0.000000 0.000000 0.000000
-67747347235617449343541326181515501198168362506718402160426333081738582652955341622755083918858579456267264969579629986768224256.000000 -106955411070164518808966133979848932948709700825804640534601295489437277737899970009432591046842441732913500948082631401944383488.000000 0.000000
-106955411070164518808966133979848932948709700825804640534601295489437277737899970009432591046842441732913500948082631401944383488.000000 62233409072607088627120866368229338326952742332314183894608770705504100792734538655907572743107649437264944695183708736303661056.000000 0.000000
0.000000 0.000000 0.000000
143932342980198312989812186056041867197954797311614408911351676666203272446500059654150185381637770051071568525897809223552598016.000000 20269842622163289907911831842405840401108587687325515849695782601569544553528285629112019605401187998794514321434282790240649216.000000 0.000000
20269842622163289907911831842405840401108587687325515849695782601569544553528285629112019605401187998794514321434282790240649216.000000 3011382613137250675379388412264671670980920319018053125110090130371494936360149041277819873754137285777878314745406310079004672.000000 0.000000
0.000000 0.000000 0.000000
-2650231052745016412074038860382998944988460962519398626782420603329868438963485896254040455280616715295628416334985196103035518976.000000 826811581715592050745844450871839801229991883869913304894597691676055636540181821336614936467191863691211862274700322788241047552.000000 0.000000
826811581715592050745844450871839801229991883869913304894597691676055636540181821336614936467191863691211862274700322788241047552.000000 359574737841837688498518151386750238506355521023848148188298277076021914416833311358852347483293107991793987422404501601244938240.000000 0.000000
0.000000 0.000000 0.000000
-29717817074185196988473734509968355889086151109836002930269729985386434045575734573471831283936825784306247832885849756638717673472.000000 34509407596606569169618607739700864882260349896380538213321154671455630606903578013793170974833953093362574324464953088154796032.000000 0.000000
34509407596606569169618607739700864882260349896380538213321154671455630606903578013793170974833953093362574324464953088154796032.000000 344157681315336104047121583037119138295928263772092075191591265331346771117410374605591620130412854889051607536241603577380864.000000 0.000000
0.000000 0.000000 0.000000
14882501122879443959665516649747766111519438165852192998888548304692187143092709770025566417467432615535911209355699340091326464.000000 -24082044537836586020997007569928638613984448949863888903692548654192177319260517997854675484136117397578497433102860292588568576.000000 0.000000
-24082044537836586020997007569928638613984448949863888903692548654192177319260517997854675484136117397578497433102860292588568576.000000 11624757331332953769467671068624352050163257879808841738662801013134729613551392379685462750643805010299133536133973874831261696.000000 0.000000
0.000000 0.000000 0.000000
71493972069398420032633546400060151626285739840810741446460687919823734108161774074527872693306514263443961614729234540165857280.000000 -126378532341398759979906619699185486930905239955311664752643228289719351623029021696387892599940716209684302603148749017599442944.000000 0.000000
-126378532341398759979906619699185486930905239955311664752643228289719351623029021696387892599940716209684302603148749017599442944.000000 62203347548560218758818532962661335386215432727572430753843497785419103073537316108820079113467093283723426864209829756126887936.000000 0.000000
0.000000 0.000000 0.000000
198442833973849184909673047415325797987132180920413863977938584769666563309560383741182229469943310902179208187187115916737380352.000000 337859874742351614343109741498211400981195986174811987225982901827725898710747181076638232408360127734815569593578372953091866624.000000 0.000000
337859874742351614343109741498211400981195986174811987225982901827725898710747181076638232408360127734815569593578372953091866624.000000 164847534945056237861275848570483238864608219432121321328733215860913434069707288862411632136887313737051510212425964869065375744.000000 0.000000
0.000000 0.000000 0.000000
-28238718518746170127037847544593484814217795863259868050349171608891391785456822082092981254461656064397661232215836219035090944.000000 -23519689444721453041925503134579166855552333547410454189377447839521749882211853839515776574518113270162279691228671268926521344.000000 0.000000
-23519689444721453041925503134579166855552333547410454189377447839521749882211853839515776574518113270162279691228671268926521344.000000 13179112128174138971771058470361075707652363747221528967122869945031661253191526350235401508906262164752222620058499380781514752.000000 0.000000
0.000000 0.000000 0.000000
1480197749819737661670789162412966238121013054064069767577873897419519094644210263002743354228297768447425202648672067322380288.000000 828403865821462269150308270692988671304340252847331078740205448142134260351511073329115363788360520592178329514579050421551104.000000 0.000000
828403865821462269150308270692988671304340252847331078740205448142134260351511073329115363788360520592178329514579050421551104.000000 266881930677088978869748258401444730434186435247393869628363696996895872504646819141211099088901572188636925571731869732438016.000000 0.000000
0.000000 0.000000 0.000000
-303204580288071487398205835398377125139110625276026496177413512032067079791829918526771166678608438552553043142318692956635136.000000 291923886411764778450048361495671738744837774261516236163942061851229458851088147270487852379975728179562039482317455860170752.000000 0.000000
291923886411764778450048361495671738744837774261516236163942061851229458851088147270487852379975728179562039482317455860170752.000000 179617459041663931804578939357882874552775029666327290284644116920686244692264050838928547345517830179116482872012471210606592.000000 0.000000
0.000000 0.000000 0.000000
27293170305223279074746916766496326569500580885632680137611836075634445998747521612995914130168622279453410315988094078316183552.000000 -54988824194516833483287927896289870829224431333540765060830644861363084068191978540682882477376086503238084053585672564971143168.000000 0.000000
-54988824194516833483287927896289870829224431333540765060830644861363084068191978540682882477376086503238084053585672564971143168.000000 27514862979952597988450473603700031742845382411350520872931895788783032263116577866168123841617986631117435841047014528283312128.000000 0.000000
0.000000 0.000000 0.000000
86502610689170426748032492759652936160485553812819358553328840043542608161389408554283462334212687846565839878378307688077459456.000000 630929216539823876899908540487509270480791192266551337978712451464960524981221338466105913665279429183633454321208850249871785984.000000 0.000000
630929216539823876899908540487509270480791192266551337978712451464960524981221338466105913665279429183633454321208850249871785984.000000 343365916414552956184914619363293643776614578499709581598155025481622543023720880238119889043091957925514898996868970784321699840.000000 0.000000
0.000000 0.000000 0.000000
317306817500234121974481812111426489271260616282492275974324386304540853302141996450773222340299613293881382994944993788424093696.000000 143446593837311559188303860555185642932256200680374972293570847438850670837124617592911260888522126080772980497368260452873666560.000000 0.000000
143446593837311559188303860555185642932256200680374972293570847438850670837124617592911260888522126080772980497368260452873666560.000000 38403441520066183805197141784779975127435049008431295699419654416195402179922682922530908027651352246035226420251383924258766848.000000 0.000000
0.000000 0.000000 0.000000
-862508336549449770322093758485608156823486983315074051833656251971925883547861675965479165441570832794421929311476330828660736.000000 -60076688013110506871967457249755942804369597428371447126000170989262405995537461922964048731054588439585099412165132403343360.000000 0.000000
-60076688013110506871967457249755942804369597428371447126000170989262405995537461922964048731054588439585099412165132403343360.000000 35313710941943319933503088372974449165733117029737847773838819418531464693757074659779194125266291901686635547059439278227456.000000 0.000000
0.000000 0.000000 0.000000
249396786397166808301228411461140479450056408803413195810954989827425854118562894169490104212006313636813958292663717724671705088.000000 -355460410876939920107802015162727405679967255690583530920308036439107198891895697830086631833273504844174969151114222045145071616.000000 0.000000
-355460410876939920107802015162727405679967255690583530920308036439107198891895697830086631833273504844174969151114222045145071616.000000 166909608866456157794065267065951875407744754600134688728309058797876291732599625614804602871145189410679248366690995341726056448.000000 0.000000
0.000000 0.000000 0.000000
-383982214683250725116673413220276748355018605333855450313992068333482582109700774475373210791953729359781456201115706441510944768.000000 -152215969215581396603563653422769479937450484822931106873666855964042493030089533114627929269388218664786118435508441670402179072.000000 0.000000
-152215969215581396603563653422769479937450484822931106873666855964042493030089533114627929269388218664786118435508441670402179072.000000 72953288731915281177717467783437810116510543655377726221250643269466115745091474987768215222525804319659729561965766662617563136.000000 0.000000
0.000000 0.000000 0.000000
-3672986674541176373138938587208484123731199218964996450460293979268370912571683278411148547596424453368300923361958626142852218880.000000 -588665874043266233657118376388028081010652214916500496636720081299770755343619280435857686510285046618252124676899076937718169600.000000 0.000000
-588665874043266233657118376388028081010652214916500496636720081299770755343619280435857686510285046618252124676899076937718169600.000000 165303528626902922625502867096485902110853432338349396319348892285040210072438155720340508006915943668683836792334944353688485888.000000 0.000000
0.000000 0.000000 0.000000
26203921288579297445189547933449574878792267887989433488996181433349786866976824510209272664310791395148558607647380317667328000.000000 -38217933865053330518383891953697916836058424583377495992493981334612356350768125480191283474442625213204612678026295743503925248.000000 0.000000
-38217933865053330518383891953697916836058424583377495992493981334612356350768125480191283474442625213204612678026295743503925248.000000 18039748723906491448003814249119988820933033377652461898957494442004244027881975524051214708485414092189923965570555308035538944.000000 0.000000
0.000000 0.000000 0.000000
26120444343605289892595399958080140747388786009078403115378007768746332068924338673303466784500149898565088428094107914139074560.000000 94547432699089648106651721316616489982349553112358247721482957905917692924872826177342445139778737251921481519907911188541865984.000000 0.000000
94547432699089648106651721316616489982349553112358247721482957905917692924872826177342445139778737251921481519907911188541865984.000000 50028722758782767019553531490857033797606360140366251755173741825582483366121271674640720573000610284528982035653597824639041536.000000 0.000000
0.000000 0.000000 0.000000
-65419298369852614040219575597445472954118245830320849051389397898643345499002535546492275691142068284663454016944352302326611968.000000 -3839670593407712647765664222206266178127014298781823512259604091846470603012028944715566751762283795142714962591156178494947328.000000 0.000000
-3839670593407712647765664222206266178127014298781823512259604091846470603012028944715566751762283795142714962591156178494947328.000000 441437508767533412552863334071822240156341514805374471719923199599268791522328092424394284079605266480146239613269273026232320.000000 0.000000
0.000000 0.000000 0.000000
-15903445681521382077818086203130163744855093075593977397483299982707958197335027351292266573144640023602033717810121254111281152.000000 1902242829841753244787074341765543196504435225734187451615263755107799026533997925441852085517326939635359707212129571597975552.000000 0.000000
1902242829841753244787074341765543196504435225734187451615263755107799026533997925441852085517326939635359707212129571597975552.000000 585166748758449931676714241015328890933876910795761966093579754816540380075834542145150156934270752486167158288105812703313920.000000 0.000000
0.000000 0.000000 0.000000
-66250017582606876241145580499836209328873336319891105180874029253647114359853441683030692969613712235190061467655359323583807488.000000 -115224080620233240074892540643611902258025729814565372313723863941203551895984076415055797265329428492627671303266791128446271488.000000 0.000000
-115224080620233240074892540643611902258025729814565372313723863941203551895984076415055797265329428492627671303266791128446271488.000000 66364064664089272344294894823943672190542617632442142222036840726015447281113149306605802249697489437498767601962582764129615872.000000 0.000000
0.000000 0.000000 0.000000
-4626565304181286830770119677186281598700079291890289189114364310665057977793091316235279490305912445115801663532333307545505497088.000000 731587420828863713774037223820936772357765572337936062606679383124650635936552793168129804980083642779152590829177424702995431424.000000 0.000000
731587420828863713774037223820936772357765572337936062606679383124650635936552793168129804980083642779152590829177424702995431424.000000 203311771908747879663598487300113890520039721997299150125253871271868527360861621396854850020795877409099493959642976752091791360.000000 0.000000
0.000000 0.000000 0.000000
-105620376931483114216229240514593691181209867787200730734273977640964756059050452068057667834800411963799856427083573863496286208.000000 -435367466778914862804421248076644462276885246888691375605299523751561464148571687312177442740500740302694115054753299891211993088.000000 0.000000
-435367466778914862804421248076644462276885246888691375605299523751561464148571687312177442740500740302694115054753299891211993088.000000 248386553079996737004551282094630684125366051595631053776805742670926117391901160215018061703049592571092468659500436669146857472.000000 0.000000
0.000000 0.000000 0.000000
-60564247450524992763310699970678293404902208619091631425067347297381989216387965668265107014344359538534751710767357173046444032.000000 233339515701345586031541986266129215649559060248230243637759065079805338417539618442202440548757059013397103326670404344591941632.000000 0.000000
233339515701345586031541986266129215649559060248230243637759065079805338417539618442202440548757059013397103326670404344591941632.000000 133231020934421070290092973424472999732551834329650649320253210156511719332645462766057970622894018010802742542400006764277792768.000000 0.000000
0.000000 0.000000 0.000000
-2273656888867276127923103826831990878897403911268701014583381007827203187139772017474316867028008672967306169721863835514291879936.000000 359553203615058037105528723970386806920077111152220725306351999208793763668126941671041834947022108006155334680669235851214979072.000000 0.000000
359553203615058037105528723970386806920077111152220725306351999208793763668126941671041834947022108006155334680669235851214979072.000000 99977508964586831041394878025601630003793722615601181334519229562610098634914603384534830766774145282603119167493729336787206144.000000 0.000000
0.000000 0.000000 0.000000
41175394031920661914007088732370069932265605862820657767007917521897729741792898976463947615869634154278041843371869135762882560.000000 32605112326066223955225090660355403482487226759440665187414077370005524400961632149437313203094866045603261197490477073424187392.000000 0.000000
32605112326066223955225090660355403482487226759440665187414077370005524400961632149437313203094866045603261197490477073424187392.000000 12980629627326439218753063025854893580716076752865806641677307939668040994939561273054674149559329096425136682691883893495169024.000000 0.000000
0.000000 0.000000 0.000000
-89165206132907318660640178464281623163950827466507657872021434125481004762780733158530379807737075388604004970661775012152737792.000000 -87422260438427234288161489521385255332188456660551076789615918188311069221927906319999452837845682970897613958057990566048694272.000000 0.000000
-87422260438427234288161489521385255332188456660551076789615918188311069221927906319999452837845682970897613958057990566048694272.000000 49589795371140521820312179208265909975379294002644370073529997650819582327359807672716901303656478662345402373270277911524409344.000000 0.000000
0.000000 0.000000 0.000000
15468623524571358902778460901211457762710266208336576552166299669736125099670128017498235101037664529548706977791583836526608384.000000 29941579025704336829935142110396968703092219318638603260757016170151103009846125820980669490006027029566679843369804506685505536.000000 0.000000
29941579025704336829935142110396968703092219318638603260757016170151103009846125820980669490006027029566679843369804506685505536.000000 14892370296352531230289299032251213153080736220182836094957531178606071055250501424391677966686620188337616038553222209601536000.000000 0.000000
0.000000 0.000000 0.000000
13161395345663550803455208676542534968178039451466341855831381640658743180138501878543720384955215966606054836085299236340498432.000000 -72337607917491507674459710880294548988329626101408463316208188116077604023375237044642515055390889589554391998706911647818055680.000000 0.000000
-72337607917491507674459710880294548988329626101408463316208188116077604023375237044642515055390889589554391998706911647818055680.000000 39047192329477437023466250331172023483419962945620382520847030313153852111188395090237954062251283394927054179683617829212389376.000000 0.000000
0.000000 0.000000 0.000000
2804025396046601633249821047409972245107204798831225077645344699695086055564093020067577166691759668209551527846947670942860443648.000000 2691274335161914965109905593065055358430905235122080906159750881533507172620227598997822632061163352054695251637185447720726298624.000000 0.000000
2691274335161914965109905593065055358430905235122080906159750881533507172620227598997822632061163352054695251637185447720726298624.000000 1116817453271869913359192576135648678230261903830550600727716754911174299286428755070142151082071016318868950529412125626470498304.000000 0.000000
0.000000 0.000000 0.000000
62884270690575580497455588557087783504038757689508661980643650489525597774538722846266427137540763273124694008551407929348063232.000000 50196901111226860589340299112288818869848915378522899463040817455136443257509923471171527320412012822593692935551207598603632640.000000 0.000000
50196901111226860589340299112288818869848915378522899463040817455136443257509923471171527320412012822593692935551207598603632640.000000 19181349686803001418445992708556739275654602988623262902492680875003433416233890105862964651186766516271743183833739986294800384.000000 0.000000
0.000000 0.000000 0.000000
-1208311449180456629232468052825174871634089468932863927728265896455385633369515867684502474543935737528905973482180990792768684032.000000 359647003674638267458755074548561910998853938070454284841525322922592234694249623540294191062758483823444672930693440052171636736.000000 0.000000
359647003674638267458755074548561910998853938070454284841525322922592234694249623540294191062758483823444672930693440052171636736.000000 155441529195297832426981906420055205307147003064379720266085064357679335308916701786235112449461271196435304910454477585087725568.000000 0.000000
0.000000 0.000000 0.000000
271947026377421801920429959943186143301607927979900448442363442439857623182570950610623555083879761988709594234682373537357889536.000000 244041406004034924926207244361550881971031169107281564804324106486368932061239464525065272617471355141926153624219045741717356544.000000 0.000000
244041406004034924926207244361550881971031169107281564804324106486368932061239464525065272617471355141926153624219045741717356544.000000 98535753733997725622087632212839516591463029039129518132757629762521864408821672733881257299095912927889176701925910679144890368.000000 0.000000
0.000000 0.000000 0.000000
-860202018049282478503793809177145239394325411558668936409510197557622776592298282272139097245063771277398498164960341912453120.000000 56036017683305619649758969724505842896939120958591295351405392766174791238730988910049993355858484173111928403059819625400238080.000000 0.000000
56036017683305619649758969724505842896939120958591295351405392766174791238730988910049993355858484173111928403059819625400238080.000000 32202434639663165318823273346983750433893170198128276709492028909381075030599122483580847967671074041498509831651157754677035008.000000 0.000000
0.000000 0.000000 0.000000
-43698526209854369756662931754984082908265998769457203391581130247822996039834956214789526654079748616722601541733697135430336512.000000 -336881122560399621469193026639265213948950330161118593423534961602763310600910669742425599242650041291088738734958058387248513024.000000 0.000000
-336881122560399621469193026639265213948950330161118593423534961602763310600910669742425599242650041291088738734958058387248513024.000000 190304721824340229229322443801044642960155566823967494841619647514840501362397930734206240468005949384889605164721264132834197504.000000 0.000000
0.000000 0.000000 0.000000
203548963301584815654848209987353046852824891342794198332702287219068409444070283572104797373940070792997316041419364197885542400.000000 646622960857634548267284689386138733117708715935376530349029637088051327885226048000194565951354225224989937888928793340470624256.000000 0.000000
646622960857634548267284689386138733117708715935376530349029637088051327885226048000194565951354225224989937888928793340470624256.000000 341801518310060697058951969454997264299286361349868677959577718481170778390099801790870574874929096597472132705490098844229173248.000000 0.000000
0.000000 0.000000 0.000000
832470981589166910009141658933342787811087673213189676004432486080360026479497452842694931371972325058740269673222796295188512768.000000 140049162783814150530013362470340206526483317958513862803548340614540078036483334497831193723170097323094010934471980349231464448.000000 0.000000
140049162783814150530013362470340206526483317958513862803548340614540078036483334497831193723170097323094010934471980349231464448.000000 15415682867629058118764159567287860911954126463711608828880686038149559233246174033040010692043299989742977385877045339687485440.000000 0.000000
0.000000 0.000000 0.000000
324403440448796899808017932371516572185914972268883286664680915498480587912458702733584341461638119574185659285203016271976726528.000000 -255338492548726500892732701874993671827245244170484893594711670223210383325763748212496133283819838362181246274689376698863976448.000000 0.000000
-255338492548726500892732701874993671827245244170484893594711670223210383325763748212496133283819838362181246274689376698863976448.000000 96750913075718031762008790718185179129951989961290445543954379494531521594953486681291014272663849113204563839244551223823564800.000000 0.000000
0.000000 0.000000 0.000000
-531616276020791824845987443617576824227206872685695237770495346918667886123633911153772404880494185778398635175360193703136198656.000000 94589046780674739246279916071486881133730355065841872478929170730567191886271794141946576106718642104888100637376455774583128064.000000 0.000000
94589046780674739246279916071486881133730355065841872478929170730567191886271794141946576106718642104888100637376455774583128064.000000 33642461941986372730942954891755735284116560709728241363506215622858119546419577966579684848163694796051845992971794107617771520.000000 0.000000
0.000000 0.000000 0.000000
197060840796422460001743152614993546592619847019226010754587995580844981166957231252723084440124335107988918871806180364132548608.000000 -42342810761543391111288229417129891759848848204394423647166890487317142288393321132862467202228305738158574534728749964240879616.000000 0.000000
-42342810761543391111288229417129891759848848204394423647166890487317142288393321132862467202228305738158574534728749964240879616.000000 6104753479823963606069621622380828082737990899660836088561238961642568071466842662507140130289020277643748667436290933935570944.000000 0.000000
0.000000 0.000000 0.000000
-10629538002892120169213515780755352702873075574287638215141958858543082415827070180156390771267237138262485918353051413687304192.000000 1781878298391719225110400754112657907394593278009943357647381389496318399593759475738113033875081692577174218665543660642238464.000000 0.000000
1781878298391719225110400754112657907394593278009943357647381389496318399593759475738113033875081692577174218665543660642238464.000000 519284286687348168888675894447038685636393841171451116780608763480968068963514285293212090425787252462313366761133693697261568.000000 0.000000
0.000000 0.000000 0.000000
-3213444835964608956085326526595128477585585553637511857768476074770932960345419836870734985536192093230778507219011684453907955712.000000 434370357317005415419859652089490410947812634261876363666135733088617229637114034718813301787588533801586007618128318509355106304.000000 0.000000
434370357317005415419859652089490410947812634261876363666135733088617229637114034718813301787588533801586007618128318509355106304.000000 105833166075024409959237256927131299148664538268071590644794168926367821608531103159438411723846135282125480475768698558125965312.000000 0.000000
0.000000 0.000000 0.000000
94067863621055375325260852221776189891488100078726165711590190909355227220673667941917706182038721787761812793735610272722190336.000000 -23621528804217155795172920155210682256379063520999014605551759917341990130858057886175227084496635647886981498698144528621109248.000000 0.000000
-23621528804217155795172920155210682256379063520999014605551759917341990130858057886175227084496635647886981498698144528621109248.000000 5760344611019734127997362892822473327636828167492750097009544305152207269697352050434487190256493789555188619628394991931359232.000000 0.000000
0.000000 0.000000 0.000000
176962643420713116021060230885064099111847417947978673436259967731187211150205004725786570724788912845691175230017515585601011712.000000 715030434176857426819662144807442339466913108120809050973008420492988405365836325942561969581375508357944690058893529651200655360.000000 0.000000
715030434176857426819662144807442339466913108120809050973008420492988405365836325942561969581375508357944690058893529651200655360.000000 378099898228026307254115281216419231923499070198855317896409741789132970005695309375123473316279713728780009722013682943458803712.000000 0.000000
0.000000 0.000000 0.000000
-344779496602196284090003578130702399444056778499536488018357771256239872297365648515812130645047526355866135727627730641859117056.000000 -684325250521843337910772571831347542095637113535300397780730763713258836614469291685800053963006340892530993537824894754492514304.000000 0.000000
-684325250521843337910772571831347542095637113535300397780730763713258836614469291685800053963006340892530993537824894754492514304.000000 394798835887421484366998248644097681180330671277384633564984507280973716780615427463379981280166148473858490320630868794075512832.000000 0.000000
0.000000 0.000000 0.000000
291612687096360554670064579472241709839062041253238203253895030296838449859061538707715940944318170249718826393928426596312547328.000000 -213194858623013558742512779588547429275308352047421913677545837668380922793945182812859810659574844864276429126044452524809781248.000000 0.000000
-213194858623013558742512779588547429275308352047421913677545837668380922793945182812859810659574844864276429126044452524809781248.000000 77463128103480304628582857068991148824670306729506060499231427335648392046986099884738410757902236926052384031734357622427484160.000000 0.000000
0.000000 0.000000 0.000000
-226665556236625479468556644820353010870997498339216312526056103105560359691006779079993565159242479708104239891715025402872201216.000000 61703523922806456647801991864012823460882018586669470385049483683064945103773237614041140582236289224440886998944124310822846464.000000 0.000000
61703523922806456647801991864012823460882018586669470385049483683064945103773237614041140582236289224440886998944124310822846464.000000 24604801061010299965184526621974884556691900556384400919418413555470545513374249470857240797095050462730936958308377205871214592.000000 0.000000
0.000000 0.000000 0.000000
856254052436491793329535420788543056889660160167397590844290021403297038460320869488839858619810874261641966455285873986443935744.000000 -836253521339657548130788458293421438887846039304662161824348221214447955027675482309728379167789917302226106553226322932978941952.000000 0.000000
-836253521339657548130788458293421438887846039304662161824348221214447955027675482309728379167789917302226106553226322932978941952.000000 349401948086209043893923194209379425272274870901307449717488045107965559109043077026252548356399997329981108754867216026766934016.000000 0.000000
0.000000 0.000000 0.000000
132685371515335423393898680203142659534457492304398477177841263640259732234480907839145622347662989139414054543146349745326260224.000000 -129436270718868180196638167042993323258030386380870523299964583948227849902869405700634919576493937995058075035325543134089183232.000000 0.000000
-129436270718868180196638167042993323258030386380870523299964583948227849902869405700634919576493937995058075035325543134089183232.000000 57085445000123402170665662693894561457825202767383836529055964592718056121243354716508684039079566995685232645019712080886890496.000000 0.000000
0.000000 0.000000 0.000000
59059058877096275683272159915859853393839870022343011409141778262287082352731617201887028972416028227274647092348504929942372352.000000 -200704652692687283051325654952600416622770674783637120711562124527225266841738402358125490028423188533027867995656560652931039232.000000 0.000000
-200704652692687283051325654952600416622770674783637120711562124527225266841738402358125490028423188533027867995656560652931039232.000000 105799026713404182038152513797053659685299552927963199277524520813028094389738452071473324420376465440831351161560492806351355904.000000 0.000000
0.000000 0.000000 0.000000
532787142490235485985674353217450509823322661581969461674122317269493547976527212989766864914192096384485340466542219931286503424.000000 -943657604490769695820992874438146294985162045773325947967402771677535624403176999629351728579567775884453223093618807422563909632.000000 0.000000
-943657604490769695820992874438146294985162045773325947967402771677535624403176999629351728579567775884453223093618807422563909632.000000 462839338072758315417088171920748716966583235255405833863565473936489838644396616174630051298267568103060124411348415698528370688.000000 0.000000
0.000000 0.000000 0.000000
-31084415297554481236568413566187088798211344804853086757422922941579377449614926617449747317195437101491104989605052415337299968.000000 252014219710672254260103019656372867788676633579332119706436718180082593964816971420944774356450944008840440696462143681133019136.000000 0.000000
252014219710672254260103019656372867788676633579332119706436718180082593964816971420944774356450944008840440696462143681133019136.000000 144201698389935823505998494613710199373042561409797502122435055892523215574671966659531191070334197730458771667439276879230533632.000000 0.000000
0.000000 0.000000 0.000000
-191138885978664899872909136902925358572179873661682766987527056377564337495532050072084358118053151571302300518689787206434816000.000000 26575771557884457832189913722002175449015721972745152972637910865186427900404578462273180973734422548033093201704534528803995648.000000 0.000000
26575771557884457832189913722002175449015721972745152972637910865186427900404578462273180973734422548033093201704534528803995648.000000 12932150511654979118672204857632401929806817700488753854377431693172136422419451581038251014940709395708172594322858590953537536.000000 0.000000
0.000000 0.000000 0.000000
183669290256637403291957725576462711413659437101977948462824077255977442911593610920705509051623961812623341235785630370611855360.000000 -68157330315109554600868318387773322260691171906853433706640384378740567817088241956376324509830009491698915078201502917984256000.000000 0.000000
-68157330315109554600868318387773322260691171906853433706640384378740567817088241956376324509830009491698915078201502917984256000.000000 15460550893680579969962910434797135175222754010862233038881393876419708943085102888870436530747937025397523981590426930057838592.000000 0.000000
0.000000 0.000000 0.000000
-949576722386018721196469698691534108618664379526589854385695594430850038091022324779084849770799828374042333657245015276230017024.000000 -407379130626429512085079409139168246538324565095192116916985474777749134733607082874167765075684273219807039712879510665218228224.000000 0.000000
-407379130626429512085079409139168246538324565095192116916985474777749134733607082874167765075684273219807039712879510665218228224.000000 199258268289683153100243532233506571861276829095497205167816296611837748824197659530482328077483589559107309837067236045966278656.000000 0.000000
0.000000 0.000000 0.000000
-31838945524197591735106831593225825858644780387345193722259455985773875549516273231624589200988488760572894700957210480807510016.000000 -340582370980763498081239251406917769295746447589762372526790637089378317675540827044959887342950551921084591738431164719917170688.000000 0.000000
-340582370980763498081239251406917769295746447589762372526790637089378317675540827044959887342950551921084591738431164719917170688.000000 193035146117689049568677572012244118619719890101940398519216092675599925192571356827905902084373602665469925981153814388311851008.000000 0.000000
0.000000 0.000000 0.000000
-65959680504527639809503455677155700405481082700599216964329343032693743829458813226543848578255068233449750936108466737130766336.000000 -161433022209300930826002930816696043700995608556076117981875601371016042127051002913694670195047063838537996531301114469446320128.000000 0.000000
-161433022209300930826002930816696043700995608556076117981875601371016042127051002913694670195047063838537996531301114469446320128.000000 92944041100611031134967303672423774650404699519943377308569466377891389498645089270754461559855858872915361857705444257340325888.000000 0.000000
0.000000 0.000000 0.000000
-76964087320693425328576164147480512124150415294802314752605129396802523049511565999839103997077107080053005770133943398088835072.000000 284185378456059607912523675780269899258862299111511004445749318695999303284333554567179612897127636269943057743281267399936966656.000000 0.000000
284185378456059607912523675780269899258862299111511004445749318695999303284333554567179612897127636269943057743281267399936966656.000000 163234958554701177071996856579684336758668642633526955900692357052804308991213645193016418045799945141284266716183244641675509760.000000 0.000000
0.000000 0.000000 0.000000
-94371196665633207871777820368851437707312509524607872281015000926974941754248385313341924982678803310906394678347075459217358848.000000 5833588717102908563904267497073210998854831540499784399152260519382932181030026838391744380659128722504968849348772539165310976.000000 0.000000
5833588717102908563904267497073210998854831540499784399152260519382932181030026838391744380659128722504968849348772539165310976.000000 705143473438353090021535191757549318723623447470058122729345220987577472221182843661983609308909023173017972934024479543132160.000000 0.000000
0.000000 0.000000 0.000000
871541996799792263633523598697797517318131857195924276183796228957262591011028129282167238598077106576991851711014700445975183360.000000 -260236225915061604238173573403169862569910627564586179057609674337742721652484144359136767455486789161113591557727257924317741056.000000 0.000000
-260236225915061604238173573403169862569910627564586179057609674337742721652484144359136767455486789161113591557727257924317741056.000000 49658867105393169213914746631176219712078725991841148504748733881793193050329201222985277246608984921314554384190562635186438144.000000 0.000000
0.000000 0.000000 0.000000
-247654944730910320328084286620565914250177817903874188983211099418409629097469215391433777074249174032649489823973345204978724110336.000000 -8416848634813380335558147993298531191620762938304287830567139848965785780114542276700099035026354827430539687088183766796908625920.000000 0.000000
-8416848634813380335558147993298531191620762938304287830567139848965785780114542276700099035026354827430539687088183766796908625920.000000 568086788353049791888955985423670240202681574821191743277495896919164522919592559178038573049110296441882029845833995237319507968.000000 0.000000
0.000000 0.000000 0.000000
1944944499897757932385932009245156022427392261614567127284756777682818182705814817233514040293161717773999784602611839357943808.000000 65454068079297906723355111575204595840899396387664005210523797927144390844178507598964307832574082935200667494945159687176192.000000 0.000000
65454068079297906723355111575204595840899396387664005210523797927144390844178507598964307832574082935200667494945159687176192.000000 2075459815001218050089301257818388341845207975220100304731863970286511956902952930481868316939407891602598485344036965056512.000000 0.000000
0.000000 0.000000 0.000000
3170081825716707133373674891271175699672170980707912256202119006532909669354049328796636997494458847521948572388799435520344064.000000 294358122614318346738874230994730437672318279957431319219327529942042959471981911804793605985474396812488321793529725222649856.000000 0.000000
294358122614318346738874230994730437672318279957431319219327529942042959471981911804793605985474396812488321793529725222649856.000000 18349402851707694630778619474910585486322975284197909343755951332392237292266407900695326737685980271387817608929719080714240.000000 0.000000
0.000000 0.000000 0.000000
-1174371130384004692070037655451616294742202047926828049362358760862403975657613437123656274625638392906131425986016572639161614336.000000 -589595100422773202773118212923895562919725622454367630516157092780861641005108072894436987754685203451589124034532787192841895936.000000 0.000000
-589595100422773202773118212923895562919725622454367630516157092780861641005108072894436987754685203451589124034532787192841895936.000000 301868081849304793606287546990709881023373730025954886314134058580439190147094864251454703479743833294058789693554333474072035328.000000 0.000000
0.000000 0.000000 0.000000
161138341569053464767084341391501189266324388776821378154096570243864976436281436950034468228187046089001140998917398056170160128.000000 -153840771855087927498598179226976783162783932455522372689835877262073408763400244883102512559089359180392992169391734056078540800.000000 0.000000
-153840771855087927498598179226976783162783932455522372689835877262073408763400244883102512559089359180392992169391734056078540800.000000 63733517906170763063529600815640498363876054149968287087135344176912793865746569813526594676818468454836256976406695869191028736.000000 0.000000
0.000000 0.000000 0.000000
-1008860714249938914146708347057719974318397942631647223492618614833800233262816163094583278849232968560685169734475418179731456.000000 1222296771246180725220416682477643716820816823303585222864156128224110848139481675040778499953725612977256435507499986990399488.000000 0.000000
1222296771246180725220416682477643716820816823303585222864156128224110848139481675040778499953725612977256435507499986990399488.000000 703632790177850791145021870991303950433267834431661698352555796009331689539445142011506392517130773236730378478454540205031424.000000 0.000000
0.000000 0.000000 0.000000
-508441935382647784755567447446740643325228933728792734065483347720715307562777724264216618775845480100060664062971816673768636416.000000 301072641773784978701048984192758141466431476595921587788272520228301154281237561514308807478042848607499970707642103281209049088.000000 0.000000
301072641773784978701048984192758141466431476595921587788272520228301154281237561514308807478042848607499970707642103281209049088.000000 160839492190531706007983321894462707650140507857679108123722151237873497228266996205326378494446625781089232957083449043407863808.000000 0.000000
0.000000 0.000000 0.000000
683997863469569149049509207973020138331939636580554925497241488012020329251737225046691245929321650575627192288953853609273982976.000000 -393791316426071318774298199455832620325422347349175144849398795230871331360827858436192995934958723935006077484636837064793391104.000000 0.000000
-393791316426071318774298199455832620325422347349175144849398795230871331360827858436192995934958723935006077484636837064793391104.000000 124395975751693337164896819180792937937584079437522617036452586593401484835081608311935520744403925494711324108889550667739299840.000000 0.000000
0.000000 0.000000 0.000000
787107473136078941826599682248256381384350384749953249199324124806147772941305842387935535009269224482356018698176315027087163392.000000 317933994735753970084185758009893340597889343800974483882425041065822831144467556331540921006880825023204451082114310588038381568.000000 0.000000
317933994735753970084185758009893340597889343800974483882425041065822831144467556331540921006880825023204451082114310588038381568.000000 77452142827881684144154929515601810461493860207224188124137093980224178124579205265168882964129409030739471023042798671215198208.000000 0.000000
0.000000 0.000000 0.000000
378496353439603580402988745593940410397851815912221485263452868334958747295422461181934621724058302867752473700157662819740811264.000000 -414508269912676399501114324432064385384714273127561200082442178983750418381429052641835548603894168251399468478239778639896903680.000000 0.000000
-414508269912676399501114324432064385384714273127561200082442178983750418381429052641835548603894168251399468478239778639896903680.000000 180604980101436144731894035236782264088838659507717122260882465800688145644586503638492977077775144328387584283957909255220101120.000000 0.000000
0.000000 0.000000 0.000000
2747346942432867686365141298360048664832398020502520571995144161178641893236958958401935252129516429453669075349876993096155136.000000 200091843116512246726702546588113546742222918711376382453354080560871056785972422611309794266268038499344282137195120424910848.000000 0.000000
200091843116512246726702546588113546742222918711376382453354080560871056785972422611309794266268038499344282137195120424910848.000000 10003953575169005252152781443902034017082160673547177492125605017063738337178952565996413117892945837174590389694520776196096.000000 0.000000
0.000000 0.000000 0.000000
271898972917279684053553678492109485020259600901316551680404330721184943369158152827128017907403154000206781993537522009597018112.000000 -196869848804685342613202849364401555291931701194758349992690612292440569518813176818217084606006030713388444271388718360237703168.000000 0.000000
-196869848804685342613202849364401555291931701194758349992690612292440569518813176818217084606006030713388444271388718360237703168.000000 71334192944595314345026531212968296728446948284701146709872367313246756295080984567095300263277669204275188117505964863920275456.000000 0.000000
0.000000 0.000000 0.000000
-114749286792291181474242746341067561085404874038791038332925608325462882362694952986631431348703311740561987745834697784201052160.000000 -311840557712266099211845168025214859008852797157570529418598616180716149421149829906215276242866837926081251987059763963009957888.000000 0.000000
-311840557712266099211845168025214859008852797157570529418598616180716149421149829906215276242866837926081251987059763963009957888.000000 179038731206282647402537783545644076910382883129039329041036236595478203880944100192831369848824603855331680753581143411379929088.000000 0.000000
0.000000 0.000000 0.000000
400904512376217869393748153462034663803769689068189806032876234924034393507089429620351365467102497358633094048970559216508993536.000000 -869135267077139305577411107398146682321548343675999109761115269011106694168382370904020778383595478148462093642229185451378343936.000000 0.000000
-869135267077139305577411107398146682321548343675999109761115269011106694168382370904020778383595478148462093642229185451378343936.000000 439225855974343882799678901927025688484489656878203321644543551044064545673381122920514975656350143697906356602917080149916647424.000000 0.000000
0.000000 0.000000 0.000000
-150075756922706746388672776276030964513289571741794682797885156836651314290058625383372160689466426164848949089508863653988794368.000000 -73796054938666208684985623409940280229397137315174410321174748959297144033084202165434381501868964123405615688010259337442230272.000000 0.000000
-73796054938666208684985623409940280229397137315174410321174748959297144033084202165434381501868964123405615688010259337442230272.000000 42862124287138757107250128780699089880017645198200287802425461925045872401372124876776284178336297568360203631180558455741087744.000000 0.000000
0.000000 0.000000 0.000000
-11345193227469979751541633576306027185630443593526483170085215538262466570098726989953232248541875677798343124504064257381367808.000000 -3997860380864201481006940455296915270082455021951115679679633857907268412502381444217104971815780241225204138277603632568336384.000000 0.000000
-3997860380864201481006940455296915270082455021951115679679633857907268412502381444217104971815780241225204138277603632568336384.000000 1802466541056363735003335832762204032155790096181511004663408759518686715048983524313732276470184223807585420323474091892801536.000000 0.000000
0.000000 0.000000 0.000000
27365379163384868106038038594337834568047140062372760339899544131406958775049973308310250420918266747027011353479942847793725440.000000 -222126760747210259256137553201279260384944711920160744062515525840112329245458812310004570246354543161105999122247083781045354496.000000 0.000000
-222126760747210259256137553201279260384944711920160744062515525840112329245458812310004570246354543161105999122247083781045354496.000000 125662659891625565838138816013760674612345927499864377644730801499850871946343224300085951070672110636631098851792406191569633280.000000 0.000000
0.000000 0.000000 0.000000
3346527089468166077165804763571207014157977249770551313049394668165130974243504739591442774014458686294800142278241185716764672.000000 2732371024904246745804361338806733883004710003733831319172692091910893978723516724661863703477453579674077823155252094333616128.000000 0.000000
2732371024904246745804361338806733883004710003733831319172692091910893978723516724661863703477453579674077823155252094333616128.000000 1055578928830816016293884418866583642230934874724348682474147157784980555405669839561537709090568103567590379688958509289832448.000000 0.000000
0.000000 0.000000 0.000000
590910618961636805050976531020061628657579341908854785293387601202966707100830338901471122376778364371578204253081350689681047552.000000 -106911035790960853630778760448018322171137334122247342092984894154974626202235387863909111254954524013751842818531832480785235968.000000 0.000000
-106911035790960853630778760448018322171137334122247342092984894154974626202235387863909111254954524013751842818531832480785235968.000000 12877457305629080976101489572980976976157502564891157838944364638673066169785296699368662140616502795189984018741626162148016128.000000 0.000000
0.000000 0.000000 0.000000
332747571753336319879871871712574273266526458808930259908918201764966433193545768775504945132547835626391644502845803600682156032.000000 -418302334234976484502476902862885672629585867919424121467278819854147199901158200637722563241974852270102300278977770279405617152.000000 0.000000
-418302334234976484502476902862885672629585867919424121467278819854147199901158200637722563241974852270102300278977770279405617152.000000 190184947198246270975697774401840531164312343460456803470828336257298214783844610182832750288936449343514704270614994506898997248.000000 0.000000
0.000000 0.000000 0.000000
-106223194062063040298014845318598792727915896594775144644683535641208537139117298403210331670725082368721683928469079482395787264.000000 66758158981558233500020630064375904511645299045365695018287752482165733223654961615827777429630466867293077839328190060184993792.000000 0.000000
66758158981558233500020630064375904511645299045365695018287752482165733223654961615827777429630466867293077839328190060184993792.000000 35945500601309242835078515189790319962055835250455777812389473899248332018505482943573461692588643177719902946110968583382106112.000000 0.000000
0.000000 0.000000 0.000000
442009926876209496256913661270929848635516789227807820826551343335092033992712541768466606424101636937091563823530026700699074560.000000 -147431990380857952126815713018435045273101975168851038360253443264550531666676906890583601196330344499402347948821831316223819776.000000 0.000000
-147431990380857952126815713018435045273101975168851038360253443264550531666676906890583601196330344499402347948821831316223819776.000000 30533009220437741562596119836173923358851500714830093721276576529821949723573810033693167412183771094362782097909227087126855680.000000 0.000000
0.000000 0.000000 0.000000
274339583846806236672214359242033407418169701852179990324849916817267274152001073861801030019569161211169757317256282552519360512.000000 -285796895162668232313897564945904691972340229744766073741129420773705386446265853674849128579597494075224669063025680625998757888.000000 0.000000
-285796895162668232313897564945904691972340229744766073741129420773705386446265853674849128579597494075224669063025680625998757888.000000 122363030337661612837657086635791830026804433378119945555904821300268833990588840307635618276140609445691808283409547861453438976.000000 0.000000
0.000000 0.000000 0.000000
147297699976483113495992146387968155615519052189938190277316908768360147051050872046829803978268025409675719614816534210700902400.000000 -310969486950564706371512616931626078010405210776032086397649298486002632167844355731685703107734713732133793054766849195637735424.000000 0.000000
-310969486950564706371512616931626078010405210776032086397649298486002632167844355731685703107734713732133793054766849195637735424.000000 156630290149695243714548371246550270550851391823254453985929874117969195185008750391472071349895138589772959496864097834169794560.000000 0.000000
0.000000 0.000000 0.000000
461854251922427971155621068864459760945975285251323841232775281961239854472146415674196557319788343078766911518653710987073421312.000000 -218673291535268592192472746645212885209412571698893530191612850918532607578020357513190863391335592522867626567770452581880430592.000000 0.000000
-218673291535268592192472746645212885209412571698893530191612850918532607578020357513190863391335592522867626567770452581880430592.000000 60441467992675009720955759266922902209028292742317055869620041519108176709112609758680453813993554138589056453709453517446447104.000000 0.000000
0.000000 0.000000 0.000000
963769257961300687476760497207807663625942481354637234902241393080291542397832480718292904812000768204740559079221259741190684672.000000 -943520955146897460790830587891743944049017110823556539399213524805569528329553861871570458732314883483141849334555243038971527168.000000 0.000000
-943520955146897460790830587891743944049017110823556539399213524805569528329553861871570458732314883483141849334555243038971527168.000000 394774453293446818118312861340860507616951996935889336029072044909630671353392865028447162715400276109798628723238681642608361472.000000 0.000000
0.000000 0.000000 0.000000
41189882435004578870134255735993632651788305521646171490067345027056952171409158092518997962032634838788899452827694873469517824.000000 98398553109902508012862479137136939951350736763981036098615495263276074011409850539253284710054793927050251341067096180809269248.000000 0.000000
98398553109902508012862479137136939951350736763981036098615495263276074011409850539253284710054793927050251341067096180809269248.000000 51532108189091224697829966380937327490396252376909128646726638912740162971602549047927787791399822331900150084028926240294436864.000000 0.000000
0.000000 0.000000 0.000000
47176436841235151902454944947824653990943240046186176314123761677615215882717585312375678479317190640314166333484899024263708672.000000 -59116904741866705466038335884097161369967402076045825844893991188018550499634417336941062811788402687571166205866950673809014784.000000 0.000000
-59116904741866705466038335884097161369967402076045825844893991188018550499634417336941062811788402687571166205866950673809014784.000000 26842411412040932650710492582499112972199968945595955878252259992668482930816292486701920079762159252745745667960924124179595264.000000 0.000000
0.000000 0.000000 0.000000
934904448671161511606980814376573434954715519320730541393314304062191010195387175769874123654431234188886948188086192754799935488.000000 -275994672377607622999277297343174250440547608175561543559796731045173359417847675764363342790402615556072189928916069910711369728.000000 0.000000
-275994672377607622999277297343174250440547608175561543559796731045173359417847675764363342790402615556072189928916069910711369728.000000 51340245629486815685363696037814127269456888337963722529007648137534995833938712242810679302599914865164392653206353711984541696.000000 0.000000
0.000000 0.000000 0.000000
199164965275872823617834025024383551964904235204217112365815722522071440611962163375449035090420637517088984087059158438328139776.000000 119013774117636421047533587157436191923843012902690330428891719910063385766370192029560802128040112973546618343198024535793205248.000000 0.000000
119013774117636421047533587157436191923843012902690330428891719910063385766370192029560802128040112973546618343198024535793205248.000000 41706605168124345978536852445644341208330790745884210440020445288189574915023577209987145035347903395477746457316866515393314816.000000 0.000000
0.000000 0.000000 0.000000
852328463470883529907337589642686956494296042049170954773445676865491886502815150661948716970735174892132367401916213829958631424.000000 46166077344956553792723273503323770967987346195286423630763768184977721356253238185620920116363073414461632560040037478391873536.000000 0.000000
46166077344956553792723273503323770967987346195286423630763768184977721356253238185620920116363073414461632560040037478391873536.000000 1965318399015742064912370685304286963061352539182589355931971431951675552837346891813286509059046937696087428603309954852454400.000000 0.000000
0.000000 0.000000 0.000000
419487731628466950546389508548457651766093169847849231336467840286054808469957202337129056850386825299934634377415337410109112320.000000 -87864856359722268513898149357275156680028817899561350985849128264066732377659730705802207844325757060006779483888979844291100672.000000 0.000000
-87864856359722268513898149357275156680028817899561350985849128264066732377659730705802207844325757060006779483888979844291100672.000000 11966174488521920080709175392677862514333624686031147669321086653610595573294948997133755678185877733664991952385729138482216960.000000 0.000000
0.000000 0.000000 0.000000
179210625677275667021133540203602075893126551391296517400014556652950157761245035621413254683637186540795179890696897822342512640.000000 -173264191638902909395103508403139039656201153979280732703531984823309890486215593286809925320755714286140810963455107427127525376.000000 0.000000
-173264191638902909395103508403139039656201153979280732703531984823309890486215593286809925320755714286140810963455107427127525376.000000 72921196667252103963117530384740357899868049921897975050916186620968250265881730290214550992517159284225497677713095574062891008.000000 0.000000
0.000000 0.000000 0.000000
-1026830004117314189661591657427223277287463804495044766092850201106842640941721329095957587770594794062616152389286657646605107200.000000 -399142354663844865512610301619960919065260395171498960182398344163151564740369139022024391615023996530974084688474456684429836288.000000 0.000000
-399142354663844865512610301619960919065260395171498960182398344163151564740369139022024391615023996530974084688474456684429836288.000000 188194995531336728836538360485437435871954606953623507847511075387758053018617557578114301129932107436749902813378021353597173760.000000 0.000000
0.000000 0.000000 0.000000
3639687367986716669911893687911399973360249973810027343560538762598864165838213355657604152454774535349874608769278250030699905024.000000 2945237168837509932580323695384959363604512203128750371019215690391030290078767976552045845566474515666747688775759654640236363776.000000 0.000000
2945237168837509932580323695384959363604512203128750371019215690391030290078767976552045845566474515666747688775759654640236363776.000000 1133021092244286301400375276300924098173030397395483742002558864442633889176172869920281861137585188845972813077747524251250851840.000000 0.000000
0.000000 0.000000 0.000000
118932737118846182469303946221343355174640983289649115293933460526255807252686324423372244735458385721722866680513757358852145152.000000 28333299825524162691256049686562049991085116727912470687242955645290384829393575081006361737354485611424878873135105347470491648.000000 0.000000
28333299825524162691256049686562049991085116727912470687242955645290384829393575081006361737354485611424878873135105347470491648.000000 4356005800024545402193701871790507056693283210916711582821877532890709009816363445294443554566485890121220635814277685226504192.000000 0.000000
0.000000 0.000000 0.000000
416354005252784456003642232608938464330465637212203852693460916964018504709085789139599950539395631845780642633879222260043087872.000000 185339930455741416720056809482587243172675136937060082574271189848821803655631276426262513218899778700392699963800422874420871168.000000 0.000000
185339930455741416720056809482587243172675136937060082574271189848821803655631276426262513218899778700392699963800422874420871168.000000 48182649089014678899073655073111399405512763634086611335470523841424576307724110054267552208529941352537310117931098727115653120.000000 0.000000
0.000000 0.000000 0.000000
-38587662363615849817035955381131570479214755325274088206214401508759600498619130961034618600492370888177195845696476254084458872832.000000 -2605528994148007593023981081461982091240235881148748847557190934492358432051044615195917675744950065184580417888056169401749078016.000000 0.000000
-2605528994148007593023981081461982091240235881148748847557190934492358432051044615195917675744950065184580417888056169401749078016.000000 342691927197601050404922521413427796041880781957422169791645156563003582012669814020544229806368347113540166171432591623179993088.000000 0.000000
0.000000 0.000000 0.000000
2250098096096246601031487033171948319158401145611331414261422400478486916984597229462974500736426445841656390781237831654522748928.000000 -1118605963542192460007197209844184127876333051454347291099610403340042077089221116928434747811282050753051541952264228381199958016.000000 0.000000
-1118605963542192460007197209844184127876333051454347291099610403340042077089221116928434747811282050753051541952264228381199958016.000000 318925603574868366671376689579474210884877481725846032142336339228080401676562356667246290671998233500416975402088234765552451584.000000 0.000000
0.000000 0.000000 0.000000
430883410959592704905215778196436422359279364358657190742033293067707388129212696050321119775875528156752470192901018526284775424.000000 -286403656632966454848848337711060121443429747921717252347923662838380794991888196975868844802818420374465890130353068420712366080.000000 0.000000
-286403656632966454848848337711060121443429747921717252347923662838380794991888196975868844802818420374465890130353068420712366080.000000 99101968853744306223737954047811146250260810244878766530145540069932311746988230897272402114937525622155186352379204220215099392.000000 0.000000
0.000000 0.000000 0.000000
-1698465438509583500386842967933687452098528167318529021172138416856768960000135113970098902775682125128389811254345976626999721984.000000 826534241673785671444953864357007631066080790093830641374113300677362620509206772946088607671047733033698419668952508682823794688.000000 0.000000
826534241673785671444953864357007631066080790093830641374113300677362620509206772946088607671047733033698419668952508682823794688.000000 419782093101374119445869317357757177769931101953249122978399531008468702741423990635069874423238939755302471833267700805421498368.000000 0.000000
0.000000 0.000000 0.000000
328471647587226831280335101173791583148530300681618676148733619751911393693848102375173675363367611550584710248932141356176900096.000000 -37865968664387749259582895607209969501264290294096854556718639703702291026482291175502171741154485846707357582516338874168377344.000000 0.000000
-37865968664387749259582895607209969501264290294096854556718639703702291026482291175502171741154485846707357582516338874168377344.000000 3394724833843183487777479970466247667366206983557774166407373216772665532819108182714104611166528064611488447598809344387317760.000000 0.000000
0.000000 0.000000 0.000000
297317162550093665712826984865192357212677874781191044257522377379640813129043492749888396177568105642764517550764204756016562176.000000 -426281983942747088207901146559328882450352525867828527936575444400107934950512115948066594406955718285641064647886582406596001792.000000 0.000000
-426281983942747088207901146559328882450352525867828527936575444400107934950512115948066594406955718285641064647886582406596001792.000000 200424864359045125298222379532133534949210210976402952945260448638536957161780468922973565366756893366656686931710310221998981120.000000 0.000000
0.000000 0.000000 0.000000
-6651576855531478559649911373124824447539602998910992917234850014851495478639169659900369366116836480713690220103527870508377833472.000000 -1543104501402747380101434473420793502193671905225288164334259813994039964497329831121901106090596595877539704302971954641577705472.000000 0.000000
-1543104501402747380101434473420793502193671905225288164334259813994039964497329831121901106090596595877539704302971954641577705472.000000 561963159121468339525304673457080475614951332517112125875700407809480309693211054511701711379073415247668511490107211791921577984.000000 0.000000
0.000000 0.000000 0.000000
62684587997214447292804337487382122057556303308279009533561177349027730150749221049459061335553152547678040164606847275967184896.000000 -194000805125121436940349400211237376997860265884956132928881780886591783866481239230656785410558012436685420472793679892404240384.000000 0.000000
-194000805125121436940349400211237376997860265884956132928881780886591783866481239230656785410558012436685420472793679892404240384.000000 101566736709816064751071047801298224283218528771837636555835981721175027301727467655763832757619296866367524463116718682409009152.000000 0.000000
0.000000 0.000000 0.000000
-26989057722941523485544201729685962460881185261298220677393000179400162642837688468048866788066735613710184594418757420651118592.000000 -521188950452761690933337848357129459707239451934975462148635238411936927326362341700494718324546536355184605754888447118356250624.000000 0.000000
-521188950452761690933337848357129459707239451934975462148635238411936927326362341700494718324546536355184605754888447118356250624.000000 292215549271156452641537432253005352062672042063994873511278560593681361669858725290675455600948210447167648643013900410059489280.000000 0.000000
0.000000 0.000000 0.000000
210954438705355492769591282166873287172549206704138199392051738462041212282394032832703129249707206517968488349712842171474771968.000000 275465191723583578537765594133339590627114103840875122869201644950963608327954833441135870370325619056328475937394534770112724992.000000 0.000000
275465191723583578537765594133339590627114103840875122869201644950963608327954833441135870370325619056328475937394534770112724992.000000 126537719294457011114499821340599219072304680081714629681154257090981524405049037834065730326470219908108862440392525157754732544.000000 0.000000
0.000000 0.000000 0.000000
19563073119960273103566731415844421933942874458549163803008274582704950747113487709392867300352310562662225490252266844549283840.000000 -46750203031487978155602378188248414372741298702376196200323038086533682292104821524665681376039633346507488732852732218597965824.000000 0.000000
-46750203031487978155602378188248414372741298702376196200323038086533682292104821524665681376039633346507488732852732218597965824.000000 27784947222574843758383866653945925958316720775294929715554529805588265321008951390894240956447160527401044300080591164873375744.000000 0.000000
0.000000 0.000000 0.000000
-699572460936221485237127521590900177204603431919988241831160349583987141202784035914855613533641190000029362646160544859137373110272.000000 10530458490814679949127214543974140174857418883818964301962175218642773353258786013328021403411936260881496511433514256428068503552.000000 0.000000
10530458490814679949127214543974140174857418883818964301962175218642773353258786013328021403411936260881496511433514256428068503552.000000 316494217349855696290745114885575136243014468182029724872042336644512866036283845991269574608632228797799372599306759908970463232.000000 0.000000
0.000000 0.000000 0.000000
-1700766903958065567676549194122231454028824461483696496461197726693123550072315833112876490677412325467911296090377935713093025792.000000 480511173163980296444949343826104782612023491269268079699689113837020122933309769685365454321692352675913877603984622241059962880.000000 0.000000
480511173163980296444949343826104782612023491269268079699689113837020122933309769685365454321692352675913877603984622241059962880.000000 196377539422945477155918417427823194204972856802101071556356345365216884905671876148919808217221901628473687519017809521521197056.000000 0.000000
0.000000 0.000000 0.000000
3009612033938257781725212838438481176546601898526720574773708456199506486314305962103980748386601687085100011024951614532315250688.000000 3225480614851799492494282223071132038474320845276752367141319936404830022601415929400274352712858463009981553027585686975895568384.000000 0.000000
3225480614851799492494282223071132038474320845276752367141319936404830022601415929400274352712858463009981553027585686975895568384.000000 1394904182239545319447917324780922129108778045279557024833422867929965380724026651791960326153320130953800885828526454468232871936.000000 0.000000
0.000000 0.000000 0.000000
261979928016366418736509868737124033224552462513303738288973950305827399841466226699906061703627118596453309253593539931717763072.000000 623204182666557012782983632056698680696519862398135062181703772118400168215371684441671437207425552003971788651668237982917197824.000000 0.000000
623204182666557012782983632056698680696519862398135062181703772118400168215371684441671437207425552003971788651668237982917197824.000000 318635702436907342488249853453423436582642035745319562818750104025071769274636612439378282829316302755276713398184755643597979648.000000 0.000000
0.000000 0.000000 0.000000
891449626581288999573987042862551634905058130644755966190272012432628376899483265622330628974588397126277913807321266052172611584.000000 601154107449945796907139724390172183635878889512241057807245550904789233295556725130613924479170341757347202217509930158119714816.000000 0.000000
601154107449945796907139724390172183635878889512241057807245550904789233295556725130613924479170341757347202217509930158119714816.000000 210310134552762303601016284896511033918001704342285563719024549578838530543595245107120091679908170405400398730349449497678970880.000000 0.000000
0.000000 0.000000 0.000000
-34901060228156603457658816264367850114942638655459825876827597859306249786988462794618753483933569948611933600339653773389463552.000000 -241448679334617988036752162955039324465990073169658195130851519170511883392068097931675766148859424367624174435937235721189851136.000000 0.000000
-241448679334617988036752162955039324465990073169658195130851519170511883392068097931675766148859424367624174435937235721189851136.000000 137560085360199767791474973380566128928153318452271386275444295960796401031611885311462822514358603511236166296004364459139137536.000000 0.000000
0.000000 0.000000 0.000000
-2327618695692350567203566461081440258189627830711196276778907320999233834658709894505122945079991711931618068965795786206834851840.000000 481063581647774638937661218456418008697022713795673073113185931993217705102701546879689807338754484793825658876704493647899394048.000000 0.000000
481063581647774638937661218456418008697022713795673073113185931993217705102701546879689807338754484793825658876704493647899394048.000000 162465374567964671944114568180137901330497207308727667709418992620369655640172452645215483690093007638860311573240891745180319744.000000 0.000000
0.000000 0.000000 0.000000
-6451835997906642259893992105898531668898787393817271262831973710469823086994775597636830196942929160792462262902438125310574592.000000 -106305730125995328450281779248285137234228657436686835037052751104176704001222165834898321210416328804146862088383849586942279680.000000 0.000000
-106305730125995328450281779248285137234228657436686835037052751104176704001222165834898321210416328804146862088383849586942279680.000000 59274380371183165036087447031724105918752955613847385370434804484346757410202850960610399034886507422365065426585689435236466688.000000 0.000000
0.000000 0.000000 0.000000
-7602148663556954252271378417382950764907167962168346762887522511307473398516422410217290995678971488496007848117248993866270375936.000000 2124336219351505171979565558358237674628272390072864867270068889513223580798824296680721098043384540397814866013304280689080795136.000000 0.000000
2124336219351505171979565558358237674628272390072864867270068889513223580798824296680721098043384540397814866013304280689080795136.000000 861242177075048738402365108259430386485084066106173209300159576036089997064590492062828241906609086306412524296381938912557268992.000000 0.000000
0.000000 0.000000 0.000000
114897338182341828676821200688624882248277202014448279868247365995818031480915684888154856157415975875134711686773088929886240768.000000 112895972032220922833549343531334987921269881667342278011417174780208901470148594748183822157902668755895947310676926203521138688.000000 0.000000
112895972032220922833549343531334987921269881667342278011417174780208901470148594748183822157902668755895947310676926203521138688.000000 48343168065745807442263582421366802563963689167090438469736996519972278288058003039218922329582752565847310209040822311411777536.000000 0.000000
0.000000 0.000000 0.000000
8754677078238192767743979723887317685675775443926499297100180522468343389392639847570176374737400147637523731724521341890592768.000000 2034750316869740763003603551116446228578071708631513925533622925145780893130674998292942215870516974596808448112355287431643136.000000 0.000000
2034750316869740763003603551116446228578071708631513925533622925145780893130674998292942215870516974596808448112355287431643136.000000 3062394823957421241797321602106633446548514832582241199505371226239967995307813434340672302609136983133710028665253062638567424.000000 0.000000
0.000000 0.000000 0.000000
-64490601413242103356956450124110040256722412821683776525798390381484346816423552018157828902402825324910803846905059557572083712.000000 344520323666285637033738452339083849135611977695745486749952887231219338898294239671161749906779995368842051125275364673309376512.000000 0.000000
344520323666285637033738452339083849135611977695745486749952887231219338898294239671161749906779995368842051125275364673309376512.000000 195683377485048540823970302583758140817793989336518457719462935280295949744744304837328300922165890437472862992927704167185645568.000000 0.000000
0.000000 0.000000 0.000000
482133607499380185644505463020081347047828879110048668122712472095350316528535687754455901044407315633877874992231902671836020736.000000 470560976250634252332915296232481133784206273045747201892137341661609208428589479420591199927889383474877277876007076110918483968.000000 0.000000
470560976250634252332915296232481133784206273045747201892137341661609208428589479420591199927889383474877277876007076110918483968.000000 197015506647513365599845298805198565697708824442564933534171082498419897956655241934807742301367340872478707798655669683858964480.000000 0.000000
0.000000 0.000000 0.000000
-189193884725576492134530521080215233521247960858417163367935716632587815024090134362343914010116734529199839423504439763137462272.000000 531246188846683423447090844551361683175455998669433382142135846868039409942923403389051367865105202673659283104691848944405184512.000000 0.000000
531246188846683423447090844551361683175455998669433382142135846868039409942923403389051367865105202673659283104691848944405184512.000000 305132360374923804578459909315621343588301606970831082244925958331893966539561075488064931226796516179703333263378083600700276736.000000 0.000000
0.000000 0.000000 0.000000
10918274184520860348279095164277705002698866381575901659407414852696060492248200437064144141217305701809527125192611178458644480.000000 12290589852867173938535768658266545595284604865873134681494519881009760738250914426164592919371965442860992582056100863267569664.000000 0.000000
12290589852867173938535768658266545595284604865873134681494519881009760738250914426164592919371965442860992582056100863267569664.000000 5428189325993673559209774581252657845643067387990987693252139088169471406143169597061749135476470427212637241962227201501822976.000000 0.000000
0.000000 0.000000 0.000000
-41643029266805592147679837687413176952837304739364097805868930466382881247876932956801637425791232227912566717697838635561254912.000000 -2840728657566964731253009839360908837010873313316256628519026204034751373656014058084343558234752565663726582501395942858555392.000000 0.000000
-2840728657566964731253009839360908837010873313316256628519026204034751373656014058084343558234752565663726582501395942858555392.000000 532583416274100063316992267877775183442760220752170377436089723351434060151541283390385430355441486509579000320457722029932544.000000 0.000000
0.000000 0.000000 0.000000
-63990133511064487885058204579840352778579446761755339686651564931820427670734716894183932405480728911398490842836533715530678272.000000 -1164691634409278379719604704105855165194621652219980960758081240894053232790840104605912281682623129691571707548976788586367025152.000000 0.000000
-1164691634409278379719604704105855165194621652219980960758081240894053232790840104605912281682623129691571707548976788586367025152.000000 652932726419123334574909939812003093008236015623704000516609827066039830446007925223430372468276581004305642876536755511455907840.000000 0.000000
0.000000 0.000000 0.000000
-673051910229557647118342069189708043728953657739453931674467375622254273890794334627610370353178150973704195800174379925504.000000 -613106957539360766238272335088296863328433828733381915917517749857891212719796402483772439499779792170813157876738979528704.000000 0.000000
-613106957539360766238272335088296863328433828733381915917517749857891212719796402483772439499779792170813157876738979528704.000000 346649954834941603937557950281277264752150012858455097225057706220890623652450325422253112124267480991625166832956675719168.000000 0.000000
0.000000 0.000000 0.000000
231547982072877806112043046865856902864220824602369094526827662096217426848664724318096568357971377441648031570534200361028157440.000000 -232702605224155362743505374856062899011874005266125978519120396568112111545846933970302969784465314158618899434577367123858817024.000000 0.000000
-232702605224155362743505374856062899011874005266125978519120396568112111545846933970302969784465314158618899434577367123858817024.000000 98656865199194123804736834451350760254126834631261908833777391474545652925886096102917215473842502888477539857548560239584870400.000000 0.000000
0.000000 0.000000 0.000000
-46973258400755911170715236433184748514551165589094834096209818329746982826605012700925416878066491788050910214656567683661692928.000000 179453209112122764472942231415758283866770468144677700633213464963287203484356420254477100175538468555102899487782265645078413312.000000 0.000000
179453209112122764472942231415758283866770468144677700633213464963287203484356420254477100175538468555102899487782265645078413312.000000 103178948469661039548557585115243175017238408501802262686364136847162360948026389349692800490645409990747549104542552558195965952.000000 0.000000
0.000000 0.000000 0.000000
-195134685486992786553350653007941256423415231368370271394292059856261350396130263861966581561575854814762355281204417865206202368.000000 -124776506620130036633502949332169919454272857624774124670408151902209034880908434114015578728044607892456748014070762238159880192.000000 0.000000
-124776506620130036633502949332169919454272857624774124670408151902209034880908434114015578728044607892456748014070762238159880192.000000 72398676989217793454341841488652331214297771710382332976085041185528358037870472071324729007016660665624054005957710725605490688.000000 0.000000
0.000000 0.000000 0.000000
106186614694822098257607265502853570293160311374529492690420320453248355576160936176897474355198889222905874022521047298833645568.000000 -73725927787157999229156193444322636611704902234477726177967123185448016674554382444192649943478082982630072477711728212583645184.000000 0.000000
-73725927787157999229156193444322636611704902234477726177967123185448016674554382444192649943478082982630072477711728212583645184.000000 26162357592011204960326927195986934803267896216533903229006005032918265222457361666106503959332463717749219640534523937827061760.000000 0.000000
0.000000 0.000000 0.000000
-1643822753427228117631809644089069562062236203767202249109637241864593957127413912997956826813958473411026369371073457785378177024.000000 -534842418771873909108681212891237679950839238858240632809573991982189238467222483652532673757266191311643880853109552465238294528.000000 0.000000
-534842418771873909108681212891237679950839238858240632809573991982189238467222483652532673757266191311643880853109552465238294528.000000 233636632948524383443717155918405503485057241861331878502982433266900284673247958293491716344118712193967296890142533534531715072.000000 0.000000
0.000000 0.000000 0.000000
-34122253516303696699236309149946871351221871540569037151662330584767564928774905721769859464229065884176991097790230383005007872.000000 198176772452866705665091062599838772775178778469112111551567658068026416159043143000665750246310407726831681605232230122437738496.000000 0.000000
198176772452866705665091062599838772775178778469112111551567658068026416159043143000665750246310407726831681605232230122437738496.000000 117317575444093231208594160988750811899331987647613958213648113620477119393111827600986600894432811143414619286064167159217520640.000000 0.000000
0.000000 0.000000 0.000000
-11192957249428400903136442886924836790311887438118402771346497109543139697118310573947390216242240862242695891545158650611103694848.000000 1651189472963360266274246127477588453232802479623262137847804121778091603589697854029941608035944210552210026752409486377579708416.000000 0.000000
1651189472963360266274246127477588453232802479623262137847804121778091603589697854029941608035944210552210026752409486377579708416.000000 434444612666904468945324831154970064717952566566708481783610218097715567011089344461622811142931661557624971061805603765432090624.000000 0.000000
0.000000 0.000000 0.000000
-988032518901839460166539816960148317535530143245837440429134250868193619336864811660957722502704433441884640702359879074535440384.000000 -320124612603891895501379652629835274711591900928636484178809670873860144822451456650419568112637143336066456357757217248095764480.000000 0.000000
-320124612603891895501379652629835274711591900928636484178809670873860144822451456650419568112637143336066456357757217248095764480.000000 139372672057328129066371125844177842859082334503263309192641661147882375084060055563220523197397764865730262769691168412362866688.000000 0.000000
0.000000 0.000000 0.000000
158071224018246575695084037344802899775998863129045435675926336094791001670944046977607716375462793100727669051190554589743022080.000000 135456762465055906311512945579170006431233947854295565072408602498459559431127344092640162749321157309994373155688774464339705856.000000 0.000000
135456762465055906311512945579170006431233947854295565072408602498459559431127344092640162749321157309994373155688774464339705856.000000 56611582096703518925313480204450198365875193793866204625426240412561911023589785512290591073251963842724241036939228167339507712.000000 0.000000
0.000000 0.000000 0.000000
-4725445495573224057772080272276720538730319743707724387456406012851468461061691049063777503455776192232369297743338635693916160.000000 -1041950815224286566015393584990495955058239995980496743901975842240449156077178983807379415799261346388740336918240960859602944.000000 0.000000
-1041950815224286566015393584990495955058239995980496743901975842240449156077178983807379415799261346388740336918240960859602944.000000 368430198108580955674023302712761908601904880795504413109993732204352550396332345841601565389515778068433320823264041305636864.000000 0.000000
0.000000 0.000000 0.000000
-417679236146381708986227934636640799362165682981324345129795240095785980666424676408572586035616709715746922513254883027650084864.000000 -418292138036767935627660776197244710755612329352437731965214533460442795937222958470821842010743395284357942201998697195043291136.000000 0.000000
-418292138036767935627660776197244710755612329352437731965214533460442795937222958470821842010743395284357942201998697195043291136.000000 237769532713638577205487869898088424141690244387363700709258772545396848022595423256519284767222558276158905961795114658103820288.000000 0.000000
0.000000 0.000000 0.000000
-115699274444592480989723400242901596963084407482836321243153412173134750784506732433787875712853188690239533395624783706754908160.000000 171679498951188426316803989019547572005388312222735881497696055740782884606005688466274335921860200749407134033153138455430037504.000000 0.000000
171679498951188426316803989019547572005388312222735881497696055740782884606005688466274335921860200749407134033153138455430037504.000000 100660718097954321626678071079322170283332788823029911798917786665726272520809106910342791930030299206549366974945689483499012096.000000 0.000000
0.000000 0.000000 0.000000
624714228002698216154082977638394701979712094600052270277106444195269429721364728239110437627530048939828066982505954074398031872.000000 120523362382564260350234260167087129286556131478268822718195868616630350985888377961197647100602086567936091708931348054195306496.000000 0.000000
120523362382564260350234260167087129286556131478268822718195868616630350985888377961197647100602086567936091708931348054195306496.000000 15127707437388458086959460428493025982404759058930686788602973116736122361619794834308636688885984126433254802349965734441910272.000000 0.000000
0.000000 0.000000 0.000000
3195694911907985076781526015803963585491437153250734709594477047473265800321487493148667004741002165149290983587422398568873328640.000000 2301896571103829219776534961225851962865830501623694514636408654846099880972047234602510828767994603244624616029606782774882074624.000000 0.000000
2301896571103829219776534961225851962865830501623694514636408654846099880972047234602510828767994603244624616029606782774882074624.000000 833617862300832053064260040308945359682411948188354814548790592823986291302812830609135197274388267276933444489156700028507521024.000000 0.000000
0.000000 0.000000 0.000000
589564744628967933417072091571610231196267345283563492847488791080041809808367135126529323274607184833991212677379491236333748224.000000 -402073141360615845367253202200001509577714209634010793421356098229961436157111053716497339978510256958761998431725432532663009280.000000 0.000000
-402073141360615845367253202200001509577714209634010793421356098229961436157111053716497339978510256958761998431725432532663009280.000000 141226735415338636119174461516044972367890067865127029120972779101920462058337567123928525919271561152104048097623545432628002816.000000 0.000000
0.000000 0.000000 0.000000
-1978502435092402663527752434883120629764836860890062778084983324777473085136632987636561226751653742428883297637338223570017320960.000000 -1730707097859787073538721527261013221051293879921646324590573213835278771839270633720230526150961610663027205493552208480921714688.000000 0.000000
-1730707097859787073538721527261013221051293879921646324590573213835278771839270633720230526150961610663027205493552208480921714688.000000 974359953605468213821055882712247674324050288172591428574534630630096913564483002310701622900361065500741642439780539006390894592.000000 0.000000
0.000000 0.000000 0.000000
138520635306323757074199050500111299591040026793389933131997890951953073461388732178757089243259078550248069942943711230171283456.000000 142548428104879849352665264939912129681692904344061606930149427453552416817541278208258929979897321038844991012295773772671090688.000000 0.000000
142548428104879849352665264939912129681692904344061606930149427453552416817541278208258929979897321038844991012295773772671090688.000000 59270365757739227265643310732144617314479973319297833378676173762468889083818962130309335641731595807774156765527893727095291904.000000 0.000000
0.000000 0.000000 0.000000
-246943771566756719829566800051560373205477932766336620226126154387485544809010016805770205270968478314792438412704237066817372160.000000 103696997610196050533197556512967695398345580335950858774912735446444939314422762544155861877632680493532639231056847662730969088.000000 0.000000
103696997610196050533197556512967695398345580335950858774912735446444939314422762544155861877632680493532639231056847662730969088.000000 50708594049985731113158162123675972077923795705859401232056425321368753118640226243921277868510052308385099513662156212765982720.000000 0.000000
0.000000 0.000000 0.000000
-8443559994125098805874165200622332007642674902115158801065298664147471966961327306173098509015516720655598733440443397108557414400.000000 72154308646677598546800141704362797634300044523744434651223000664589459919013150955706710300670603879111361822335379923387023360.000000 0.000000
72154308646677598546800141704362797634300044523744434651223000664589459919013150955706710300670603879111361822335379923387023360.000000 1504068638051297195373676402599750581446299563068934491286339376833204911031767648142531834960344062351786775979856333379731456.000000 0.000000
0.000000 0.000000 0.000000
39107127459731732283691279755772981202605889172482889619185393895487002974609005669615497655679321477271298886706491383504437248.000000 -63878211356625833923054786352147493376288850548406340220808006210465107440640654515496115225184630457225681580708346954636066816.000000 0.000000
-63878211356625833923054786352147493376288850548406340220808006210465107440640654515496115225184630457225681580708346954636066816.000000 30878110456993599876299759654503442242539935939156445248839486935008256934408309845713852514251391527282376690501749268570701824.000000 0.000000
0.000000 0.000000 0.000000
29695198576806394386689900142981728381248387640144361650997948738662993359719244046841656816291303809931250329147905862008832.000000 8802839095874297988709132142740984973581571645344421803278686166275665590083914019890329793256680657583477018868953846382592.000000 0.000000
8802839095874297988709132142740984973581571645344421803278686166275665590083914019890329793256680657583477018868953846382592.000000 1643116025011813209468976084579892033425224423303094096601416493731980737147445909203643403287821444330596047035090092425216.000000 0.000000
0.000000 0.000000 0.000000
-195810445286378030222334796547770064281863558214463679126959934168151584424065947273773575700154439674073372244389907883500765184.000000 -302901156269822720261920850786692829733160401104663590706076547996868235918131450229579456090140074796591122384014339221883977728.000000 0.000000
-302901156269822720261920850786692829733160401104663590706076547996868235918131450229579456090140074796591122384014339221883977728.000000 174704537483215369942981620681806688386780203253477979057638846284856038603088839463564628962215838482753909563701175437810991104.000000 0.000000
0.000000 0.000000 0.000000
294282888352712164134153842580366621752937319290045864983564530484866832684736418216554957513780248527439778104021358935682318336.000000 -886507861154981818373764876613251925760620011517116193445128874544324803175350616923079702189308934518900463111973382353252777984.000000 0.000000
-886507861154981818373764876613251925760620011517116193445128874544324803175350616923079702189308934518900463111973382353252777984.000000 463130523201243052443535971368386307503270928161639336418201953505612127370139715619069014786107861694908822032816849277320953856.000000 0.000000
0.000000 0.000000 0.000000
2505436788174800861082626513311398072716825445625499625745212968853338900600027281010419829153616640979523506715084646994935808.000000 1769806646270697771947819974988090151676694212555513816581200471180812986075533787477802206486429843920671815549416579172139008.000000 0.000000
1769806646270697771947819974988090151676694212555513816581200471180812986075533787477802206486429843920671815549416579172139008.000000 639768233439600197901792318674352300749402568253004973277813558338913334664096407396867505035662956465450624618573161486614528.000000 0.000000
0.000000 0.000000 0.000000
195605864387290473577274332482448658427864333472544341923245145138180641073633814836315840826127623173342073596821178008157028352.000000 24339271702117479993315611932197413017531754357552717969897672969974282015072797220977225368235828904782664367910044812900827136.000000 0.000000
24339271702117479993315611932197413017531754357552717969897672969974282015072797220977225368235828904782664367910044812900827136.000000 2618911442637091040849701945768969733756881267098638989468118424633201685887014413520399763692681221430309827298078390732455936.000000 0.000000
0.000000 0.000000 0.000000
773892212098309029927021293636011742488879764016405475878241556255329352801934665103097898708431460305020369530880905315352576.000000 347624372182463019920928252680266009078828738362981326323242302855689340997935298854598550882456705584620988908122415938142208.000000 0.000000
347624372182463019920928252680266009078828738362981326323242302855689340997935298854598550882456705584620988908122415938142208.000000 117917799898456009167201991394573670630510304981359929467070936004281122969924022632016651793481294292098427879374892551897088.000000 0.000000
0.000000 0.000000 0.000000
-4731595496715258473677525911001531049938707856890545173245549955739439745118376316685148449138449733072524680028305855377022386176.000000 568538250118551216801784496162747054153869336086370073931647977661873928037889196618712542233451320149849801879991250975736201216.000000 0.000000
568538250118551216801784496162747054153869336086370073931647977661873928037889196618712542233451320149849801879991250975736201216.000000 129327067886937526121163479482736442345833424471362766423545826580544158437323731273351626196961016084899720438329546960642506752.000000 0.000000
0.000000 0.000000 0.000000
78836965237810854368647113017055032669376847979129464063184143312323624989821774714198797323401262257219186205068035417591250944.000000 -310917544506231122917215689273307856341167617992437432386267757997770461494581101416829888671834217698031406284002450776728272896.000000 0.000000
-310917544506231122917215689273307856341167617992437432386267757997770461494581101416829888671834217698031406284002450776728272896.000000 165337773184374863291388434132378638409218097197674286501781118932243930952095648179049402191706071881589810552305212037244387328.000000 0.000000
0.000000 0.000000 0.000000
40503485260509164162586512493666784756595712846258098856560422736374389525217969946726743057082791820494618389271081996204900352.000000 -130132810356788513982713768246625280710274112789208027864717334460527230433001563136883149693742529757884460755679543373594624000.000000 0.000000
-130132810356788513982713768246625280710274112789208027864717334460527230433001563136883149693742529757884460755679543373594624000.000000 69611997128865095531061457154301739117901649558905224228964231055659298358314605059359784489407691341653420583007603359527993344.000000 0.000000
0.000000 0.000000 0.000000
-180179467968935075635434531259613644417782018102614972470735841357397831349222106043874205510655485347977649235250437141246771200.000000 228452361567761908282364366451251234567606367384132747773092028827509290509630325427515269461226015885659844399771324461808091136.000000 0.000000
228452361567761908282364366451251234567606367384132747773092028827509290509630325427515269461226015885659844399771324461808091136.000000 131355865133939941926448621684148822086827490894477445240838586445482763892487225005967533611292485178177155348556166455367827456.000000 0.000000
0.000000 0.000000 0.000000
1846240950179856681581245855745087916321160738810864477932460323450220276436546883015339407090295441917185130512240777805955072.000000 33100413788871493226272427349553414989366420573528229284993559393542036846658890976490486504674201368573084491809879725575241728.000000 0.000000
33100413788871493226272427349553414989366420573528229284993559393542036846658890976490486504674201368573084491809879725575241728.000000 18255209924746812458664278043687029320637401464435915034353615440103096005083808641285353618221268451744789343971867733599977472.000000 0.000000
0.000000 0.000000 0.000000
-1118633486970163290954312870103404617979035841661698070878745441823823890237368546217008341492545467558476504055135272241029185536.000000 -239848642419687993697664958419332480184291709680286581171934454918836524565857033753227210789005202436763957258832764530233180160.000000 0.000000
-239848642419687993697664958419332480184291709680286581171934454918836524565857033753227210789005202436763957258832764530233180160.000000 84800863844009672780445218112170262110998977122602322604338476268886625676624818641566900023583951354566199993406046685454401536.000000 0.000000
0.000000 0.000000 0.000000
-31305703863692820582408300350767044148765957736941253008409334670274977034138426480203458510761120787221072472683574434428092416.000000 26548558792203859333081251504242754859261828924238652691896611954998197537385759230302550307894175276827152220770585650449612800.000000 0.000000
26548558792203859333081251504242754859261828924238652691896611954998197537385759230302550307894175276827152220770585650449612800.000000 12873063533119360051258073301827897147584422574555155124273837400105638930853720919846337140128961089405170693651025848828952576.000000 0.000000
0.000000 0.000000 0.000000
-74938927841161896132117338846878749196976767570989319315441510659460875282633703958293329273812275306411127793809444085786738688.000000 216171986975622528962546983726513209432605778841025415813377612193701931155845901399147488025913363956115469846364556512790052864.000000 0.000000
216171986975622528962546983726513209432605778841025415813377612193701931155845901399147488025913363956115469846364556512790052864.000000 124108900107590522412460845126823470857880925456380123361321260813112233118264061155203772120814138320150355061512652641793998848.000000 0.000000
0.000000 0.000000 0.000000
-138005221134546872836735651995288195327660065064167911599710352917676830828900448771847953914003863651989041738684667067791048704.000000 94902834241981324760316047328974681713902758401822337062938223152151098262594213396246983595504756848211601456753409234439241728.000000 0.000000
94902834241981324760316047328974681713902758401822337062938223152151098262594213396246983595504756848211601456753409234439241728.000000 51777808292061100094136856205522804875577564142195660954249768978259841704665918975450341993253273145365424255393595223959404544.000000 0.000000
0.000000 0.000000 0.000000
486144310917892163897403549047201768484801177685372484991452859347741744274137030660898016083674700406734317839770003640254726144.000000 120323739819712639698874976950783650915100244328176852671736851707687388248756454476231590127310049736565609202725980133369315328.000000 0.000000
120323739819712639698874976950783650915100244328176852671736851707687388248756454476231590127310049736565609202725980133369315328.000000 19124725024470014701446491262706648550194209228959289642373152383058853683904247151737963635257806049410219943802888650139631616.000000 0.000000
0.000000 0.000000 0.000000
16415335303072854533948595539162909033586285660372370945172208764411841269743432416983512998995070709382417177352741924634624.000000 10959614189061898539283241800140434145725610598343539008116892460316513369300779123329586697405726921922304926419300443488256.000000 0.000000
10959614189061898539283241800140434145725610598343539008116892460316513369300779123329586697405726921922304926419300443488256.000000 4201130312776930221942844552168550258908988576130261952753338132514629836309284329541580960683551343388431422102449296506880.000000 0.000000
0.000000 0.000000 0.000000
31476821694506774672329782442783612367400199927556660724123447280772560799675261780031636491137183357085658796431926072906350592.000000 -327793975315048595535603731064665476954720438613658315042447859369693630410856986116771865072003406194997584971741334672225861632.000000 0.000000
-327793975315048595535603731064665476954720438613658315042447859369693630410856986116771865072003406194997584971741334672225861632.000000 179567255825518371669928488156627761702290272575547633228283744255372252201953811030298410267991638376667087282524518801752457216.000000 0.000000
0.000000 0.000000 0.000000
389232646023646281032658160488736590385353490595168260308448764614255380351920622282502236808420232178812905275474891429461884928.000000 -564213604839564944956716871761258944813482794892409429564239838185352537528172226247782514461571533577628529886407711343484338176.000000 0.000000
-564213604839564944956716871761258944813482794892409429564239838185352537528172226247782514461571533577628529886407711343484338176.000000 265954110796259391298996445342008310771901963556037957182585048752038003899241796706642962743422729220669278327948534748685533184.000000 0.000000
0.000000 0.000000 0.000000
-668637671912412284587195997769049436543461645712132724055175090464835630750070996688316483229020543495429913595355380101748359168.000000 302902889534085024425092213119901287500758802743526360173830763494112565519317599987704095521907828979092595153915952862148427776.000000 0.000000
302902889534085024425092213119901287500758802743526360173830763494112565519317599987704095521907828979092595153915952862148427776.000000 150549028291653575745717690701495875185669244397745470939974088819224737456130765427357560903093532635130871014721986983905722368.000000 0.000000
0.000000 0.000000 0.000000
117292090967641872671785981366066289467386266715040069191692738099680337389531192523683769510324238071423321696855657660685484032.000000 501346173641264004988988553222690623769512686818380600027865642731587122557615070491547759690729360221816165837393977606701842432.000000 0.000000
501346173641264004988988553222690623769512686818380600027865642731587122557615070491547759690729360221816165837393977606701842432.000000 268379913506474653479945523104361645680722082257681965859700284532842726731105716607328079661333216640139872353429314783831654400.000000 0.000000
0.000000 0.000000 0.000000
64830374478069152107354155660409700064220431661156070239016999260649377115389898877432703244872049862731061745897982973249060864.000000 -121250607298199214190096368600354494864029274790045276281511251675116731833748392131610798109311738132700526891784641985913028608.000000 0.000000
-121250607298199214190096368600354494864029274790045276281511251675116731833748392131610798109311738132700526891784641985913028608.000000 60783058411749356676790403101314116511109836122800281677953118650733573267807915924144072038528062802344089211633545506147270656.000000 0.000000
0.000000 0.000000 0.000000
-2968606913669631003838596520203798359521586122544381116179647988198454973587590200202765162069201206266359013663364584302595538944.000000 -718846072918424022252215482568425704973252034638681290511977156768694180724144075113061763836012718879550841758730658625286569984.000000 0.000000
-718846072918424022252215482568425704973252034638681290511977156768694180724144075113061763836012718879550841758730658625286569984.000000 268563637480674329153106765627544482307404048859527111355102069384672953953896402247467092065827962275689087354670780939254104064.000000 0.000000
0.000000 0.000000 0.000000
174631289094113436146232479077278367869781616982283730796054975913357102556635574594828746447247373764712762032189227055001370624.000000 -103203130326999128340971825537275829095431943569895671224738308043528382298913019048417477697699783378317854480683344324041113600.000000 0.000000
-103203130326999128340971825537275829095431943569895671224738308043528382298913019048417477697699783378317854480683344324041113600.000000 32763560419318550593883950865428520634057585254182114934650504003275840716679151158361936055710180920084572709599021186437611520.000000 0.000000
0.000000 0.000000 0.000000
508659273446414455222406900886688151086451130798725359697792823665812009467674810422100002148642315515626723550561291921952604160.000000 -266497605188148492641351761442100436373470425381167870489136962864695453824226466008619258261833815334349749768297093636235984896.000000 0.000000
-266497605188148492641351761442100436373470425381167870489136962864695453824226466008619258261833815334349749768297093636235984896.000000 78946838159459455013173140998272908845795093624350111855258731050237219266222141133697471910466970289787275076109403235771482112.000000 0.000000
0.000000 0.000000 0.000000
409867394988914709440562032663539139473824976542753667776755274092510148268204021172637087734626695582563114132096934492537618432.000000 -109645624207980629095768490046178666059424978460526499040446744211562120801413810892904385253408102880935886598353171572164919296.000000 0.000000
-109645624207980629095768490046178666059424978460526499040446744211562120801413810892904385253408102880935886598353171572164919296.000000 18664037289676486065603908764325830472556514593622212959982593957970107581674061656831331228935705871615039563124071411440680960.000000 0.000000
0.000000 0.000000 0.000000
130426309781189233837412526454540719483117299491947418922767763705952568678940560753766932902367646237445702067621677186882207744.000000 19845366149518312314331930156559192532776578480208653101762486319610492243103000524214867810932951889632326698936392812404408320.000000 0.000000
19845366149518312314331930156559192532776578480208653101762486319610492243103000524214867810932951889632326698936392812404408320.000000 2005110055920028994342361786888152325929987146883797248777409279569781012436413383720856736820105253388206714094551679715246080.000000 0.000000
0.000000 0.000000 0.000000
328070202957426121479074246817966631115319041491891798379734771853697583954934739897449600851471995367967799476755700296435367936.000000 -298498786602171498507349661917722337293691322697643411331004192086548180213123575717529294538651165646034706138487155315802374144.000000 0.000000
-298498786602171498507349661917722337293691322697643411331004192086548180213123575717529294538651165646034706138487155315802374144.000000 121733299006166178828045010179678560772009741979444432775744500083167338600180656470549914399192807811474608701607870840631721984.000000 0.000000
0.000000 0.000000 0.000000
100517351512377505453814284129074545951447820315972114492000194065487803936430436931746004773667412405917450877929342208093192192.000000 -112598675320365940599200348334234656122617585392276176677544344392952381259647138432057483189644160857156592879319906200892473344.000000 0.000000
-112598675320365940599200348334234656122617585392276176677544344392952381259647138432057483189644160857156592879319906200892473344.000000 49445348391196807571207230947776733561320741761170157419682619678989131157485739196261332713352395682859813470157350458921844736.000000 0.000000
0.000000 0.000000 0.000000
132518558199304314328439818769499958801819190113883277515077722108202634510592991426174894124717280151024013700478566327438540800.000000 401500619845915132525985259478295094561426635608479307838908589397557453764135043889255551642115257345558089508985439923201900544.000000 0.000000
401500619845915132525985259478295094561426635608479307838908589397557453764135043889255551642115257345558089508985439923201900544.000000 211050566623236948901001345350291878132459103585363303685323486593155431434538963740424723350655267738051945017254152612901552128.000000 0.000000
0.000000 0.000000 0.000000
1483451934637128313972248609595878646122103823697350331264298730974661891850901134358228270021469058568128243655162641807157755904.000000 -676344494177420890175716848891153386046905206220445631677080692604423037426945101566678739088989005992056786898315392805154848768.000000 0.000000
-676344494177420890175716848891153386046905206220445631677080692604423037426945101566678739088989005992056786898315392805154848768.000000 180839612120404478876664047604413033654860318562519484010082509236439716416906831746704678266705332788348670888543042748771467264.000000 0.000000
0.000000 0.000000 0.000000
158432152322750774103512984786364434643706653300725359481239726975989349151704719664759899559955069668597556651307551470078918656.000000 -167550690092701265527745837042717391533140623338235815240189584092671896012517964940779647003503985776205784812697894801530421248.000000 0.000000
-167550690092701265527745837042717391533140623338235815240189584092671896012517964940779647003503985776205784812697894801530421248.000000 72136929603692351464646280321951485805273863415394788855379257341204624626121962574883968706598401632729784119872429546815881216.000000 0.000000
0.000000 0.000000 0.000000
17593561762126714085179505602722733071441840842058571824271756151640986826824202595056281224092241985518010689071450616837963776.000000 -166714756835827123703486705494714983076154898165600447737091492022612361501858262432438922108409873345524525804956462915644293120.000000 0.000000
-166714756835827123703486705494714983076154898165600447737091492022612361501858262432438922108409873345524525804956462915644293120.000000 91100005150378396639413774909645638644436509830720479603066139475859709069371732863382906542841584449650602590590461233313349632.000000 0.000000
0.000000 0.000000 0.000000
103297765545582065059050336999294898277574182527846370180345755803585097780175480079970153984049482865927787492332854272443023360.000000 87326045269463247719160247825249094015465068980393665514142773831135891266683192248432190641806073460051766095949495517763862528.000000 0.000000
87326045269463247719160247825249094015465068980393665514142773831135891266683192248432190641806073460051766095949495517763862528.000000 34307523558457068177671550573878593664234203429078796109811652404030132299941182135195515724741432823939609970161426069893152768.000000 0.000000
0.000000 0.000000 0.000000
352059248966027087674442238234263802160070981593808977748219142237264511178128298971193138379773572023501543317580748884541440.000000 618706590810672403117779991745337072998675808996957382761283998709424338292666863284172638551551433596381439671375658225762304.000000 0.000000
618706590810672403117779991745337072998675808996957382761283998709424338292666863284172638551551433596381439671375658225762304.000000 302992386553085384178336232281908711520500805890969103046702048602834003819945248466943895044766116831439313200130895978168320.000000 0.000000
0.000000 0.000000 0.000000
20125720507905602850672268767162538894629133923863403863932404392847668272539214632249099009531223836817289508472202857814163456.000000 -194536657207348888164916268125189425699548166357523837378651439475753394380022088712298366558254687783336163663929547067697922048.000000 0.000000
-194536657207348888164916268125189425699548166357523837378651439475753394380022088712298366558254687783336163663929547067697922048.000000 106469483393490426143120115496002441470166673680443241373598943289907147028167755372143550811367354018078410727283806247256588288.000000 0.000000
0.000000 0.000000 0.000000
62395811170775295564926326247238380419562703082060268064159858025348215865117467560246180021008848749754453716987367737782173696.000000 -14688594082576562305895408824091122431388474883998445558569782979454594862787453563877375542687731136578226417474024417750155264.000000 0.000000
-14688594082576562305895408824091122431388474883998445558569782979454594862787453563877375542687731136578226417474024417750155264.000000 2343099824663300790927110637724432064896309017886983645968249112554311171263436379120837692226937396765830203202735346573901824.000000 0.000000
0.000000 0.000000 0.000000
55870930034703579660387995431544202876389119495608598631709951633596212890611924630716366814801882848347609321061231735005511680.000000 -14773028734396355016012259987796071591809539685914541584907702609689378165024481151125948315151763770563834880920114501792038912.000000 0.000000
-14773028734396355016012259987796071591809539685914541584907702609689378165024481151125948315151763770563834880920114501792038912.000000 2487942352107461915078938799193212541497312189942974302917863524001167331439277049445091754098657499934424383050268760994742272.000000 0.000000
0.000000 0.000000 0.000000
-3125373201882841110351352020773086470068106313148471465597934324141237602947184556289666075991617662255943627153710180839830061056.000000 -756732300267331918004569604065113473086619451664198160247470683808044300993477508398689190544257565871671157455693323704450678784.000000 0.000000
-756732300267331918004569604065113473086619451664198160247470683808044300993477508398689190544257565871671157455693323704450678784.000000 282628378304300963714540093069678698039603099377294543500931621290195892576003786063993196928275088918034521539049378866058493952.000000 0.000000
0.000000 0.000000 0.000000
103055955141539271017309137705840668511844651618651621380752004198242864900678933120044257235969068731120619856832276727018291200.000000 73566355584939158458766427678768636836798447074857851364415708385998774664568548607208425367953347976899102829133957369673285632.000000 0.000000
73566355584939158458766427678768636836798447074857851364415708385998774664568548607208425367953347976899102829133957369673285632.000000 26516179783713450027630679330092989495637383834343075535801242481484016103789493376502650201919124104564092851626834313162522624.000000 0.000000
0.000000 0.000000 0.000000
-6336333562655078680017359124194906229117451260145438897199515545880101054516520692977348129835382890534092712407831235864683347968.000000 1070680658867930068536403981532815987572071741187375406857295288296345763448951266078620115793149916456053168479839208027132526592.000000 0.000000
1070680658867930068536403981532815987572071741187375406857295288296345763448951266078620115793149916456053168479839208027132526592.000000 314199004103259849496733748117594919408203838944574895889839412404632573956135827320237670450664044409058656845750482097754079232.000000 0.000000
0.000000 0.000000 0.000000
129715257036449446021979220003111509604509629860562921690621898646642397309462125644279055823149135656301599169143508979373047808.000000 -146644087171994200151731720914579091967252610315817648165748344095199843475485233619085258144707482323569282171122062669417283584.000000 0.000000
-146644087171994200151731720914579091967252610315817648165748344095199843475485233619085258144707482323569282171122062669417283584.000000 64559798195680825727904802011389623055162450623062622533229095415405644883264813624522687116308084063001701963719680727422337024.000000 0.000000
0.000000 0.000000 0.000000
1115264022689894524163782361354549744106989166247355719926767763344458276825023438462752418721062666285665063719691944378750730240.000000 -1378120265016538799040782214912199323048165972190042468649373879076933810760504702412174773338335782939688687229746064808938045440.000000 0.000000
-1378120265016538799040782214912199323048165972190042468649373879076933810760504702412174773338335782939688687229746064808938045440.000000 623482749324388374621566810614363132931371908355752765123855577535368801889986246788581598619905484761456133378555476223874564096.000000 0.000000
0.000000 0.000000 0.000000
-372590490703320984837923637528440658794715908088003297199192017998373375137365460268967747303813586121146036064427075101922426880.000000 1069138521306973319017442368182981220685508388856519215695648092060211101551854464477142477173779607816520411286870172882379472896.000000 0.000000
1069138521306973319017442368182981220685508388856519215695648092060211101551854464477142477173779607816520411286870172882379472896.000000 613787928929198477275240375824386701853482705469125525491888505002747760776223744502201662264942497744236482909883298595588800512.000000 0.000000
0.000000 0.000000 0.000000
9251990529542897825119747084624057123834672295131530239031452634071440241022791618907768238885376752795222925964183636266713088.000000 91493391961137588021145828193954257525915177370629009348778311670803784737810590577534122404428879340905350486188934777328893952.000000 0.000000
91493391961137588021145828193954257525915177370629009348778311670803784737810590577534122404428879340905350486188934777328893952.000000 62116929403474798068259774110941333396996130860505021050329634263847065551002795670420540024984290679011520854848358663304773632.000000 0.000000
0.000000 0.000000 0.000000
395079652868326681166468920692096539546315227884832294185354163535006089374562399794849191168839224978208968338704652933529600000.000000 744119945373664953238679391899796579214337049455734718470371969908793413359446244187402025593417031390935274513891191888728293376.000000 0.000000
744119945373664953238679391899796579214337049455734718470371969908793413359446244187402025593417031390935274513891191888728293376.000000 368668561152668052909207826737023924674630159555648170101898613400533821412295357779636050393260800448301798841269767681114898432.000000 0.000000
0.000000 0.000000 0.000000
-3545936966325901538087022446026120747445200924401579434069372271169057400130428026964091288084911818577976840596819906819784704.000000 -14354062517428602421212370786914203789070078608368495661039802342285953108096696370852790635474737833805296123809963919605235712.000000 0.000000
-14354062517428602421212370786914203789070078608368495661039802342285953108096696370852790635474737833805296123809963919605235712.000000 9368061962869318568030605039075760318904861982897821065797292726486599976108456013945261097224563150317948286203049163943313408.000000 0.000000
0.000000 0.000000 0.000000
211151672709129850378581435708015755886588657876503682291715941080820355680645998714105149725644595285832247573578163295606538240.000000 308707362243301206062146269560542855738662879866711990863552583817972249831570735477686744796885982871494216739342215050290003968.000000 0.000000
308707362243301206062146269560542855738662879866711990863552583817972249831570735477686744796885982871494216739342215050290003968.000000 145282001188623693562205940672159889774958642339329663664722926738946363495860078498346088383744216217236949475049754889967108096.000000 0.000000
0.000000 0.000000 0.000000
-9840459790677360294610022205960667262701421964110080295496691943090589639361466335900306114910764101416744341123262970629267128320.000000 1502742545167729355685378327185191572254488114461460231815839626055579352719403472263831817950533058801145029840469851185461854208.000000 0.000000
1502742545167729355685378327185191572254488114461460231815839626055579352719403472263831817950533058801145029840469851185461854208.000000 406365827763322901128368562728086238926592319090191662627758989631798881088337698449370822768738145137682734885304356297716531200.000000 0.000000
0.000000 0.000000 0.000000
-198888132868656765117717510075310352988302227633379679102232707073251797100120502001301907354139212620014304281764694158903083008.000000 199486113848055701060834667251616986490747106240692680147863754062968353254077792089342063054536261658640110496980147150639857664.000000 0.000000
199486113848055701060834667251616986490747106240692680147863754062968353254077792089342063054536261658640110496980147150639857664.000000 113475151914458945159988744609550670492623617149975378657834736769837248731119294843341241456137756339247640628903586971831500800.000000 0.000000
0.000000 0.000000 0.000000
-1790602196798125931554951347847506421220616331865255723879947726672079368111295892826598397573814232313816220703362215745505198080.000000 -20327908571214166818181839192423407388713180848239473042181715403007622837088514314403181143342996621105615528094615973966905344.000000 0.000000
-20327908571214166818181839192423407388713180848239473042181715403007622837088514314403181143342996621105615528094615973966905344.000000 1440223307036693672342483299324149180964305020045635231586272884698386335791133892413898185594793539916015206641656236125192192.000000 0.000000
0.000000 0.000000 0.000000
494679306046138692264208434071655924664693942071981006028044409107357351980206178886430980230584969549310430217931990175443845120.000000 -532236809473661387459248455885989079633148913860532189069115437677286766524797373255743588560040457354668691698863863249944707072.000000 0.000000
-532236809473661387459248455885989079633148913860532189069115437677286766524797373255743588560040457354668691698863863249944707072.000000 230482679621128710747607599393426385432287093417693490228623738944848397387511623106632796064231779034738983749698458841839042560.000000 0.000000
0.000000 0.000000 0.000000
-109277021829083630549804883430721337105269291334531927679057737488847194555516710951604875741275190346019729283217270717418569728.000000 130892363952970526965574791747125909980870702069823094597237626996727846356749632571176516443400034051186245402092120723687473152.000000 0.000000
130892363952970526965574791747125909980870702069823094597237626996727846356749632571176516443400034051186245402092120723687473152.000000 75089508001713045985913831360934993411750121748929444930017502654144183990672867598674437470763756765252747876384260071731757056.000000 0.000000
0.000000 0.000000 0.000000
-92196423804033240852000312872745114207922098550946190101764502469532495159950146385449490765625606410684522418402668635152711680.000000 -262202954593499385686437064667514274460530836647672643872260463263285594098623706415382714574810608704254027930685777890630434816.000000 0.000000
-262202954593499385686437064667514274460530836647672643872260463263285594098623706415382714574810608704254027930685777890630434816.000000 150959196821743691210779314445948693389460300445033386023320243068276268436696017654831114907375659743736684390000357698602795008.000000 0.000000
0.000000 0.000000 0.000000
-4191928195843443626136366586806938709882608043849245215868398778103434773403716033299387600416155605622605287907489163312627712.000000 -4589968380846490420006337469825301297116901132668145696367501551456287450774583678798778171964058177133522529422404121993936896.000000 0.000000
-4589968380846490420006337469825301297116901132668145696367501551456287450774583678798778171964058177133522529422404121993936896.000000 3022618343936073263782494166541313882248360905032374359684653392528311903424558368506011556569310586065909403163957746099814400.000000 0.000000
0.000000 0.000000 0.000000
-165990649821433081300648831634991040297279206326405869247898186515119758490770338324532146135752224961487705834554469791324700672.000000 -132696046694479024529790279138477387065616777919658086601658316599533337998363130157512770422795042128201142397247135854255669248.000000 0.000000
-132696046694479024529790279138477387065616777919658086601658316599533337998363130157512770422795042128201142397247135854255669248.000000 74441258719433729837721074346540283647234920517364696604512911617531760031443939244136668360077197507928877436467870093021282304.000000 0.000000
0.000000 0.000000 0.000000
6028668501281409458200876764955120362353987192685260004427546933345880676307064830751381876233055589676685777784666436979916800.000000 -72062722373858699609993201930844264634575819413093014153698150508675266436967384832964285988340118075750497042101724454357827584.000000 0.000000
-72062722373858699609993201930844264634575819413093014153698150508675266436967384832964285988340118075750497042101724454357827584.000000 39570648790407765087105725361968028181257215818306033562673951100531589942956303249560834061039430226769873501436142462565351424.000000 0.000000
0.000000 0.000000 0.000000
1370419381123386357637688316680268842246486362255202717951773007598246547498131561705447496962618381190728493764314476747073519616.000000 -202237302074147773811654526082795999713783284234012156245194146781044256741034538046638858986367093328956528330898759295772393472.000000 0.000000
-202237302074147773811654526082795999713783284234012156245194146781044256741034538046638858986367093328956528330898759295772393472.000000 19704919654531729054317665767353241105076617644532350133269420164946420899885142948569038386141053885470732875408631526913474560.000000 0.000000
0.000000 0.000000 0.000000
99070556306630580969549832193854846441053001709844472516847053088864862014384440222656260824220842504460293314705863067496873984.000000 90139013083297098957934130707432733356567224316545519172497400133932282279231561049599112679137568481156059140003032865964032000.000000 0.000000
90139013083297098957934130707432733356567224316545519172497400133932282279231561049599112679137568481156059140003032865964032000.000000 37232427589844688199582413064702741933377899844757412916886401793675112608448300168732419098768328036162699314784853026383331328.000000 0.000000
0.000000 0.000000 0.000000
7629717487773571295534886710222755275044464162425602022933965994466715386694491320237773508724676632141951028419228340037091328.000000 50067275026156100106524765691065421215606431030845373563610806709538075136660051995250997601611072895057677894643010547971260416.000000 0.000000
50067275026156100106524765691065421215606431030845373563610806709538075136660051995250997601611072895057677894643010547971260416.000000 27713472874071155289446923164982907045664753682127884834247924997644421764908021244652140925533812521102544124402843719647100928.000000 0.000000
0.000000 0.000000 0.000000
-46298702238950924423432639545573890640647429358298304551896719583442036749716997442962167890330592673723301501606650932329709568.000000 371093682063625971403504092266893688625294725687584267371612989869305407945914164504860657464173333969003150742693722628416339968.000000 0.000000
371093682063625971403504092266893688625294725687584267371612989869305407945914164504860657464173333969003150742693722628416339968.000000 209566150753626762220138529004369857067316646740199607383590256828850337136644871999844172585199509288396443851187803393609433088.000000 0.000000
0.000000 0.000000 0.000000
35568931755268006379262373499390229485869661049535530808537129615017905739158495002618863411647629586234412380696649724539699200.000000 75349748175961200918072693553300839786429549622773508672059709967577399703055826650485310200405752914495059837311701267681116160.000000 0.000000
75349748175961200918072693553300839786429549622773508672059709967577399703055826650485310200405752914495059837311701267681116160.000000 38229357767969925430882420166478829123424029728625869540080225905984213908518430465885468570272043112037610371013685146298613760.000000 0.000000
0.000000 0.000000 0.000000
498992368069753815209917293468912004477608957896278777641377492691429380317800570537436943341496918282261173478573717779159973888.000000 -379098703799053287455869828018635035973399331476081572354669319408883794681770649124627276868535833688073791457135369761257947136.000000 0.000000
-379098703799053287455869828018635035973399331476081572354669319408883794681770649124627276868535833688073791457135369761257947136.000000 141269577049855481108918790412068536632066585023254853458603197587016253638460652843758953776828191773464497691022161979178483712.000000 0.000000
0.000000 0.000000 0.000000
30512242792086893721189757478247347042361798766151657022961722679507766781286945446405365828397641196163844011577144315478016.000000 7799990369880799407256500878066722932756801749752365123665073244569322287422181771030911953792467400019492339151800436260864.000000 0.000000
7799990369880799407256500878066722932756801749752365123665073244569322287422181771030911953792467400019492339151800436260864.000000 1289527111142562772668296529119723710948150930768288314799379242757097181194996822546758097400225484279224752750045524131840.000000 0.000000
0.000000 0.000000 0.000000
3560626340148572282447147114486247027300261145342563174492356940151214175775509934745941078558415281839584100808685165905707008.000000 -77178423760435209244441642722127856146818628665743122031505015753519703968975478769946864734188890565965096654943909912416092160.000000 0.000000
-77178423760435209244441642722127856146818628665743122031505015753519703968975478769946864734188890565965096654943909912416092160.000000 42729641190043549744424752646177484621154128860415741297533308168343597585292282177833656592441256632983148591276274904727552000.000000 0.000000
0.000000 0.000000 0.000000
695006879736857676325031869115822363208312560133922515402371145753892456290213876155278134871183695015212223698404858769965056.000000 544254677044654458875232670025404522575039497878147402399637843823065352146348168723419710048503309535015645562177683785252864.000000 0.000000
544254677044654458875232670025404522575039497878147402399637843823065352146348168723419710048503309535015645562177683785252864.000000 207227485402616908385124300401073685022610665918221152532184407476189584285814944831572367960839729322235556208065740021956608.000000 0.000000
0.000000 0.000000 0.000000
-96183733762875155432700282965219430092081275883432181832688292028052547077512722535083396267854104713983401440529278480148332544.000000 -45769064718764942877651054944444377144204933005966638489003855613436268219520300850634270744952345006954205851138832033067827200.000000 0.000000
-45769064718764942877651054944444377144204933005966638489003855613436268219520300850634270744952345006954205851138832033067827200.000000 23244156031778816747750111522137790578764116626718104282769025054025603349088696907509893997855009289900946922467470735738667008.000000 0.000000
0.000000 0.000000 0.000000
64737058280869164151194016874479291046120387915138245806417061476781270711078822788353067986259995453164513281627701927150092288.000000 65467530006027948149862735415786815616860393458131166601983886388535618049990801608666428825073129314813657884926844323982475264.000000 0.000000
65467530006027948149862735415786815616860393458131166601983886388535618049990801608666428825073129314813657884926844323982475264.000000 28125717413552518756281368067940773215224632422001724912956043431768369639067630262717960266025209678076342721433954131109740544.000000 0.000000
0.000000 0.000000 0.000000
142861657502533631844637319139053680342848127191295127283369442018517744702940204162644268299014255892425942590252298957278412800.000000 93664525276893019218556062872239645877844404685215112305069999523409687325366531261748579720072814232276435499475700459201626112.000000 0.000000
93664525276893019218556062872239645877844404685215112305069999523409687325366531261748579720072814232276435499475700459201626112.000000 32142568528452118469660080058046636465712689293524488720613686578787351312019296023032880373426587889753783431890529412435673088.000000 0.000000
0.000000 0.000000 0.000000
-1529316542633300165707336555660126965778968039561526027953434203408139221358596263092532455168517976213188297155428472212846280704.000000 -1249484568396529656017391073217757033089871359434965911097683553511364435892106179246461747592290394171982237363027147498239033344.000000 0.000000
-1249484568396529656017391073217757033089871359434965911097683553511364435892106179246461747592290394171982237363027147498239033344.000000 698670934178444947575225584864199158162763932812338084737810479256735559455174141990310858956297325129993920347115384091917156352.000000 0.000000
0.000000 0.000000 0.000000
-1044540707228033248594645007192830646128231047106234812562871428742213841056252999224435084416012579571530018568058397688535711744.000000 -735944325483216089425022124699442428694134775031764503538436363277984593233776537744629166931373016538175151379808158064142450688.000000 0.000000
-735944325483216089425022124699442428694134775031764503538436363277984593233776537744629166931373016538175151379808158064142450688.000000 403797525197125280569049560085370678826772871525399865685212514766008324142300102816703973694472680127307535524495565317958795264.000000 0.000000
0.000000 0.000000 0.000000
-1377904268927354612438314073100861158031656992152959402201901993177998739944293517477934215433093554924533649129848725262613610496.000000 -431618929824280696784384222274419860442891831141644296758565329270820266836180381220777612371272067046716283608695233187812474880.000000 0.000000
-431618929824280696784384222274419860442891831141644296758565329270820266836180381220777612371272067046716283608695233187812474880.000000 185457508598602952486324156743476417637259214743824986358170120184354299357403618418470018095405995637819733485064433672021606400.000000 0.000000
0.000000 0.000000 0.000000
-624982481576939712490096209450156113393763277435310532588141623226752966734514256045036056495220148377265185961748481512994504704.000000 -155764484994580913987877209762188623046676317315942689913154017490501939157189849292645896837266224041862207210225887037785899008.000000 0.000000
-155764484994580913987877209762188623046676317315942689913154017490501939157189849292645896837266224041862207210225887037785899008.000000 55537480336015279945259188612417094222305026272384426939956868401287563679095953157210856134796288898608330632342001329119428608.000000 0.000000
0.000000 0.000000 0.000000
55271770599755735394373435258676759697339903760057075435925357650777492908864334406616510477686267868811693633391432629311504384.000000 50859369047750493618579955967011885076800008381399806252062634392812404786704347030378395973309157745700647609302983049807396864.000000 0.000000
50859369047750493618579955967011885076800008381399806252062634392812404786704347030378395973309157745700647609302983049807396864.000000 20688959503011231821730970415768826347439163687768366068212992608876529086645261186362344393200662987105364082454438810860126208.000000 0.000000
0.000000 0.000000 0.000000
50136464046887509442614503771494903336994608824336297248283578571463526044013886093288983170180032639679511892010343450539982848.000000 -128835029886256377879974021683380132384856492134835312297184242514305268208572993404840310701850934305099862122211823111708344320.000000 0.000000
-128835029886256377879974021683380132384856492134835312297184242514305268208572993404840310701850934305099862122211823111708344320.000000 66363050264445570967366777218261596183427943446701151042874026564018224977088117626681461113320303864957897980027215930162413568.000000 0.000000
0.000000 0.000000 0.000000
-3872116599961019798301960549992689415126274767371446837368419138687311063217142681066735955862337807622269667882523512492678709248.000000 -1026212379442223366598717537700691673009856479815205439196373988267896095652637009993266625475646680390247564136260777678886404096.000000 0.000000
-1026212379442223366598717537700691673009856479815205439196373988267896095652637009993266625475646680390247564136260777678886404096.000000 404131832787163758027416051232540545584516236929373662922370003134856459715556799020955476341766380068599432195426633719329325056.000000 0.000000
0.000000 0.000000 0.000000
152796660262307067719786267476259711180575468345963529170196420439761782197370124391861192686624640985361030554301136130002649088.000000 -341459194677541182253957298279593579401059731632370698708969865646523404684413833304428061895016019669984026919835254975704858624.000000 0.000000
-341459194677541182253957298279593579401059731632370698708969865646523404684413833304428061895016019669984026919835254975704858624.000000 173214258810168764891876190198536961745437257910345222932137479528373234991583288698923829484637134803393115785516972918328786944.000000 0.000000
0.000000 0.000000 0.000000
-97048860113764420324740010317626344767109920437118134882375779942738587838945195197344181138976166157293820085257202240799637504.000000 -21297143662420813547908763825630802481525238015324349845823145686400991217429687945496188537294389527926751627684789687557292032.000000 0.000000
-21297143662420813547908763825630802481525238015324349845823145686400991217429687945496188537294389527926751627684789687557292032.000000 1407731298161285630275007724069930203512710813403828843341433029490651660641255422498372597206014611998091584984399259220574208.000000 0.000000
0.000000 0.000000 0.000000
114270305994999916096390102084994756206039336373984698547753519795149578301796397530871746546777634007471126055561217713247354880.000000 -41560699388445976996349227207960180266590541052887164175175141072417699266915711217797566432136495878187547468985914541387808768.000000 0.000000
-41560699388445976996349227207960180266590541052887164175175141072417699266915711217797566432136495878187547468985914541387808768.000000 9316107221894679659398175023712197396961687834259841453220141174134970221009427475896777732653254487184822796987746494676205568.000000 0.000000
0.000000 0.000000 0.000000
226523453957165603040008285762098834246438872894484353318736449866175027164380320014822923934705153346351291064319627611571486720.000000 343969391279043747090403004134473149131687288312109989090912225966488679343490176384119308422992542179903273099048066968597823488.000000 0.000000
343969391279043747090403004134473149131687288312109989090912225966488679343490176384119308422992542179903273099048066968597823488.000000 163812435034107853531153341314713693467213911676158770833512850977866287845607671385255007100826365645560048303128803376977936384.000000 0.000000
0.000000 0.000000 0.000000
-3508966585329098298538495589962835144423463075161698746899318361978792704836413227110896171281577172653943269102753638064051978240.000000 1257359052433647874550466119874243761908739259822771611567628986164664501546639354140147752665994774067305863743146564748155289600.000000 0.000000
1257359052433647874550466119874243761908739259822771611567628986164664501546639354140147752665994774067305863743146564748155289600.000000 573944866341140849123330422079451585459181398344758867925265046640059190441294991980329148761070743098063983955150275809818705920.000000 0.000000
0.000000 0.000000 0.000000
894320550272000151021839560823497924169154916033857531635915908084430556545232338038677729824858796931240477916342019943494057984.000000 -1655620465651749590317206909065042909976312072433462067436585004228200645723375048287617768834975129389605469546233231644295168.000000 0.000000
-1655620465651749590317206909065042909976312072433462067436585004228200645723375048287617768834975129389605469546233231644295168.000000 6159291622205259535548617231430924167179345731944988602415175023360828577498894593851393682185879632032756805136044775178240.000000 0.000000
0.000000 0.000000 0.000000
948505928928207138130330714190010955307655485720693889310742737111864166073224431194698074182634908423029960844594358755946135552.000000 272689714191954896586640604810035776003850083824025620519534795633236883552486806192407330911703924713790975205132730510002356224.000000 0.000000
272689714191954896586640604810035776003850083824025620519534795633236883552486806192407330911703924713790975205132730510002356224.000000 49542444539545557416741345782305017470069390557899581520506735041255297572724547195463855227567250164640120775446368393092923392.000000 0.000000
0.000000 0.000000 0.000000
136060822548470717437456125491906349969049242647846604156672008236848485696099839207020404271239895525297597512049475196018491392.000000 78709849609659180134885729028955105339293442408556030266297520877193175363550854791635888228003405380571075172258058607058223104.000000 0.000000
78709849609659180134885729028955105339293442408556030266297520877193175363550854791635888228003405380571075172258058607058223104.000000 25632565909326045530456927010557195039940892642173661345936099646286386111090250823251688450317004133693388128401231801189662720.000000 0.000000
0.000000 0.000000 0.000000
752743444544466318193219267879931640604219373190633295754561950158335244376675230844530097462669922104454354577253396883972292608.000000 994100871339493438903681966875939012393034642967571892417607806568335389568079727298613792254214013287848771504581398462784864256.000000 0.000000
994100871339493438903681966875939012393034642967571892417607806568335389568079727298613792254214013287848771504581398462784864256.000000 458017571041334475607585569118843072193261080810940258115909528554177695557600927808562107884252173504671609292904173179982839808.000000 0.000000
0.000000 0.000000 0.000000
-346698435217384857946731877283585023906861169332509237290088144956998534477341954344071154697471867404306337371111618799919431680.000000 -302663052445539190729519541829229465479271310923474625886320451768577388528463524654177806209434701658966888869925415083210440704.000000 0.000000
-302663052445539190729519541829229465479271310923474625886320451768577388528463524654177806209434701658966888869925415083210440704.000000 169875479549971163257049913163681620675188385082918341372588574022567762679824076341631921091531425583625535304816803515755134976.000000 0.000000
0.000000 0.000000 0.000000
-4464029317960597821739679687499355616585056294722512897644072438478762265415511051730691710011470800457120916224017264099196928.000000 -14820582464079995114146363160136691851603677796456305295360913080978983333601235339001534186647451944225500188590096429524975616.000000 0.000000
-14820582464079995114146363160136691851603677796456305295360913080978983333601235339001534186647451944225500188590096429524975616.000000 8308188957310822555538513076676969224421362178578946711076185189146357691690120314226717420379394579696987593621755223978541056.000000 0.000000
0.000000 0.000000 0.000000
-5430255045465237152655779121534411771267287602561928064619187309118854844219506514603697125188800213468401356657689863064125440.000000 405291806462893670693634643375865235484568304892888559841459200952932118933303634616162112634903458007746886746863191994662912.000000 0.000000
405291806462893670693634643375865235484568304892888559841459200952932118933303634616162112634903458007746886746863191994662912.000000 58197983607006205238490317637704347260411109517851128470679884107031654608347656614254497679983039228496748042766291107315712.000000 0.000000
0.000000 0.000000 0.000000
667264681620865450152821816644787771502462609249863090011035164710524008131207239311256924896920842958589017314363661764874207232.000000 -334724319773143348308904166107239125536634556611649876722020318312968889399027003587579419641469020395088312671479140902013763584.000000 0.000000
-334724319773143348308904166107239125536634556611649876722020318312968889399027003587579419641469020395088312671479140902013763584.000000 96116098320066847629954619439619672478324113296380208269445343115109532397315635481285447105794273252426598694604813298745475072.000000 0.000000
0.000000 0.000000 0.000000
-4001355064840151276674749731844244386459292647348345164853539275065055831179817008861874598219058977867777121051871982238302208.000000 3590897946229827643610347800938210877353412452550671090303500400410126567569124967391016620335385407096059941840054328169070592.000000 0.000000
3590897946229827643610347800938210877353412452550671090303500400410126567569124967391016620335385407096059941840054328169070592.000000 2036572322527328108717557131361444200260712621480242911980795896281751557443673553657877908358472581328440670297609100635144192.000000 0.000000
0.000000 0.000000 0.000000
4563861123819318682505790320107635108539701405837653347158912667282494980256909718134728377953652887811718695981479141637619712.000000 -49514063377021984974335794900519384489721602366272615907251319206489868214141701771080025854028209444892236815221607458729361408.000000 0.000000
-49514063377021984974335794900519384489721602366272615907251319206489868214141701771080025854028209444892236815221607458729361408.000000 27472985191611707796804894135075875956326183317931698327558965655496575445911198468161698330005485606674461573380762131316604928.000000 0.000000
0.000000 0.000000 0.000000
-217158873539866221228961561847923924987890263635134405049348462093884514935118581533547190376966517134879775701179771794339573792768.000000 8449213639402064448274605655453275856047725054915885455407475437963340568005596679063256244788480613134185163058144936288287981568.000000 0.000000
8449213639402064448274605655453275856047725054915885455407475437963340568005596679063256244788480613134185163058144936288287981568.000000 654188446732264967328177574578301203962576026092262568509847212469722610026477704536524075299800909106740093567032554218630152192.000000 0.000000
0.000000 0.000000 0.000000
674709312250427532020861378193850455797203732480261337445217089554134133041758810292637723927739888212356143606637285127309230080.000000 -183693185574370363280598200143125265432236531120140054336511847880787756881828372419960435825631869832678005802036100422470467584.000000 0.000000
-183693185574370363280598200143125265432236531120140054336511847880787756881828372419960435825631869832678005802036100422470467584.000000 31875166494894439597582908805334631369864298025088398236274386542628739665783681349309487822333754103105960420926948172565053440.000000 0.000000
0.000000 0.000000 0.000000
329914863730470730722431941385576199881993607064519838155938478478128981728801271905015332265338639634402397817665455590301761536.000000 -117238161346555770076049974647211992261199247219376663122576181759067882332133819061139791664271456249020072248026309840047439872.000000 0.000000
-117238161346555770076049974647211992261199247219376663122576181759067882332133819061139791664271456249020072248026309840047439872.000000 25629608662228418217864142570275279711068782389715396812369685642482124739077587744496656533438999889135047651635381880271929344.000000 0.000000
0.000000 0.000000 0.000000
52347996492324919716184684629800180899740374345635643227474877209659224177780569269457857379781565938504982434807926340844519424.000000 137647786079748714006054358978274295244347668179435835322963206752286897324256931617022744535405672198668709559139129308173303808.000000 0.000000
137647786079748714006054358978274295244347668179435835322963206752286897324256931617022744535405672198668709559139129308173303808.000000 71733410251510684897593341440116089122810734669832128663593360218709128679680646678496411321688268343229801903181308746379821056.000000 0.000000
0.000000 0.000000 0.000000
900108322929331073458667200876018488726513055780052315365411587114699335250987244068269778412536899966437001338038091760447520768.000000 -232958029267488326755247791756605835393658011312044224105318699795201136257597004213828623218985245673194478686698347270990987264.000000 0.000000
-232958029267488326755247791756605835393658011312044224105318699795201136257597004213828623218985245673194478686698347270990987264.000000 38540348261471399489781195525649789649219254177812809859834970735971640304906262537809950343976537257897968416050900962683912192.000000 0.000000
0.000000 0.000000 0.000000
774033963291398749586220383158945172324772659859847517053529499140736534180407003578438603105556200381422964944945848580277534720.000000 -515503345022020139255712127655336869786312298249443804097379459100156841750982876349001772930820453602625824148595559491646259200.000000 0.000000
-515503345022020139255712127655336869786312298249443804097379459100156841750982876349001772930820453602625824148595559491646259200.000000 178506774020837755877685520452036114341446971082867819209236048427869066081723200377674598083990733594594264862580045974748528640.000000 0.000000
0.000000 0.000000 0.000000
-160835453962831886639668874440244154476314503943385228874289058184006143080148995095820640874743196050472474922250508965901238272.000000 -311446820804703718059666849612444946599755177049518559372159119349567650075655856821555451633375320254989715535092053231838167040.000000 0.000000
-311446820804703718059666849612444946599755177049518559372159119349567650075655856821555451633375320254989715535092053231838167040.000000 179626177797744677774193632051160825105347970740598112928600835658634832094217829588811452132143523056677346390095803453873848320.000000 0.000000
0.000000 0.000000 0.000000
248004194224368132827753164951870640443918451175799944942389589856974865518550184855257373766166555062764766005190209791451987968.000000 830707250400283027553105441027735026728149375196677767103528942754945648200151666033132282839831102948109401692795366343188676608.000000 0.000000
830707250400283027553105441027735026728149375196677767103528942754945648200151666033132282839831102948109401692795366343188676608.000000 438135796476570903815840398033191205488089597883343225681080404505693788190392417903889643011715593748503402694754878122572644352.000000 0.000000
0.000000 0.000000 0.000000
91751826959311528254625092049467172683518480988842945070895591961388192192564251287454245871015942066682128163896584030367252480.000000 -109768358573776477904563516154102046147747586500356902663211004521203885464825999470900986962673499938463521778363192185056133120.000000 0.000000
-109768358573776477904563516154102046147747586500356902663211004521203885464825999470900986962673499938463521778363192185056133120.000000 49191856239867501784125143795515649728630283867711246883889107851912268005581392502165643397825831876643732062351566093686931456.000000 0.000000
0.000000 0.000000 0.000000
39235113999187843043431239210745862454097033164905802144151273135513809825731587504019814927173037390562849587326981382416105472.000000 -52286789356812197811841420767147510137067714886030003671108334704516722334812132771513769547366104691109792354341728969889415168.000000 0.000000
-52286789356812197811841420767147510137067714886030003671108334704516722334812132771513769547366104691109792354341728969889415168.000000 24163378287282546213845851229253354014604265041410951920654279000704190819618661830537965980286020902858702539827777113103007744.000000 0.000000
0.000000 0.000000 0.000000
38730596541801343658431142501963150132438245984195820902384203229972931458177121759752180109524217372399295396577503493991956480.000000 -43030240998300804471176210044705481058880547010073743024941994518006494382940471108130710809021320979992117382254661806757773312.000000 0.000000
-43030240998300804471176210044705481058880547010073743024941994518006494382940471108130710809021320979992117382254661806757773312.000000 18752379524562993991706662212992223835895296703081759448653978150225647631374447920528373496173515884736965391716160002731278336.000000 0.000000
0.000000 0.000000 0.000000
128718069898929724134009471436943922178641191744727107545633208662890344458873761388888300213865291986167994234466271563484233728.000000 -418313844669903815809027897581290334545087925797136553801879224982175999121337645884779385141027569580793498793233420236080807936.000000 0.000000
-418313844669903815809027897581290334545087925797136553801879224982175999121337645884779385141027569580793498793233420236080807936.000000 219719391808675387595614367303757499604545094467549974274858448632160451925119029589566076720719701851657590593933270939357675520.000000 0.000000
0.000000 0.000000 0.000000
41779363289330078780594673247484241797134855171813501544926813339056858968322035943059631593968094643869175050510485263099101184.000000 55376797713046653185983373094321390854632926318640786697482084349343295657444743836668231694273047907293685214798809553025630208.000000 0.000000
55376797713046653185983373094321390854632926318640786697482084349343295657444743836668231694273047907293685214798809553025630208.000000 26569647910418291705112332978601528568386964348834692902292592204459325038765070518385161699676333466253104611189476439510482944.000000 0.000000
0.000000 0.000000 0.000000
-236869516290402029577969675518146139014418085237882816385115232298357320343081442082935839460406457244012769198884809106887016448.000000 283952756780448691533876692569903180435974316285027667023932090267918113654463753667653838609400927991634659357053532914384371712.000000 0.000000
283952756780448691533876692569903180435974316285027667023932090267918113654463753667653838609400927991634659357053532914384371712.000000 162962489062291871873504581169634733253191244102824183074770535932429794886790119134250706817016209402131623543677742520247255040.000000 0.000000
0.000000 0.000000 0.000000
413571992859538014084125126492445782380009515522999788804051742049263626844629211020322421329291782372457586096485639986285117440.000000 178943139008636136191015554441888115236132128106268589994524330120726686443077733235704479080991649257271916411328542651814248448.000000 0.000000
178943139008636136191015554441888115236132128106268589994524330120726686443077733235704479080991649257271916411328542651814248448.000000 48902744237393989678608149617942074541694926222490884869997992801867018736262968825144895262139931312456555461458298211808575488.000000 0.000000
0.000000 0.000000 0.000000
131544152474310711201394631722139067859150089916927212571631804455671606114933100596842596294716303201395839610153847357179953152.000000 22851815467344873063126269099456056394095243889628151555251099157278594172375032336945624204884050381050255547917487414882336768.000000 0.000000
22851815467344873063126269099456056394095243889628151555251099157278594172375032336945624204884050381050255547917487414882336768.000000 2628787785273617284060449079808674788946551343228752846278493891481288467236941012686024548667000687726380749861295843476242432.000000 0.000000
0.000000 0.000000 0.000000
1140350371928400349477952339455240576606379553779643878128659025543837103625371988939185061903846643401974804101157302537551872.000000 3445184715801676416079843186597518944912656649523318461005521615150852278851709684025238420056011310166692291049859085009682432.000000 0.000000
3445184715801676416079843186597518944912656649523318461005521615150852278851709684025238420056011310166692291049859085009682432.000000 1698586147994577332618665363055511883635697909543578312858998713076175520827462790543178903978845869799481318510866965936996352.000000 0.000000
0.000000 0.000000 0.000000
1571852910692822168540025527440650433591095921701380340377781653569597528081633433148485842192737646423547220680575865324644073472.000000 668326755748466082471435280268952810422517197934073484957818642904298743416711014050451968742679804739453629819055455161177604096.000000 0.000000
668326755748466082471435280268952810422517197934073484957818642904298743416711014050451968742679804739453629819055455161177604096.000000 169256338632575963635862913423641205255098493400520698727993588404838387835285216906820559564592098841706856491377630381911048192.000000 0.000000
0.000000 0.000000 0.000000
70059507717111320452369879275061366033075757026792246881162741665434282580964171119531660015523877219252522746116860640149635072.000000 197096108460045920438878680690764547980193418342812207734419225408574023216514613809264379841743341059485712097585236236614762496.000000 0.000000
197096108460045920438878680690764547980193418342812207734419225408574023216514613809264379841743341059485712097585236236614762496.000000 107885171471784723555515113797769046380643746188603761469131774365813061215669939724814026432451243020584840409536353750361309184.000000 0.000000
0.000000 0.000000 0.000000
13926142458206777730763108750631283836364929430731839070822984707782517403528431523790304734321231565352836543093480280092049408.000000 96780143787832779182607473790740918453280546544272295938699443009429663175989405776075547842418371797651771438579403993198362624.000000 0.000000
96780143787832779182607473790740918453280546544272295938699443009429663175989405776075547842418371797651771438579403993198362624.000000 55364353502746302919944381979846637109338013221222414987409690752474798177895899369519010399609546186005910619200183691261247488.000000 0.000000
0.000000 0.000000 0.000000
680637169927380464449742270354460887715902294854442817016226462835566483382406292283024583173139604834366264947778472688847159296.000000 -638742539514877683652783773994077245881961098609598287149916834330276704969975588397334750983374075254297658190499695362261909504.000000 0.000000
-638742539514877683652783773994077245881961098609598287149916834330276704969975588397334750983374075254297658190499695362261909504.000000 262653814027571962728646572471477073669186815720714802368362999303657505825137228712989125335495726503048356596478970643315949568.000000 0.000000
0.000000 0.000000 0.000000
424234925215323787503948677698175527939106847159307003689054051647596021242456066932667669001394311830624451258657549879695376384.000000 9063925353670954511200038344988470065200691203227285162483591486061756538973077265158262016307139698933057828082668520960163840.000000 0.000000
9063925353670954511200038344988470065200691203227285162483591486061756538973077265158262016307139698933057828082668520960163840.000000 254657433434878474238277258408788145586044541534412481177931894451518236652122357514914394717614770816975122409271955548012544.000000 0.000000
0.000000 0.000000 0.000000
-265341462247279260064166865050577264482206555273172068411264102052495378016919811736913309874915782498855824299709334828369674502144.000000 -8623269322429811996236187120101439571244567302589031511271484645045496208269480862282280050348613696828510193940606166478742355968.000000 0.000000
-8623269322429811996236187120101439571244567302589031511271484645045496208269480862282280050348613696828510193940606166478742355968.000000 556786762767289592437080923132130855971358558571752082547980130185726403506645446184674675798623409543792272516477455595544248320.000000 0.000000
0.000000 0.000000 0.000000
67637150389620091572225825889515350892442527987352838247502643530330189920458035064429031530947086305769248973850144368779853824.000000 -596471673627992814749980651957381323528236995119374082204034441424009228368579107644615430069481199510206953534322071040170131456.000000 0.000000
-596471673627992814749980651957381323528236995119374082204034441424009228368579107644615430069481199510206953534322071040170131456.000000 326603427198660321883928360366739939884544085052736380652100391867582627149047502615494683166145030152755573125403243050061266944.000000 0.000000
0.000000 0.000000 0.000000
104704579277626031959241789313517965395397291440744674662313044487420823397436091924871525986885038780247020267533146429358866432.000000 -118336742919114985648478605979794119990545146780580043392843512842751629078184587013365212657074262880033194158635698570016063488.000000 0.000000
-118336742919114985648478605979794119990545146780580043392843512842751629078184587013365212657074262880033194158635698570016063488.000000 52716132917857597033100570524987518082410455022112671127098266076880100396209914211535485093230448845522838324673181600442220544.000000 0.000000
0.000000 0.000000 0.000000
-21330415195365031568775300122984901140906059263864409886529162933752971415776566735572486072676430792336574804934800854147399680.000000 5388326330611318264874762098525894675073971496998403288304425733891042739486380922788833684331279397179058783054645287563821056.000000 0.000000
5388326330611318264874762098525894675073971496998403288304425733891042739486380922788833684331279397179058783054645287563821056.000000 801607642746712932977360617956355475143867599247624189869359795801447066562396506418840054841334337894189140631049082045988864.000000 0.000000
0.000000 0.000000 0.000000
1307061658291157867406776300770814636711348717921692524460015018811747846608558440635135757574107581418862529220846940556623872.000000 2292051031658985842858818025719129705496039055231252148722461444719095695865677111401697805844871006243820474638879795305250816.000000 0.000000
2292051031658985842858818025719129705496039055231252148722461444719095695865677111401697805844871006243820474638879795305250816.000000 4765867475655912327505064939872008397637160177742509024568183440357521615831432156072746354830596550604041322524006263040245760.000000 0.000000
0.000000 0.000000 0.000000
2479055205432087756698748567019387622162644069182786100571071340406646813030952957350795403895256705226236431132314915370434560.000000 348551739797998511041556604081650594228692891978407316974874744559076328782905037921937648350112174282584820101129604570284032.000000 0.000000
348551739797998511041556604081650594228692891978407316974874744559076328782905037921937648350112174282584820101129604570284032.000000 32241940173813890404444616449650178390516000609910832932611172363690693307276687186191449495579365875421635682600148162052096.000000 0.000000
0.000000 0.000000 0.000000
215674691468311423509845631073695774400349360050184031299456038835799493391542011126254186655624845474580637886830505336862932992.000000 -85320611662341201055523763294175840072079069599095433978752974048504277965073695347599761542379659465040300068121989111441522688.000000 0.000000
-85320611662341201055523763294175840072079069599095433978752974048504277965073695347599761542379659465040300068121989111441522688.000000 20391366914559055230473073905730882975583334499254765080370525264093257258720584582310225915259957023182850012081726348884705280.000000 0.000000
0.000000 0.000000 0.000000
106873107664978266143887760861112710251640024987162791519124074132072888438799355069129355131361860304528552817382043827199541248.000000 -59679670813742812275766549923685465175603448956628566360795756909797846783433163143679948699125459440659240468201360274545967104.000000 0.000000
-59679670813742812275766549923685465175603448956628566360795756909797846783433163143679948699125459440659240468201360274545967104.000000 19004594837362031744873528262413747681857226366445111377386890356231806266722201872178823864279154898990355282094194933350006784.000000 0.000000
0.000000 0.000000 0.000000
-64337726594339136221369323090627189266052421665898866264239915408608234509917730822541161717218036116385509325240318897543970816.000000 -246202233129855153165683404596797129663605346089213133635672407715561034525781208748079619314698295006086579407667422546481905664.000000 0.000000
-246202233129855153165683404596797129663605346089213133635672407715561034525781208748079619314698295006086579407667422546481905664.000000 141348362978899076728636874057930242566777446716221914603754668194001105524573623723289220627696584947426467430955688676089135104.000000 0.000000
0.000000 0.000000 0.000000
3067110360025232129526663247890302479000703957885839500811075509519582418053320632957787871486080936865424247901879876421280595968.000000 3081238847677112483216048178942848357374485065185230361877600404067419589529166785217458454646680862360081693665694842028925386752.000000 0.000000
3081238847677112483216048178942848357374485065185230361877600404067419589529166785217458454646680862360081693665694842028925386752.000000 1301592609314581717540220123511316541784504595435964050670223648021318153229630697523061918330869020581377432712270987161080168448.000000 0.000000
0.000000 0.000000 0.000000
487420260045372425509275029489429054779057824698383989232139002333373272088620144098385297417230800233898665541489220852769619968.000000 87541031576731949743091257015893794639340866298743121920156212720373923206457074237939217923359698320555876311482235300073177088.000000 0.000000
87541031576731949743091257015893794639340866298743121920156212720373923206457074237939217923359698320555876311482235300073177088.000000 10798168077855310001339918287629012493221554930042717144944695960926174150759331900374670422734938030289499941709988950458761216.000000 0.000000
0.000000 0.000000 0.000000
72319688584550884161078657953660475555553758913035005042545861211994424788077991463181869054135043629730417857042541767527759872.000000 -21372599575886126912626592394924048019821130920704763004368464266204986677900881730251280803166597900280634346834160076181209088.000000 0.000000
-21372599575886126912626592394924048019821130920704763004368464266204986677900881730251280803166597900280634346834160076181209088.000000 3972747862894190276086841855226767864144585443649085146912925356721458392968850693362478327167648449551390475949258995098714112.000000 0.000000
0.000000 0.000000 0.000000
150029104712203573979489367027261575174347955949644245423374232150015081680321116501220567215915742299332464005361333498189709312.000000 -141933597380278307284816246087293823949536808159444264009130742882868681110540143714089314399426039327602334210336485310981996544.000000 0.000000
-141933597380278307284816246087293823949536808159444264009130742882868681110540143714089314399426039327602334210336485310981996544.000000 58559071825343596769893185824324795218728224677008959102731023398112480618765637161327017341631307053198507500337424132089053184.000000 0.000000
0.000000 0.000000 0.000000
-1829050622676252597223476048739819331547953526660760292728711334587650321359159044899153170547223772603997983716635954796036096.000000 -227920382470466711776382303539457642799229539106360846553011624823904931841643590148067118194638035731390959049458716661252096.000000 0.000000
-227920382470466711776382303539457642799229539106360846553011624823904931841643590148067118194638035731390959049458716661252096.000000 50906726672101039245442494239112146714079737733941238867921260132291001821051484862183683077713401849321162943096320478412800.000000 0.000000
0.000000 0.000000 0.000000
836256578106900587991198783759291207341730841407219631382998395168481035232962037142846747952318740611272969849680206084249223168.000000 -646539826455470076524692333788110144489169594145615552872577501311180317698918236611237834701488525864902597802651548204841041920.000000 0.000000
-646539826455470076524692333788110144489169594145615552872577501311180317698918236611237834701488525864902597802651548204841041920.000000 242273328179109033898341220131688963634609776466528507656020714240100295483464425994373434888698412748213495382063107444505051136.000000 0.000000
0.000000 0.000000 0.000000
3287287898659021677638538100664944320761569880358702518290266813089750674536363509470698309230634732871466817775498070423764992.000000 -1539810791846145996886899722217460723487807584481687177470809511382064556353422646550032655800435685166818168034248201777184768.000000 0.000000
-1539810791846145996886899722217460723487807584481687177470809511382064556353422646550032655800435685166818168034248201777184768.000000 433911225019653306814428882346663244911081367260507822818052141026357789472454965576748788444098233815953608241957985392263168.000000 0.000000
0.000000 0.000000 0.000000
-5002659680914273217319858296779940808268712900247398492844671240385982800405679723691025941100217095626197630782866743164403712.000000 2242209561845937686880989816066366983360103031663324833755141599891663361710624807904331164409181352236886370009112060473901056.000000 0.000000
2242209561845937686880989816066366983360103031663324833755141599891663361710624807904331164409181352236886370009112060473901056.000000 1109427722929448448102308401930535291889474445009705244348187817456782793902497012127771283178821133706553406539539464667004928.000000 0.000000
0.000000 0.000000 0.000000
-202985486105957769201727425879708748276103700598991962318706209022098609727364548480416045977999503763311191509836666893221494784.000000 -5154736576615348496559305065097265940834463085718257424934502197016073228924114504978007369786392944372312314637247948032835584.000000 0.000000
-5154736576615348496559305065097265940834463085718257424934502197016073228924114504978007369786392944372312314637247948032835584.000000 326496862652614651133254291135641774695273335536287239515119555227869112287556720855022809442279612487987880417854858329063424.000000 0.000000
0.000000 0.000000 0.000000
301599069183251247814012826820302188599190097322051165609314306840247501529423972814703615382071818439633400394054659648243367936.000000 -106953459466118024407783138863416428356625799221203101682135480003522840772395289252965617650126369256649757847622301000329592832.000000 0.000000
-106953459466118024407783138863416428356625799221203101682135480003522840772395289252965617650126369256649757847622301000329592832.000000 23353050677557094438185669210528608010237404775204907739530445189725424540969076488455463151871112452832041933566478592937820160.000000 0.000000
0.000000 0.000000 0.000000
-4970099997667787835921451817403584243408635540269330794881102847317986519670036208286093482919991024576128695047445719879254016.000000 -1704594735595598122351010292347758824908373615379714735136194993869457102292743368699565828893049251263762734498103082400874496.000000 0.000000
-1704594735595598122351010292347758824908373615379714735136194993869457102292743368699565828893049251263762734498103082400874496.000000 778440902602774258724890975510970532366624776773320922456873954359847891000864460204245906790514243333982682703649117529178112.000000 0.000000
0.000000 0.000000 0.000000
181141645397158376896368635339356652716856515001818421455549304984237625141600913329067278844698235560316200138771244695448190976.000000 132065729701806142715400461887449741251554084274912748459049995407896297274269459636413440572541558212515043433890856142102331392.000000 0.000000
132065729701806142715400461887449741251554084274912748459049995407896297274269459636413440572541558212515043433890856142102331392.000000 48883717586521961285052912207043835466297757795639750354431361971873184124173264194656796246701106536363880186910492460257902592.000000 0.000000
0.000000 0.000000 0.000000
-13615156236263178836131671380245078882260519854560455920885188189191043607582941763558221657118285252707836048056720473454542848.000000 1084462652726003251516039779336925929598112696904587361981815932344146628029665378062675640597780653485834534874830303974653952.000000 0.000000
1084462652726003251516039779336925929598112696904587361981815932344146628029665378062675640597780653485834534874830303974653952.000000 167949600858322808851198205187955527204284427083716396035634505333350938954570693579202258669639269371878388956520951941431296.000000 0.000000
0.000000 0.000000 0.000000
2587357077817072689241573021313703406648678921207783694862658691182003316507209468965566199385377934969413681604315506980945920.000000 -881966170097651306353652985825285465339268825925291507732985789372487456245409048338352340980971260733490637966199081328967680.000000 0.000000
-881966170097651306353652985825285465339268825925291507732985789372487456245409048338352340980971260733490637966199081328967680.000000 186124455145747600967907591906666105781977595044024793576368266960471064375698270907627946029048723752366335665467633820499968.000000 0.000000
0.000000 0.000000 0.000000
-2114769880105434954631475040148381071339109429766927603490703506112259173316259057439364616683441716202574840019090423239411761152.000000 -1219049562997772901112080890448567398746306144681061453551538748542176169154098973747131084257692550737332255405159333310435950592.000000 0.000000
-1219049562997772901112080890448567398746306144681061453551538748542176169154098973747131084257692550737332255405159333310435950592.000000 645200922824158209512927698839075642669522160627509893022917261939473381995960739720173834855033186739163028881681128816946184192.000000 0.000000
0.000000 0.000000 0.000000
1083689074178488832559488328210354904081296049489834316298352288373435481744254865460138907860476150044161445509370096526875951104.000000 -438032022112154603580321549435555677876577365402384997446023623731432752779787290328720000162904875071770306655580204689285709824.000000 0.000000
-438032022112154603580321549435555677876577365402384997446023623731432752779787290328720000162904875071770306655580204689285709824.000000 106694180865652870792630926011710822344432544936659502378668665369510033011271258908567774021444271168980489327234816413123215360.000000 0.000000
0.000000 0.000000 0.000000
-1934401661570387733544945142093150385099384330013678178462497065521672467246523453166914606488348499628483505444798782703015034880.000000 -525192573338261334027960086820781507595875818159294431740224254765414268472594625840438743690315909246974111466495251755594416128.000000 0.000000
-525192573338261334027960086820781507595875818159294431740224254765414268472594625840438743690315909246974111466495251755594416128.000000 210178150043016786773589232757557820149601068512519664623610856959384210337265460865221726103511291573122726429955439923587710976.000000 0.000000
0.000000 0.000000 0.000000
66982449517501003545184572861339070072238826589082190014432828213659391403094061708076452230075877554020372600572017893330386944.000000 -55370326712456439621008403443845087067652306959433936679265843096117335997082642056575770926179860628157094239212743049365946368.000000 0.000000
-55370326712456439621008403443845087067652306959433936679265843096117335997082642056575770926179860628157094239212743049365946368.000000 21946178993317756562478419791355144551574418640562900022887159318784067576803452777377027752839611779319307252845611367211728896.000000 0.000000
0.000000 0.000000 0.000000
-8809272786968321769071021325119381705364779693014923369352909260788269634669870489592076670395489836459742636945037327897460736.000000 4994748731862122795894076785185112272019420327992936626560521025303258094908504941404973942183222311627157171568941179347140608.000000 0.000000
4994748731862122795894076785185112272019420327992936626560521025303258094908504941404973942183222311627157171568941179347140608.000000 2689166843179340177682333859767427653236701982826673242922501839485307637030185027973133183834914361428437446731974802988335104.000000 0.000000
0.000000 0.000000 0.000000
30582387216664257427006677071460896166896227318118119914472159888794308751023881511337439095582732917650979721354117314968027136.000000 -406039827517143652734306023991888146360782611597047401124018722956776889774703108420938506036095016560397898631697744303568715776.000000 0.000000
-406039827517143652734306023991888146360782611597047401124018722956776889774703108420938506036095016560397898631697744303568715776.000000 222763463384581148018474211920360578945965002352088256331069100091913281664700918201165549884950621831863296928904481456582033408.000000 0.000000
0.000000 0.000000 0.000000
437124686194691684813320583984308359879082517134898799849789245048055693593859474516771405746558991597375193011019121887386009600.000000 -42130227423592277149453677173526429071389239541061825148901354661016703377882258343763929799872381230585839379011832583219576832.000000 0.000000
-42130227423592277149453677173526429071389239541061825148901354661016703377882258343763929799872381230585839379011832583219576832.000000 3135639151998444936843993888818844968434598413679494129180632796099218013810951561486340265650294228467549924869606514832179200.000000 0.000000
0.000000 0.000000 0.000000
148748635007596193734661967240165832989014557719119683400367650673459675847034952995512942272715451967795998051813964281997688832.000000 412765254817964283462893539852785884505622125902771866888622400348340588067672954297876073147381512243845431343156319673806487552.000000 0.000000
412765254817964283462893539852785884505622125902771866888622400348340588067672954297876073147381512243845431343156319673806487552.000000 215706269020070975112431944492516687376290845136736046329108576204995251941148698780383094118014068912914271607416153087028494336.000000 0.000000
0.000000 0.000000 0.000000
365287118007843589011954449967218281672795971135742886521083438180723415900856364919879723158286868563054444312375658037641216.000000 278484384327138020114352639138577642521615842382059634028288591919065532824662446325390826462022094304269531481899552521322496.000000 0.000000
278484384327138020114352639138577642521615842382059634028288591919065532824662446325390826462022094304269531481899552521322496.000000 139345036075953106603299615820087917285697349709537953206494148074643045238872329873111460716504413949770723652822833538531328.000000 0.000000
0.000000 0.000000 0.000000
161404578497448264220469261283678037513294142156715334199568094242101262417771410373686739190012606578496348607409175298943483904.000000 -213776842434670479906184205616040353264427835145023556398697263725804052935188454477724329116137013922184300032572912094228250624.000000 0.000000
-213776842434670479906184205616040353264427835145023556398697263725804052935188454477724329116137013922184300032572912094228250624.000000 98547649524561353145813409582318726254214338705994488031286129988493379609439234645061171225989415176036103600028561022344232960.000000 0.000000
0.000000 0.000000 0.000000
-45034543834616004468216639755456734479629598505073532730707390064728715016292952164783039468585948527576615082828675524360929280.000000 -22048256566746428448282275788707938344695805521916275778219910989810503661891722019884974313952191079231711673278026264080285696.000000 0.000000
-22048256566746428448282275788707938344695805521916275778219910989810503661891722019884974313952191079231711673278026264080285696.000000 12738838877847397943595297712582431197435701973200312854479012053423162022074938231499826044759086335960851200465908136599879680.000000 0.000000
0.000000 0.000000 0.000000
147215509916393337352908369028935682933585935647567196653259626314685615809251744084485041875518405510560334665192909315504078848.000000 -43323919505051875958207395664556119122851106317418843364749098066507451595093679698000450476670087919452504072631106676780433408.000000 0.000000
-43323919505051875958207395664556119122851106317418843364749098066507451595093679698000450476670087919452504072631106676780433408.000000 6166837007618619267865134876167570294072746147631921100264479819085208710972290424462971800482294429948058739562436674195554304.000000 0.000000
0.000000 0.000000 0.000000
923955731549665263076518330138085211384568319581617895282600074051766106760660086906996531856508887708813498269651310798176256.000000 107738028041892235768425900268070403161573481871490213182220052148114664512940913253268751935739110917293947748065834919002112.000000 0.000000
107738028041892235768425900268070403161573481871490213182220052148114664512940913253268751935739110917293947748065834919002112.000000 8320509890958243949611785855992062092643788830525701319714793543275654667379891810993848568525128429139215969699911255982080.000000 0.000000
0.000000 0.000000 0.000000
23041039748642727165452175483652861318146971940125964938294764676578426831146019687237004542335141497179634745184072279401693184.000000 -44717604972829404526938432162751694460123555249919319164844014736493064227032783247732878624757166325001798284149141256202616832.000000 0.000000
-44717604972829404526938432162751694460123555249919319164844014736493064227032783247732878624757166325001798284149141256202616832.000000 22602608550983824100244295814567253233424676931194585169584982705544935440517003633810777890544173816675446989283031714264776704.000000 0.000000
0.000000 0.000000 0.000000
-10072856357900788878274753027788517587531974623081465020889828058464606467132591423173362834338210579257980243282179424162769010688.000000 -1408993182317276417415847827569307779670385516782911072625344384215301204283491466657751049762029071901449060486480439518724882432.000000 0.000000
-1408993182317276417415847827569307779670385516782911072625344384215301204283491466657751049762029071901449060486480439518724882432.000000 355152935758760419510062134124977961992581745393654858563914225603479678445139434152631420102334186531994896928608238387127648256.000000 0.000000
0.000000 0.000000 0.000000
102962353381287116464750206880102124549247160226288889831012721843323566243037860642422360198111241742242270354300745545125199872.000000 69826204550926784486610676357872930859703660714377325812230530211965311695488393443672367697843766352842424992930483578964279296.000000 0.000000
69826204550926784486610676357872930859703660714377325812230530211965311695488393443672367697843766352842424992930483578964279296.000000 24954276483977926828408286693871716434422275414637844594948133469021389586826950384053123846512634714159244346928527257496453120.000000 0.000000
0.000000 0.000000 0.000000
44322597378065018641201019597142210494368836990487325743857075421927739889520772794165121671598610514986214465458390539840782336.000000 -189426131253488807132691918546096068208745087321416479144237205304173340053183433363864879695397967525846501656228967707836416000.000000 0.000000
-189426131253488807132691918546096068208745087321416479144237205304173340053183433363864879695397967525846501656228967707836416000.000000 101149489236272291709587883611133907456717689930157739867945926565905729857402799521551721612985921888457840241185969376021446656.000000 0.000000
0.000000 0.000000 0.000000
-25405162758267286098707787634767347073721756055005405721543642160549267414352165469315092650849067585138149002844172104400633856.000000 -2196350233018966023039400295174250762319708710261573382721381854668417329463326228103081807940194451432358302102209373837197312.000000 0.000000
-2196350233018966023039400295174250762319708710261573382721381854668417329463326228103081807940194451432358302102209373837197312.000000 369546337237142361425229834652640559859159755920492155818155060068271778287099562171478738648651728349675853240641727317934080.000000 0.000000
0.000000 0.000000 0.000000
1589917076189370715011668335698515726220796886883969692683121035945303017617468230484687095598025675024966279331097068377961660416.000000 623699494640470084760391605617417842390478057196432870690530854224975071533453266058062499099669837382893234115208999483476017152.000000 0.000000
623699494640470084760391605617417842390478057196432870690530854224975071533453266058062499099669837382893234115208999483476017152.000000 148038263494057854443805464454338294926674148472200950967264076886960077383553962684691349269973640318207939383590105354944380928.000000 0.000000
0.000000 0.000000 0.000000
432856896605410140428810202377715146317510914880787743908809624770191001046281454452368055301763111848346331019283625861447680.000000 2813754180256086050304549102138947489129715633922105657515462849010456371150004005820782203167063731586239038350896910611513344.000000 0.000000
2813754180256086050304549102138947489129715633922105657515462849010456371150004005820782203167063731586239038350896910611513344.000000 7079087161637690115773058589714238099429109237635258944600913619245053625424841356927530092612994780148946160795080352627425280.000000 0.000000
0.000000 0.000000 0.000000
5688262759399121078481883589597213167729903052912215594163917040192732809756426151635356364363733799490230343669322133696151552.000000 4737721436681491857273541562424422596629144843416317234296555623563810359167600319286883401389731110259910079089277001221013504.000000 0.000000
4737721436681491857273541562424422596629144843416317234296555623563810359167600319286883401389731110259910079089277001221013504.000000 1848036444682828321968348763941916920917113705331057703282191300209202612920992755299942692386095020390182947687756310129934336.000000 0.000000
0.000000 0.000000 0.000000
55074270359498901973685395552939963599267449590453674813695856469335584402187741657934456133276417095672651429049125871978283008.000000 233975904919388766563214157211912526315693250429415572120243335325510819040793069207784463317529212516484043888478497117929734144.000000 0.000000
233975904919388766563214157211912526315693250429415572120243335325510819040793069207784463317529212516484043888478497117929734144.000000 124911234974438666793556334870152829792695578039693513802673414373978052924813791933500056866257094623800432927424606720202113024.000000 0.000000
0.000000 0.000000 0.000000
104035261940261528581997113609347818123806768200939859524263397262453579702954005482530079913899487579783829849614734279791607808.000000 -73398554363834481290358420622046973898729306007762519704109588854882494864849821207874874341974956719619769813441715932055470080.000000 0.000000
-73398554363834481290358420622046973898729306007762519704109588854882494864849821207874874341974956719619769813441715932055470080.000000 26326354538519170584263603289746158056943552438097023943240968567972542439788357246274714211273144642719835608637562994206703616.000000 0.000000
0.000000 0.000000 0.000000
229255874541944171925039621496882933299261196418806977553938282001891329665685016262223800771059159178864238667586636326371328.000000 651538585577852488970013949369544757096187878909019916800353038364757843035410871931290318620730532790470118753458994502696960.000000 0.000000
651538585577852488970013949369544757096187878909019916800353038364757843035410871931290318620730532790470118753458994502696960.000000 347602772911372820077617592789096283684688163783588215478924475526198496395966629579609290618271949702847512928003071154323456.000000 0.000000
0.000000 0.000000 0.000000
-221552368624034576535117466281852467988838326908952472558687388557347724996249722177426964242964226234318520967586071617571127296.000000 46170391257009843397848139366715133060929352814610026788386220594768705475283073603285073493026717868709387219911518390174351360.000000 0.000000
46170391257009843397848139366715133060929352814610026788386220594768705475283073603285073493026717868709387219911518390174351360.000000 15675683574093482491321227269527546886162263310487592532066505784948606185981967227316065426174153112461083911935433755848605696.000000 0.000000
0.000000 0.000000 0.000000
17081469821208144406508845110355573146514456514254854618618361818862175972168120507102412145297879756397901731450262367915474944.000000 -12083384924824941184488106027916426733094941199309867348520402280845841193816288543786052071263163115328316277815583287686463488.000000 0.000000
-12083384924824941184488106027916426733094941199309867348520402280845841193816288543786052071263163115328316277815583287686463488.000000 4304972743697563031253414945078985181146995166813329166988767784654981697266419852201640774165357877421625491906312503885299712.000000 0.000000
0.000000 0.000000 0.000000
482520668924375353633393042129125257286903440971174861708418113423300791643374178420135466367498299641988509697131411270080135168.000000 -458552618038582125576446411902997013165444363071547922682700394156250811474752884869003011316246039783638910122939758052659691520.000000 0.000000
-458552618038582125576446411902997013165444363071547922682700394156250811474752884869003011316246039783638910122939758052659691520.000000 189835818954145539515189296220848535817231675196508738622327840278779672772031210324684023958880251724661443803266131103460622336.000000 0.000000
0.000000 0.000000 0.000000
2086376144950964215748800265268828193247696154272136394182867968023580780598339967438240573095601640876517541491850061492573437952.000000 3928907438607977461787281631395977022600391832233351397078923759996658321245929297014393950506255389997333585781490094016823296.000000 0.000000
3928907438607977461787281631395977022600391832233351397078923759996658321245929297014393950506255389997333585781490094016823296.000000 69804278523254527660653928173148361925259695371240955281903063045780788304666681085130259877918688665999394494975869949313024.000000 0.000000
0.000000 0.000000 0.000000
272643116816327621408337674053312386061248217922767757445663079015934089634360639618610856146191077179023682353094037003978145792.000000 2293712526283729132467364840393054050526712800990458563199283605537631173643269238060297867405325840398810071799748148065818640384.000000 0.000000
2293712526283729132467364840393054050526712800990458563199283605537631173643269238060297867405325840398810071799748148065818640384.000000 1259122192110815468395674651575940630563383012852407870779948284679959998672332063820785891980551627838584027922033530299366768640.000000 0.000000
0.000000 0.000000 0.000000
1747031646691107097142987817325065306669984470233703132890507665150387193512396264924807478509220487277530046777003485747520471040.000000 -2340891104373178035673609806951390792300265395463646127104135683261324964471866302152935080752925335868899683137390364319211847680.000000 0.000000
-2340891104373178035673609806951390792300265395463646127104135683261324964471866302152935080752925335868899683137390364319211847680.000000 1082591304380693617979481285470762961909121129810813026481043095908110321707736625060646267649029634043922398002258668439491051520.000000 0.000000
0.000000 0.000000 0.000000
833830751619336171487038079172491612166967012808322460815475527521023177333668088093224825677735635286153136522157020066932064256.000000 -1427976597730160010488447917923751736875826846846467350766161053684998660123296992816108689049866535711703243257084191999443075072.000000 0.000000
-1427976597730160010488447917923751736875826846846467350766161053684998660123296992816108689049866535711703243257084191999443075072.000000 696306868705749709762817510960177875740250618208492198075697752885445860896919297940628639852139138757864190961628128107196055552.000000 0.000000
0.000000 0.000000 0.000000
1134161710110036744613398127377344990093648086256053564474611909167409313668058896986623256681258314299976492218333005428757102592.000000 -2508904305693553886943932297644890265762887609866634254337893786321248283374137363095632868382894875328283418984812379870358142976.000000 0.000000
-2508904305693553886943932297644890265762887609866634254337893786321248283374137363095632868382894875328283418984812379870358142976.000000 1271106464716758535033584329115848290974167265952588912089915104601243641675743491377115326401901181917289962680258678723750920192.000000 0.000000
0.000000 0.000000 0.000000
-1317799524469319167476800016233206733363595862619090733461609217794128824897640023811128151154566481950192218982378225129654059008.000000 579009511145759478269150088811148943361319068517096634969774383941107155315845824668147216494585061268096061082921238890505306112.000000 0.000000
579009511145759478269150088811148943361319068517096634969774383941107155315845824668147216494585061268096061082921238890505306112.000000 286764776112450822662018848621456157478294186900014707019074692965074678981325634473662336326483370977506722538445167468451201024.000000 0.000000
0.000000 0.000000 0.000000
-7883528287275984427562714626379911796325424475019041693649885887429717988641319759269341222305911212355805543157751197112205312.000000 -56719130669977344270200368372182143938505156270460871929960287398155378864904805902113625779659123158830355655932735990672654336.000000 0.000000
-56719130669977344270200368372182143938505156270460871929960287398155378864904805902113625779659123158830355655932735990672654336.000000 32073284713018709345015517317102132966310817560080621856013555433524150424580763214940200481104404163580616949410619142745096192.000000 0.000000
0.000000 0.000000 0.000000
3183917014799177337218736556367364107753632220650274324984696055829907497357231439355150439740494907391144589558280242949334761472.000000 -4323907525897240108990656487813092572488114053895195169527158553872564672017965769110726224319203025985967386731746787152057335808.000000 0.000000
-4323907525897240108990656487813092572488114053895195169527158553872564672017965769110726224319203025985967386731746787152057335808.000000 2006495924881502229658330148542380175430029382840156578020936686516718820597582289101265678258973890189452409323569612062199906304.000000 0.000000
0.000000 0.000000 0.000000
14703951484397669934312874124292922981910366295229893236286325514265951157618859556487651969824725363271075144027149587653328896.000000 740450687818704686006710461368063990551908138300383738301191486227090974657461597170740004781727729169975002030073498929463296.000000 0.000000
740450687818704686006710461368063990551908138300383738301191486227090974657461597170740004781727729169975002030073498929463296.000000 26774979160870658809281352493194505799057005740927516527681438526240598002618741154859015477985034804943457691924473042698240.000000 0.000000
0.000000 0.000000 0.000000
668820429592778811217784397428130711898115891343595002149038683924768088832885526495345507124329336807839436257968132417038319616.000000 102662076564956639499102121378545921839278305366900222665699986703334608292302132212606836525228356619729444311049311052487458816.000000 0.000000
102662076564956639499102121378545921839278305366900222665699986703334608292302132212606836525228356619729444311049311052487458816.000000 10527588182444737820119153932753966722174700248445543301774537010824029944153788137379866054749355071769473036307220000258654208.000000 0.000000
0.000000 0.000000 0.000000
48288839065929188547253172605084090451493045692700789297744280356730803806488204264910610957065465810688558813853162728211873792.000000 1527294689549377205165319403704498432127806014740567683693725516122238230692170595188730698859260368481921116207486845223052509184.000000 0.000000
1527294689549377205165319403704498432127806014740567683693725516122238230692170595188730698859260368481921116207486845223052509184.000000 845508573476087056555246265960931953097931298592058184588997476737545129728254350611211081312846752920862556717504188645241782272.000000 0.000000
0.000000 0.000000 0.000000
3118444369522397798723470084194601583967180100783244021373802288719289062142409716941904265934946008568129122071729794080946782208.000000 -787481632702240219047611365678562262735966653895654404534080736921641833415965519763484218607858362235052228766676922402546384896.000000 0.000000
-787481632702240219047611365678562262735966653895654404534080736921641833415965519763484218607858362235052228766676922402546384896.000000 127162963461032082195941221601870013534791997980683599105868079425876598237521125402630383258300701028375671000166938661527486464.000000 0.000000
0.000000 0.000000 0.000000
12645134620032882134812992612337694822384159433348975154569973730500637322219686527814405585217003480771536560991704031959187456.000000 -94108518003557437476583329115453583942595192410248370911531422147216219777812610785514421402103183779002987174012351604072644608.000000 0.000000
-94108518003557437476583329115453583942595192410248370911531422147216219777812610785514421402103183779002987174012351604072644608.000000 51249875937348891514159905163950233121539534725334482936437473953316243009048916609163358573127724726557960231408175948761137152.000000 0.000000
0.000000 0.000000 0.000000
-421807919335319922085891555991360178776940795194314255497939969989692105731216489727943132272013891876820641279161574753304576.000000 1362012320479384676174336631691836802970487952226527283256701325160511001035257373917073635137109040338229612711037649591205888.000000 0.000000
1362012320479384676174336631691836802970487952226527283256701325160511001035257373917073635137109040338229612711037649591205888.000000 779179725166453802039752352929849218644828620579026069298664324068031904066380381895863718343199754086056134894790914393243648.000000 0.000000
0.000000 0.000000 0.000000
-11432918460688985146433988349447130990207526434755582169352583282578451274158439628815205134046327408653372867900009569740390400.000000 -26004222886093908293596503218845306212146473303462360785042039494400062364096101763231473197458255582591437763234889421513818112.000000 0.000000
-26004222886093908293596503218845306212146473303462360785042039494400062364096101763231473197458255582591437763234889421513818112.000000 14973476047305314375782960919924051334128396209692023840069698791512709723649820061571848794632795135157595865009947780520607744.000000 0.000000
0.000000 0.000000 0.000000
369712074555538997388226401014617472859886944238954986499626491567642501595287666121825166202491592067446647689685314549317632.000000 -257566035950937257168358141309747903313113955493772651099489308815264394286524014442964988570667811263345363946421317418352640.000000 0.000000
-257566035950937257168358141309747903313113955493772651099489308815264394286524014442964988570667811263345363946421317418352640.000000 103292709791560197066992188882424541285456363937397652544276595255719352598029260141685982444675673052030851638285574340608000.000000 0.000000
0.000000 0.000000 0.000000
-45290599927915484868788537435246492958372141102099397736421097718358815288238443612542219215226335446502672752040077715306446848.000000 163247538276625826700963306817273697174126797599809616207514002943913026617320767062943196400833199474735999078498170519395762176.000000 0.000000
163247538276625826700963306817273697174126797599809616207514002943913026617320767062943196400833199474735999078498170519395762176.000000 94903582541262369736264470390624108279507248421287029821672135111741567337240533102793356062963215460724709290703313353809330176.000000 0.000000
0.000000 0.000000 0.000000
496887923832323560765701027818313934248954562719733664308791739569903138678491592484539347018449361022405562182483644629429256192.000000 343248652081211424233954862542360950131124138980713041118312520417963218461890938517728096059534488491225111903797730593531232256.000000 0.000000
343248652081211424233954862542360950131124138980713041118312520417963218461890938517728096059534488491225111903797730593531232256.000000 120319170799578313763288740488466107687547015731364956127806372978407669848278362822054885923084885196279051717056978365374791680.000000 0.000000
0.000000 0.000000 0.000000
536209407078160152968885197836414521108593463981595500333383963704771566691982310127423969258118057369191655197264948225179123712.000000 -750521493257134619118903156895968958471150752165635984827135488567052881359469827242907756028524955750894271306856681661127458816.000000 0.000000
-750521493257134619118903156895968958471150752165635984827135488567052881359469827242907756028524955750894271306856681661127458816.000000 350228881124556389072364346693433582408806371849487710111481136626545502511829846832684081564024887564498415653557665924120576000.000000 0.000000
0.000000 0.000000 0.000000
-10006044967011842406213602004218964409492727778492509573607268381169699589895046374984570327085320437859913084536842568832385024.000000 -12815449475455920293697301282268878966029278087793673950790174859951702663996809335529510694199011409505475435600371069269049344.000000 0.000000
-12815449475455920293697301282268878966029278087793673950790174859951702663996809335529510694199011409505475435600371069269049344.000000 12015063518265789585878553278235505935511049872490304865654995902852861379300069093859391257137320640885098389863771695524872192.000000 0.000000
0.000000 0.000000 0.000000
-49730297381598601724895299173216214041011084329060932680805116563397985255516232583122270708474847559742652148684435887786165272576.000000 5562791796423275741611834771867073339504423128013595176647019897065755193484643166364248192623753824825996190593573458913670463488.000000 0.000000
5562791796423275741611834771867073339504423128013595176647019897065755193484643166364248192623753824825996190593573458913670463488.000000 1160929063090509790447273963712699196567791961052818058927813737410250459297858467952624891832825747468876621104189204275132366848.000000 0.000000
0.000000 0.000000 0.000000
-8166700253171687897264675187335013045458112157164800287376979909276836603135290345338161038407959210255631516802336065623521492992.000000 -1702473374669338958098004578363252357655026478194564916411880315993111671296443179427578292357082082954134280895756191969371488256.000000 0.000000
-1702473374669338958098004578363252357655026478194564916411880315993111671296443179427578292357082082954134280895756191969371488256.000000 578120084797326621698348495261594822225775136642428866137828817664040839269311426206293842606816687747665032257696916130280505344.000000 0.000000
0.000000 0.000000 0.000000
-29935992329001520484180234068953064361562197061991794011952903661794865438622594942860618683820548459520323689163016126941236297728.000000 -3257133143194281594661557570500431921109706108209890093094174965559959523351474168706644739251886727760584472759046312084602093568.000000 0.000000
-3257133143194281594661557570500431921109706108209890093094174965559959523351474168706644739251886727760584472759046312084602093568.000000 663613263404748174929097311037084549487400611169291208424971138296670404174070263386082330222659279499711734436011852831916032000.000000 0.000000
0.000000 0.000000 0.000000
-638574660302147435416445707587513973104853366106741931957638750524315457849725864472252553304326773646387351862798165499755626496.000000 -1562284990602525732225299219950167923169316843875096222006383791955272640143059851792291660867879936752311067038235425178308837376.000000 0.000000
-1562284990602525732225299219950167923169316843875096222006383791955272640143059851792291660867879936752311067038235425178308837376.000000 899962757990892254228056970185684419809043317864459458445167699412249723577266452929720269979103697413707563602155913341267083264.000000 0.000000
0.000000 0.000000 0.000000
-18274759997237787726489938140667344423538955116416970392665484181233657389903928485259628605094337810362526765970787400838807552.000000 -14128234251275186531537185301053322565508422444000240055416745749341912805833296303180983596349584276165275517175643726552236032.000000 0.000000
-14128234251275186531537185301053322565508422444000240055416745749341912805833296303180983596349584276165275517175643726552236032.000000 9883486032100644912051922845428134504905934570334337013352506934260278244653528024052693770643519001096331974220942065207869440.000000 0.000000
0.000000 0.000000 0.000000
1687625956712838999795239311622649977491125524996609698370394364841356229605942395959634942847608414520862766088322331520794624.000000 2485628849485818695614445256402655061958764042247835471568031090954762507386366932886111414583849856205823388955849033338847232.000000 0.000000
2485628849485818695614445256402655061958764042247835471568031090954762507386366932886111414583849856205823388955849033338847232.000000 1173787502408902942314726841192342091820160900068347415776150679483589548953234437365971021478923103185526314332996759369809920.000000 0.000000
0.000000 0.000000 0.000000
-734742879017664513535482413797878410934976438089225544420896582657213574913647845473426310244817219633939227560282330153997041664.000000 1186506549706545141976232853143754154598430793109129664098746549754697649873408091976894688779416669036743505178873692182884122624.000000 0.000000
1186506549706545141976232853143754154598430793109129664098746549754697649873408091976894688779416669036743505178873692182884122624.000000 684762783881824307845926185306593062829489661580048060791276532722606372851303057875921324275989785494673997313628229471137955840.000000 0.000000
0.000000 0.000000 0.000000
3754253462710018114974541739310146547150290314771196008263375049299439652724862274203065755590383287934728726727364038121979117568.000000 -75847128147006569329806501398418436065587251923761183590656783006029877942086423683486206385351332269949642638763796187328806912.000000 0.000000
-75847128147006569329806501398418436065587251923761183590656783006029877942086423683486206385351332269949642638763796187328806912.000000 1509945802499764989489535234580253032569627215538975966432630503675925194013238753850819989076961922883368735574186009829572608.000000 0.000000
0.000000 0.000000 0.000000
592731915610738106466994596588693277484482926990029430501354498119414385366334645647800947239161535815965572108103608267956027392.000000 41111459915173045766711135488639530028087361697941788417762857204594453797015345182137242313306679725969719261867209366072983552.000000 0.000000
41111459915173045766711135488639530028087361697941788417762857204594453797015345182137242313306679725969719261867209366072983552.000000 2701838718447129926280328412207551813671154890620347291044331497718446852240177843089745469333514470542180891469002751745196032.000000 0.000000
0.000000 0.000000 0.000000
-495942773239104816865513877884282488780546697923567137857967607250401735158993176515311482386460956413503717519035960139804835840.000000 -1135120504619512367402386660170747558230270486976553823633950575994545587546146516168488316527670224743018833439842840000812023808.000000 0.000000
-1135120504619512367402386660170747558230270486976553823633950575994545587546146516168488316527670224743018833439842840000812023808.000000 654308022573096104169245896218186875518444640943785986116017676799461263769635488772248889532775207547971568168942083755049222144.000000 0.000000
0.000000 0.000000 0.000000
63129867107635693862074271827199196400931227601679992328248827198063630537073785728632321452350645838908870436665001943779770368.000000 216342031554459805646271101310047567217851479510478662157924126206787176626096152263861760909070898083564703290037021207653515264.000000 0.000000
216342031554459805646271101310047567217851479510478662157924126206787176626096152263861760909070898083564703290037021207653515264.000000 114068236708793199099771903692358864824488676374520681670261264972844435165804760233772662362219400531839576459328030893605388288.000000 0.000000
0.000000 0.000000 0.000000
-627446182219607275617257924849744110598856543573286232183628530780888796030710636730639224181668290638790866671850255518451892224.000000 -110248995984839267049865585008799185802095743909404112303124649783634941849447893410478238963752308737485889124074089396582744064.000000 0.000000
-110248995984839267049865585008799185802095743909404112303124649783634941849447893410478238963752308737485889124074089396582744064.000000 36524977195984964691718282479507499350192941645560205407603089279309353076795988332506693688556954209509158339317373605800574976.000000 0.000000
0.000000 0.000000 0.000000
-24816705936143800074174566305867015651065456457153644523842522731298322512257319501052071391625137325218955569375880314533969920.000000 -17584003172449305570539122260710998628797478445861585318590726494570720625841634765462817794802625821512790693778559916922896384.000000 0.000000
-17584003172449305570539122260710998628797478445861585318590726494570720625841634765462817794802625821512790693778559916922896384.000000 9554951110355912410330585034689766960913870772804880742223285846873291311377760290533844031292097549316951098288559273529049088.000000 0.000000
0.000000 0.000000 0.000000
-966983354678731472807486490763619070160994328203649682872215064644278722133747151998615611264114333279787301747370090184031862784.000000 -183917306425356622083292217125283887780056123822537872937674644194543869058577479338590375478942662265381057785360760119698128896.000000 0.000000
-183917306425356622083292217125283887780056123822537872937674644194543869058577479338590375478942662265381057785360760119698128896.000000 58613098581434866461869296917056435273512276953166083978923341261219443268803914659118956625014446313479340603524058275687432192.000000 0.000000
0.000000 0.000000 0.000000
45189305234165654110562581396001891542902150893188743962295272744903448227633834304935495597166166698519234214466147786264936448.000000 62208802003474645350090875844327272837692331122846569506605230024466051342569284093969084471066226656214812262944695979488575488.000000 0.000000
62208802003474645350090875844327272837692331122846569506605230024466051342569284093969084471066226656214812262944695979488575488.000000 29550107727080146380291988776445991259226228842620187642446409658965367817818883304133715811808476404683045168859560705618083840.000000 0.000000
0.000000 0.000000 0.000000
-273518686124186738642240425174936193514068430881725793254646733553622359070955138783044442275274865444778039725300839429963776.000000 1877004763560249478516073511496250428182614095823872528929196917827682616713915975162321735310585753435060751797183109675352064.000000 0.000000
1877004763560249478516073511496250428182614095823872528929196917827682616713915975162321735310585753435060751797183109675352064.000000 1061997415409816724932237411495838886955827471218369063305672807074009282020955164601541312493761845716599865945091512498913280.000000 0.000000
0.000000 0.000000 0.000000
1939117382376931508622103185247302577000918543328882734424374659790499837449922472508675864906969019218117196611944697522164858880.000000 -1686125438150510291365363979069487652521471302643802973026348305177650857918889860198597584500269086956112440348363492864066322432.000000 0.000000
-1686125438150510291365363979069487652521471302643802973026348305177650857918889860198597584500269086956112440348363492864066322432.000000 670704854837500382386393362054536642594780064557573719216087728904938501601977113478417843275780949106106835604474565264314204160.000000 0.000000
0.000000 0.000000 0.000000
-47734487643429567706107929266958919332813165990808072605002494011383055197382352085384105246961894461907237523035983430245416960.000000 -1874542541651517354091230292070941603674389059813700749064254791154387764654356555952722559258818196816471614527680337468719104.000000 0.000000
-1874542541651517354091230292070941603674389059813700749064254791154387764654356555952722559258818196816471614527680337468719104.000000 803660094194651641352571330932736417105022228623057706084595689718357942120000924779576672849735752802910602258815241970253824.000000 0.000000
0.000000 0.000000 0.000000
5826290630601391028994627112405520362020936589334289013829047596452924394832788242348972486969626555104023014874405139110548209664.000000 -943023592953455300551933782562392404546928785344467310173546115414866801725119474484015389528328386010369470902292759603226607616.000000 0.000000
-943023592953455300551933782562392404546928785344467310173546115414866801725119474484015389528328386010369470902292759603226607616.000000 100005002293528469887283194747769759213455073255940073316430735960363862023408514286662681415091145723874603792259018721375289344.000000 0.000000
0.000000 0.000000 0.000000
5877743768777522666206647660468815388730144536267463577007959399657288572795572376748912938500296377169303558407934092124834758656.000000 1003477785305981150079614168210914116866240726715737162074243887031614054045430541528767961493361978415049672092742712945037803520.000000 0.000000
1003477785305981150079614168210914116866240726715737162074243887031614054045430541528767961493361978415049672092742712945037803520.000000 112025016609197968862641812014498179911695199940747424089622029248102631108469628324795883304508467206533571751166384914516934656.000000 0.000000
0.000000 0.000000 0.000000
339754398071220413714168001134710192868943093951014256170516700069325935627919484140637575624309025180917927982360778230707781632.000000 2213582846145607628423138820346497551483305147413625144008062251660083018057468296626105639613842609095963914530338582672755916800.000000 0.000000
2213582846145607628423138820346497551483305147413625144008062251660083018057468296626105639613842609095963914530338582672755916800.000000 1201275148144184713215277405273586354914002707219845363122227782273927122553850484805601519494483961167100959494438311443581370368.000000 0.000000
0.000000 0.000000 0.000000
-8313666347925222192441444521780014079742941202531992024301109249479427062016003510401950976351541114240855092232863114375444037632.000000 1171973894379495347519533640349146685488121575900604479992642609110125257488881032497733693309758171909888353593709006407772143616.000000 0.000000
1171973894379495347519533640349146685488121575900604479992642609110125257488881032497733693309758171909888353593709006407772143616.000000 297305226242837200167932885486454823106990048042597471090608710263929744782809654470862367387280247525324343226520580262734069760.000000 0.000000
0.000000 0.000000 0.000000
-14819311801637471190147509577063256098249321080229355922351923939129328178764604512883422395378449677665389616604239080625071456256.000000 -1903197543778542046851986961924472297593152027151503487609461633996654498298840956335622188018511605633446127505403420892028993536.000000 0.000000
-1903197543778542046851986961924472297593152027151503487609461633996654498298840956335622188018511605633446127505403420892028993536.000000 447140225555214524818294482428304133544770528629087756688176897932698787758208418412512903145624126134958323405737179402888806400.000000 0.000000
0.000000 0.000000 0.000000
-79119088727421374746438214423684583640893914610640156653700107265457482859984446592121517295083708285980754732467865920723922976768.000000 3613420794566056295652222104033704259091015600234181293254924754568461057684168672793732807230706153299849445953926611876905484288.000000 0.000000
3613420794566056295652222104033704259091015600234181293254924754568461057684168672793732807230706153299849445953926611876905484288.000000 326350990469597722613634068291749985850895188208752567112090763398637051271077683556411477988174375970995039220649961900564545536.000000 0.000000
0.000000 0.000000 0.000000
3342651024637327821236831364038685119228651035297383678816284150798763867222970900256331922480515682988910619372240497901830144.000000 154937084990652140490024209997210582569771701206108198009247960904512734015415129128655571906180527700223959716721100817526947840.000000 0.000000
154937084990652140490024209997210582569771701206108198009247960904512734015415129128655571906180527700223959716721100817526947840.000000 85899441758928982164799609272297908354136039559561299514997323441358951035173879688816612006190984355565860247276835954885656576.000000 0.000000
0.000000 0.000000 0.000000
567532788157898203681496705040763235490310852586663019703274438660324637020305999720944616821972081884130083114873828573223845888.000000 1337527437779065479735161390779697632871153832590771701261739252828796731492991033359315577276231671620402821147896581189634359296.000000 0.000000
1337527437779065479735161390779697632871153832590771701261739252828796731492991033359315577276231671620402821147896581189634359296.000000 683338316366764408519993656892545784313290073154389580454487164650580131870291833062925079286882361086515888485245621683087212544.000000 0.000000
0.000000 0.000000 0.000000
-23756794284588257587658590071833793102243431041126303932424210021611135397334236524505456524266015413555153522067830103051599872.000000 -22555699901131968198114956158843439029152230057009611584019256123958073377732038662308045946430308442978856133805726308428152832.000000 0.000000
-22555699901131968198114956158843439029152230057009611584019256123958073377732038662308045946430308442978856133805726308428152832.000000 12920816862932672986587195445108909940986023362055922344830361136853498516219157585797659323813517035943819847125188628359151616.000000 0.000000
0.000000 0.000000 0.000000
1046556963034520595676728877238744334083662340850286588292335385890957214400669638909532413409567078822238329013392762609936105472.000000 -662235827451338165926910546115285223256461204993828808843534442625061265839780324518223135987964992223216799845701995640024727552.000000 0.000000
-662235827451338165926910546115285223256461204993828808843534442625061265839780324518223135987964992223216799845701995640024727552.000000 222352210509813340985093276320079093794318098945355317336957585069181236102265886198301377092084675656428233720335012496398090240.000000 0.000000
0.000000 0.000000 0.000000
143321396409707832566299332021000161499494986714248822271286337076705010406254866183887257109011032770118152284315079857800216576.000000 147369702090383985386539771235466012024201777330970235448113083482407294353480978513659874948914107694712596000936316014126170112.000000 0.000000
147369702090383985386539771235466012024201777330970235448113083482407294353480978513659874948914107694712596000936316014126170112.000000 62794054948862524519746362645017075038531922281989492608061069671106604279331535169875519301156483376399188496936463307986960384.000000 0.000000
0.000000 0.000000 0.000000
152882559358138467468387313792818871863316056552629207577594537833299724932595238343110838324260974587446099589307345200329261056.000000 -776949594305101470311798255949451404385132722178051370085298976229482751003316789719272297495162274640022650235872590577243521024.000000 0.000000
-776949594305101470311798255949451404385132722178051370085298976229482751003316789719272297495162274640022650235872590577243521024.000000 417561428991570123138373218743694999825111592760853281236958115956149685257459340885289127217476226420545044727324838102525018112.000000 0.000000
0.000000 0.000000 0.000000
168420109911081034258156440617855354217490792590040802226743000149003060682842517321745595579474540012026436491517195007819776.000000 128632780254120581427770623324427535859755871296651624200593914163963935841565323719306983553825513553623384761282799429746688.000000 0.000000
128632780254120581427770623324427535859755871296651624200593914163963935841565323719306983553825513553623384761282799429746688.000000 51858085480167525316579672348324006019823226330677596010313680969049368722418432444448149097998996463225510692809026423488512.000000 0.000000
0.000000 0.000000 0.000000
-457728204280275183434322768624487921182486986488318898720178560734566411146919913836231722355822966605853378095462148062796840960.000000 542696655801747104172414442320681992620942082323991025288722829241312209856317626661909879497749530921699237838796496098121744384.000000 0.000000
542696655801747104172414442320681992620942082323991025288722829241312209856317626661909879497749530921699237838796496098121744384.000000 311162142548363140684172372078716718535086522504646704839538257934470407393998040482921804589745216932617845084975272206505345024.000000 0.000000
0.000000 0.000000 0.000000
29681923398383565382802695905718014811967680763555144111195697544001171755633613386473121776335661264259336672668154034951028736.000000 57381891264439498808517272338155445571284797047990265573649557618863538417824950426517395089707795549397106478752204888343576576.000000 0.000000
57381891264439498808517272338155445571284797047990265573649557618863538417824950426517395089707795549397106478752204888343576576.000000 28882851239297450802012434813137090791247402606832838059353040707532438792374621073175289172953024525033868895714225201648500736.000000 0.000000
0.000000 0.000000 0.000000
-483598609098751773438131938713072842244983221275363683284134801767842498149949421214771719063835899451367889032136532705488666624.000000 -308279807938900558844060132684839043073224013225181731622771331565027217227461143003607046474877542239050384630890824288979386368.000000 0.000000
-308279807938900558844060132684839043073224013225181731622771331565027217227461143003607046474877542239050384630890824288979386368.000000 169036330988081180486543296461000085893077472807625046111282332519831807393151829827565148239162031862885350689681857461297872896.000000 0.000000
0.000000 0.000000 0.000000
502969610599002692721671781687423826569391573825088840424861380940761918059613344293949341970285779095817653415169279706905182208.000000 -84226668730432059804073062522516677063423833561831125227941736223585703532960311039748725854917126571041353152504316944866869248.000000 0.000000
-84226668730432059804073062522516677063423833561831125227941736223585703532960311039748725854917126571041353152504316944866869248.000000 9244169904606161001346270847096787220227508217547631540444816382400138150372640139434897197506894082214600565619645134007173120.000000 0.000000
0.000000 0.000000 0.000000
267492955745576076565298327346496376148104333230052397871819475213168278844822429645017026570169360677867783021622191165573955584.000000 -432832433144779983774917390423215971041393424057746932668436026560439858725848913505379799617451429896533532912464409116748546048.000000 0.000000
-432832433144779983774917390423215971041393424057746932668436026560439858725848913505379799617451429896533532912464409116748546048.000000 208826466231218695506518221585872469244812061807839076065771931397192451773440503141131605627254120412721027198309388812000690176.000000 0.000000
0.000000 0.000000 0.000000
259413227485140256259863074091153817365464805321451284240708996890844530452284395307284079115508314138687693620590141839452930048.000000 31185806764429410406062936784369731771278808304576042122427995984397723314365847508809129583254439008995137152583458459672903680.000000 0.000000
31185806764429410406062936784369731771278808304576042122427995984397723314365847508809129583254439008995137152583458459672903680.000000 4059274290286169367022915686015700599555285518490096934196760257294789189276370543004921645591398748755964338382070212385046528.000000 0.000000
0.000000 0.000000 0.000000
533433702000435441463537004604988002787204473453969538117475970467280945950644137977135805617130304328856343656605588577054621696.000000 -228365009261342338628598708365436285732328046308507757281318375717940229653542501439199596851419406039135538919146720573165404160.000000 0.000000
-228365009261342338628598708365436285732328046308507757281318375717940229653542501439199596851419406039135538919146720573165404160.000000 58169099388730848481525926749445794519761420922038926435283662421389296145265751752969262156204407805981266641313609635587948544.000000 0.000000
0.000000 0.000000 0.000000
15337155193835818034347176612697902555267458466743210922694453209864901550088210743652394291920017540974300296767286644844789760.000000 -26589782130013863891536587505177230238346641756899373946401499324801426853353865663656174901516681341725962482217913833064759296.000000 0.000000
-26589782130013863891536587505177230238346641756899373946401499324801426853353865663656174901516681341725962482217913833064759296.000000 13004780532230123898113156690654606012880484453723289141253264652099646381707261384266791892079145468891079346218564994415460352.000000 0.000000
0.000000 0.000000 0.000000
2808518729584616779756432811939548321000988820963069519118488778814385678427272330541515609121957893253411572703803968691374129152.000000 5027454018287087121130824916127558927750312499412273080463558380743013224659853751489002010118821699877416320810293491947003707392.000000 0.000000
5027454018287087121130824916127558927750312499412273080463558380743013224659853751489002010118821699877416320810293491947003707392.000000 2470367214886214820954366488721521540063176263540743025599086097432105469335059625743443152336180993218332876230998206806279323648.000000 0.000000
0.000000 0.000000 0.000000
4256873531148059615366191627130002757535150291119263686652641683092052018151574855326586834553008760708676602737471012368023552.000000 37258141301124554929077332353894930472071051837539740964718404686035209752038890550042697538775329404350591812205887854204682240.000000 0.000000
37258141301124554929077332353894930472071051837539740964718404686035209752038890550042697538775329404350591812205887854204682240.000000 19871249149198896148800216628552400260190869167048503120742645181350810928399554548367033623075915864552654188845150605353680896.000000 0.000000
0.000000 0.000000 0.000000
25717488850209817730829516321589500107307878675035873376014062633689154858181562847528735733960007518387712333671724967371210752.000000 -10956580932250265126420119748362937283275425876448282724587796639311560999366748511915122963829975665880068154811373139552894976.000000 0.000000
-10956580932250265126420119748362937283275425876448282724587796639311560999366748511915122963829975665880068154811373139552894976.000000 2932282992769741769717799820412017635374997479004584497940422745335954812113837894309753276697704861573965181527142393660309504.000000 0.000000
0.000000 0.000000 0.000000
368567585126188650282270289387740117601522542750384270979799776095979570059603944781619877293849653587014483173837620185065848832.000000 285059752788003772181514005849511833372409454193164975177823339866815470564487525477850103548953378302295359573014999384815828992.000000 0.000000
285059752788003772181514005849511833372409454193164975177823339866815470564487525477850103548953378302295359573014999384815828992.000000 99187613126230083322453631016460233993632408976267260095870752763628834438422576941510855625020488789154061331703867781607849984.000000 0.000000
0.000000 0.000000 0.000000
-283410578980778285760248391437672131401391559271117694547393695148747839005863681835633238856843862347675036816288574762328784896.000000 -359051607528261075612630158028540610268566880550851226340597778988519605962149686788130032692127578531468277433952210252315230208.000000 0.000000
-359051607528261075612630158028540610268566880550851226340597778988519605962149686788130032692127578531468277433952210252315230208.000000 206403831009642815237326978092077228217902010992837274691082628085286654362590222654182418235410797508444719073185028067907600384.000000 0.000000
0.000000 0.000000 0.000000
117574233215638736187896970485047484903298054274972447116720038186111759727059114459438579753408535901398261349324272918098608128.000000 -284490335893714720220332850775032253324232270027669877478165671173197446053585303951829667525129717817923197138075200343209148416.000000 0.000000
-284490335893714720220332850775032253324232270027669877478165671173197446053585303951829667525129717817923197138075200343209148416.000000 145659584671623884532252150153214762657979275199779970273099566995596601877900970631580163441212446431439480603006361044611235840.000000 0.000000
0.000000 0.000000 0.000000
-799063716203323903688800422210142232548152771817528779009151114726311583959330902391225260605244451510263736020766649435549597696.000000 872780461076323734767493566969464776482309194350654054172250146683724890557911045060294082036049334742450978083615792264439136256.000000 0.000000
872780461076323734767493566969464776482309194350654054172250146683724890557911045060294082036049334742450978083615792264439136256.000000 498866397854015969121623865183336542353700663327829559272097400403536392507136527112496834890791586128929430390788005059889201152.000000 0.000000
0.000000 0.000000 0.000000
1043579400880839107538299049804917093818340634266291899126808213315388198559875373835461749567621798141073073187885414328702074880.000000 -1126608089850886770047888660009870009221442836494168985231513032620948578695713470792665463942589525779725706666828518125285146624.000000 0.000000
-1126608089850886770047888660009870009221442836494168985231513032620948578695713470792665463942589525779725706666828518125285146624.000000 488447532030959297957037250906836637183807658989012102554307252960052300913657803190380425263834118138429064174179124614151536640.000000 0.000000
0.000000 0.000000 0.000000
1941243422256476451076145735548320933485748343617709797876684799483144198752787786009571429624433602325634627049361640253292544.000000 14411409439827468245484171166060857106634618337017494644978725097518403293495430134834738335752572018136656957309557740318752768.000000 0.000000
14411409439827468245484171166060857106634618337017494644978725097518403293495430134834738335752572018136656957309557740318752768.000000 3130006932852724442364348634524320391334781856829826821776951496986529872888602890286518960703747751586758806512071014573146112.000000 0.000000
0.000000 0.000000 0.000000
-202069700499086637789642352093801657334375056605800831533698415485044952254667042681535974950138091830318967030352611006157422592.000000 141190060282977968830384705327602881367782531249448769726133406435836781601900427630683975244204054990155933647858809035085053952.000000 0.000000
141190060282977968830384705327602881367782531249448769726133406435836781601900427630683975244204054990155933647858809035085053952.000000 77349403017050028757621669193920233137896495318736749439724173175955960725843326893893737996361917425001465715634009010815893504.000000 0.000000
0.000000 0.000000 0.000000
732480212051780575833685924107114570680951540215942987607181959957080404344535951926425836834788087131341167446381602794314399744.000000 -370465856392484520663846062861761730594582379834387870486914557778694289980124578169013926687902773940109496199434330907999207424.000000 0.000000
-370465856392484520663846062861761730594582379834387870486914557778694289980124578169013926687902773940109496199434330907999207424.000000 120921910210711001693920116933748108033541776494891679549391106032810979418185032169055574588244760087441319979067886748112519168.000000 0.000000
0.000000 0.000000 0.000000
-51071818106461407431996123082359905027619876720051463990567151213670873750348798067428625115904110734356377945709484830143545344.000000 4452670802557500948021313352109282397467127126899785389303037161150514767977792913013523575542328133238797233586537949644718080.000000 0.000000
4452670802557500948021313352109282397467127126899785389303037161150514767977792913013523575542328133238797233586537949644718080.000000 752786583441354375809782940484810833982922011221137002131352516365132102087394056169568921297062680527762099496993211933523968.000000 0.000000
0.000000 0.000000 0.000000
755856229488246027623682806325274339455626863387040916179678480547356337998952330476253919208496625730156362308345674137293815808.000000 -1339145548090464491905287499074025030922688496044979484205747344310047938020516031193061102676547592028792771411872334380558974976.000000 0.000000
-1339145548090464491905287499074025030922688496044979484205747344310047938020516031193061102676547592028792771411872334380558974976.000000 657244532733412064248420865062887371079562964641084611212631482598293575175775541915998883160157899104548169874478209883212611584.000000 0.000000
0.000000 0.000000 0.000000
-2871222456218989505293197539322867053269607389892705690136491183392047923962416620072616093259129532933480149304823039911050346496.000000 351407912073578228218918917806421185834903171721600665492362891144363410071414156282391894309126334375871082671144286887222444032.000000 0.000000
351407912073578228218918917806421185834903171721600665492362891144363410071414156282391894309126334375871082671144286887222444032.000000 82500650381630338266962627077828050238145116781003078890498644814332481823273548088985300456118529149104487008373030011038334976.000000 0.000000
0.000000 0.000000 0.000000
38187912519569361589165048684093763868714840504600357531535769374693546653398949704950474346347823060741529495486929045838364672.000000 -752992399179442003478334592858354165006445766034985918205402799061830573305464910198112525921514222836729164647985256240886317056.000000 0.000000
-752992399179442003478334592858354165006445766034985918205402799061830573305464910198112525921514222836729164647985256240886317056.000000 415658681252326337833879145360817164328069055117768698347682477917254400516481624355415811092259140911559559356592719234812870656.000000 0.000000
0.000000 0.000000 0.000000
-3685091356331416673509908601740608342839998849503586569433842487347108668991164838489662257827019670690863689536680598869230223360.000000 -2690586047490939743690255862934808886039743302335602788279629673173320303422604817793198662739600460753586621603365108451351986176.000000 0.000000
-2690586047490939743690255862934808886039743302335602788279629673173320303422604817793198662739600460753586621603365108451351986176.000000 1483891698134596371390776416153905035306170635295177969461663786696802461864854294763178212286271051401196902112899736691235880960.000000 0.000000
0.000000 0.000000 0.000000
84503153641377837716560730517832103758136671054260044842894364201654189735283102550467822407317491730860740663322587575279943680.000000 -49400801321767960325594348006747060512439145133843848500781458289976022476047972871485244198192148406200667248858821798286852096.000000 0.000000
-49400801321767960325594348006747060512439145133843848500781458289976022476047972871485244198192148406200667248858821798286852096.000000 17095874879537810951321599122089948274839308966445250635665612835756213039910142319589453232430319262828914629451504025860046848.000000 0.000000
0.000000 0.000000 0.000000
1480966822633768189263295154752174979945541555470123035620966815567776731850376357657992046970440114113937247116533701746519703552.000000 -536418262114096575197118397428767043399342748851779846823206866487087746766305066226474537643135282170360067339390907939247095808.000000 0.000000
-536418262114096575197118397428767043399342748851779846823206866487087746766305066226474537643135282170360067339390907939247095808.000000 119156043995241524790850246333723256984863826647232136444195549932368572261218627950980196388794901061934314689186991277468549120.000000 0.000000
0.000000 0.000000 0.000000
-514462833924683883823701686349123414581589009484713140198954962366241697907097746189793896012117160848635484001500107686698549248.000000 267831742970808608453203128569230118225703041449157468116577624361934079637256695222509904012714033922029087016601198019439755264.000000 0.000000
267831742970808608453203128569230118225703041449157468116577624361934079637256695222509904012714033922029087016601198019439755264.000000 138573490974758806341420633136312882179107599400455042749543463294705332215593938775775758100271917970034434258305314837736980480.000000 0.000000
0.000000 0.000000 0.000000
571222288088521000480692756397916991350913045657841135568318058378821391296005537001936783495135491737630239014948731548694740992.000000 81483167676002377270634135906830562872806384342201299183991130873160938979903665895189297520360260107411743821730795486879678464.000000 0.000000
81483167676002377270634135906830562872806384342201299183991130873160938979903665895189297520360260107411743821730795486879678464.000000 8574752305789694999955053808392793337810695469530226738931251019339199672177187050914069384934094631731874517539814007499653120.000000 0.000000
0.000000 0.000000 0.000000
124382315460936959223390411063150118102159853447776410513053285157581315895598856469798131922970162198342940028492440451212640256.000000 -82408128428568449256878619003705118652548405672075580172743790590732603363407126629633085036054350077129455622236423180118917120.000000 0.000000
-82408128428568449256878619003705118652548405672075580172743790590732603363407126629633085036054350077129455622236423180118917120.000000 28493306965480459692549187166815641498573309603344274762717232726338123106511196820813350649005431383630234907468448661571108864.000000 0.000000
0.000000 0.000000 0.000000
371941171648589172190706978914778625041730698983662187681324916252983434187883273574444746871032091809467079412274962450366857216.000000 -85620114310059268278488959355128064715108120084933013107216412889433341670850790773671295423073439162024578962968709140412628992.000000 0.000000
-85620114310059268278488959355128064715108120084933013107216412889433341670850790773671295423073439162024578962968709140412628992.000000 14216889569002630751710165321975795468913634892372903449052586609617912262714449321371146526610438199703524196465222118065307648.000000 0.000000
0.000000 0.000000 0.000000
1442894122488331205093689862806795402242795603551559425025438990879707414518859915085201875373331317274504057540978222472076722176.000000 -1471041895877896471830214552574984845800664443273659511540209529298538768636460201184801767312290547242818886291897615169743749120.000000 0.000000
-1471041895877896471830214552574984845800664443273659511540209529298538768636460201184801767312290547242818886291897615169743749120.000000 624914397769039823244557576539932861850015090135694590004779558132254317862644810946007541491988417745953507668649302442268164096.000000 0.000000
0.000000 0.000000 0.000000
1152510839644385394765197640306040469293866388165803068934594178047076996896145254766180833648962595243858955164896193780272594944.000000 -156616407451985785307345692167210087586379421045664587060510924308543126488597317205566958511661959032599623750898631104010387456.000000 0.000000
-156616407451985785307345692167210087586379421045664587060510924308543126488597317205566958511661959032599623750898631104010387456.000000 14033043098498041887642235281504394321161962208202607330382055741066728569397993725757962744790032528006192463578883908496785408.000000 0.000000
0.000000 0.000000 0.000000
-29850556163908147747478204767869816402408011005405248571678213272538911638713360170732622720371331009570491324476090196015710208.000000 19702096805122506699664100700383649601218751401784317116614285019470497290459323672865093206005008015499658387785644133641617408.000000 0.000000
19702096805122506699664100700383649601218751401784317116614285019470497290459323672865093206005008015499658387785644133641617408.000000 13462752600282232007697083439708414325622159411318695435250737791926366098701602781528455505278468169580704103296104891645165568.000000 0.000000
0.000000 0.000000 0.000000
82667390573072899394406657397461076659866258426818233941751490744037381864569705147714636955418039757615009072123579439907864576.000000 761194523922257397072688923441851370231170352594790200925080028777564113679144440065693390180857466759997400248096233241784090624.000000 0.000000
761194523922257397072688923441851370231170352594790200925080028777564113679144440065693390180857466759997400248096233241784090624.000000 416253119119961606320450163687179961209877427000923353758815096396554931721872121892875196049966357663045044386563719757366820864.000000 0.000000
0.000000 0.000000 0.000000
771196956468270790231864008416845056904286694716342047708663497546021154178506522528512247034360664457084016495145522874070073344.000000 -2129852839764474678026424798038782568375235572850587213297805678885599898680101233088511839243225633943896893388762351594234707968.000000 0.000000
-2129852839764474678026424798038782568375235572850587213297805678885599898680101233088511839243225633943896893388762351594234707968.000000 1104394975629081740508754247604406786053159216419406573816050604006035211700857892504829384768878623999337953185898858135502716928.000000 0.000000
0.000000 0.000000 0.000000
6623088700801048968808575961052381908646404307660825083768036236398223221703148910879881458144289697631378514480382546257379328.000000 407561339151114887377240470338271098337781156126598843991974055185191967007407526834582880067311095275237462563192434463866880.000000 0.000000
407561339151114887377240470338271098337781156126598843991974055185191967007407526834582880067311095275237462563192434463866880.000000 17550494608541669766937695919991859488746528382590786218466374605009871924932056832968263416794784342625149850216216657920000.000000 0.000000
0.000000 0.000000 0.000000
-182968110656736772551984713893414675019012263805082950241613707705366676835658362037034440864249486637438668423031759699422740480.000000 7084452408431453945489248613077251019133920312585460367914720888743646274189650971041816629167503702089808199099311288869715968.000000 0.000000
7084452408431453945489248613077251019133920312585460367914720888743646274189650971041816629167503702089808199099311288869715968.000000 547693258122907816259820671772332577693474703612551938933884633447574842195149256619946262572362945237928339753639394762817536.000000 0.000000
0.000000 0.000000 0.000000
374512181605193144279358186499607627061423260542058371190735647369780070283069237757112663229149713792157584823083037133602029568.000000 150423693197151914079329165805921296318055041259246249178516223298557965831295424498409919055025053888884220319935109183771246592.000000 0.000000
150423693197151914079329165805921296318055041259246249178516223298557965831295424498409919055025053888884220319935109183771246592.000000 38490949027273935175350675833101591344905621295428195149807424188468440265665422409777387862519695423742397314268552196217896960.000000 0.000000
0.000000 0.000000 0.000000
484567903436409785213401136299914793812473940554377235912890820705957264581839320795784052474730421537294575482802282053865832448.000000 -1702901030193885046569238594917747378896487952313458473910967320780345972096135479887748655978582897156320092963115353924299653120.000000 0.000000
-1702901030193885046569238594917747378896487952313458473910967320780345972096135479887748655978582897156320092963115353924299653120.000000 900142229319173565039920168438244404865037757266572059237872095978503321188407740693579803813752053147116758007416308499178586112.000000 0.000000
0.000000 0.000000 0.000000
-13903009980627520239773145380104218239108598349377512025383321859423162877051772035804141463429609265741809286785039942205571072.000000 6343965166662503786509972505549754460800230082071540752357172879398040771125193670796129409185367574576369117533151369032105984.000000 0.000000
6343965166662503786509972505549754460800230082071540752357172879398040771125193670796129409185367574576369117533151369032105984.000000 3205341429631816593129488020162249278735915972167284977575797362382612641798420770546078644464803314326957378496536785073471488.000000 0.000000
0.000000 0.000000 0.000000
-298864530932281657639429823074680548037266998773834025902320809219705045100784788497664579671143608962090793243697463935723634688.000000 -215452735597264904851308281452944721861690102339140675354691511993911226395896052680888409193842801026072652855362744957125263360.000000 0.000000
-215452735597264904851308281452944721861690102339140675354691511993911226395896052680888409193842801026072652855362744957125263360.000000 120176525855819888634268068534049653960264742435544103341156821651513794569502848611625220034444667470176583035920761637650300928.000000 0.000000
0.000000 0.000000 0.000000
-250655637253952309730301967550424489387554537746692487310984353140364479374619601630635854246804226990657508912594415081488384.000000 14157946808842671597639982569863635673293893700925411284759330794655213982421917281321064404772373416174059596775906596618240.000000 0.000000
14157946808842671597639982569863635673293893700925411284759330794655213982421917281321064404772373416174059596775906596618240.000000 1776679223787670819196100038675066241619627175359151461269256710450760028615254896930613237883157150485222862116289993768960.000000 0.000000
0.000000 0.000000 0.000000
-387126106143208129388781878512705676295860620847039063521261435084005117414747269602323739683971573328138491611917059923290095616.000000 -623814703193969110981209410934774996329569891169842896966784854248145283301923930660066649282592884605477825040970152337282695168.000000 0.000000
-623814703193969110981209410934774996329569891169842896966784854248145283301923930660066649282592884605477825040970152337282695168.000000 360124887547889031332187850141002863261947766390529295792995702719161647791104624943774695643714703440530025063238147583904841728.000000 0.000000
0.000000 0.000000 0.000000
108485280991820597758449547961100304170477615754520407296804590254257544617747007818841401541873333001458582401450581241509183488.000000 188581914099628651912807171312003748578336172981631146720968715912506529101871175719570430387441564039237110454933736726737190912.000000 0.000000
188581914099628651912807171312003748578336172981631146720968715912506529101871175719570430387441564039237110454933736726737190912.000000 92523947169507942794887594202046400827808238881612031234849215997015034600469157050583391565030945556534754678706434850817048576.000000 0.000000
0.000000 0.000000 0.000000
-137003465776222181654900573920714094913928237857489251207240247085713157912766352543592335596249064605335368738293328499995312128.000000 -249618463462557971420401821506070923963727892339919119054826022166523919071539267238929577081551341266662824414278304732823945216.000000 0.000000
-249618463462557971420401821506070923963727892339919119054826022166523919071539267238929577081551341266662824414278304732823945216.000000 147915888092013288651852373950472748303337589520580505744487108766579362478016461735702625713885049868642895695034814483534970880.000000 0.000000
0.000000 0.000000 0.000000
-44263886288293750037044419479959629231410754290283895186479186525039715403377945199938943827241136117658470579166084237132562432.000000 3240195877477353602975497148477340663708872579199868521304431271077784997097480389585021866946126859577713161396061769991979008.000000 0.000000
3240195877477353602975497148477340663708872579199868521304431271077784997097480389585021866946126859577713161396061769991979008.000000 460631156152391198801057184861734490322040706202408586610788179888402992609636055619304643541962592988545083254743621762547712.000000 0.000000
0.000000 0.000000 0.000000
-29061623895191170606132107739914249975344585246262087462701899456213414603028845019529370505015074298419430194324556926651727872.000000 2898422559438013245690227020704944137684456557095353163254543152879009422363226629126389293613334282088746454342741559879925760.000000 0.000000
2898422559438013245690227020704944137684456557095353163254543152879009422363226629126389293613334282088746454342741559879925760.000000 554119754336980690049385599044674467954607759275352920249743709146244237619262223001195280175645720689294382334053392903569408.000000 0.000000
0.000000 0.000000 0.000000
31778567856744950199966431783255865841094852715778611266927929399733949917427572668551439245880259016417033943105927672630345728.000000 -134242238419432029512646732111236007125734759719172636856317324495739382791273488128880246281916997832200229296474186428150972416.000000 0.000000
-134242238419432029512646732111236007125734759719172636856317324495739382791273488128880246281916997832200229296474186428150972416.000000 72238235308995952647876505411035187910062156297897902294850717645345174214647398631497509137184956426112162773977361354191798272.000000 0.000000
0.000000 0.000000 0.000000
9919203112018310965023804820612243559271234943183039433107235113795710010790574498727938157943548102010991693668718639849668608.000000 13034649233720234201403400289299801322205567339450106627827240754068939753343309149912542851241310991783903586871035265579745280.000000 0.000000
13034649233720234201403400289299801322205567339450106627827240754068939753343309149912542851241310991783903586871035265579745280.000000 5997241346880220477971578525096105056365294457341514333357570735143656408408483908901035296520560555574403929968520185293832192.000000 0.000000
0.000000 0.000000 0.000000
3522989260178279521549963581899774631268160289594596967841669566763571317400637021659376055254643454937340242936673130523473739776.000000 -1241141454658622939410889542418332727319301585662505266179999638717616142459279599538620899938214913302750270322292633254659883008.000000 0.000000
-1241141454658622939410889542418332727319301585662505266179999638717616142459279599538620899938214913302750270322292633254659883008.000000 270125260019033836604939520475549831227841568654115566588235787415203610014136060517278137898516400773369445479349384853030174720.000000 0.000000
0.000000 0.000000 0.000000
-6311554441351133047236887833012429833263533661028036077562205275053964200202960385627784071148443043126541907761677638196587921408.000000 903028394105929281213891620044498408990710502531840903067665207771618052647539289702749229485004133538407943900244797548060999680.000000 0.000000
903028394105929281213891620044498408990710502531840903067665207771618052647539289702749229485004133538407943900244797548060999680.000000 232363365739554976264994438203155469429143598797230570115643907207488968820495959768769158570246525690588769216835608430260518912.000000 0.000000
0.000000 0.000000 0.000000
8114869053500811162004325569906677264294166086107265202825124939686203231555793664025166541521341512983927315805549469248782336.000000 -2687161576943131060304523276220757074964591341590779213200534973853392694387853858765256991275087538432618522164992406697541632.000000 0.000000
-2687161576943131060304523276220757074964591341590779213200534973853392694387853858765256991275087538432618522164992406697541632.000000 553895856631482195946041970965577240242788165486157087319079426950414456164713259941386713270855881872270214505425303400087552.000000 0.000000
0.000000 0.000000 0.000000
164658538479973467136329527778346938207243698985514589349829256099920317126827269910630723825387949455318811625272365043884752896.000000 10001540411461018478144476308466802833250129160354968644861160311711943132656004539743708457389639655238464271079381394905890816.000000 0.000000
10001540411461018478144476308466802833250129160354968644861160311711943132656004539743708457389639655238464271079381394905890816.000000 2968046556844597755491080526014427110754678325708625582097097608199978723316846914228969477659717564903248215271069101911441408.000000 0.000000
0.000000 0.000000 0.000000
-14723476269319062177426844333006999513229596440081328861055439960377075914193318197942099312244705742117055792143627253626659930112.000000 4355760125636361588760442050362411198798678181654893611779035482200326043458108325677718083509694449476694003788186509019493433344.000000 0.000000
4355760125636361588760442050362411198798678181654893611779035482200326043458108325677718083509694449476694003788186509019493433344.000000 1829778053932075583067226977168249613122665059702366155922395503171679181995605905172908722622649519903879950826959241611623530496.000000 0.000000
0.000000 0.000000 0.000000
-426911986764058914742991468989836967781921187383950600066372479174280607357020263630499732008092967593643916709233783180036669440.000000 2516481575767877756028132338911121170125137851938035753338749521293204848704692991898465333434718337464495262100850901499057799168.000000 0.000000
2516481575767877756028132338911121170125137851938035753338749521293204848704692991898465333434718337464495262100850901499057799168.000000 1438817066167739506939985965285133411556738422402887348387776566745490686010889721442650271390942996245061916147819674785550434304.000000 0.000000
0.000000 0.000000 0.000000
-17773015715320286275820638400130420389329231172450397091028245092132791130114705602554944862207397792892866830525546551626201825280.000000 3562155276620109341675742430597615756018272434582788903545834502183786631886599527006369095035492835884376785087036880807337656320.000000 0.000000
3562155276620109341675742430597615756018272434582788903545834502183786631886599527006369095035492835884376785087036880807337656320.000000 1178139338337092560139834092036549828938693451702223462365253038981257781138472336326512911239325114294512562553834890934846750720.000000 0.000000
0.000000 0.000000 0.000000
-2095126011735382330290385496750493161100139337935883398625482505964535840596882030308936265975275347102375621930220594256960028672.000000 779580482932569686518290931774174401386640437757402379809121980314981917225015134397918789428817826252759525259191835070233051136.000000 0.000000
779580482932569686518290931774174401386640437757402379809121980314981917225015134397918789428817826252759525259191835070233051136.000000 364408270671340620406802817636267266562762809073470790806203305650149238016830885718556728579224218204329605628071676419810263040.000000 0.000000
0.000000 0.000000 0.000000
2295216525384972725644274839372787345717372524916872872658035923753335592235810995557997463214892709751258160224059724914524946432.000000 1123586483821145799213468330693767206937738128967232753552473999387970272565977653221820482986358856213398580767727845300351533056.000000 0.000000
1123586483821145799213468330693767206937738128967232753552473999387970272565977653221820482986358856213398580767727845300351533056.000000 316921837301064250523973803167029161143005381070634810688412017129036820011731004167920103470061545569026999429396343509705818112.000000 0.000000
0.000000 0.000000 0.000000
495892812387902316885360147605731870174500708579137933095862934028022868742758734306009559296655800644085973503941653879540678656.000000 195297875854927336044315073864459469506332394184237435623302426192721110486799456810629652467220717716312123088048068836540284928.000000 0.000000
195297875854927336044315073864459469506332394184237435623302426192721110486799456810629652467220717716312123088048068836540284928.000000 46532759114732834200196170368003555922911889221180770788824482083589288489002904701091721194588982663478169891101493167321513984.000000 0.000000
0.000000 0.000000 0.000000
272678224849403156344396584466377948663948712365665576868396279417880106844607018142978835711334577964263331493953732601658212352.000000 -183353774164634451456529665456394557479373064315389181099531101668239282565670949193692444900055062586176958205211001506637021184.000000 0.000000
-183353774164634451456529665456394557479373064315389181099531101668239282565670949193692444900055062586176958205211001506637021184.000000 63883200936660487056685719974619671354842095239318853455870119166688954954992789729701648351946207403989664022727673426338643968.000000 0.000000
0.000000 0.000000 0.000000
58980906173215121905363242074220779472949846187254864156905760594912584758707007001329916936846650579072509885310904067644456960.000000 9611439119909822806548847543711293250515688177028249954897679847006699190904509677530349231241283273792736225591027965318135808.000000 0.000000
9611439119909822806548847543711293250515688177028249954897679847006699190904509677530349231241283273792736225591027965318135808.000000 3774261698051649658121702075928555938129094047868176996901899685275810421250111551716504721314294853090370396979997222836895744.000000 0.000000
0.000000 0.000000 0.000000
-567824655717356450283764335841756229844465485873850297128691250811422387859094006760225859759080684647429880652220523739715993600.000000 522171153222440407701208883462686016391012464573786693970459501626847623378972189080454979287858260165910546086227339216536207360.000000 0.000000
522171153222440407701208883462686016391012464573786693970459501626847623378972189080454979287858260165910546086227339216536207360.000000 295639477791666477113172016335788360469325160005485103953050126587182634721754973228333371152109017599544941358387811114370990080.000000 0.000000
0.000000 0.000000 0.000000
-371845869221712059132587629372913257338755427545983511581594378299649884026091535923872087384021253021734314831865990728317403136.000000 -642367863599256192163752975345656561782074287916357313736552917162272014910863389136686042117952074144580603890377712476004286464.000000 0.000000
-642367863599256192163752975345656561782074287916357313736552917162272014910863389136686042117952074144580603890377712476004286464.000000 370752963338367230170965293719699523609222129176352649879441407598013601138808500497813199676249029181535178842389237939128238080.000000 0.000000
0.000000 0.000000 0.000000
-5073332421641712517518860360720997757663078649378312657550714240757904808556766653304726974418812373893587468752719049872375808.000000 3505731490100764464829788863492561892130621106601360662004138331411403293004076585408614537347819693444667534886055918318911488.000000 0.000000
3505731490100764464829788863492561892130621106601360662004138331411403293004076585408614537347819693444667534886055918318911488.000000 1928316579721543703348028038129852351867897379056314320252035849493320532696156396872705054849839937463193965873627031628939264.000000 0.000000
0.000000 0.000000 0.000000
2567391425740179668220947410452441151646351006222866363058876909051571943872141408308033657854996596702402552516341425756132343808.000000 -2842714868455558432989606014920789088194670008731773118965524734776307769337592436196807551743280132027354144182622945130380787712.000000 0.000000
-2842714868455558432989606014920789088194670008731773118965524734776307769337592436196807551743280132027354144182622945130380787712.000000 1243150314457323879593181684879289032764915763968093210274924465408125386961776765553486999390089779938085532842813205042765496320.000000 0.000000
0.000000 0.000000 0.000000
2810294297682515817940351615199902561994119596650185279902180166508347408693469425251350365632794528814127272461966378956555812864.000000 -1611465721784854395812497636109306030469354415366274053326278954515615602129232570360293749577806404928456979798904213628241575936.000000 0.000000
-1611465721784854395812497636109306030469354415366274053326278954515615602129232570360293749577806404928456979798904213628241575936.000000 508255434813973171674646123517405716118035476092318851435967049207754729320674249371880532057101935236336697679738431635353239552.000000 0.000000
0.000000 0.000000 0.000000
-7115538203689208606488980532974933362414178294043893738442845921787085650240342667700338070231669492798540000261153080565271887872.000000 -1302364256622808971942629257731976548003702298209554198996188929786173017084336927323289137461267764678152885601553397355045191680.000000 0.000000
-1302364256622808971942629257731976548003702298209554198996188929786173017084336927323289137461267764678152885601553397355045191680.000000 403889072932498669280966244530130688010864208797517696164213271486519508164964687362491954498808520108790470987126139891782516736.000000 0.000000
0.000000 0.000000 0.000000
655096910183510299996430354189646453404904666476831536470335562467283011711229608397449431217914023792957644714483737402282082304.000000 -51158535960135478136022185861548605173756123024168303326904417617930201662151270722988427276216381802845090030343532948987314176.000000 0.000000
-51158535960135478136022185861548605173756123024168303326904417617930201662151270722988427276216381802845090030343532948987314176.000000 3087644208623035401121494413862656833126103812871213545123887814397311342929280665118798479721281831614693473638867437036240896.000000 0.000000
0.000000 0.000000 0.000000
-62146790539108054423784080137025587728837145290306242156054145033413177473196445963152654101979205441731221186335942641948033024.000000 116355137986506707216894824519709649564968553882756430939563024186546665884325152203299803073366930604959682241203085854990401536.000000 0.000000
116355137986506707216894824519709649564968553882756430939563024186546665884325152203299803073366930604959682241203085854990401536.000000 68293685844257218211587984129940303127810552090412223442003805102817936365503897473268788516658482590714908988625803201161986048.000000 0.000000
0.000000 0.000000 0.000000
-575600341831702527949065535866100449352567007146665912409566655354960340271266792156716698150259418120563174223941289583312896.000000 -3425755946940302157193734536695930761832193925189958382106072808921654953508748885953750669351181580955595013167702330660880384.000000 0.000000
-3425755946940302157193734536695930761832193925189958382106072808921654953508748885953750669351181580955595013167702330660880384.000000 1942169415577439922748485943968457488942645413494153951588326467413951146916054577677449712797406263796658303098158557868064768.000000 0.000000
0.000000 0.000000 0.000000
-1382979241863843639229380184968026206698604764850157070516361663754409982911001117859144684737515472565250685302936290280165343232.000000 685034777528797337149078609780457469890048213644261154082103498749650520438797350537858583153032163726108793400465674970981203968.000000 0.000000
685034777528797337149078609780457469890048213644261154082103498749650520438797350537858583153032163726108793400465674970981203968.000000 350060056158144694678603940993457724016746730551674121450876232364880729839745413264216048115156586686095576614145804058054623232.000000 0.000000
0.000000 0.000000 0.000000
3474009372478258212317950900166342050685945077568491087880326537060695327543840915263246788487687262777828017858010123516254355456.000000 1006386895370344247092449746776923455633669377837008716397319184788746595275302343692985712844850461140874590079978377506067578880.000000 0.000000
1006386895370344247092449746776923455633669377837008716397319184788746595275302343692985712844850461140874590079978377506067578880.000000 184098142509388811164655047144257913409827747685798964978276183058162644852055567791703322587673909226655307624267290499379888128.000000 0.000000
0.000000 0.000000 0.000000
665808308499626781393887666409170258957831908861885066509877510915029849152765867171812453192843993747906683482041623184639262720.000000 -559060286178268611841704560932528863286544141276278079084291352120024052289001619172916608780013862518325878160329623851526782976.000000 0.000000
-559060286178268611841704560932528863286544141276278079084291352120024052289001619172916608780013862518325878160329623851526782976.000000 219007244585013662433019782827888909493521470001899432696901172156265570409653085099919994505267004054819456839459469450249502720.000000 0.000000
0.000000 0.000000 0.000000
3932512253409116665149102981586859495366287221069218066099215948450995225031632872851493189061773377148136637252293233009596825600.000000 -708456974983271595015463419834296540855514777655969902362913431979720617613662405663562487892739929828240073376389377474875621376.000000 0.000000
-708456974983271595015463419834296540855514777655969902362913431979720617613662405663562487892739929828240073376389377474875621376.000000 87369822964515653168871891911313125270498100552670855490673035159807629701955399043804991072411938570886728575879686704668344320.000000 0.000000
0.000000 0.000000 0.000000
1010082746939290086353590450697453073988579789518677654724566861784187549162434196285285929998531724509561870388596683320732942336.000000 -2523341800588921108750069631126743164238315510151630557644598350264359590011841436073978471065340967292614157707855765733977882624.000000 0.000000
-2523341800588921108750069631126743164238315510151630557644598350264359590011841436073978471065340967292614157707855765733977882624.000000 1296094262890745588874823677166023313524769981705817280215228567559661340638886829805468538136097404095694675184983523468131696640.000000 0.000000
0.000000 0.000000 0.000000
951707897351145726647460502607211820961069946604090780556647612777811140619131610356517800786560852586189080931308728952612192256.000000 506367173609847846671156153140171484388075779420131656921965848757173038709528499460682691242675359378726619453462062428338520064.000000 0.000000
506367173609847846671156153140171484388075779420131656921965848757173038709528499460682691242675359378726619453462062428338520064.000000 151652468056343254869497401795424606760134717513246063721624683870656599966646785724784875464053812562622112756443550948291248128.000000 0.000000
0.000000 0.000000 0.000000
326691497837528688157878535635729213322750446904427721043566588133396230990688202707291861203444144254684927196989178171403272192.000000 32991311842785932621126885438086018252601257718476948050758796290896567185004943036421400911959840348777118571127150840303845376.000000 0.000000
32991311842785932621126885438086018252601257718476948050758796290896567185004943036421400911959840348777118571127150840303845376.000000 2230646792074506983320805783774811579052120736151293755928220153729658774323796526997892484296400811948135673660647735023370240.000000 0.000000
0.000000 0.000000 0.000000
14288833246962496490423109601318305178212523732473652395673949363993607713514090183155914217025492858312848729438350530242936832.000000 -18420932743547625788956573610865669914971032788337192495834901917020920220683818298907807241097239593519611652006008061280911360.000000 0.000000
-18420932743547625788956573610865669914971032788337192495834901917020920220683818298907807241097239593519611652006008061280911360.000000 8432287890891398558423323837469633623281077789284458613334127693355376638286876071689708612611888424490146207277103869390225408.000000 0.000000
0.000000 0.000000 0.000000
-26495825555466074001842101123477355928420522133664455252573536991559481568012466284095919467603098412882809327467715862034141675520.000000 -6748465073412104111306939393107601302234231323327980321423574587950935110226907043423817426052936001917261419120900326041476661248.000000 0.000000
-6748465073412104111306939393107601302234231323327980321423574587950935110226907043423817426052936001917261419120900326041476661248.000000 2597888857099018828934830050804144541813058388889033901304860943604181994355573683591934152800381776970621807368251988084778860544.000000 0.000000
0.000000 0.000000 0.000000
81062081398078849761814165850066996716944436222850862528390149443807556583189554711467056117875991628195276463688054627238936576.000000 -386491615973799360749868772513543558235175433546708257684534714178744672552173814918681089569044260391487165350820033450234347520.000000 0.000000
-386491615973799360749868772513543558235175433546708257684534714178744672552173814918681089569044260391487165350820033450234347520.000000 218385198665646784731810640206817646069137765901152698406457005482030877115443595335501599915983005466834086923766210193900175360.000000 0.000000
0.000000 0.000000 0.000000
161377947175750670178446542634760971733505560239092164161943756285273863176143673457358830814184833601156865983484440966324027392.000000 -97513728555727430015205887620603491276010392401122282394766657624809456640000732217524926972657506722398145334634415895932305408.000000 0.000000
-97513728555727430015205887620603491276010392401122282394766657624809456640000732217524926972657506722398145334634415895932305408.000000 31805807491989519434175712040021362616236920506364412595309369249514003207650316200500312524093377176918349908987780015081914368.000000 0.000000
0.000000 0.000000 0.000000
23955969003870514026848013416092693962795960026779688731262329393916901786733557190214552954470911654820298151228144664044371968.000000 72239206145207648042116287609926391276626150576326792120762297072477974671818181690029533384005515081264882807871246065138139136.000000 0.000000
72239206145207648042116287609926391276626150576326792120762297072477974671818181690029533384005515081264882807871246065138139136.000000 36777415120796532038295272673715613287003979000016640025582143894058164982456963297602259246576581865950098328974093015123492864.000000 0.000000
0.000000 0.000000 0.000000
42031720859215603615448606787779474443374320562051352383842140455188726482163461842092529598933945236036437442332802873282265088.000000 -24683813832090877444053750766808324575413140725425134310812207466234096244065415798058633382299246751019071725250621439867879424.000000 0.000000
-24683813832090877444053750766808324575413140725425134310812207466234096244065415798058633382299246751019071725250621439867879424.000000 8007696058744844299024748369768612792371104431381047744839758769663685031047777611272914065067058490135023628908488928192888832.000000 0.000000
0.000000 0.000000 0.000000
-2479793407301471426847062031536906201934998036677545535121945860770244499737536590110651883265272128599663204883163343350443016192.000000 984481242111849817620366408295367954541945124313465212270059877880738869046324849314395628681226316918252485641350243303020298240.000000 0.000000
984481242111849817620366408295367954541945124313465212270059877880738869046324849314395628681226316918252485641350243303020298240.000000 467856927070548453108348135859879412602237926430607765724272336773290869493643671165784349283913809226655748263351661642423205888.000000 0.000000
0.000000 0.000000 0.000000
6938703063594443054866766910544081016616420219627818862865482055836074335789127611072471508220225094817552733488345321046016.000000 -209333305558033864137748836805259037278523451136557054140241268622998650689284832722615348255761815568946161308785887747768320.000000 0.000000
-209333305558033864137748836805259037278523451136557054140241268622998650689284832722615348255761815568946161308785887747768320.000000 115400537413258938238852635958704546840605618088381150631253790965457330801263041478498126132287860604373703360068553082404864.000000 0.000000
0.000000 0.000000 0.000000
8717197581727100498935364504197770086043643759208299622589561090855132571418464654629339363540155899477108296669667487194808320.000000 1205553908938103302484829240809110938434385475992435149381332331161308440282542351965147548542588219483899109470745169026351104.000000 0.000000
1205553908938103302484829240809110938434385475992435149381332331161308440282542351965147548542588219483899109470745169026351104.000000 131561928407677775460353444560812957774817919692826192348008591453483422293365403971094723343544372789344010928362575410233344.000000 0.000000
0.000000 0.000000 0.000000
913462284589271781006256524147058381431939684473826500942567629537775670958764627406165387008050814610941812243827209278964367360.000000 212267819066690446075430680044342905215643402215030043572527832216077579923693049588390347395979181770150905861872721732057432064.000000 0.000000
212267819066690446075430680044342905215643402215030043572527832216077579923693049588390347395979181770150905861872721732057432064.000000 31817307756468346689757657955970496301100110609417980206954149458270563397246085116594908571072602411541147846744302704593469440.000000 0.000000
0.000000 0.000000 0.000000
306276451946597812201333081369243377716097626658378598689434631996439800507551546604980671380868407652824561028713516165136121856.000000 223109311070892507491600979595614972479840955614303586174459333861206756162584687207101805553495752409635900886048054537917300736.000000 0.000000
223109311070892507491600979595614972479840955614303586174459333861206756162584687207101805553495752409635900886048054537917300736.000000 81358446650423500774266426639633676849269618982228256996849473004726787105704415190267088723560592395273913758920999561613803520.000000 0.000000
0.000000 0.000000 0.000000
12526536110336982349913725236694485482423022086356495642869059230904092070514582110535981407794902623708633271181789760585728.000000 16945566064112859607735075473725160972340664407781217255894616703854882707347967462891311665279529648145266097137111902715904.000000 0.000000
16945566064112859607735075473725160972340664407781217255894616703854882707347967462891311665279529648145266097137111902715904.000000 7919487544564738185786433760970763419062824670874351128544479967906225537201621509825287550228993463353008939450186915119104.000000 0.000000
0.000000 0.000000 0.000000
10654239919235111459990614021212937484461582067271281443076800045148878341643535187532844804239442445573764244123980342371549184.000000 942813728280170104810907479825628527945350143838095119227668675068854723805514881502251572068923886273988482314905112488420835328.000000 0.000000
942813728280170104810907479825628527945350143838095119227668675068854723805514881502251572068923886273988482314905112488420835328.000000 524321790513301048988472428481433761436111856240360441520986056346831877772005028924443762236445903855512490289558831583668994048.000000 0.000000
0.000000 0.000000 0.000000
-5982586334050328216992633898767034156742459678964378691575962845273492602626045125485062387060571414551301319385154679715431186432.000000 2065475127794855434848855156848738814089164958247433788205063066660416567036040310765157377840106153465033327927282869492823097344.000000 0.000000
2065475127794855434848855156848738814089164958247433788205063066660416567036040310765157377840106153465033327927282869492823097344.000000 928406869172499996741821094423261117499624318311276670058317647446915909193963779284051112042304741337159843145813905074802393088.000000 0.000000
0.000000 0.000000 0.000000
-590874140387422336604191260316350950508013051036241671310877679993065884066460974799832995773297999377456408163097650648842240.000000 -1203922699261703652725142193808892096069554571901776713360580304484039394701069132006763218027039842805124159776931576874532864.000000 0.000000
-1203922699261703652725142193808892096069554571901776713360580304484039394701069132006763218027039842805124159776931576874532864.000000 694225319119147982351424001617422970228193239717021652972822730913363002290265073084248725951736234256866331221205386025500672.000000 0.000000
0.000000 0.000000 0.000000
-11586942015768338031345884902995568552651996419501280016816458051880514730880250179471590744065332228358624203121627808084787200.000000 4452859218094118781475969496909799000809603935034600153877705036969647538757962719934714807050772369021014195713691072187072512.000000 0.000000
4452859218094118781475969496909799000809603935034600153877705036969647538757962719934714807050772369021014195713691072187072512.000000 9797946207836345174351422016808914410585723403689904049350221893093836769496788971902540397079050242157668110276757554762612736.000000 0.000000
0.000000 0.000000 0.000000
3279470797296287227753194923665434011342659851942889776289458557356880690631517236498395411547238516822149505987825225261624852480.000000 -1978459654176631229228659080484686737719489429754421581233665690140142535813361010338256035504388447325037814619668400367682453504.000000 0.000000
-1978459654176631229228659080484686737719489429754421581233665690140142535813361010338256035504388447325037814619668400367682453504.000000 644636863300624127982273554541429173809703623326894231744228174855240039026525087981422872036610986271959552910201021257314467840.000000 0.000000
0.000000 0.000000 0.000000
1450962751650121918531617486004915767942995750620445275575324163382035552619809953492585912380411073484508443336441242261252997120.000000 -364114945727567032182790665086792966915056090054883583849751900641542389836272024684582956199041563560938627373360141171150553088.000000 0.000000
-364114945727567032182790665086792966915056090054883583849751900641542389836272024684582956199041563560938627373360141171150553088.000000 58778541292161325845949281238837358436475491185102889811006572483983115159621221774069152333756303527114839251605225699717152768.000000 0.000000
0.000000 0.000000 0.000000
137487036097329148223602603383435804422730317661141883502816045626863634927637827139890796101916661006513783582645471398668009472.000000 517184391654922184780814937581543723688773780684897306927452766401263236847875877656123762996732091450224862584051959402304897024.000000 0.000000
517184391654922184780814937581543723688773780684897306927452766401263236847875877656123762996732091450224862584051959402304897024.000000 274260240163924830667252085681496098924988315791224094285905913675502245522764707233906531511364791243185140975656481638387286016.000000 0.000000
0.000000 0.000000 0.000000
187391472324623596589757739589518790486502106069927233886169574779368462684523112330331062465588699021191516899570010293566177280.000000 -64106084303882977943330897875046358526983182337885437523858706249295266539170327198361208035064067685056151542262447904535871488.000000 0.000000
-64106084303882977943330897875046358526983182337885437523858706249295266539170327198361208035064067685056151542262447904535871488.000000 14027567432518135827894082096507080414845613905509967025330642050405351660947633192713424496828989974670315159181103836398878720.000000 0.000000
0.000000 0.000000 0.000000
-620266918917688969878689583519136313559781273447694170608528586928548814222708652812306995995285838668342444089432651618140028928.000000 -2374676642856870711220030432672173064082131286541156094943567033706626951835215908052697365589462128146746275215489136305283006464.000000 0.000000
-2374676642856870711220030432672173064082131286541156094943567033706626951835215908052697365589462128146746275215489136305283006464.000000 1356515647842610359937267473209157654126813548017472964005884390978137100344804097710777463272674627998546822105624165430536962048.000000 0.000000
0.000000 0.000000 0.000000
153223659740125672821250672400102655469918057251381769557748169708779335059343362151280803981722658893911845650413783091098157056.000000 -101651101534267522359451317380797376992893381146765298473969683138181100812929984989120202873331659424446147497419190155417223168.000000 0.000000
-101651101534267522359451317380797376992893381146765298473969683138181100812929984989120202873331659424446147497419190155417223168.000000 32636917198012845971133297995406108311761482682958344198207083621744004617405745494000972644097297146370777439111213805817823232.000000 0.000000
0.000000 0.000000 0.000000
-1328810046884345917526122169713462515026314680489677027820149401746012396667581825405936258128035747500670171078186428037857280.000000 2849786351120200407913787475248618788741901960623211779595711579007087034699970925768862258612224675118919814963813543225327616.000000 0.000000
2849786351120200407913787475248618788741901960623211779595711579007087034699970925768862258612224675118919814963813543225327616.000000 1639041767403203236795445463667676949219968333115097638714316685232762711457617174029754922041497292041314245435504281081872384.000000 0.000000
0.000000 0.000000 0.000000
-30934953606488365549667327830906116423386869926054016282844876927939879548633033711399093753751073771450099298168811886013841408.000000 -9034376578383864467577421694859106380307091521128669414731983540480280823907326639489689518051311845079480480794707576297095168.000000 0.000000
-9034376578383864467577421694859106380307091521128669414731983540480280823907326639489689518051311845079480480794707576297095168.000000 3746756918686465496063657263830007288587151307161365262126776153203150922041085952285950254496433900866630937472068780231229440.000000 0.000000
0.000000 0.000000 0.000000
-76850487989427623024722381666166624787959085056216083008750822080611722810842391872417560141182285159335200242849861506170930331648.000000 3185877440437101050468159969302289392646737796235562599191488950073990337499074795815338053756945408426600944393842948576756367360.000000 0.000000
3185877440437101050468159969302289392646737796235562599191488950073990337499074795815338053756945408426600944393842948576756367360.000000 261432791391594807146434619357579922976182913644697147267752109900776029790711243434620462142894684458693367425976159797912797184.000000 0.000000
0.000000 0.000000 0.000000
1789933306311845592701169244226262274385552317767500482093281670691780040417343270727544397160586508200852409729121300989979131904.000000 -964580596049169277493920786951603397816684199677846243229526618615503965724990086660744110932493247078298433075304184283681259520.000000 0.000000
-964580596049169277493920786951603397816684199677846243229526618615503965724990086660744110932493247078298433075304184283681259520.000000 291439550488199044228951377519612893235795943486655698650937220550031129447395057778869017130151000208949883201336610581527920640.000000 0.000000
0.000000 0.000000 0.000000
-366809087213243287318008708112836352270461315884227516392821108153167006049239086444217866537179458776005632786205472345940819968.000000 -505739577529776936279447363711017961390468365615771449300043197409287894818886965569521034372250458172143072210080447102973902848.000000 0.000000
-505739577529776936279447363711017961390468365615771449300043197409287894818886965569521034372250458172143072210080447102973902848.000000 290984262809405289115081714155417291179375560094599238939836634006153680096662593005314069017957143952446482890035423609939296256.000000 0.000000
0.000000 0.000000 0.000000
-2036763292733478442558032832844648059163943753077241948026336867998790073569018582320154241972896065329392850266908039889555554304.000000 -572220720539846935461033043957747968609754010476357930351263546871114025242580682865394042323679991659644938421819181749581643776.000000 0.000000
-572220720539846935461033043957747968609754010476357930351263546871114025242580682865394042323679991659644938421819181749581643776.000000 235861319808753495459135952279741015042492646802234483888379078989869841069876243457254693154729682748473342919635258295522951168.000000 0.000000
0.000000 0.000000 0.000000
337140204094562783773462474387492512229431911683337409492543529815689059781359782403994598156702497104300088304653410604106645504.000000 191306004432632012485293454942845815843704492551236800798074645692842706846145121254649887615718473725743763733309195742013816832.000000 0.000000
191306004432632012485293454942845815843704492551236800798074645692842706846145121254649887615718473725743763733309195742013816832.000000 60015828418589533026781726211386537939451742169700701129588823800834050388717089102862754619844842713163961902615242903941808128.000000 0.000000
0.000000 0.000000 0.000000
130497331070914680117187630465755780295898031629431469591156778484933993830109740993742632970153146401080072370381495166797086720.000000 -185263738051658684193144332070884912721438716388384328612719218980098904912307049594068547543402485037608340908278442401046986752.000000 0.000000
-185263738051658684193144332070884912721438716388384328612719218980098904912307049594068547543402485037608340908278442401046986752.000000 85813535071909829452768462863257593912421332564954258798097985274143450735284175872298261501667044725637893066084064869272780800.000000 0.000000
0.000000 0.000000 0.000000
207649861855831285392454939692718597682173539017649511188886277294049951058397974605314788044403856535244033252071554134665330688.000000 127789249399256404677746012025391469145843486265187937845256475567565909680219997000839946436074489141700550297610001965421428736.000000 0.000000
127789249399256404677746012025391469145843486265187937845256475567565909680219997000839946436074489141700550297610001965421428736.000000 42178815296217783578339865102160829293070282343821202766014208274014601444486789846175605146296332563769413916422426006764126208.000000 0.000000
0.000000 0.000000 0.000000
1823768552015810072401188945973132265716517969411704274802093799452721083678588775431056954343212904709574150727896341084635136.000000 2068270518669225970507064625918880568770502306387908395355645368047719421063070996536566162618241048662282872558093833634578432.000000 0.000000
2068270518669225970507064625918880568770502306387908395355645368047719421063070996536566162618241048662282872558093833634578432.000000 912158808631301954467789900423849015919449606200147172637934948523198650307141429381484972979047185491978598637785615154806784.000000 0.000000
0.000000 0.000000 0.000000
834816369296292648433607103165791007983563839246690883529097452513724085672765230961760440940047882121588962659244809268527890432.000000 1190918785219056250071644182727458399626455346315071629421688775650974890623151210034337090403243663708420958985746496524644253696.000000 0.000000
1190918785219056250071644182727458399626455346315071629421688775650974890623151210034337090403243663708420958985746496524644253696.000000 556295203066283521173957401102110414549211099828879502035907044103616812981155794337127364014338907841096158964867810610391285760.000000 0.000000
0.000000 0.000000 0.000000
233833925513111881085208699700608067718978880529776592948533813380809072850794351436226185127252521124067554106275995780217044992.000000 137144336277354943180430058002472345478357613843354193878345941745061318778126692200274411380364670381661325020978689601286701056.000000 0.000000
137144336277354943180430058002472345478357613843354193878345941745061318778126692200274411380364670381661325020978689601286701056.000000 43875505763974222772755390458121584537386647046888421119872716852816932932845678323443265465677755935148141839811876678461816832.000000 0.000000
0.000000 0.000000 0.000000
-25554666862118933058798444958260722699629166352798499846982675993579301970414886538719905654308946468659508485361304915484344320.000000 -8934721143819981522062051332889438361714445368306245251861138325839639949361214935270752295003538344954199732145864799202312192.000000 0.000000
-8934721143819981522062051332889438361714445368306245251861138325839639949361214935270752295003538344954199732145864799202312192.000000 4037556820489884292857787949860023760893033285874044989583496624422571564147537662370090378384019045750709536246152009240018944.000000 0.000000
0.000000 0.000000 0.000000
819417451584858341158690171684125083977510329231446704318721140378093249661531427799285146388812610313879237534915160403385253888.000000 -372307614595332722826491763251361016091280751446180917669448951850633945069130626518110673887102738310718492091921170191699935232.000000 0.000000
-372307614595332722826491763251361016091280751446180917669448951850633945069130626518110673887102738310718492091921170191699935232.000000 102536547934360590389514624892334773830406025410288915734671771951736409181735586527188282199637132117771609067795743673432408064.000000 0.000000
0.000000 0.000000 0.000000
-829503643526675136169730766772253104369668682018362530239956933564714084560966131778885391500755944905966105038173652628054999040.000000 -170681657497211696730318740506451114105658369089574391206993377298352953331861562553890385428691358931540864947309701680441851904.000000 0.000000
-170681657497211696730318740506451114105658369089574391206993377298352953331861562553890385428691358931540864947309701680441851904.000000 57562452153512749921840702286627865472966538847982897343226162832970355463525251624058237858350422840746833827767833529681969152.000000 0.000000
0.000000 0.000000 0.000000
247951708634201908910372290537804268227471580727108010167487133316167024143427726145909411291491739191056296547537869916499607552.000000 -843043346429733855200291615649791809093074280066892317560116227472642976609714509046268581092742847125957315322141505190679805952.000000 0.000000
-843043346429733855200291615649791809093074280066892317560116227472642976609714509046268581092742847125957315322141505190679805952.000000 445548937268558074828179189558914246986341878236898417188195215680141913661079083602245136765650910080480290416950919709056827392.000000 0.000000
0.000000 0.000000 0.000000
-984696425522270951066353152784553117450644306843887470172061692415036436065445833244661302536008289855590484986264437624143872.000000 -2082208106315436329932829880321203740139391867313754857536160945568758873606744870093571630798696073404596496889434500105240576.000000 0.000000
-2082208106315436329932829880321203740139391867313754857536160945568758873606744870093571630798696073404596496889434500105240576.000000 1197055426555033947079533761119615850765647387112889432523652418987227450306980678586030609564975045707797448208261086441373696.000000 0.000000
0.000000 0.000000 0.000000
-42228338855461276496614936794127119757763917071107385842788790750834905601472394052878615045927247220981221902893206635844468736.000000 -177431984515181470755988099622068151733494673119371957677181171649696073636503952103659868816445894215301092260400440431209349120.000000 0.000000
-177431984515181470755988099622068151733494673119371957677181171649696073636503952103659868816445894215301092260400440431209349120.000000 101190741844580454560072664371702029989310509330314074687541663577580397487763925655132713701522819057947418832667845911753261056.000000 0.000000
0.000000 0.000000 0.000000
74317688138865373624476783953667796703153945247693106374498681283688900683269279892636634749714553426362741540534255128907087872.000000 -37207537848208399884874567203039731690730380293951877436460169614647093456677271617244484270830446816189264256331900023774117888.000000 0.000000
-37207537848208399884874567203039731690730380293951877436460169614647093456677271617244484270830446816189264256331900023774117888.000000 10669221154849461108752120638546458607723673317408087592901442321401085521170762547759066252223842839673379563494933859976347648.000000 0.000000
0.000000 0.000000 0.000000
137724253691672031595144871009590258425163793361297598104631976415309244975912033113043676545558197821884522387414354181467668480.000000 95040371732122878808050026054971063795143722241253991809170807385191226059386549190677782716674334435464851203627751739999911936.000000 0.000000
95040371732122878808050026054971063795143722241253991809170807385191226059386549190677782716674334435464851203627751739999911936.000000 33847979282585453197075326347822993288661980757288779548956401855659785468654913049379028811251279828442810139364873284194664448.000000 0.000000
0.000000 0.000000 0.000000
-499077718767290205917249623115213466670426916443213247881240759490513216842592233603973578872387245190963879253886318685781491712.000000 330845511733316381495125456086896591326247437980085963397549190232602791103868794265468135178112778184097866028997501444373348352.000000 0.000000
330845511733316381495125456086896591326247437980085963397549190232602791103868794265468135178112778184097866028997501444373348352.000000 179822389718487665733326428908700126479277053014476247041165204745473612840014556049898470198437675799925523351372903354692796416.000000 0.000000
0.000000 0.000000 0.000000
796332123975573601216045505943895075668329685633762343854126742203699059999502253341438742711062589844620726499168554631408123904.000000 -1965808767073409487897578811590086834406953772493283239850641179287176178641064139973668613172971520216859629605396259053292748800.000000 0.000000
-1965808767073409487897578811590086834406953772493283239850641179287176178641064139973668613172971520216859629605396259053292748800.000000 977842680202686596038343958050797686306313946503525412740590078787406824071765250076435369333345175490830370659396548336952541184.000000 0.000000
0.000000 0.000000 0.000000
514850460118114231989565916042793279901091281337572863070498964755280277002227583602306442653267484442354856495033570421033140224.000000 555407675812009284840639172418515199198569892024603829178881686552714577191997625500094954923812345889071572457002803390417207296.000000 0.000000
555407675812009284840639172418515199198569892024603829178881686552714577191997625500094954923812345889071572457002803390417207296.000000 240719459495027439034924413650797477513112861801963091368835695941420389556201846119666421555638219898674115289753303473402675200.000000 0.000000
0.000000 0.000000 0.000000
-1259694424762880027739176969473650742040244454454058763094367976577327258330463583106260404133824109976410013342744133992634646528.000000 -658726448207982172632072601129042562683996426195253671720993983965677545980399980536422866234408433270400439620283366443086512128.000000 0.000000
-658726448207982172632072601129042562683996426195253671720993983965677545980399980536422866234408433270400439620283366443086512128.000000 340815025299240722765400252724996982713308380671277005813285163149388349376397446245243574021316530552809965718378285162177757184.000000 0.000000
0.000000 0.000000 0.000000
-1981151090830830256332135935172637042228761696870968201543850468496130626605231609660927501479646621682272452261918640671761104896.000000 892636541730354944965116651032921289053907665787262610314919990223862509743626065403506676414538892746862646867915221956143611904.000000 0.000000
892636541730354944965116651032921289053907665787262610314919990223862509743626065403506676414538892746862646867915221956143611904.000000 445586615336442924718313878710535908419010712081262088267352081208572262754235150148465037388086134534131844657278802298520207360.000000 0.000000
0.000000 0.000000 0.000000
592033775002382994679128729122806893918994648326635623301244591718521329871967352905371923641236590104781720656233725140939046912.000000 -280555827450875416850177373863333201379415115750547850907493086484346746822875128471875348299848961759289435514905118039737368576.000000 0.000000
-280555827450875416850177373863333201379415115750547850907493086484346746822875128471875348299848961759289435514905118039737368576.000000 77455541205954653583146204444585799016098576477225879858593040780472457637756605758536220448549735124628529931591805906530074624.000000 0.000000
0.000000 0.000000 0.000000
-6032162783264791384106093077880156081438903263350225526629285371261612203451780457032225567526820189089718157637697330750559354880.000000 51120435123209159166618783751927229787238589962427737340873859908443260119179138539022825188182645656334316287159736700239872000.000000 0.000000
51120435123209159166618783751927229787238589962427737340873859908443260119179138539022825188182645656334316287159736700239872000.000000 3070665124906092911536084456592333866788620844105807654478034737440690621865967477961541457781628909038913279776092227740106752.000000 0.000000
0.000000 0.000000 0.000000
594542421988817797859672669996306883352369005326285585200257098775153405293391326115858227459702333247332815940251744335730573312.000000 48494874067565733288926920534271541826900730906938855807529122440166846296482945029362100482064805746997142011051867652807983104.000000 0.000000
48494874067565733288926920534271541826900730906938855807529122440166846296482945029362100482064805746997142011051867652807983104.000000 3551907643287347368605802971782428450824803018060343617648961690907624555037859899574953961440382325203722031637197929922428928.000000 0.000000
0.000000 0.000000 0.000000
873317535905908159606383855216475436186132996517501594099442912195918629894439847957681584025164590170327094538843346275974250496.000000 -108612885118075423481396603700318265360829366067658234685921264301132891049383312196133480461269879243330101389674353761345077248.000000 0.000000
-108612885118075423481396603700318265360829366067658234685921264301132891049383312196133480461269879243330101389674353761345077248.000000 8912707549517749997642922721176460894571767490244830059502058382738895788195288385201104289136135468570300593403143222653353984.000000 0.000000
0.000000 0.000000 0.000000
184304606933879850095239367335234119243139135773564021857308047704111133894888025938721223578250792239599737438407598853358354432.000000 255486044664891961519535842324826761769140224937882243470513916793514672934225967768623671713185173934177041341334415256298979328.000000 0.000000
255486044664891961519535842324826761769140224937882243470513916793514672934225967768623671713185173934177041341334415256298979328.000000 119059560684027945324221386919948801411372630945492902330929816880689966273173527842916931254727860800231365538229790085560139776.000000 0.000000
0.000000 0.000000 0.000000
2485234232477234992920976148677061765767265477849148633774863675548367909639671161512089608679988783236849847191805375293501210624.000000 -5456730035618720092300094209886883683937856216696754858929359774506755353166425534969437940043036372983406083393209158807045799936.000000 0.000000
-5456730035618720092300094209886883683937856216696754858929359774506755353166425534969437940043036372983406083393209158807045799936.000000 2761699973020456249959442397241451678370465053333002072421799362494433339260797875342149895358621167998804627609380521521212030976.000000 0.000000
0.000000 0.000000 0.000000
-55892107518733732135536579874652877454615443273750079779343348385335630739407981247127232486485670636223177692941785428393984.000000 40483000034602227344069845041519856300058725468972574811701564346336512035719937382227235670003261319909276324900640009486336.000000 0.000000
40483000034602227344069845041519856300058725468972574811701564346336512035719937382227235670003261319909276324900640009486336.000000 22302849226561083704997589279482202366790547702855885707583203048891373478597670421805041563423853482761164305890998478700544.000000 0.000000
0.000000 0.000000 0.000000
160408244340876047090456837246077530696183487628661366732840108886302757161786371851945128130057014691646175078239663623933788160.000000 -108524098060763003888081649235829242543053909462235894463157302382106203492347907316846904701024791080155855471844057864034320384.000000 0.000000
-108524098060763003888081649235829242543053909462235894463157302382106203492347907316846904701024791080155855471844057864034320384.000000 38673424536310429773485588974194721782293192154702063736535714879140151393645726601851652139097697712581753151900965179018444800.000000 0.000000
0.000000 0.000000 0.000000
-389790899091949989504366369081463226883446024226191489395480483555320927356968867262285468821604648103778332338074642174972002304.000000 -319695755792351303904760081425584154913865759809812121887502648682063350290904930709944303571820264941505913814005261873526603776.000000 0.000000
-319695755792351303904760081425584154913865759809812121887502648682063350290904930709944303571820264941505913814005261873526603776.000000 178883991118270214134288885830400219403791783096327928559428158992221663496181638298123720780252893722167132277235060268005851136.000000 0.000000
0.000000 0.000000 0.000000
256614444861746375328673363498950951320326914771465131019418451803720791558571256932267852669116827647707241052064896426220453888.000000 393954465393253141583238756869941722573488162682576691560489747646205565982220611992089765797507404908983350372393917784451448832.000000 0.000000
393954465393253141583238756869941722573488162682576691560489747646205565982220611992089765797507404908983350372393917784451448832.000000 207621266261361117941246942347162050460385699856440855250230159272247529881453455474284014644596037531940428330529763764964687872.000000 0.000000
0.000000 0.000000 0.000000
-3669934293308530011773652907342145662091957184119534816370251826433063586420003666298439971146783797000453550851797278632242577408.000000 1073707237138973890351366629740560329433002532914768115344034080839015041634621173488590484699930577507953337346619012383284133888.000000 0.000000
1073707237138973890351366629740560329433002532914768115344034080839015041634621173488590484699930577507953337346619012383284133888.000000 447745843280443563695173390293251153811135862128648101969820610331837803568318300540763980048729881898979924044668178623266553856.000000 0.000000
0.000000 0.000000 0.000000
-1550173409582983800694201972473332096081276019225327352816585530385969679321123491604882421976470851661370079675185944980357120000.000000 674147417003905017071723951760012421037492652759176103417013546893370677737678723492631428901221270411173455943764298209022705664.000000 0.000000
674147417003905017071723951760012421037492652759176103417013546893370677737678723492631428901221270411173455943764298209022705664.000000 329995771476909239936652295813648123362016136127913383795783739585002268255053434612231800594118018860554479489618478088436318208.000000 0.000000
0.000000 0.000000 0.000000
2673797011462319905173936996219435482131241422628081840057653253650234105863261238847439454722105701087117258594977427090309120.000000 -1195945887867673120195612292935287313505098584416361489141100378135646028788588235640918675136037937565878669660536168586936320.000000 0.000000
-1195945887867673120195612292935287313505098584416361489141100378135646028788588235640918675136037937565878669660536168586936320.000000 315097909755731440903711682407687102276807867835721004639770619026907244732452409202688478752184398241212225121540265576759296.000000 0.000000
0.000000 0.000000 0.000000
-157405688599692192550123904781453624700101328626427925913236837813716336255969956788749778148029838688404374342099214474927931392.000000 -240338435821525880038830596796829070385264264223142951869822788282133074475853733517914944158389911863421886554411689724975513600.000000 0.000000
-240338435821525880038830596796829070385264264223142951869822788282133074475853733517914944158389911863421886554411689724975513600.000000 138782485888266039246885842184035125920826590654712285796829682771915195891786720114477457420554988239212919756181703137953841152.000000 0.000000
0.000000 0.000000 0.000000
-5423861002054460936235883052594443862264190651619491068311689640329613434224887030426506107163830483466368517351794085484161925120.000000 2387065710647313573080957104109234670518794333809472139055486572713625721925788582484337430131569052934434337952482035102025515008.000000 0.000000
2387065710647313573080957104109234670518794333809472139055486572713625721925788582484337430131569052934434337952482035102025515008.000000 1175583003383247148007014416134781275365425941643135553068630100388532352210825453000346842495131331894466130722643505289919201280.000000 0.000000
0.000000 0.000000 0.000000
-1980599612372224372606011483212254751618386233241798693521551944628385762207846215028881782457079734372915020059517618196915945472.000000 -1189952045390357813936457340350483010522390195054898014175196604526230586219954258202361603683242337772776260444161733168285614080.000000 0.000000
-1189952045390357813936457340350483010522390195054898014175196604526230586219954258202361603683242337772776260444161733168285614080.000000 635453343773938192150490445506212711574667374075774742414736177352608381458669652075348846774523033245845583669074707687044808704.000000 0.000000
0.000000 0.000000 0.000000
-1091058631260510426000436162333266727160676577599241497449733656910496344878432995520669367272744059276218779691717773717994995712.000000 -462476602161578033829184174356870765569214006572716357448112955298096180585886413792243803828818809569142515732057798677555576832.000000 0.000000
-462476602161578033829184174356870765569214006572716357448112955298096180585886413792243803828818809569142515732057798677555576832.000000 228973867440106679798974788389631177260960454400340861570054587307239245969420339427894045129107508081954873990016043069080600576.000000 0.000000
0.000000 0.000000 0.000000
-591980354958993300607192919674891856313689250183939137293744781966376169738553377249325340382467283478027895229193538966009151488.000000 500462372117504326903033718059363109853391336083724267951612073202237049540896148135635382535269976301162757315978619031765647360.000000 0.000000
500462372117504326903033718059363109853391336083724267951612073202237049540896148135635382535269976301162757315978619031765647360.000000 281819036022516032479080200320711157216753821921863202759103235288511739542563284520276761856005254852779887428097227215819767808.000000 0.000000
0.000000 0.000000 0.000000
-127814339531288676653651096814611960743519416539441991154188021204442106264108523401634963313081962100544761945670599155700989952.000000 -264158650525009592318689619851263486886102619207064368889660359586471841945779595062181842650867516915015992979880561425764057088.000000 0.000000
-264158650525009592318689619851263486886102619207064368889660359586471841945779595062181842650867516915015992979880561425764057088.000000 152366804016277463898502451525703439390972357787490186942765981586384304887731208941489259479269783747783610292422333018115407872.000000 0.000000
0.000000 0.000000 0.000000
-22302902943404724490996419421525816387411593304038553125877764719300556342011183491217555198280274275918760218497197954990237286400.000000 3805502970822954385771741985068641032404830037995795270150854415176134245281362029443328816712415140555916055827739540314243727360.000000 0.000000
3805502970822954385771741985068641032404830037995795270150854415176134245281362029443328816712415140555916055827739540314243727360.000000 1121283738164356640299013322851112540632070943583457126977114007066943932455251598469730233091407696469190405082811045426392727552.000000 0.000000
0.000000 0.000000 0.000000
5121232410688831078553851779477259159859293855398524113948623723102168072548361540476845764051633383539657751976902063680389120.000000 3359812557778785116228635908002194443896511400031826129493842584579125151637425994473562320959016503686166547982819667164004352.000000 0.000000
3359812557778785116228635908002194443896511400031826129493842584579125151637425994473562320959016503686166547982819667164004352.000000 1153343013928923722336763082489033126940885831216286456457795292172063775764801515557335888401565650557506444156946463158435840.000000 0.000000
0.000000 0.000000 0.000000
1535362631487073952663298449406597299448408151481107325611672690791789526235907443149018268268255652110244883550039918376734687232.000000 839870387877055796192682255078368428274275040658550035963056456102867476684073822737182614927647818325507383369105427070862753792.000000 0.000000
839870387877055796192682255078368428274275040658550035963056456102867476684073822737182614927647818325507383369105427070862753792.000000 256417746957784496277583508203682592081675806002883994608496193504822720981166802003821544930585420261547869392979994818774040576.000000 0.000000
0.000000 0.000000 0.000000
-3198121734342793267731974821314819463427441932402065206630934535637065024466627745110877588560393748873063062313909844161060667392.000000 -45553085342655816979319663832120923899487278046298661491341199160191836380892500816259480005094479295172633743324551851286724608.000000 0.000000
-45553085342655816979319663832120923899487278046298661491341199160191836380892500816259480005094479295172633743324551851286724608.000000 6581200508616803806675255390210128949193532492014304123182642991036114796196498602047377357102617712780020822840689764920721408.000000 0.000000
0.000000 0.000000 0.000000
131759951470130615891437035011728652278916240080712032555571437263023479399447244475803204311595337979732748667151956168669134848.000000 -223280920841973208031233615673662614315581908889820501073736926974836931415643798785294647052021888875119497043756955390852464640.000000 0.000000
-223280920841973208031233615673662614315581908889820501073736926974836931415643798785294647052021888875119497043756955390852464640.000000 108655050522320285161820556675510931840909300039295727352043599063566772198432074995309160770003036201089701279171142024976924672.000000 0.000000
0.000000 0.000000 0.000000
-147272090062085623250813876786220080095286259917702843205263962689367988288241541007515679676156749892634542574868358356166246400.000000 121368264093387943648008987642463234007194882366784023101039415914239029437711101796448528966317664117700710793614235319436050432.000000 0.000000
121368264093387943648008987642463234007194882366784023101039415914239029437711101796448528966317664117700710793614235319436050432.000000 68780520487325445615814004238311706130990508128959573271575742811359558702296861548731041746555230175330333821460256932988190720.000000 0.000000
0.000000 0.000000 0.000000
-15886466230541517931468872012274651048607219495848845674661315615280170978382270190871531182496195788788719725230027521514006380544.000000 -3247998947351402267408888810341127223774554516506462383704911987205589913139814070245027404998948925681226563991200966278066995200.000000 0.000000
-3247998947351402267408888810341127223774554516506462383704911987205589913139814070245027404998948925681226563991200966278066995200.000000 1088233175970446074593751146278030007327668081615905397412235735185593404181391023732990699378022496080195831582013603577260408832.000000 0.000000
0.000000 0.000000 0.000000
-101550540792479280397235032878337393527256969923895656905232842161934833785784101204198345858954987022363298192564113052345485492224.000000 17510399672530514907993145247489601035879629294264391392647934223762510404250316818099058413636325531781772073611486068307761561600.000000 0.000000
17510399672530514907993145247489601035879629294264391392647934223762510404250316818099058413636325531781772073611486068307761561600.000000 5198622055066679971249076798411693504248935032087946393882625161566573444654588592089020368567646053871049523792414655607157555200.000000 0.000000
0.000000 0.000000 0.000000
662763825544658337653900884492037983183369079825969283949664070624908302598719679916090644500011771164654911833731009233767366656.000000 -955767688081899767696109799288128591079108775810110394883892136465333141185686872716910049730377147267087106120344026429100392448.000000 0.000000
-955767688081899767696109799288128591079108775810110394883892136465333141185686872716910049730377147267087106120344026429100392448.000000 450354860643441706822383752895191080268363176851409530197439495646014627703683359681960094915013913734064562277157872343959207936.000000 0.000000
0.000000 0.000000 0.000000
-1370786262330814408319828614095551866339644821284798797022132208059613246978766706203078582772985919620726054645425378577874944.000000 -67973644777464891698028180110500417002399836965524585249124695065484124046465744075173342006382344167816616981101356492259328.000000 0.000000
-67973644777464891698028180110500417002399836965524585249124695065484124046465744075173342006382344167816616981101356492259328.000000 67383789420326757615909518708306359350012416522148846522499067414322651067639785045766574041723612168064701642757996118278144.000000 0.000000
0.000000 0.000000 0.000000
80816514860232206798659602511639484221600197274576960325691133454015804594565601636095970291891068504572338340197829708076810240.000000 -88166910721497646338856582704027328245809589596629325094543894632744722495363476361503119852369195332298759738795333098988896256.000000 0.000000
-88166910721497646338856582704027328245809589596629325094543894632744722495363476361503119852369195332298759738795333098988896256.000000 41496466578218709701044064839287923166732854756000409573882053511858284038032482073884465366028125436665029387905164306674614272.000000 0.000000
0.000000 0.000000 0.000000
-1517105966056731679788882207885913405106023075078428287627740080023889859567283770937386399770410378303497927684598756137762816.000000 399338404722942306725414212724534250415038422122265677737527365568726383323311492793899406771655477770381625297865342471442006016.000000 0.000000
399338404722942306725414212724534250415038422122265677737527365568726383323311492793899406771655477770381625297865342471442006016.000000 227444108849289316296975143132469767071168418928235116802780508844269578865352239952650395225780726957179066172035887062168109056.000000 0.000000
0.000000 0.000000 0.000000
820494668110037972103687712924838355875936232455767316967523332083589582766656131459359639450459668066789887916538279887510700032.000000 822450602731022815916761810745417310860245537490619999014638424746545319915501193246755240983903465779925013750090891636957511680.000000 0.000000
822450602731022815916761810745417310860245537490619999014638424746545319915501193246755240983903465779925013750090891636957511680.000000 347127157544981793930136683441190890615738495972447324891629850100609369829401713976492057030290303400348166816412979749854380032.000000 0.000000
0.000000 0.000000 0.000000
-120007957713137746490108428012786281213043225284549408637570384730106187339197994900421147960608290269897398323958892215998640816128.000000 -13288429401368026733437891334998191401721830425197696386757790913127340134565188558851866316258682072406246914079318408138600742912.000000 0.000000
-13288429401368026733437891334998191401721830425197696386757790913127340134565188558851866316258682072406246914079318408138600742912.000000 2751281530725687549737282414862042590179424038230253036308168834744242496521876469359727299996776942812505506414446391152221356032.000000 0.000000
0.000000 0.000000 0.000000
388261692045259202749158752336652205249605203751004089574249917408586025009062630123841272222579126400609444237538984172978176000.000000 142072505207933527997561030519622796604213866598715145247411071414717724647973822375074287615797515179966904701283360364277268480.000000 0.000000
142072505207933527997561030519622796604213866598715145247411071414717724647973822375074287615797515179966904701283360364277268480.000000 31987354573894863684812162842679234472320638892530135231496135450121604029096052857819198951588434135894533124001728996302651392.000000 0.000000
0.000000 0.000000 0.000000
-429273666256089689418391681129451895090277673573523300613989280705472284700762124266258228539297493331880219299357175138473738240.000000 788581450403018455606547261449412177951069096749518030830199639937945179953723875814400368351468496869848190041645931634075107328.000000 0.000000
788581450403018455606547261449412177951069096749518030830199639937945179953723875814400368351468496869848190041645931634075107328.000000 455569513135524540527106709891983891989681251360491053330920546755579641555415296269352408262839596417598423029201549158032343040.000000 0.000000
0.000000 0.000000 0.000000
-170904495955660524567581760690592849482321351179911606287561653725665072259554619447852545100188368944739122903681438399642730496.000000 210032387395446924693939766128908494553488907968658341865534181705989709631989199528249024589842128874222579066860219769643073536.000000 0.000000
210032387395446924693939766128908494553488907968658341865534181705989709631989199528249024589842128874222579066860219769643073536.000000 120589685418901869147293094765177514099268910334661813061346906623003998398219634882980786595878623125070415357675623982089371648.000000 0.000000
0.000000 0.000000 0.000000
196843503478711959983406356991918957111314069443137869166602961466545152345347714049586278534553530527453998039607319016956231680.000000 9561995831413182283606754247168216785023042741010995162715477199610576637021464269219658783549841801405089408560169782268133376.000000 0.000000
9561995831413182283606754247168216785023042741010995162715477199610576637021464269219658783549841801405089408560169782268133376.000000 316751174765550520056879052929165829578859568212984458361225010302881879347404206331685345899468318520549398709523207608598528.000000 0.000000
0.000000 0.000000 0.000000
12098614186729638085187803083863801023584986545763475655752160333233439682936033006472579538380602868534157280535836153119506432.000000 6834577188041618916639812703106431128780528071743368095479078776012789898515286366328864114900763126167458953983859233529004032.000000 0.000000
6834577188041618916639812703106431128780528071743368095479078776012789898515286366328864114900763126167458953983859233529004032.000000 2133193248868182575276345944160447094447152917737311986337319296564698749750345210193480080486113272604885657655480609346158592.000000 0.000000
0.000000 0.000000 0.000000
-560297411087516225238962664729171390697683699902503552309208923560574878108447701016516483649430800476211992690372512379482144768.000000 -871440532166429081769837284452752086778280501975807832351214605595914725106988852100254272369415826417532015790794640007477854208.000000 0.000000
-871440532166429081769837284452752086778280501975807832351214605595914725106988852100254272369415826417532015790794640007477854208.000000 508830185925706663159307535524257639798425845412369729495622338528536482481387082934498906079899142990354815997625092452351213568.000000 0.000000
0.000000 0.000000 0.000000
-4437150783706981205957858225734172077189209561089078419827419924344152800148120333125178131080494497110316840588426690811851177984.000000 -1749009703719677644555946509849173533320569667125076978140380881527436787090733994467728103413544845249448148705453909180518760448.000000 0.000000
-1749009703719677644555946509849173533320569667125076978140380881527436787090733994467728103413544845249448148705453909180518760448.000000 837593432491992262504114478772180660284497061608583581299416109242497554676818433634248181698613400600750245465840254806634004480.000000 0.000000
0.000000 0.000000 0.000000
8317988733298587731635322495164953965319821752568559782070956105870227628561210096667316777799904993125635433774623220338146672640.000000 3009304393708168130895943515227433172657986135698769111088920357233944619406160424291076108926744923858368338193447728904935571456.000000 0.000000
3009304393708168130895943515227433172657986135698769111088920357233944619406160424291076108926744923858368338193447728904935571456.000000 668239510384227288991534201874212612475060229192758162867533502426174413724942841537570154967802289754728087354877327783235682304.000000 0.000000
0.000000 0.000000 0.000000
151268338773670819943524101133045145839908487129512215410707277381040503767109713719225598220375501831974698003991245737747808256.000000 -82845331854220929811353221713221613150958977400904848622665360015675906869428691372680950704292585191290099831959224908326633472.000000 0.000000
-82845331854220929811353221713221613150958977400904848622665360015675906869428691372680950704292585191290099831959224908326633472.000000 25320283038249802869186277231213842454369989233602474260570240936467914964586570563944514655141428624669189174315034573960904704.000000 0.000000
0.000000 0.000000 0.000000
-8766850659751442482994178817756176996351978745208004408610648939852636872847980369566462407423171068407437187061145032557946994688.000000 -3811848522894014256919421510790562875076126294859831050126840587954736165624881411801924206350629878800426762887346120702505779200.000000 0.000000
-3811848522894014256919421510790562875076126294859831050126840587954736165624881411801924206350629878800426762887346120702505779200.000000 1899271433061956008142140124357510790832456609472682134856738117399292236206308479753783101635029950041192997641683891801974374400.000000 0.000000
0.000000 0.000000 0.000000
891440916172906864705401486866667027487205035244462377686311313901145687034512763318168982146762849070475149545871360811723653120.000000 1047296577797484297186705012217548131307742869968774630813295869399966517174998661402413694873097430597857838659208754887605092352.000000 0.000000
1047296577797484297186705012217548131307742869968774630813295869399966517174998661402413694873097430597857838659208754887605092352.000000 463666060168933159907812778273954651225300512205973081632285211402359896583229697447870119332696354176222138822238294049367785472.000000 0.000000
0.000000 0.000000 0.000000
-13346188384467868404463718498360610907710840831693577459596841508247244681855577345119935789043731469600848294511692178153013248.000000 57737076183394951020393774907529763030266323690407671219436129483115400879310999904741315609851300443052483866781186473961979904.000000 0.000000
57737076183394951020393774907529763030266323690407671219436129483115400879310999904741315609851300443052483866781186473961979904.000000 29855876383409660489876682430363032295761015811814419267184201682116983565705869426222809679801117332914965328539617502326423552.000000 0.000000
0.000000 0.000000 0.000000
274955820920863104231634828422214338282482851275131566527111653224166410481844941912293868975677022201132370205104409944243830784.000000 -58640264309315385546276841059548072137932900485062093037510801365254691061535647578118364116873235386468050010241129166711816192.000000 0.000000
-58640264309315385546276841059548072137932900485062093037510801365254691061535647578118364116873235386468050010241129166711816192.000000 8108180845197073913442719563257425024654077317963094862617513921565446828017710506157412457331523168058653037913878272736755712.000000 0.000000
0.000000 0.000000 0.000000
-4032859787897384521652118208059171278805677266116933315804804312618641006658188976204934821528574096098974366167637944043023892480.000000 -14281389814373367596556934328880333357430130307378478938951074811011810935929538425466856954681526454648527487466938239297781760.000000 0.000000
-14281389814373367596556934328880333357430130307378478938951074811011810935929538425466856954681526454648527487466938239297781760.000000 315172741208301916549576307468079937812649359881394802452858258347354993440653328979567463138862809402006612708679951006564352.000000 0.000000
0.000000 0.000000 0.000000
3281677449850267367226068322864605312023941235783992332467161830010731041277520842311847976050769840371356599073893334803298648064.000000 2956799561672266054567259554049181452491594259206916106102556303192981864759698905252169764276542334601600819204405692121974046720.000000 0.000000
2956799561672266054567259554049181452491594259206916106102556303192981864759698905252169764276542334601600819204405692121974046720.000000 1195168828886106401236166292599104846926723470721843603805728976999641575907621409949778970068187214901667375244056751347786055680.000000 0.000000
0.000000 0.000000 0.000000
110548657310984763984487380971509869806663608888188595605393949024164246894225966192059771867319529039769743673734759776050479104.000000 253318665927401486160103680725200158222663786976663130786478805139159153849226212718515964530781432006512831577551854956038848512.000000 0.000000
253318665927401486160103680725200158222663786976663130786478805139159153849226212718515964530781432006512831577551854956038848512.000000 128886779345891827547495783659243755283007377471848678748651770798493067817497705895364607807983713954432928611958710599545782272.000000 0.000000
0.000000 0.000000 0.000000
47781220318192192816977308017764858367706691907672056922102836312419076100239657378946974859719730329546587402876239666873368576.000000 31335131352007089282693903330299432680079365690575443563723955971028946584095753215994430738350067482887871558457343031057055744.000000 0.000000
31335131352007089282693903330299432680079365690575443563723955971028946584095753215994430738350067482887871558457343031057055744.000000 8310035817686396597297997055129368888965384596902636427441933152057609680056606173492318932388723891120036892632704997256069120.000000 0.000000
0.000000 0.000000 0.000000
-493059593265482849738744375219335330583653574163047794083509723881146441473714609148763740937630215177453193349819794108348104704.000000 169503463240379572379279082165673924584654647811770345365510792944085048855154455937128515963817784569049117755149000185563054080.000000 0.000000
169503463240379572379279082165673924584654647811770345365510792944085048855154455937128515963817784569049117755149000185563054080.000000 75957105515939652044196165956572323992269180389859463892713563142575074541968046409943347112109484686792801569146837100381863936.000000 0.000000
0.000000 0.000000 0.000000
2032693378529848061133564475379979063226697704755767119742448585485847736287191285363238100035492070175864046329007959881809920.000000 -1234692535313069342375391935255620687249017806489899344046591821231462567004329280360948984927024069322821258517334940998172672.000000 0.000000
-1234692535313069342375391935255620687249017806489899344046591821231462567004329280360948984927024069322821258517334940998172672.000000 396197529997535755270048526531917460639004764230572352196392996091361265043446427214547570008716590599496962292730162875203584.000000 0.000000
0.000000 0.000000 0.000000
-2216527461712105773070570415067631915181748545996520975568317314848323928072876790908919946047838915268106298379933632275947716608.000000 18198351979208998215960838128763207136864654543947173639733984605601972416206311598055763876814475618777214104518531493662818304.000000 0.000000
18198351979208998215960838128763207136864654543947173639733984605601972416206311598055763876814475618777214104518531493662818304.000000 629529485635905575259596987992097400589299091585190921433024104189016853404754095086148562755815602617998327074767688110702592.000000 0.000000
0.000000 0.000000 0.000000
10907727757737300689569576824500546795962496192556975206401047058893758086334287218734440879758606195337428271898769101678444544.000000 -13939810497233802606517261245672514838284313948803696912610422128897645219289746296519921781709871209953136776660057681463083008.000000 0.000000
-13939810497233802606517261245672514838284313948803696912610422128897645219289746296519921781709871209953136776660057681463083008.000000 6366427794172489571959447820123568158470030461360672261887915712001811434757129729449357661155537120707401248617474689870069760.000000 0.000000
0.000000 0.000000 0.000000
324883464739986236365135975469790760542964326810727392271898452187789256251774189099244741028809918559105954563933861637387190272.000000 499945656003490713493358707208363596884724582705322847772551199797073462379432694517284118959260478232810164582276184408785420288.000000 0.000000
499945656003490713493358707208363596884724582705322847772551199797073462379432694517284118959260478232810164582276184408785420288.000000 238777476195940737137318178309232634881348873268898256123206612177128533919819187153557479156469421886764624007651192371945668608.000000 0.000000
0.000000 0.000000 0.000000
-432398182505680837873938216077427362034682537784437370305316169040812889688629461906792224965996834764230581041331111915526553600.000000 -365364433809708583638243451607978878739148478184548545299154397213277605845313843371877070655455839427530231129088059820673597440.000000 0.000000
-365364433809708583638243451607978878739148478184548545299154397213277605845313843371877070655455839427530231129088059820673597440.000000 206728752208737698494448853343843239382023464102614346088187099725801361530688607396864947839619376398986355647555000988749266944.000000 0.000000
0.000000 0.000000 0.000000
-777335022090455752151637314869478708954304834803978951468917683008324260324997776561971926788592157957864870001235974032457728.000000 218350140161436668027668189229697852445997755589766333551935329814825613361163095973657567910944635490324312289325956166844416.000000 0.000000
218350140161436668027668189229697852445997755589766333551935329814825613361163095973657567910944635490324312289325956166844416.000000 88632730329788262972489325526669073072098852783333797379624463447836443234021150311439504543071522411997429610875965228974080.000000 0.000000
0.000000 0.000000 0.000000
-857765701877505044090680249182770489631915933219786736915560953929642668055224093465739918468671778716206462185867609401261555712.000000 1213402136267244787205185301940951647586001815686727487028301402505091295572005185485271843682279553519897114379933897432531730432.000000 0.000000
1213402136267244787205185301940951647586001815686727487028301402505091295572005185485271843682279553519897114379933897432531730432.000000 714335982798343465100069556540410411183819627473232461821645480688670901818665401993666754504882321918115568201161677782273490944.000000 0.000000
0.000000 0.000000 0.000000
-19223674618655558274777276870717880483254846417528473653444656327502783328236057196386751606246320376091330349076275888374440525824.000000 -9050114567512777230845443208607827417501843310981471396040612180030492732499308180209822774445538951643365336770923020346174996480.000000 0.000000
-9050114567512777230845443208607827417501843310981471396040612180030492732499308180209822774445538951643365336770923020346174996480.000000 4610891077863933259504055209488635383555490725720549134741787973671687010768019371857825368926094418917174830705663948897975795712.000000 0.000000
0.000000 0.000000 0.000000
-132470144560218931138449941219963380748844067603080455450352658177080317444063868619417784518337915008756487896695961552257286144.000000 349484535685745649493192569527318613789542706622673139981421383933993618745843494776217894009777796555287999876567712333358432256.000000 0.000000
349484535685745649493192569527318613789542706622673139981421383933993618745843494776217894009777796555287999876567712333358432256.000000 201151095471135708109735083427091989792106793399248581545544775049298216056080711460159387457538644456520245460539323956284358656.000000 0.000000
0.000000 0.000000 0.000000
475237436662196081164305802021198008079110676491749149973147633582847391122776787630575167733852836108324662147905393015446831104.000000 462840912112037120594932853291920232546335701147789560330110808108102549065364922673762821461654744879146604890598555740769615872.000000 0.000000
462840912112037120594932853291920232546335701147789560330110808108102549065364922673762821461654744879146604890598555740769615872.000000 192863136990120322945417730601824988626101529535411538120014406354266684644419446253527903666143421131979947060397588986176995328.000000 0.000000
0.000000 0.000000 0.000000
-132840073007412530864096992853950525636758768780798232177623696319960768369597179544721937331258788586964946740339463156133789696.000000 281343526445031498924949878701225609170885207953160597207791164698899943999404485143319255466757306834732471735950881909976858624.000000 0.000000
281343526445031498924949878701225609170885207953160597207791164698899943999404485143319255466757306834732471735950881909976858624.000000 162444672860699335541556478219638697838470692641378741601090662266640968843192615034777248637806648952594212787651709935349137408.000000 0.000000
0.000000 0.000000 0.000000
51780002073557705219257406265282777266078464596670443137545432057095834235700023772897021739281797181080478240431293158920290304.000000 63431079427212732527321445686917159161920805085072305334424850627246746052399511605030777679852175984474333575886742550709534720.000000 0.000000
63431079427212732527321445686917159161920805085072305334424850627246746052399511605030777679852175984474333575886742550709534720.000000 28721506140950801003339247612162702995608885847982495510968576214038569293694111888365173231325431977825625685862683366867861504.000000 0.000000
0.000000 0.000000 0.000000
696885708083465024570098392378779797652972630423077676467162911830587613883413349118216799775260804526597516505091097492967129088.000000 -3625088851440058787581907713460074621371972708149925886867587805030276114897378687300599923278897762227778894438661271885147275264.000000 0.000000
-3625088851440058787581907713460074621371972708149925886867587805030276114897378687300599923278897762227778894438661271885147275264.000000 1952146246384861002278089660407787117656843309397674523198168449697468045342214618867316263511969252315321178081013830524386410496.000000 0.000000
0.000000 0.000000 0.000000
1299443834287613893471544673734105089709495230816188170610752403172920527497954608717507156885670711772267698145700016339504070656.000000 -853513157470291411042034178283529716913777770715395281726290974774287383965527080754792044079313838416799373255857132144479436800.000000 0.000000
-853513157470291411042034178283529716913777770715395281726290974774287383965527080754792044079313838416799373255857132144479436800.000000 293147506613367693646745108916593134952656790141762501260306126677669324207043139901169744811260070700763760865745878845795336192.000000 0.000000
0.000000 0.000000 0.000000
240637473340535112758352901727780659721803602443994710919643074746847663344929160487042780197885796524467599556714113474744025088.000000 -93363351513693298608459396898520057957792045501619896396057607419019789131482130035902125319530070813373436466142547423115870208.000000 0.000000
-93363351513693298608459396898520057957792045501619896396057607419019789131482130035902125319530070813373436466142547423115870208.000000 22101632491724377396665397386689253188296415438640787062666824941666401747185053753533976906859348342280225636262609420657098752.000000 0.000000
0.000000 0.000000 0.000000
2347756675460584266318811004737443104822776755798660872609192060459806593568420660718794628237665076743578620600153003745974681600.000000 341879697928711639389076365686384421611084063995059898511865104502709719429730203403820477067436140994239256864836885180802138112.000000 0.000000
341879697928711639389076365686384421611084063995059898511865104502709719429730203403820477067436140994239256864836885180802138112.000000 32734413604129678311689498462462329767506418028548514383019590331112127513944902297318984057514643341041517657379829737423110144.000000 0.000000
0.000000 0.000000 0.000000
-34264162199860702054173504237261644044337725290097814252773112443329279555665856797838333129875582984162707646872711855291018248192.000000 3823644662418489988717473435130970419094460979749002204605960214063909056058092451163747158333182795144688574214372317610805035008.000000 0.000000
3823644662418489988717473435130970419094460979749002204605960214063909056058092451163747158333182795144688574214372317610805035008.000000 797486818241476773006049255288256273949967525356436594772715903691391238495880276773114585466256213005064376785300316606110367744.000000 0.000000
0.000000 0.000000 0.000000
-1090396463045436767185836916512810210601998099209430671845310147481503135670015692418027743305626837117460296236633457299846428884992.000000 41599980916416544472417266629328358940190073527319841457441262296963090993922247449546650526119064566761230190437321226798376157184.000000 0.000000
41599980916416544472417266629328358940190073527319841457441262296963090993922247449546650526119064566761230190437321226798376157184.000000 3147216028073708823439429021460839140457099676604230403090994875379074131632444741138617142558007625431193290193003440008478064640.000000 0.000000
0.000000 0.000000 0.000000
-10035483346029110054284708341621108694940478299095516336173687547285855889684435766181629521408318935064936364572528737768806809600.000000 -8129437537741644808055209632120338906232663771865295422645227839727912841945952709914859576630087083589557723202211584006175064064.000000 0.000000
-8129437537741644808055209632120338906232663771865295422645227839727912841945952709914859576630087083589557723202211584006175064064.000000 4541454096004644931136574538297181726266982189645050449612259665541599640997432584758932184195092722000401431984523351768386502656.000000 0.000000
0.000000 0.000000 0.000000
-3203196003574763923747542597030331419558364675918135765921038300356985379782927279505653301657923321818536287733126534299830452224.000000 899337006897337237100863252164093005274575011318993532893603588079413693882478419579668938538826718690850380877734660442586873856.000000 0.000000
899337006897337237100863252164093005274575011318993532893603588079413693882478419579668938538826718690850380877734660442586873856.000000 369636642898686545220032009500987123330371104819520665557474974272558956120757567489744677105478918398159212745628076553959112704.000000 0.000000
0.000000 0.000000 0.000000
-102791704686285592511841335293697218456034972923061956351862161168992724246866718907436920449107863368371394171712152156512452608.000000 101602077706268859088707771747344503454408766842279388279461393194180418974165034828073802904859582914075593863026774585777324032.000000 0.000000
101602077706268859088707771747344503454408766842279388279461393194180418974165034828073802904859582914075593863026774585777324032.000000 52522587483251972066620694112378307420047091073224687868330677685717780569250632014700309419549941968563289488666328317355360256.000000 0.000000
0.000000 0.000000 0.000000
894595481831977142159891298157614612177748299900050926454671763547212212727621037834247196935228416313000385729137217250978168832.000000 432535695302583050040342397561276406199040497867761100260569176176324791792970612775293423854502282970532358515993662471394033664.000000 0.000000
432535695302583050040342397561276406199040497867761100260569176176324791792970612775293423854502282970532358515993662471394033664.000000 121136657799457745959256533513039813623603768495384397738134119780234441151987629076425181343148999983644673548428344165719343104.000000 0.000000
0.000000 0.000000 0.000000
-2220486425436539243480086555477868441159329328784173512920906466699633491944019223870106559717744221837184643049821198946532327424.000000 915421853849770544550210786404906471907595670104324798089482919414332889381411620604675118447865391903358872972226643684233314304.000000 0.000000
915421853849770544550210786404906471907595670104324798089482919414332889381411620604675118447865391903358872972226643684233314304.000000 439412448497102303052090133168905702570956969406912904964085882598687281700186204612250988128750767656065677534323597752355782656.000000 0.000000
0.000000 0.000000 0.000000
435886934368591602762864396328908698956926172354218277198572017919319892432693244362635989860158296415379074369154683736449613824.000000 -1352841350357045254036614134923030966407954210512590982847814036321020146627031969658558204378446101569075093302894467799914119168.000000 0.000000
-1352841350357045254036614134923030966407954210512590982847814036321020146627031969658558204378446101569075093302894467799914119168.000000 709706062549835111273780644874506663917052039499158675974440469981422209539001422907445309063389821220299655345898051252441317376.000000 0.000000
0.000000 0.000000 0.000000
-1563019901469686345451600320795673945584517019490496384523992778049221130210360085190739811195562842648779053579665159826991742976.000000 1013242082942107955715444103800112328126213550443474212960294411155595561048591098304389708933988181869654448266435235864148705280.000000 0.000000
1013242082942107955715444103800112328126213550443474212960294411155595561048591098304389708933988181869654448266435235864148705280.000000 550416116384828575988017710898731025342658144953547131003936549396610888603657708308208513617926862147013828590972770846291001344.000000 0.000000
0.000000 0.000000 0.000000
-4318235252302134745177109316654389044317955248739510246485797970231779487732707350934763083994613599641115265686338825314294038528.000000 -5774686683475120162381493310562744543694012496514366797290539884694710941314061725771299079516457060400418112616266165889775173632.000000 0.000000
-5774686683475120162381493310562744543694012496514366797290539884694710941314061725771299079516457060400418112616266165889775173632.000000 3324561850757474730529827171678063502373219748614984007555693594014120419716966944096795961680578616132838110162988391442612748288.000000 0.000000
0.000000 0.000000 0.000000
2341335740203815237563678009681644746641377222526404184827592676357747393941506813578362609948896742169663110608369674458723516416.000000 -656824294808467795455510362391470693782888886794312656968867215910241925429776797968599629062043718318737592451650462399263145984.000000 0.000000
-656824294808467795455510362391470693782888886794312656968867215910241925429776797968599629062043718318737592451650462399263145984.000000 117205907021404769238045404272698562638900982958488440234304168246227141142651318524560205615002094808199513307760521263271903232.000000 0.000000
0.000000 0.000000 0.000000
2980586691879116510386546939299858734594234442616917466909150231512227774626665597993349314851721193470521248832298729670516408320.000000 565230620607002884650703160045503628050878547175821747903887991953939696588029274346843934867780359069135341793787170107328299008.000000 0.000000
565230620607002884650703160045503628050878547175821747903887991953939696588029274346843934867780359069135341793787170107328299008.000000 69799422942337002402003310968176601759315393481876803494994461313478878632037674359668300918107970141048780790711028299650301952.000000 0.000000
0.000000 0.000000 0.000000
2685566651143604031405506995995920347531071646276980723330148229059188281963382931943751949708417345015465535350939165378652143616.000000 -567468173426960646453754964646970274268834821926011505437713105457738781267895895490139191634043443994030947274810417309810688000.000000 0.000000
-567468173426960646453754964646970274268834821926011505437713105457738781267895895490139191634043443994030947274810417309810688000.000000 78569054421642616047738821219064638798426432588833485897568657984627137391884996123038737296742742694299419110671309406556127232.000000 0.000000
0.000000 0.000000 0.000000
244747689106965453666058113791351667323460453872171957356985237119898039720528653449532548704818939466378573342075536656232873984.000000 -689691427371182086102327432842882558171364268392660271614722763422759053092801688068087898923070944654430707785283140396525813760.000000 0.000000
-689691427371182086102327432842882558171364268392660271614722763422759053092801688068087898923070944654430707785283140396525813760.000000 362715437998749085143513176386477192308908983358952466988409970841525304291508869348175017345770265254321403078779687610584399872.000000 0.000000
0.000000 0.000000 0.000000
-29521376471471977361116158866720603466648114983077574514501006702717706223398070689210827550125987564836428717904510957100466176.000000 3220084978120236077486529442360426308746286855503813966429092669060424130726276356792952462284874055844252044393645078260744192.000000 0.000000
3220084978120236077486529442360426308746286855503813966429092669060424130726276356792952462284874055844252044393645078260744192.000000 765945125177192698890793124411778189235924147622877821303032009177815689288666983794138535364921677888215295329773275043594240.000000 0.000000
0.000000 0.000000 0.000000
-3043230786429905511668272883566953722453983550723968045439603683384886207081542976965976020131100427131419080633253040538930642944.000000 65902902077022508785313130672350131465867899746392812658550651818679780443067124999555283715619734522859416754640513650107875328.000000 0.000000
65902902077022508785313130672350131465867899746392812658550651818679780443067124999555283715619734522859416754640513650107875328.000000 3261073611267636733367708348395812311604357051219287524518790994751611901780914963308724670599010092940396392473004371481722880.000000 0.000000
0.000000 0.000000 0.000000
846637407923774036746818970704984778650246413061789134594123210504034824469058170147718615885573442195250050595074601537616478208.000000 -500672464606382114927208213578845160930543820125351404445168903318614859768106689306267467370413819357173158365633934462138974208.000000 0.000000
-500672464606382114927208213578845160930543820125351404445168903318614859768106689306267467370413819357173158365633934462138974208.000000 161072896521609777534996970100462601394732704529558913042346807525504482698286226300498696537698971705018458047276552733742596096.000000 0.000000
0.000000 0.000000 0.000000
-140961849955920137133798396082171661373333316026033429678852864649772911919808427210681770627190730948365837886830616548497948672.000000 340515755003067861818069547936151983003432381988452094854103638025905069829936807426137226143926887839793411791149826899963805696.000000 0.000000
340515755003067861818069547936151983003432381988452094854103638025905069829936807426137226143926887839793411791149826899963805696.000000 102156704244801476689542104186487507514643908344698228866542056392080003238646387330662921628585625254852264002320031279711518720.000000 0.000000
0.000000 0.000000 0.000000
-8572731241376243827341353021940197579602330766202397238929799921222825978665261911155477951040123351813799011178933316609908932608.000000 -820781763596771202609004126828725606143654391689816477258886890831206458782707771824192016671097932869708175145922867934542168064.000000 0.000000
-820781763596771202609004126828725606143654391689816477258886890831206458782707771824192016671097932869708175145922867934542168064.000000 149318569250213002197942654686487298390931431519599121366191525060008848376023408437480752783090258873218823283952103060892811264.000000 0.000000
0.000000 0.000000 0.000000
-3532483985908395390512680488426352670499627237228420985111943395666227711958124873502360314404494655922394219000611980198197329920.000000 959101238216438230127109912973982287872025336163050709792648880111742327891978642028492573335991140586877666853000165895100694528.000000 0.000000
959101238216438230127109912973982287872025336163050709792648880111742327891978642028492573335991140586877666853000165895100694528.000000 388319958903349680700486650644613638862056538168315404762097917760014387952970480698920735567615841807209698657204403525346394112.000000 0.000000
0.000000 0.000000 0.000000
-663693702242235647945180466316078382262182730607738433732225384965992221510215932889418591965720881423330476650441617625132826624.000000 -492029598553588069781967115155809095986507625659473946087985734562678240780211344056714336439369979561823766953422719408561717248.000000 0.000000
-492029598553588069781967115155809095986507625659473946087985734562678240780211344056714336439369979561823766953422719408561717248.000000 271914397228366824048927736126659330477495909112539750818182352137801312965010984376811337385155273941109544262563485617559175168.000000 0.000000
0.000000 0.000000 0.000000
-554959582324636512204180744633395570193182037803018075734291452065492836129021916123900123857284477378834143349913415810671443968.000000 326822827582176739128701105643920831007655968670993395357446641850806984525581455902745930954528507997078991975914623272937848832.000000 0.000000
326822827582176739128701105643920831007655968670993395357446641850806984525581455902745930954528507997078991975914623272937848832.000000 174612201752226544149519223907841637731034951422193670140349346629026057228122681253162601988110560880778402861945789515428790272.000000 0.000000
0.000000 0.000000 0.000000
450477549976852209255306516159018927305475373017273223543509999933716164238138735100748886939502394133694151542847051954594512896.000000 419756330504279979239914032890018056976516434855964642711923628251446936553678377098382594896641090995058348897026532947106201600.000000 0.000000
419756330504279979239914032890018056976516434855964642711923628251446936553678377098382594896641090995058348897026532947106201600.000000 172087447671333631116162648904812365664808657475949033682670091467743384471658829012715944388709192825629330096106618311160102912.000000 0.000000
0.000000 0.000000 0.000000
1738143582616308551246137905671302137816181904888152636475524633037370820774807537895742676709708895153444400457294295998216011776.000000 415461442887585070597001336547047570361504228709051913891932247633091186749028212852720180382294456877410518670027144291265019904.000000 0.000000
415461442887585070597001336547047570361504228709051913891932247633091186749028212852720180382294456877410518670027144291265019904.000000 64828378976157033580838688491216113611281323556009539373268760033769433909186076811873146277026481821756419664135715609534005248.000000 0.000000
0.000000 0.000000 0.000000
716648888859815262088768885818195879958611946957975583668625258816790963448039569188430601238523454690516118287899042093901807616.000000 -1558887296347216227393101231515319964483951249438882196567937945675726902667417782605323367223235212534673734439244113831239090176.000000 0.000000
-1558887296347216227393101231515319964483951249438882196567937945675726902667417782605323367223235212534673734439244113831239090176.000000 788034367094738612498119365749094305916184432925105995061007830293913076113405653368566290178479785147153581663192744957598236672.000000 0.000000
0.000000 0.000000 0.000000
508572301020004257668239167655757573391641649460428986453476608274986519755581240535144202482879589153012817318468339611222409216.000000 -1797408040794740769808529632390661215805205463006155107041045234376617496128753393317764290583795044241793926728120738684292038656.000000 0.000000
-1797408040794740769808529632390661215805205463006155107041045234376617496128753393317764290583795044241793926728120738684292038656.000000 949900286341779048442962377814802314171215848537560329308578003767411480428113349163489436525341244857478821313244163904750223360.000000 0.000000
0.000000 0.000000 0.000000
62947255254800969769905453199924601312713245134206013358124529049153288251252383826337670310945349529630106413815486831648571392.000000 -1012807279489448829527245614083561865220926429541549079645385258259452156200773517286331980182143220724633208205128082409528492032.000000 0.000000
-1012807279489448829527245614083561865220926429541549079645385258259452156200773517286331980182143220724633208205128082409528492032.000000 558092914154995824331902805370670906042674607375366919681175462878473498346625862481773947358902326203951033108653955693873725440.000000 0.000000
0.000000 0.000000 0.000000
39344605216309094174760987450941209990375864564030635901460839273658156540931260613320108882262344065452717891695388734770905088.000000 118832840625379887941814518391931013992001637600203234441127738854742480264621740575947949104519358676786420613155161871828910080.000000 0.000000
118832840625379887941814518391931013992001637600203234441127738854742480264621740575947949104519358676786420613155161871828910080.000000 62093002835752609795754111513744763648862909125980142259728257562439982017084065652154436626621262298365253738573601705595764736.000000 0.000000
0.000000 0.000000 0.000000
58728671696379803602448563482929108573991221108480945155408854484499375109860957378837568602158131274538242331652451757727940608.000000 66284033429562646840043234795346550443075820747769524689232660466706380010405516350901307579984297965134175234313254886084444160.000000 0.000000
66284033429562646840043234795346550443075820747769524689232660466706380010405516350901307579984297965134175234313254886084444160.000000 30733020228798628725470799038572296457142849618292650990158691400819329407936813299204307211817031310388026413611636541494394880.000000 0.000000
0.000000 0.000000 0.000000
5720669400911914872831480766243552871669502029138199812750437663057648091833188473548643603115055213480341908768973126891470848.000000 -6635503734018775721379724752419067044614801503374649002519173124926357702018903325969752869423170454383858044718205424575184896.000000 0.000000
-6635503734018775721379724752419067044614801503374649002519173124926357702018903325969752869423170454383858044718205424575184896.000000 2945597215014176418848653390517220995064427023750598093121711484919511805302242710769703181038640657940067407994600424573239296.000000 0.000000
0.000000 0.000000 0.000000
1917297937372691461046835866955473659264237315112601847537092815365207760682272502490447622658231490692755465749334079995675410432.000000 -79437735838460454015200827431159310669762784777613253221406025921676856113280922119257814699237866200831967816182426146634203136.000000 0.000000
-79437735838460454015200827431159310669762784777613253221406025921676856113280922119257814699237866200831967816182426146634203136.000000 2234942935043212452215497973979939480286509350149062831225546422322186653635231479183759756696307963143821619967344089044615168.000000 0.000000
0.000000 0.000000 0.000000
4929818957671416082625323053850863339294093843433047723095385799648554098683004421682304718486719295897717468540193715211340873728.000000 624141494708857360545792707645444552555884492439859507374610416923439377108287914271550975657440479527078429686760338854877593600.000000 0.000000
624141494708857360545792707645444552555884492439859507374610416923439377108287914271550975657440479527078429686760338854877593600.000000 52211651734432745239483369194206306779012887763802213240813189575952497702349829456527196123410907518035170158710331076086071296.000000 0.000000
0.000000 0.000000 0.000000
1717199056394955497020731924497831182537307770508416387455760311727505157649664020062368461657782956266953184574515740421331615744.000000 -343307067585986124944044739061486663199506954578622913155695558021692180253064868020595063007649600303259061046831809964336480256.000000 0.000000
-343307067585986124944044739061486663199506954578622913155695558021692180253064868020595063007649600303259061046831809964336480256.000000 46802741747962375624705229910156773740554964058091911226719311997754126356976281076603671397559099696759914606456304373887664128.000000 0.000000
0.000000 0.000000 0.000000
-1230508038032137343830591488776864326261912636811967818670001734697848800430835886022630274297145418993154438121328659013803442176.000000 1874625768035162172095210758080437274133863965109863811153303360110860398084388738131580450300456729798399772848408440363783553024.000000 0.000000
1874625768035162172095210758080437274133863965109863811153303360110860398084388738131580450300456729798399772848408440363783553024.000000 1108288488655018133357837447682569757762756334442744295745793108935882436067911287424235908574427181365664216652511404986661339136.000000 0.000000
0.000000 0.000000 0.000000
-31022174709391352946403054623631482512149575154192992999720754357143418979758539008719719038296554345556167252009585815472584930623488.000000 174266781663595991118618334426435486433985581881369002284716322507426878781107181918075671227888857583949426182235606813051562491904.000000 0.000000
174266781663595991118618334426435486433985581881369002284716322507426878781107181918075671227888857583949426182235606813051562491904.000000 1960099208062024859726992712145236697679713691488584117637915643291057466770525244355961041122070341900461160036349762497931116544.000000 0.000000
0.000000 0.000000 0.000000
-1857923864132639311302017860550501386405532660173548681529898215944706541706754002402043591499499574716591134645358814004695269376.000000 -2146851664138236059182083907476501325685957849709097730505129625775985518005923711594464583052162242015475084116614214319188475904.000000 0.000000
-2146851664138236059182083907476501325685957849709097730505129625775985518005923711594464583052162242015475084116614214319188475904.000000 1230439374889526945808153485094063236133785501353632614935765986508348479381184606459638306092104154232536136208516280580577427456.000000 0.000000
0.000000 0.000000 0.000000
-1421528231080102146859194419143404558680845660971309025407773462600967459348511940083756576337950302583963243951688406078574297088.000000 2272600810648327753839276337416418083651367384519731351226709722148311556168353784732005613414420285604893802044264093950796627968.000000 0.000000
2272600810648327753839276337416418083651367384519731351226709722148311556168353784732005613414420285604893802044264093950796627968.000000 1311484166239985450547252590513464965468012075462921911877791195275663381645695249590178865683137004831597527444570791686828982272.000000 0.000000
0.000000 0.000000 0.000000
18454870293883510860275794613984355918481066065562996696456483562601877181920815824796093089090631966861576666947017508007182336.000000 -71672014131001576165037008463958191597765020444311254611237156704662636906543948046301741703981824278960563829349253351609466880.000000 0.000000
-71672014131001576165037008463958191597765020444311254611237156704662636906543948046301741703981824278960563829349253351609466880.000000 45933027431312576691373058387950197104459524681225769949613164598044772550828238457247756276173378365391255911998264106211606528.000000 0.000000
0.000000 0.000000 0.000000
-588423021379292329737922055758458305199097849859401731633870564268073584151559971216977855174533884229381528754867654890711154688.000000 914236030376787470335727601469108659193128675010725509199212457552841857140467770003108009953973395347552938624527173639913603072.000000 0.000000
914236030376787470335727601469108659193128675010725509199212457552841857140467770003108009953973395347552938624527173639913603072.000000 528391677332028192561643126937569001846784066877079405018407066332807189133158643413166218284879632756762273987840081605242650624.000000 0.000000
0.000000 0.000000 0.000000
2351501646600319080902963772812600169049146594203876145098443230133517165470046552816577929887236784590943677965746998602939498496.000000 -2538299515557569387070796143657633451328584084974294857282275958830867692362796699810187514718443008210052176810389860212860256256.000000 0.000000
-2538299515557569387070796143657633451328584084974294857282275958830867692362796699810187514718443008210052176810389860212860256256.000000 1100445022645639506915594270475626247054788037259913817356566523958026112426173146554922734783920655917302729174447558083081142272.000000 0.000000
0.000000 0.000000 0.000000
1231672589718824470927915411070100594872836839763949423988874121056661918824475414556524933686074436816931111852015588593947901952.000000 2315170618095830403047651794331722105946312028966230808215977301267963011729099396766218489285699067939649932862366257162945036288.000000 0.000000
2315170618095830403047651794331722105946312028966230808215977301267963011729099396766218489285699067939649932862366257162945036288.000000 1145177867552901844474508642923325412993838411047380174693051524500012573487808691110085815948266679082216946842359573789569712128.000000 0.000000
0.000000 0.000000 0.000000
-752311027209605162347414180434079759683500774922599678716906172508817451556513032856738357060138753400083097600354677258452992.000000 1129429934643082310739852812122435746301578729948121437476512846875373781403811000414399908867096757023608841868974228177420288.000000 0.000000
1129429934643082310739852812122435746301578729948121437476512846875373781403811000414399908867096757023608841868974228177420288.000000 555609260340123232477348950043821408371818998237297130681801469806762672504062340064409592678618345087651483634429810712772608.000000 0.000000
0.000000 0.000000 0.000000
5237528962738452274459198447612162286761960749545004661426042891008624297635232058869024307074891253545206231682538563367337984.000000 53948030891285673730193332431209677062397544375462493440509588752580914159305594268022019368160582911264087063941914717847552.000000 0.000000
53948030891285673730193332431209677062397544375462493440509588752580914159305594268022019368160582911264087063941914717847552.000000 423452585209644040837822471455846238072156371496399381188967577745980092334098594367431209306732122826515234083986913361920.000000 0.000000
0.000000 0.000000 0.000000
2658866628302243378592908361263235866321130436196267764039631315629196096714112269936939788648253304297763769543855751103315443712.000000 2610976802502536224022055170040712812966581914579544734376670174434114221489715511945745019331390317903701183176582135354662846464.000000 0.000000
2610976802502536224022055170040712812966581914579544734376670174434114221489715511945745019331390317903701183176582135354662846464.000000 1093335007225778974211331715988189489524826036500187498511681370499008515273007893035060208581051507492639388542394324798702354432.000000 0.000000
0.000000 0.000000 0.000000
-1695698180738254714519997643344816701928490704269712879248289702705722784992422217357420028294246604407892988812210199157071151104.000000 559529071631245633630870819635038187998432526121732985688481427553294240970465845687612573243580107801575336707144701868760891392.000000 0.000000
559529071631245633630870819635038187998432526121732985688481427553294240970465845687612573243580107801575336707144701868760891392.000000 248278349804732366529556391191013812704320183695289682783538506963061484539618622845395444425442206254316585859829228507645345792.000000 0.000000
0.000000 0.000000 0.000000
22377394811312066213047304367957651958037866464388387238489708227284457901849389709707118629955968810718718431524047046628605952.000000 -15316706574572668410786650325909146288021685046740132913123935880331374592258300298028362405630566500131116778088519449490489344.000000 0.000000
-15316706574572668410786650325909146288021685046740132913123935880331374592258300298028362405630566500131116778088519449490489344.000000 5389793675795095150868218454917001115368546674577820514818877940695488779427395996057586003502795203491634496922513971758497792.000000 0.000000
0.000000 0.000000 0.000000
6503079630633210987057579462813075946645579083880766018477454225365845097785259574585997732392764777928993316645575372517960318976.000000 2014314506332883064469702125584760096652047926933766763278961448924849202699255724035132476676278689985572035590481148522295984128.000000 0.000000
2014314506332883064469702125584760096652047926933766763278961448924849202699255724035132476676278689985572035590481148522295984128.000000 391591121010856428907365307224986196619467002669072871083982504576626545038097023101491000558346967292839819573329712046810333184.000000 0.000000
0.000000 0.000000 0.000000
-2916114239271513479002183009898281703267539897932455366051077857926228340718172127382972740075889121064304541910858001356423168.000000 -2413836932587410343272269285761538954109621737457492415614464585876936956673140896184971290928016093971654684124410325084667904.000000 0.000000
-2413836932587410343272269285761538954109621737457492415614464585876936956673140896184971290928016093971654684124410325084667904.000000 2023809361998135787194040018426345458612895697234584645424689883424818559932639212036771646217585375173826963628646104389648384.000000 0.000000
0.000000 0.000000 0.000000
-59414654669461568418934795212400116561641291833308841720516586348264683337238110950113935859137322492981143038205770265941508096.000000 320198080484757197843893216995850959639680913357148259966589695518003453446535784863774033731085597391209251123447981569887698944.000000 0.000000
320198080484757197843893216995850959639680913357148259966589695518003453446535784863774033731085597391209251123447981569887698944.000000 181844093634526977794484644250743576884834082702666791594634118384074106600226129867542504972418679183637741140871162629940314112.000000 0.000000
0.000000 0.000000 0.000000
-1743410357869801664584210059840014412935716465848891221665892032067713763666838042387344381291868973694084389999721239218548113408.000000 -2222670122899174371765752529743793802156390041411375050841088451211400999580266716085223082119669499790167417863118382124998066176.000000 0.000000
-2222670122899174371765752529743793802156390041411375050841088451211400999580266716085223082119669499790167417863118382124998066176.000000 1278147760462196682644336590406929863485502231919769195280789412477318578305389284478404854509515433175649036499811017134364950528.000000 0.000000
0.000000 0.000000 0.000000
-4494475762485388481756431147233667167574202928935181169528209425855791610850949380103012336685264114922540509624009847916220907520.000000 -752362115324490035605186578952502196061022892985500386823107484443980200048189775670088011248743992825108388817542612818535120896.000000 0.000000
-752362115324490035605186578952502196061022892985500386823107484443980200048189775670088011248743992825108388817542612818535120896.000000 218644676443840501079616085918619978395666326115815638468299898874279043416610024429173795845095571631002824155302883392485326848.000000 0.000000
0.000000 0.000000 0.000000
3407067108906198916343125747120884496787049000800187042870085813423908812656331977542822030835954282975355297126553872419684089856.000000 1329693044573159141328899336968557432219569819931969334278999319331589375875416130876797500793165535084749045206252175041576828928.000000 0.000000
1329693044573159141328899336968557432219569819931969334278999319331589375875416130876797500793165535084749045206252175041576828928.000000 314660383036442062260286546773212436029344655885899337222109884839965206991460591184454033296863437728735256654192527928432001024.000000 0.000000
0.000000 0.000000 0.000000
-22249502347228801138300462532654145750383084040699703562588838053798051308482366205140413267040158688378191540105106195218432.000000 27937165771780245815261958777559335771647089537226717540386057366005005542598000903420227486344479953393566160931688871362560.000000 0.000000
27937165771780245815261958777559335771647089537226717540386057366005005542598000903420227486344479953393566160931688871362560.000000 15783765801191737155000644994710896035632642180044935508972982345241213743668396163823321674147800348974159583932841799450624.000000 0.000000
0.000000 0.000000 0.000000
-2800460923092480649239008019612846862793739940723346691074365129033417544069539630312536569172508452028940136925394572771489480704.000000 -5392521991432731288954342679195520470809355472853334251148984003049442990604188624258564241085490729120682502887139215646365057024.000000 0.000000
-5392521991432731288954342679195520470809355472853334251148984003049442990604188624258564241085490729120682502887139215646365057024.000000 3111722867231936994706714569312209761908859207770015492577707421913975705283528021954355239403136058581277352693417106528576471040.000000 0.000000
0.000000 0.000000 0.000000
2647829584353917843877169415922584475042033895486313488173396963411859494161574081165432500688316007578978503019736167897964216320.000000 -1200723859332394380265752557083069690467446064827175376030793909340646404223383406617617684594492329383676145250624340613721489408.000000 0.000000
-1200723859332394380265752557083069690467446064827175376030793909340646404223383406617617684594492329383676145250624340613721489408.000000 323918468665301298268753896442922132010859405806938762410136799913435416017260073919967778972140932503434422883209306988529844224.000000 0.000000
0.000000 0.000000 0.000000
279394574330196964328401434772709238939895796573543487918406753938733642047283891592945412487524022324678080304211236370599903232.000000 363153426279683919625230179674157448498794759362213598623894176328867236112632114884651387014879492010903789836265243974305841152.000000 0.000000
363153426279683919625230179674157448498794759362213598623894176328867236112632114884651387014879492010903789836265243974305841152.000000 164513607853145662205446399006263718793960510672939201127856724704250963234613914837186817906134315496866647240600574178485075968.000000 0.000000
0.000000 0.000000 0.000000
4218294836729569183679240974287862649348697951147256074263500857822883621350951291674631351885885543209241377719409337571718725632.000000 -4771733883373434000230333364039403523131088543581002262965341449914207971392036802297099691475880020794641053501767768824688410624.000000 0.000000
-4771733883373434000230333364039403523131088543581002262965341449914207971392036802297099691475880020794641053501767768824688410624.000000 2099148387823926827680273837354300864607194796080663142166026243130196956584226715758442591202976914137730310545198861105959534592.000000 0.000000
0.000000 0.000000 0.000000
90840630241074094739806716838000827633106265168319487204426328414960398769677350042346125520611146468441307912295990216926167040.000000 -9792052913835782809862034579040379309778467423023395146754979328862238076084812014742054649481993526656296796006017131540905984.000000 0.000000
-9792052913835782809862034579040379309778467423023395146754979328862238076084812014742054649481993526656296796006017131540905984.000000 5060693927177243762179088215092732523615092961560999851345278225359161597573809007396259950434101210995150091296812497035591680.000000 0.000000
0.000000 0.000000 0.000000
170901761729826201556660395683025948389132163187779785357913326686582783260242871184478278450989855415150109175840369770632314880.000000 -403047182137913924474181385991608882555434330866655563618925770830773002079120797608495194366842782706200589175672873620967784448.000000 0.000000
-403047182137913924474181385991608882555434330866655563618925770830773002079120797608495194366842782706200589175672873620967784448.000000 206459619397023581666650610650709025635980206324300336767568020726330245788877419578678850897229577599260144718939937291978670080.000000 0.000000
0.000000 0.000000 0.000000
173611632153047926927651161296401081753195176344658516577535352317931674005742539445310013728362467227043872080049868877567361024.000000 1878404220138601086337110070145802394101355180048805615141974017505043146407141774937037034521582076772408936561064052724133265408.000000 0.000000
1878404220138601086337110070145802394101355180048805615141974017505043146407141774937037034521582076772408936561064052724133265408.000000 1029989282054480621708169190231943039096211762113383515200902048262729707789785917156844961066450472290593467032536942153505439744.000000 0.000000
0.000000 0.000000 0.000000
1157379388623544127962855629306259520522049183237189112103509715642217655667482597897606110268669957552584295456548306638293958656.000000 -666128509862663893225448545356894198657034154976207094760233885642399663113990148621286983917733497164340041308867707446407200768.000000 0.000000
-666128509862663893225448545356894198657034154976207094760233885642399663113990148621286983917733497164340041308867707446407200768.000000 208871935513970252043653569726241506409096043771753756278069711134144537326898460770373013074637038663263174432148692126274682880.000000 0.000000
0.000000 0.000000 0.000000
2600870494453308416614231891280739149713932015228653452459561271384811450861739488120842552046340928396324486538366777867370496000.000000 2602074943135579062247222356189907325992090472538305841208356244726868448684040662569937767435903667172913476529750903938585985024.000000 0.000000
2602074943135579062247222356189907325992090472538305841208356244726868448684040662569937767435903667172913476529750903938585985024.000000 1112208333623000008292941379113751505585308311059607890310760351054926165063958472955121806274573031530142396360488443200954957824.000000 0.000000
0.000000 0.000000 0.000000
284872723555119638249168657750520369284307030925198532635491177654301291562905052211678646940651698417105338891633454946958966784.000000 -369623313049845959031662591477610714626715977812636311798493880351487917652292295643516651360321287945896573002151722733675741184.000000 0.000000
-369623313049845959031662591477610714626715977812636311798493880351487917652292295643516651360321287945896573002151722733675741184.000000 169071113836387321169811408910119273422377085742867363748936483863297768024150517772969360140667170688578149021378642698412490752.000000 0.000000
0.000000 0.000000 0.000000
-119110039019059642514965588674496017118671965687940346720047216592741412473037890411717426064394357196674157060558399317366276096.000000 -492749780088967762964329475736438566208363607951197496721695485712351734482269065913770266654230429767318157093670799194948894720.000000 0.000000
-492749780088967762964329475736438566208363607951197496721695485712351734482269065913770266654230429767318157093670799194948894720.000000 280846967748004612685191066737595036280827070346288603407008145209656233733228638909538620197242679310550717542456736127272353792.000000 0.000000
0.000000 0.000000 0.000000
-22804858562191118642695133988072429220415630735870025568774760548701787930939451574573786401766643604563754091736675756707676160.000000 -224199986846934917691326301062989590104626942156893366116954123285504476466525259738898275557669133326502884634029487941056724992.000000 0.000000
-224199986846934917691326301062989590104626942156893366116954123285504476466525259738898275557669133326502884634029487941056724992.000000 128857135062398912015970170440530639719051082417926367905405520388059470744305606451699529519002861511747848068714487948597264384.000000 0.000000
0.000000 0.000000 0.000000
-33762785058156224234282026940190960930338985796117598738690667561145527819199080646839308900163992283638877052050089096693940224.000000 27228200874560210713733922882952747795273322698243600508433002871434265037764796081713409039211432016533040350793137581700677632.000000 0.000000
27228200874560210713733922882952747795273322698243600508433002871434265037764796081713409039211432016533040350793137581700677632.000000 15198561182283795214181115884222666845790796642268603039677343999500946777400535795480231621310119541241725262037111852941443072.000000 0.000000
0.000000 0.000000 0.000000
1015147806508368376269571599426662463048040218704147354296278326766762505845032971326964842524560574681763126769150797826859466752.000000 -605241550948454507292932251131529206447391292494533578031920345318341941189458077488543813310034584212443943673861877040779624448.000000 0.000000
-605241550948454507292932251131529206447391292494533578031920345318341941189458077488543813310034584212443943673861877040779624448.000000 210080110721897637554710412613337060137697129454994468127715277362966199219647498144994174929280751224387103126168699443026591744.000000 0.000000
0.000000 0.000000 0.000000
-16858927633590568898929478528609405765305659792099963115139234916205951386820594417807411860058688426204323389234585348603853668352.000000 5444611532713895966115500226915179603948435953069320087235914312728394940976472372434390050867951064328035735460756493312121110528.000000 0.000000
5444611532713895966115500226915179603948435953069320087235914312728394940976472372434390050867951064328035735460756493312121110528.000000 2381855145986101056565800579559928740601434297304159577411108509227275674036917333537067308098057037377714642546941313837820805120.000000 0.000000
0.000000 0.000000 0.000000
3955737020803890075089481624047308651636928318348148876434361795167145413198846534793217236498953663182407939389569109543878656.000000 -813084121411907722235130200427053984366549219732615508738037032437999940757263212032845778035930787870068795184685239437885440.000000 0.000000
-813084121411907722235130200427053984366549219732615508738037032437999940757263212032845778035930787870068795184685239437885440.000000 108716633744930793233780517496011071741879060629320631938056858897633838744743467360756073995513009498373328070272281607143424.000000 0.000000
0.000000 0.000000 0.000000
1446904115050549704513304858133115352184386576028107034916298123000052898904301258912686953101046865977348270468663367571595067392.000000 132394554946103219335440725005661795188678938046555311045681616292006240640690551978059776053570780003883705223920259273836199936.000000 0.000000
132394554946103219335440725005661795188678938046555311045681616292006240640690551978059776053570780003883705223920259273836199936.000000 9707509011730238661203780745203141142162207210380821894346085347429394487041898255752719342238656077177013802258305050614956032.000000 0.000000
0.000000 0.000000 0.000000
-2262207771688792103702560499153127926578583074851502008136658432563098892201071811291014645601747420473075370963338025607375093760.000000 -592525975532244241592942157890626547018219556367728523127601034766682351863850775742114017459036889858258327772124278683078754304.000000 0.000000
-592525975532244241592942157890626547018219556367728523127601034766682351863850775742114017459036889858258327772124278683078754304.000000 233560771533038769151298090607005656196277893598697563224326087953475314830150431741349790918962116194203136035542637173448638464.000000 0.000000
0.000000 0.000000 0.000000
-8792294425813783570050878001526986268585554522261843296554623733187021497444385813261462960874463165431904509306575767484021866496.000000 4062598161178613397415494144065940848988935770697734608639306336837929654323681350721394293412082451576634304234401036022086369280.000000 0.000000
4062598161178613397415494144065940848988935770697734608639306336837929654323681350721394293412082451576634304234401036022086369280.000000 2035029919206294028700836749482478206679378734029994253272588283088845640385955850437982747607669207562541472035243045668134060032.000000 0.000000
0.000000 0.000000 0.000000
724121728769326147192599481274799765360802148603889379889729450052185778691669202293472342955637262148937628102021463279874867200.000000 -263753502752733862260609504586957027679081742903414453415128651702786379743678035473380081154075455898652303325895645096851800064.000000 0.000000
-263753502752733862260609504586957027679081742903414453415128651702786379743678035473380081154075455898652303325895645096851800064.000000 58704304972967993397666936283141849819836081348716764337247528912738196659851239159824103114297942005351213654358945699970678784.000000 0.000000
0.000000 0.000000 0.000000
-61936988269592822988331018713294498800911037534655586122541478754556742067141333709729404471366166049532926078834959695109685248.000000 228381757272456799898776483353468096564161730681788049886056837148210401717238051448396802596504750163178329166667045105181917184.000000 0.000000
228381757272456799898776483353468096564161730681788049886056837148210401717238051448396802596504750163178329166667045105181917184.000000 128022326193101181893008765158566004536168906304544806895434672225318826394635413432281896994078078907509894799373312211673939968.000000 0.000000
0.000000 0.000000 0.000000
-4052378442154772704091181994862744321585670705863624769279446489115529755726340605409599574564751331526813595871354664626683904.000000 2627336566984102629660563096194478572967511994769666162479404541110027331339493595579185696650279358302678500778531066593935360.000000 0.000000
2627336566984102629660563096194478572967511994769666162479404541110027331339493595579185696650279358302678500778531066593935360.000000 1423201813552331156003165698612898261380693576320061697441256638468574098196612380739688193992652547462100050525744915485294592.000000 0.000000
0.000000 0.000000 0.000000
496928602528717494241442637193405912961550183522717965168177821126176000319817446269743502502673841207122549641004279431853768704.000000 639396272466696539456227366798186112116955017719385447904999089710925032090771853788736493878225548998922744043210509071406858240.000000 0.000000
639396272466696539456227366798186112116955017719385447904999089710925032090771853788736493878225548998922744043210509071406858240.000000 296228975785465842578057425586087905119880054165056153869814076750915480899604666498362213925043941961465979544241901604731617280.000000 0.000000
0.000000 0.000000 0.000000
-817111326884590577641340872100030546156145151844224240899086893032577043382279831711053895129032283005806295202480858337378304.000000 -4419023580822726485958775819662705030295379370156026076526812948087508368205851963256734154717284280361539542838396106389323776.000000 0.000000
-4419023580822726485958775819662705030295379370156026076526812948087508368205851963256734154717284280361539542838396106389323776.000000 2538244167159382311771676153126124223115160843972828801505723826137880675188441891656539214331482614629959675511816362632675328.000000 0.000000
0.000000 0.000000 0.000000
-1014790380362422389371978909994622647977342766238679586678101487585697965131819536862737432320390871813873129844939706006219519950848.000000 -31340273942213309820994616122135434152859120848280467203970732827136496137722493751323007251913980520851799312294087968333557137408.000000 0.000000
-31340273942213309820994616122135434152859120848280467203970732827136496137722493751323007251913980520851799312294087968333557137408.000000 1926505986801474486620930539357203695019012891012470523656776426028790095792513681602377464372266751435452579117873773617403133952.000000 0.000000
0.000000 0.000000 0.000000
514821298150858851415339345781147134558781070971232089796314100387587965205274869004885039197482070897497647261826864976603643904.000000 -54264571402951494938819204957156268640970568191610610717843006824234159843199921144601435544241296054184437950586868880296116224.000000 0.000000
-54264571402951494938819204957156268640970568191610610717843006824234159843199921144601435544241296054184437950586868880296116224.000000 5126473664903112517151197029058470238805552128421425043151017645027646999104657255682123617813034839877631721281860572129787904.000000 0.000000
0.000000 0.000000 0.000000
5839585431384437438648541890965661276035447935377194648198611898134876957364983240435482745958204143608800548148920101166383104.000000 2059209183222192598864752426561362731006986019249485802393852998607417669231568652200329632838989093446340160421590243204923392.000000 0.000000
2059209183222192598864752426561362731006986019249485802393852998607417669231568652200329632838989093446340160421590243204923392.000000 463204630297196807003564309604548072274858612387029304073985648860202263687304435421518028146851556989362249467614597713231872.000000 0.000000
0.000000 0.000000 0.000000
818153173662304562139307781369463162539642866006794380659171158571565575561809758065888845364378815090924293428685638184971796480.000000 -766259420802276137917402400659750744017285325790407077706268006522189726204336598910678803188927319533423542672689623225415499776.000000 0.000000
-766259420802276137917402400659750744017285325790407077706268006522189726204336598910678803188927319533423542672689623225415499776.000000 314932008640351946120483342651180789831559136945229520704877599000876582829915284489108454375399613844100015731637957365191409664.000000 0.000000
0.000000 0.000000 0.000000
-65337302056215081557495670067388728979618429851522359398466253744060208627852223563932806223774501235976910202814328315540131545088.000000 -5586326397470320716291227398427817292060170208271051912432943771429709420507494113682261248023305225808774244076656803324696199168.000000 0.000000
-5586326397470320716291227398427817292060170208271051912432943771429709420507494113682261248023305225808774244076656803324696199168.000000 916663688964384705361508224691873801028917977100360579120705187871972202359241090330929660133456834814590962790565934524553756672.000000 0.000000
0.000000 0.000000 0.000000
-19228274843949535507266183024201288256790947342116574578792759804211128320678168254934772899553425097623076104498645172469282897920.000000 -4232787869091040184794313563953953337917780695199584846755277776838689768825170177068988816075422235383229023352890523389530210304.000000 0.000000
-4232787869091040184794313563953953337917780695199584846755277776838689768825170177068988816075422235383229023352890523389530210304.000000 1500217584206333366438467101893404036927282472476559610883249036872886674842557984870045163518639066215797684986164937940615036928.000000 0.000000
0.000000 0.000000 0.000000
-131468629646784220196588438839654810003515002894297449556334268828094451466067095962034218776196565215563547663948854378283139072.000000 89014091652545885174645575790249177605943985921587640542210456674924675954591539380883397413128674442193756666456278554982219776.000000 0.000000
89014091652545885174645575790249177605943985921587640542210456674924675954591539380883397413128674442193756666456278554982219776.000000 16169793635125951451218177541926986596627646333496494741459584462744212842994760621887222138688896869523172750225962982134775808.000000 0.000000
0.000000 0.000000 0.000000
-316725961723356431327391412760028337530301757205545140626858136455565709640749385829173838131594972552612768252566353299290193920.000000 -174463857146710944959492510330066147818769830591714545652354433622561046826426774458468165079911744919818374782197189035872485376.000000 0.000000
-174463857146710944959492510330066147818769830591714545652354433622561046826426774458468165079911744919818374782197189035872485376.000000 106090668590186546699616372166302569102373027511064716748844951866561848448052662761980125570322950550366001554365696320867401728.000000 0.000000
0.000000 0.000000 0.000000
-17441017919117339976601340293851765206098061615537629575472503855688170822203838975138630209790486455440694154915425022558339072.000000 60313016139954381396540527890034906287139422145292717582276510870933687394287180586892990718203055260151043791349746411285512192.000000 0.000000
60313016139954381396540527890034906287139422145292717582276510870933687394287180586892990718203055260151043791349746411285512192.000000 36898782749949881734155397032421912769129160051725198107316721346432028641584090997962616729919032935010413307767195080807415808.000000 0.000000
0.000000 0.000000 0.000000
-274008001050941691575653768953508068789103179237269562608181447930640396154274429742269356280835475681346643647635092932075452366848.000000 -10556571283850365568411471796433606888569761950949513469725904608697745263202609564279448874268598812106839332860728920938314203136.000000 0.000000
-10556571283850365568411471796433606888569761950949513469725904608697745263202609564279448874268598812106839332860728920938314203136.000000 809012894188446857896115818172364188949078298159444522927267759770601524133414785391535840073436733602410759452908074587694039040.000000 0.000000
0.000000 0.000000 0.000000
2443212751555473446584080435781907263992135630300314040675974979037163950043656731061637041187358943703862134894066888342981574656.000000 -969216348944816985189673820418750744186684575349279824097145128011365740717069584943727928476944075397386735688525407209083895808.000000 0.000000
-969216348944816985189673820418750744186684575349279824097145128011365740717069584943727928476944075397386735688525407209083895808.000000 232159369377502379206495586938562740941681810638387220679044453689860399013047916050789229056446038788308810922347009526481289216.000000 0.000000
0.000000 0.000000 0.000000
1636548248632635455651950545096120331549743267559444394825631971331756986878496175859536407973463308826149515981311600987253768192.000000 -900018716292573218560392325460354756362792305397467749936862210960053209610246955974653709659204455930476511550793182143773147136.000000 0.000000
-900018716292573218560392325460354756362792305397467749936862210960053209610246955974653709659204455930476511550793182143773147136.000000 275919989155277845328576483567332929925540363138606617149187887323745722416407917068731040656311251200205495010832614732437913600.000000 0.000000
0.000000 0.000000 0.000000
53970974918149766696759081447322121254143284170493187028518058442100334086073755965234251238482866039886363433515195123210649600.000000 1381700059494846041924001085477969861303299786526145300374299702893834849132958426631330822283523078162935622218372740288157319168.000000 0.000000
1381700059494846041924001085477969861303299786526145300374299702893834849132958426631330822283523078162935622218372740288157319168.000000 764060412078820217371234133835068681078788538372001264166524477135041201441635838923089459392705110807304443163056188154347257856.000000 0.000000
0.000000 0.000000 0.000000
87394086070035933998533910544351690016113632043059797327526282422955186191962234805829867440736395789687003871545370776965218304.000000 -1462798591071305896882145460241283362839690201079733075460615141512361093258491864426811639179537955290184114898486667350259007488.000000 0.000000
-1462798591071305896882145460241283362839690201079733075460615141512361093258491864426811639179537955290184114898486667350259007488.000000 794490292625121721804110772726046806245656707561720433075668522874705144949914757768086640936558950029352306135822159293385277440.000000 0.000000
0.000000 0.000000 0.000000
-3101222599911222717330606633134725033452425855216264194700997469744781678699840106228558886322186474773046751692048904273472258048.000000 -54671509004865089756938939348417087811081976611523427134626231326922946397759381832216176940450726416596299527039069178870890496.000000 0.000000
-54671509004865089756938939348417087811081976611523427134626231326922946397759381832216176940450726416596299527039069178870890496.000000 11189492651409663304730172257843844700574325727084216394465906545045854559735183667576879739118492383074060654869526074324156416.000000 0.000000
0.000000 0.000000 0.000000
843947843001475939949917654034476240024827405109077891350627338034109121908470523989481351366756685140216795650128758148800970752.000000 -755569060817873984319347447696361424545347677450108931524040617241382880954862095974073279465689978111778139379961484027227013120.000000 0.000000
-755569060817873984319347447696361424545347677450108931524040617241382880954862095974073279465689978111778139379961484027227013120.000000 304393246172637681821802903591187518920067818854553815236800880359996021839951921845636475572076690670823272307512026490906607616.000000 0.000000
0.000000 0.000000 0.000000
20949291407665791839272495624691360838365692448664164540984498133124583540988665544634559044092242610134696856901652893044572160.000000 -264739046392631930643948708651397306949077672285321021950600768582210119735595221241909105938176414330758945084623934026562928640.000000 0.000000
-264739046392631930643948708651397306949077672285321021950600768582210119735595221241909105938176414330758945084623934026562928640.000000 159088503900886253150709469376390284935696266674210345563436149271715003627481620585997783156303421426218881959584782983224098816.000000 0.000000
0.000000 0.000000 0.000000
2282582347431600376929448001953611708157397190302858659929112026512486741065709583179072100588986096679998171657375772094840700928.000000 -413533630977910420498590597155715195770445885187948181771077441499062853773483297410707899300963464744728004912065072044902973440.000000 0.000000
-413533630977910420498590597155715195770445885187948181771077441499062853773483297410707899300963464744728004912065072044902973440.000000 51692627649158471130769756349002678317912813311538036665881822718809440632806391713755599028680461351717465322045787971203891200.000000 0.000000
0.000000 0.000000 0.000000
-4812094618565301195800709444042956477873274056805884394752704108303109431944868157790616880091954083081217289663990992851764772864.000000 2731449611991086402333056235235676698470222792252096684137238957853113846622734653770236757278505346657889066720144817766619152384.000000 0.000000
2731449611991086402333056235235676698470222792252096684137238957853113846622734653770236757278505346657889066720144817766619152384.000000 1440833910471881445560753875549902438669965222790531631158698567147512649668465199961070206908663238210464331548332951358939332608.000000 0.000000
0.000000 0.000000 0.000000
5273845704268571295387245102047583777271620668522360685563768740632078712152367376710451451935069294972425364868163198428865626112.000000 4616939235729467745024065712941795424557646369189633868636384216856252805163024823627278086595043452778901859744006579511093100544.000000 0.000000
4616939235729467745024065712941795424557646369189633868636384216856252805163024823627278086595043452778901859744006579511093100544.000000 1842744132582630267191393728706816959961079274550439690893408072712448727356066510624508918595910208353676771321626098499275718656.000000 0.000000
0.000000 0.000000 0.000000
-45015224761760272864931196130860362096488503724872090227977014744581034416038264276997908541389069028592661198831646541696051707904.000000 1276242375190186905497559389522492068937834266935366325115951144746547572756618575396672269355408350489924077167151460329805840384.000000 0.000000
1276242375190186905497559389522492068937834266935366325115951144746547572756618575396672269355408350489924077167151460329805840384.000000 74543724250933124278264297894068315377699462334992503031305886000093014678218473476557449398347563586153952966794642039108534272.000000 0.000000
0.000000 0.000000 0.000000
51453594197737958750998617415014093234207290262587841291648598178545173453149385659075398322664672343701925917330399117919125504.000000 -71564614509335403386910159505923119293555864377311672131039061790337473542259913454820273552077345625610470930529612163379625984.000000 0.000000
-71564614509335403386910159505923119293555864377311672131039061790337473542259913454820273552077345625610470930529612163379625984.000000 37136171323419876958964233853323028848895820605516472620944167119334619121667226574139194956433211183705965456092414427642462208.000000 0.000000
0.000000 0.000000 0.000000
2885147074802872641366662346764413340357301306485114883242800755034891213906826506514138784457843227435550525074980059641678921728.000000 -1914437949670423334421834017619019494627614205688944264190395889985913525025971327793720786256937393048758890406774989603028860928.000000 0.000000
-1914437949670423334421834017619019494627614205688944264190395889985913525025971327793720786256937393048758890406774989603028860928.000000 661894181470869932525417307102736917228406473250468516477108159105428704986101872495253994817016132853489572223285211191064920064.000000 0.000000
0.000000 0.000000 0.000000
164250077692816340198624628665867335193880600178145641694902118531458900985855787135584797131233414102515346577671932137223225344.000000 -4432876546651102370395395908335598709688871343697179661648237593657122728594849925665356570136568524191789305517151421938532352.000000 0.000000
-4432876546651102370395395908335598709688871343697179661648237593657122728594849925665356570136568524191789305517151421938532352.000000 2588125823616754664205504283277145004203991286518538896715630693996191995721090744448613516881518567401288854699620136124416000.000000 0.000000
0.000000 0.000000 0.000000
466118184792320204116996824088768031761573756669071439591341185283828320438486856716704766930915203812395126966453141988056236032.000000 3710287820250741514103019928250567382842888193215151667847387577867985881943218270945238084575727552961342438959691110046874206208.000000 0.000000
3710287820250741514103019928250567382842888193215151667847387577867985881943218270945238084575727552961342438959691110046874206208.000000 2022882542221997790516364072919472982554401292823058741553092369827917531695374434421284077962994148739728675148128463591372226560.000000 0.000000
0.000000 0.000000 0.000000
-2203282861836104774673157163823585451908826606475493256302623107262997681415862718100540880948747365264195016789763368602417758208.000000 -4947056950108901497337884183182628676247983181376755763507965828029478509622250099507172020497406231532350795057401753600446693376.000000 0.000000
-4947056950108901497337884183182628676247983181376755763507965828029478509622250099507172020497406231532350795057401753600446693376.000000 2850077544970386342293217320764872121056174175274356274360411130647376798726836284120957205862307738006382135317805046484441235456.000000 0.000000
0.000000 0.000000 0.000000
1274400550633846041642930406768082128732983295171937770653578682719534890354287435110184679953909266551095382378350214493975347200.000000 179668316960886326619684854054101819842014716224122273038358981461565606312549228268655872923293564767424413227884021872871866368.000000 0.000000
179668316960886326619684854054101819842014716224122273038358981461565606312549228268655872923293564767424413227884021872871866368.000000 17554540710328260967233659708882670794460394195473649568884630189160365854184966725181186476374717361386747859922611389025222656.000000 0.000000
0.000000 0.000000 0.000000
-8031266803685722870058879021204304882880073907427857713167874062622371511218285321268039309961280300854426573135502929540291756032.000000 3514672360568392711288089487382688753125988177720160135593337235069337566214073025803032125773726641765921666988807981896617164800.000000 0.000000
3514672360568392711288089487382688753125988177720160135593337235069337566214073025803032125773726641765921666988807981896617164800.000000 1728352505932998209193607771969893861551794289902107066419772492543652161289189355423620533313862655200282983295336606422083305472.000000 0.000000
0.000000 0.000000 0.000000
-3719785990889367209217952403970137843627910521873911872625986516017666215928574339796444002598929664667081783925237493995520655360.000000 3651633183788303684382491459079472130809629061282645090765217247510122385551031187412419903025022517838102979064747520945775706112.000000 0.000000
3651633183788303684382491459079472130809629061282645090765217247510122385551031187412419903025022517838102979064747520945775706112.000000 2082585964996505237679908355588456043330359279611772159303954918015569504229980903613576402026696523963247044145000521684408598528.000000 0.000000
0.000000 0.000000 0.000000
-10216739343854061069926441477053881782621241601014771025479495314546542927240676446876852973517982202796798459019678092755304710144.000000 -4155047367870366541487033545055537980628361622240123535239533847902299512611779585851301514792277614256203615358225585614937391104.000000 0.000000
-4155047367870366541487033545055537980628361622240123535239533847902299512611779585851301514792277614256203615358225585614937391104.000000 1991643882251764456227279462593209380617951608631644148236856394184776471170729260705183480354802522132323990794118095535886827520.000000 0.000000
0.000000 0.000000 0.000000
-29902832235850710408167742495889037553322549590552491015504476570107382785080765770938996774575610252744409222502550764182990487552.000000 4004584237253962518990298145398387452742401078274691388945550879849402931574179145970586882682917183014400146808569965493480325120.000000 0.000000
4004584237253962518990298145398387452742401078274691388945550879849402931574179145970586882682917183014400146808569965493480325120.000000 974306158580204492758854290612198476564811561853020412383125115468724855006229527510801601185114829821829713487185615394938290176.000000 0.000000
0.000000 0.000000 0.000000
-6172418060522156051472041812057134675656176628958714472395984813913710474722945619811226985484730322216397735447541700128634044416.000000 -1566080567640958428902556444597886256853349844301235123372549358811260575912216833688925879496531940274235938414586876157434527744.000000 0.000000
-1566080567640958428902556444597886256853349844301235123372549358811260575912216833688925879496531940274235938414586876157434527744.000000 601518412409979727807791178189707589056902519533937876041253403180323898810722606230785156336917404989162127560789282966976069632.000000 0.000000
0.000000 0.000000 0.000000
2858560053781579821658336320860545979937174202410084665395137391036733868393447891410217695373983364939930877794529517087513116672.000000 -2436849228517342494276631002314901351680445706578428223151196897983442068307382854916306177623805138697263596337307310999384096768.000000 0.000000
-2436849228517342494276631002314901351680445706578428223151196897983442068307382854916306177623805138697263596337307310999384096768.000000 961728551295269543309945950499106083441771842992203250552363412212326118319435567937785119568875570191685351490685735491961094144.000000 0.000000
0.000000 0.000000 0.000000
-6238956996824804232072797362975316667062619161255134307937966883640215429725269235538968888743940082877357534052735423242100015104.000000 -1810686045187795171483024465291196701443460237950712589076455367713965209267197350166610921203074545537079743314482206758521536512.000000 0.000000
-1810686045187795171483024465291196701443460237950712589076455367713965209267197350166610921203074545537079743314482206758521536512.000000 748919131814292443829461083651323914424041728151788128965765001912958153362368421699118975013961584768192050357532235806216814592.000000 0.000000
0.000000 0.000000 0.000000
-1562164045195301719598665026592975386574257459147583339357506298076126932718451742198509246845988039857010272077677308463108063232.000000 942765981600496587563692826409380960515652090765208379483366283219866986150660264749404324569144300143795892867332069488785883136.000000 0.000000
942765981600496587563692826409380960515652090765208379483366283219866986150660264749404324569144300143795892867332069488785883136.000000 502411998041754970212333237756843459345662304557543902175201080030645141973698346332590091139571134188195060652898750949203378176.000000 0.000000
0.000000 0.000000 0.000000
782314192046518965566140438571763105706213319978807919756399022438791884844349404728838865945682887596328534604169922136982421504.000000 -900552809702181912670154636873352203524341681945985234772714340475748749919484500616762962847918080777115722521578152587086004224.000000 0.000000
-900552809702181912670154636873352203524341681945985234772714340475748749919484500616762962847918080777115722521578152587086004224.000000 398863096680099430467268999240389061230679022662703909618159349413554135517787664779297969172980236537679982535310057904696983552.000000 0.000000
0.000000 0.000000 0.000000
1390710257230381066773348526426226483526094501031038662029790634862185425905207489431689162951403738456920975363462574112768.000000 -784677573067670405243236091469593000523142519947166377239441032208537482542173979830707152906352503155024824115359832342528.000000 0.000000
-784677573067670405243236091469593000523142519947166377239441032208537482542173979830707152906352503155024824115359832342528.000000 244661124855980482767639307213156985893163669369433811683743123528038609049008002436433719460491340088252765317984369508352.000000 0.000000
0.000000 0.000000 0.000000
3360710346934953104617190035664392502376486770532267756866814986101359975978204279145487182548453482321822726985461903989667790848.000000 -1794335224966745408100550059241421703920773448053964288853602826775023144897624391344376040139668318689788670576402324254940463104.000000 0.000000
-1794335224966745408100550059241421703920773448053964288853602826775023144897624391344376040139668318689788670576402324254940463104.000000 539175543667599803675277138680440277697116220911480334159100813662856515034876392075975417981854388250470883938267334469650219008.000000 0.000000
0.000000 0.000000 0.000000
-7563504148468991850779715176704170457007558085658256825134159332112574386199449538458719002446974070103213254955094881573667864576.000000 4659535673247394561517625049751818236014659730881943242341549333314232083657472816272276959152767517098772033250017330610753765376.000000 0.000000
4659535673247394561517625049751818236014659730881943242341549333314232083657472816272276959152767517098772033250017330610753765376.000000 2499486354285417011976143550172770406254926511690777401863308441199165111583264585625145616447506419657500552850581900369470685184.000000 0.000000
0.000000 0.000000 0.000000
23142320561098736597533951151010403551386843544420817898979434062369491645160009044240207882235248830682479345782967060951728128.000000 -340288509173525763980225057004979477306764486337217557446122738588525102149258128390986934166731464077266652586650455766420422656.000000 0.000000
-340288509173525763980225057004979477306764486337217557446122738588525102149258128390986934166731464077266652586650455766420422656.000000 188437673991037321201882693374540691515749690234059570851478766426495470260050726935863973720321257053941056879263947191413112832.000000 0.000000
0.000000 0.000000 0.000000
155198768637220067812206699941724521073835692917939306444765543528405880406249311275199550184013379967721221879908876315439136768.000000 1138780440672087252130831340494986543142448774797454098171861886275364033598795587417202447611162800824617628357347045734136938496.000000 0.000000
1138780440672087252130831340494986543142448774797454098171861886275364033598795587417202447611162800824617628357347045734136938496.000000 619721833029614554513231514156239085618969425724616022336742314190410705748332600067809313317813502450351790734111672989372121088.000000 0.000000
0.000000 0.000000 0.000000
2675523785994884137330818319697055977328795764392811411069170166686190565222384329960720089162817004771200148331984530243814686720.000000 1071229795611813628391728564913668257041518948119570133534643532430534031652026020602306278443678277708720585082278336837218992128.000000 0.000000
1071229795611813628391728564913668257041518948119570133534643532430534031652026020602306278443678277708720585082278336837218992128.000000 258539376120371812816234269401566072295821438886113010924950438081058734834248329337937431894364780505578880406818431277348159488.000000 0.000000
0.000000 0.000000 0.000000
2031557901691115597577420850865057638337298871953120193229828915239279741377370641464222884916416511216475550500002246978879619072.000000 -1109508775685654124631584034944116724821029164390476222921283177916616004799117695062055898982240106063715570183773321254307627008.000000 0.000000
-1109508775685654124631584034944116724821029164390476222921283177916616004799117695062055898982240106063715570183773321254307627008.000000 338743838701080847979414262335090621484871051837607399697902515530718878946749769391717550014915579630516387793144039419406188544.000000 0.000000
0.000000 0.000000 0.000000
1134055772405952822832809868517708548636869274129070957289892423231690759449519075623022958711662420205777250062307703421195517952.000000 497572960239131967183202587688515165310442450592311541441893876201203388382491968755239645950691963278559394727285506008632262656.000000 0.000000
497572960239131967183202587688515165310442450592311541441893876201203388382491968755239645950691963278559394727285506008632262656.000000 129180495693115277527315409570908213107130702154547966922535307486254950747745381255297987923407872759743636365447486952307687424.000000 0.000000
0.000000 0.000000 0.000000
-21690124714810573387877572202631570520707541409750523239846574351020139542667795285529475449420960155627678944894439542276470341632.000000 1092443798607505324056808176494807464708508552837091219760366821630429373953865584504815884198092013354130549839833669636911529984.000000 0.000000
1092443798607505324056808176494807464708508552837091219760366821630429373953865584504815884198092013354130549839833669636911529984.000000 108393422376189532208955622743028940189141729698484072233613755078464981798214860691269149168723992408771361289777973150854676480.000000 0.000000
0.000000 0.000000 0.000000
-118826274174386720641604107858963866850174018828264374586582424791940342498390348237184622391354842120020425197844783825189601280.000000 22360520311370858975010658864532545311387947519341530452490499629633721952574252014035066046555364180464664570800633151194398720.000000 0.000000
22360520311370858975010658864532545311387947519341530452490499629633721952574252014035066046555364180464664570800633151194398720.000000 7966224102096391801244206462722873442194419682253645302541595719558505617776214425993305784206813216341876557490795200963936256.000000 0.000000
0.000000 0.000000 0.000000
289747176343956603273386314459589197665232982901315122459014318555118029976224579414315687350688937358204193679107354276084580352.000000 221845059578577246631792055028475962100465452125581180738982678822466343401613289693841827948782362570688541474837411612950790144.000000 0.000000
221845059578577246631792055028475962100465452125581180738982678822466343401613289693841827948782362570688541474837411612950790144.000000 84190399351584759511440029133361892736350552163378180571916306972546705827258555538579285826853710022242561342431990850961539072.000000 0.000000
0.000000 0.000000 0.000000
5109158520539535957653141654690939079055203146164996716706362209840434420325782033898222107710397241148649657736346120912633856.000000 -127496853860132292589864588933046581829981918335206422195213634985609705747517324589842972522909398780587910946364676110504951808.000000 0.000000
-127496853860132292589864588933046581829981918335206422195213634985609705747517324589842972522909398780587910946364676110504951808.000000 73983187983142307607273382632420425293970614402528444452746091212666182877090275243981718245270228659596387953451946099609698304.000000 0.000000
0.000000 0.000000 0.000000
737801017508788033847903373102416324840632194125754771105788239385898486918165342787085920846419307454941265251688173755500068864.000000 613362464992160107086521693236872490534121718140736989400477584148612332659043009658595662688510758666006286515808323551203688448.000000 0.000000
613362464992160107086521693236872490534121718140736989400477584148612332659043009658595662688510758666006286515808323551203688448.000000 239083996148800481432538538432599567713287982525707239614912686693212389842305795440676211917448094841592839184935394627110830080.000000 0.000000
0.000000 0.000000 0.000000
-93327421095364535740178339744745541375742566900446443701436003619816030495596841878289756277369097459710426530393713316797213573120.000000 -8691860708248979680472951911622962913987474842643932886862866980598556938248078111588114951815867227948123194004218444933398265856.000000 0.000000
-8691860708248979680472951911622962913987474842643932886862866980598556938248078111588114951815867227948123194004218444933398265856.000000 1540662021636849662580561332885505618493648405701788522099850454723799325988759895857610626883236600924399827858744340825453363200.000000 0.000000
0.000000 0.000000 0.000000
-88460905916221228524524380449018311716272815128869302981823704929006848390568583283842172318373370881978808668472199848151482368.000000 2091142958161164995735644882721149308096101075383385793381323731797131759470688439890195488930590237728327341607423663472115712.000000 0.000000
2091142958161164995735644882721149308096101075383385793381323731797131759470688439890195488930590237728327341607423663472115712.000000 614648320779225783795589692806596547547482990414616728168261390646779771028934460205173853517536758915266638012222747308982272.000000 0.000000
0.000000 0.000000 0.000000
67446082621688406030508797931898025662668864885450334594201657253887615407550925626620852841378715000677719076631625374629888.000000 -1551431855683635854462353925226923019069721358090887476014754164212133186315140192573378905272072872872154316230553572999168.000000 0.000000
-1551431855683635854462353925226923019069721358090887476014754164212133186315140192573378905272072872872154316230553572999168.000000 2099213991779598934573732072760512101768677641016619247998301511270565714960721092120166833703377743267994230223996025044992.000000 0.000000
0.000000 0.000000 0.000000
857977905690917756631941095757605802630866983562996064472305276239009315006435318671940790119568279144971494954154440902320324608.000000 1233915354251058149828577273734290861041752712487561750970953826574188874535393004702601040183446516898050599503573693221140692992.000000 0.000000
1233915354251058149828577273734290861041752712487561750970953826574188874535393004702601040183446516898050599503573693221140692992.000000 593945870821032168524446397905427926165064204849786307400285931589319456122777982431339939962273280380494715043117814565186830336.000000 0.000000
0.000000 0.000000 0.000000
681732588698760773313437486403416647643175196576770159281830231894988024576896540625645752059412923856701270423650980974288699392.000000 1764083460088130922770484190614083480736001295405739153667388319292031858635773570088186592007547989845359936475499417030361088000.000000 0.000000
1764083460088130922770484190614083480736001295405739153667388319292031858635773570088186592007547989845359936475499417030361088000.000000 909309057831492311472327242410449772747913544742030289220024873693114964656884811100343228287303815647238987603235180665053904896.000000 0.000000
0.000000 0.000000 0.000000
-966425207516694089538316520874365092437856784821378923252421406123254444554500935436249151764661358196902716049611085077440102400.000000 -863069266570852496303771031877683436736460474390869159997485348449155434324883018145515417375237008090912525378023869805408288768.000000 0.000000
-863069266570852496303771031877683436736460474390869159997485348449155434324883018145515417375237008090912525378023869805408288768.000000 486772019475857756631448424100804794374726628626672901069673810085334584895869031947835307678379698108518546577731498663915552768.000000 0.000000
0.000000 0.000000 0.000000
2303392880013632390152415555846241040662637646283506571803592010407113100245880184523739244571661441914806662296504443777056768.000000 -864697288157027186662532980350956168881478481506807861681479150468436244976201478260576884712436577058689217676488859375894528.000000 0.000000
-864697288157027186662532980350956168881478481506807861681479150468436244976201478260576884712436577058689217676488859375894528.000000 271773358778698084544071297204502441224395726640060334520145266508215240015062991408396167168896846663150896565888617445064704.000000 0.000000
0.000000 0.000000 0.000000
689684973586044561226798079713230733154573757789146046604238626597419032148749455107150183805801297445714000016750062939427307520.000000 410557926968191803042094915461463433379055163304743298129731756881774872593407842726828397925614783836479456686948728817680646144.000000 0.000000
410557926968191803042094915461463433379055163304743298129731756881774872593407842726828397925614783836479456686948728817680646144.000000 146429864311317053208639770541679195978433814552389239117515906437108635558415783509197887756722315084634742525250661579319410688.000000 0.000000
0.000000 0.000000 0.000000
158917029771819902059337466259634308207766168746575720315757792362588373426088446422667621034861780027278633179569892992156172288.000000 -259671427308804050732277941008198755293542490968546728192297996746931247045098918364595022694950817552900896682334368118972874752.000000 0.000000
-259671427308804050732277941008198755293542490968546728192297996746931247045098918364595022694950817552900896682334368118972874752.000000 129937977903393623425163796226980291270296633292942006437718006002828838276265449089012216552805072636026611023979243003898232832.000000 0.000000
0.000000 0.000000 0.000000
117007948461196619840557910386572415630636179573117416704643481058066156803644154579260362037105289369239022557325586952422948864.000000 -60509934355315833057104193791213576209432409338451258965542997213950842265723474982967765452571026327534255038999510949528862720.000000 0.000000
-60509934355315833057104193791213576209432409338451258965542997213950842265723474982967765452571026327534255038999510949528862720.000000 16330587359894960520919998294747690840014225829207391774488202128595593288974725428595630095212117862014298644394248991781421056.000000 0.000000
0.000000 0.000000 0.000000
5320943814774063010878149539177375151096246845057181950904780419933642518853892276480633552725496864422434203596165208551471448064.000000 -561834307926190179755249817307058313531840614137566499556503503732447798546202290591874061724205962175301021010196416417044103168.000000 0.000000
-561834307926190179755249817307058313531840614137566499556503503732447798546202290591874061724205962175301021010196416417044103168.000000 39281686182468615875515648615150772880510538293406696601924233195553786044402583796877731584409898363254223482503283377384194048.000000 0.000000
0.000000 0.000000 0.000000
525704053570667444168230016801162767245131939160214913025448415861008057951344309096406530036986524741252307870099958483885490176.000000 -753683157073171739563840404080614770497837837013751535432653743769427450132858014367286502526066619857579077413161542938924154880.000000 0.000000
-753683157073171739563840404080614770497837837013751535432653743769427450132858014367286502526066619857579077413161542938924154880.000000 362212338134866850647397611859038973750100924891527389633997380167630796748061667184839707141093909907164452293788935086472691712.000000 0.000000
0.000000 0.000000 0.000000
19513802654855106456433890042840570917279261330351772002283341441505874142140671313037441880100198701078823388895994940477799399424.000000 11719699698635798915324311432597897019117761773660895176577986673162154915138081683064290082893789964258063381516979003842724102144.000000 0.000000
11719699698635798915324311432597897019117761773660895176577986673162154915138081683064290082893789964258063381516979003842724102144.000000 3807640153000284913817933191069540447742708908572175508819476918729255169958865004375671308845537693858437027765323694675591168000.000000 0.000000
0.000000 0.000000 0.000000
2384233702074777842943271636831481408075397688916161492067800292612390397824864117219504382095049649772543224471696647173730992128.000000 2229278519427574293886869210096528817707312617974754887527549387869276923583524257215812634980057406323728228057299406015881543680.000000 0.000000
2229278519427574293886869210096528817707312617974754887527549387869276923583524257215812634980057406323728228057299406015881543680.000000 922200839652526674515365061823563446704635247465741220637020687536062742701501715987229832461371523500813266496953019115960795136.000000 0.000000
0.000000 0.000000 0.000000
1769288223169959650698064133699626958676522022825526603453289900349708923073361246503933599128581620060466342411183061953239056384.000000 1335825422637727299713411753515343513112116018654020868042616299917630193880893289958841576652430980191843716498158436182961160192.000000 0.000000
1335825422637727299713411753515343513112116018654020868042616299917630193880893289958841576652430980191843716498158436182961160192.000000 511667100107958302016261059024412279929095257255965607300365520838495236687450882887911294431612904462880957715618847733537832960.000000 0.000000
0.000000 0.000000 0.000000
4233805317172851921681353374811772592662127073162129343681910262010195819368859441448952846885423549805652379061840418669233963008.000000 -3269135594309311520435288512771864387636905242469983163972661793045142982185613464033320820270388760563694621194457873215299518464.000000 0.000000
-3269135594309311520435288512771864387636905242469983163972661793045142982185613464033320820270388760563694621194457873215299518464.000000 1220896683897969180500874396270424740138111211403105817754276655425501775995791823637678414638082300195680311986667925261101563904.000000 0.000000
0.000000 0.000000 0.000000
-1163150883470900495495442991619484696519524058565635685982138033782957537028397447785557516653800831013710955600601537520705994752.000000 567039274583269725966901493197210142586505602719229817596181593958627986937716251294689904696543523233517020981664359552003342336.000000 0.000000
567039274583269725966901493197210142586505602719229817596181593958627986937716251294689904696543523233517020981664359552003342336.000000 289011518880837796135442904939031791222945973915238884004404996350651572798146403444376700503650193581046039461883748941765279744.000000 0.000000
0.000000 0.000000 0.000000
-3212437023986284212015677744307837484551714510800078221843460096410729043148762301433495022669752291823434645811215957498003456.000000 -3100615367202591274931593371925731574843581715044588794030634046051892917981502693123677396780563459884895159215143635128418304.000000 0.000000
-3100615367202591274931593371925731574843581715044588794030634046051892917981502693123677396780563459884895159215143635128418304.000000 1763225000374624549508090728351108252073083749699950403565803569307386612576550350385743757849955359071720194784650192102621184.000000 0.000000
0.000000 0.000000 0.000000
185500175137458805311134325577730720285012401357503604284241366069641404630560275387424640536666545491544832589467902219768561664.000000 -126622788665352593009744964290681158887831835709622103525407851666186671688344508473038242430006179776191010355939376912018702336.000000 0.000000
-126622788665352593009744964290681158887831835709622103525407851666186671688344508473038242430006179776191010355939376912018702336.000000 44130366374196704040345263072384448320711397100993150947640809285653574250542376189567209327613674459644701414056565514732306432.000000 0.000000
0.000000 0.000000 0.000000
468832770576944247337563628688244028152206313509415157568452396802094911149148539161402814945905706631899646393750259290517536768.000000 126684059905621714447790754968424051156736482218889807151319363304668821548275919801209185378842016780259205092309816365562200064.000000 0.000000
126684059905621714447790754968424051156736482218889807151319363304668821548275919801209185378842016780259205092309816365562200064.000000 21750706627226987073329400796329673953330247961815381192452608303286251939042324607772279931637222109932514679731924496436690944.000000 0.000000
0.000000 0.000000 0.000000
7822328664821865668608244204752865554958002918712776564298470718827784601488519687245657274720251697696661438068953114948487086080.000000 3140848507419131452779534996261904261246729132658957538022577554976940188721650699502970205414745468703489994831915236402090999808.000000 0.000000
3140848507419131452779534996261904261246729132658957538022577554976940188721650699502970205414745468703489994831915236402090999808.000000 759803535861117995427718165788329641788846260074561012260817850328620156716454902008338118558058649322526689295798269154567389184.000000 0.000000
0.000000 0.000000 0.000000
3569027762396826310686269348113612204820634337357375870855299192909783117174628567322869492483724038475039884192883948568707072.000000 4601649341817138671061436189806918179630878102715903363178153638458278924445263019121193301226610174476679854934288361517481984.000000 0.000000
4601649341817138671061436189806918179630878102715903363178153638458278924445263019121193301226610174476679854934288361517481984.000000 2164780807813303179949403642639118488082559126160063749830779899729830978062373272105140374830342221498552816361239174151405568.000000 0.000000
0.000000 0.000000 0.000000
83948656198789483429345419150955683875495398961666832367349067672494344657102637883871756545861814103102894877002713401921634304.000000 -34666654736310262364293646786018264090203869659884891658407564601433418263104280627974922447570983905656965646884555845860851712.000000 0.000000
-34666654736310262364293646786018264090203869659884891658407564601433418263104280627974922447570983905656965646884555845860851712.000000 11723085941989896252756895923990240632360222314911190835875530080481697025068785269459289534485303386734659699060642312620081152.000000 0.000000
0.000000 0.000000 0.000000
-4342102414135501963673197410255453870955901637289685201147742550350553780522733784980774613799446645770790567133500357892024303616.000000 1705300857787662438475652325280678184464311803613289417073481539664955727064585895853405607243580511252618130294434010954639343616.000000 0.000000
1705300857787662438475652325280678184464311803613289417073481539664955727064585895853405607243580511252618130294434010954639343616.000000 821934655974353290216750068488857399729950645026193601099062093501899886891665798476327078564716488112657127562921266702805106688.000000 0.000000
0.000000 0.000000 0.000000
673551886754529499260419424352290631625312353415322581050184854231569482403013235668964749119074147990673880572716286558781571072.000000 386307288250018139779886161893063338601603689888056894804973735310011282576579085511565671922281961236318251274950562906894237696.000000 0.000000
386307288250018139779886161893063338601603689888056894804973735310011282576579085511565671922281961236318251274950562906894237696.000000 125731320701334024761737134605312955502450587090867470409490234628163039281315692918335993929200401971517240287510693319398129664.000000 0.000000
0.000000 0.000000 0.000000
-173472719402117534404015891096961669584337557859867696309749490515468288168310619906660023933275915248756795925526384392273920000.000000 966834890933960921586505604871828638010986690346630548459637568718229216388347120889228576692748807254108682439434256734501208064.000000 0.000000
966834890933960921586505604871828638010986690346630548459637568718229216388347120889228576692748807254108682439434256734501208064.000000 561507105527977588716603884162295802437445054222671667481545997803040048140165991157418263970992016417197173060497801237424504832.000000 0.000000
0.000000 0.000000 0.000000
712844131129468158766767067906161430365368093361743606560917189304180341472398800868565446453419442758255150479662548933089951744.000000 -1323759703114855367314055022166971157577776924895728419837674339878703318253854325555478661719009451253946665598899534173936025600.000000 0.000000
-1323759703114855367314055022166971157577776924895728419837674339878703318253854325555478661719009451253946665598899534173936025600.000000 655290995647288421150279971441683793990402923750737196297258591688419995138935822347512041398291389981693666788092986662429130752.000000 0.000000
0.000000 0.000000 0.000000
-1366682262104175830647465722109914758819989238779683184335533881165388963604773900629939808470457103490914212761599868944307453952.000000 -662738761220389419714150389032223388408360528401621893002202727774719289726246135750271636616662600449727404960250784307931512832.000000 0.000000
-662738761220389419714150389032223388408360528401621893002202727774719289726246135750271636616662600449727404960250784307931512832.000000 385551923643200058669318463826377939154294285362938383280105779348059555475318683919145620057883237908882370492224091566704164864.000000 0.000000
0.000000 0.000000 0.000000
-1755956350589802490746850828261947681431873513940141350984507056684279150366608607627322195686568246424233973328310222743721213952.000000 -5773578445301404063748432363086596396202117908472456080717536907616205752563905575726135316836794025236535071818827180382181392384.000000 0.000000
-5773578445301404063748432363086596396202117908472456080717536907616205752563905575726135316836794025236535071818827180382181392384.000000 3307070212582126781058217139815503236832529074928207258427402582296327217716966606006974094920570510179349833617135921824798867456.000000 0.000000
0.000000 0.000000 0.000000
1032089025693501692751834886786043528379098205295876704680969032360524795117946368094639609860291131504444454305657538207262179328.000000 -1312179330695205604053734247571497637452358240144409106968975054602283916409813708023001247596878402150714053325335941062988922880.000000 0.000000
-1312179330695205604053734247571497637452358240144409106968975054602283916409813708023001247596878402150714053325335941062988922880.000000 600618903529323467556389378945057769176837971932694704452299003717892803289307450424544791484429975986974202128727822472648327168.000000 0.000000
0.000000 0.000000 0.000000
-58890397728521471950454835171142060265886131933687870081995930434646051981705988736584012441477369045117266919873871299611721728.000000 -2419404125371520395303885311247249116190586456758840690963091336478441655678643283916870630263254203113156486048781304023620780032.000000 0.000000
-2419404125371520395303885311247249116190586456758840690963091336478441655678643283916870630263254203113156486048781304023620780032.000000 1342239620584354282796720825257315708565852327466844706234015590184817500772887472922232391638225814636483123912183939778706669568.000000 0.000000
0.000000 0.000000 0.000000
216165271187938745533181521676295462251135625793845865932221611385999147177408453818644204592373328708146718447897068090366623744.000000 59613305245511168749311478352435600096270649756150975693293334241798424826939644951219828035076191520166540195147334603207868416.000000 0.000000
59613305245511168749311478352435600096270649756150975693293334241798424826939644951219828035076191520166540195147334603207868416.000000 10412773528868570578035177205170239637548844085591876174300498035302743007262467787019409522753974807217256806876720103660978176.000000 0.000000
0.000000 0.000000 0.000000
31055675697013740243678808108602591871529939233238076009984411072077597480136806295234360094296329381038068979287675124056064.000000 -72282391330685948055779380932445745926617040459141211056040060593828391225642642456569600580137935166474243210698914642526208.000000 0.000000
-72282391330685948055779380932445745926617040459141211056040060593828391225642642456569600580137935166474243210698914642526208.000000 36752627914762939526434881948680249119185456556741344717810948289202443589264179253860871127192928961719365979738758247874560.000000 0.000000
0.000000 0.000000 0.000000
-11134405655344608081840989840455698662754860013427534765162025339184810365141453863280368912766180479028802617987782142142906892288.000000 5954721599485090417109300392671393476348205061401318770070629409204036825659171483098322755010038900276105847803790769347700457472.000000 0.000000
5954721599485090417109300392671393476348205061401318770070629409204036825659171483098322755010038900276105847803790769347700457472.000000 3097983182453047195164191208894872590055167993674718608219012845226398840959569076181420164276086539035853089908578321203130793984.000000 0.000000
0.000000 0.000000 0.000000
-127056415139707657033097037001275020063247931994078365153603026033839041310709202633290537687413403538846823562032066008736333824.000000 1320154280430034393763130532854193537394536476047601657718755647903699183310505128451563717522752957231802565481338827861890433024.000000 0.000000
1320154280430034393763130532854193537394536476047601657718755647903699183310505128451563717522752957231802565481338827861890433024.000000 743164259383742373322760274486830146059580807931982438006387054438591854297208615764106569601480419863718400064047584560728244224.000000 0.000000
0.000000 0.000000 0.000000
-3486155753680981182445563908297285328065747519232185245768237083245853116470381585935987585843592601616956499628185292330999218176.000000 -1087952413510074226374575774368178759675344442756553329703370420790910754108146047399163335589363863424402078550417850194431311872.000000 0.000000
-1087952413510074226374575774368178759675344442756553329703370420790910754108146047399163335589363863424402078550417850194431311872.000000 467991781622699282383975315767386398532164435333320570584936277805299832935923687298696091817997183696242193597593468750237007872.000000 0.000000
0.000000 0.000000 0.000000
-137689258306438823185547278447890111997343003478520578953493098787534348396324413510204610893670729570798949012834503681074266112.000000 -112988269384072110539945517829478897018735423583426397642289705117738269229705151033616333290959821292490068943285226541424836608.000000 0.000000
-112988269384072110539945517829478897018735423583426397642289705117738269229705151033616333290959821292490068943285226541424836608.000000 63351171271870087667851077117328766488055133603917820017175886157601469587155174873804717022937383791107453689136544933073649664.000000 0.000000
0.000000 0.000000 0.000000
748975958618103361468514897187808877281228946651199345419108183039489744152019196738802253084083942078901182129049508743202471936.000000 712269330830700281218217777728760040056866685398772801390250541191125022781637984726056569587707007444573884979768598178543173632.000000 0.000000
712269330830700281218217777728760040056866685398772801390250541191125022781637984726056569587707007444573884979768598178543173632.000000 294290592928227743276432212837778201088132357245927630750492548953634866906070918580297645911631379356056746270484178028927647744.000000 0.000000
0.000000 0.000000 0.000000
168562801791557793474948113099549563774565506180983468905192541910317010878898713579242539774366051054208032778756459082006134784.000000 364934856845571993285036759207191425437432425972413104664335695334808489027988736040980590023970331974004218644631144865940373504.000000 0.000000
364934856845571993285036759207191425437432425972413104664335695334808489027988736040980590023970331974004218644631144865940373504.000000 190512329571716459176902216925536212141423930693720270386181551153979747998666287272899681658981173754971871783160077169215930368.000000 0.000000
0.000000 0.000000 0.000000
-1448469641715497980660184225152291359560928531641356726345335029492900266260820654367559329826945311241317976187356863195261173760.000000 1458779329042593902087718546564074957125601336998004039365468600838895119478963848331638263064281366069364042988984777050396033024.000000 0.000000
1458779329042593902087718546564074957125601336998004039365468600838895119478963848331638263064281366069364042988984777050396033024.000000 829893896245460072525399881543736296588506262719194227451622898279387836289621131997755039490263230626537125350145931039719030784.000000 0.000000
0.000000 0.000000 0.000000
-3269179485151750139287559478887579689137077063645139504106210609353326272747417080546043281457917423099973791605698099028491763712.000000 2526535591935345395321378425411108671638043997418587920514093063932389622776462602643252193853914604597010189199902895580670590976.000000 0.000000
2526535591935345395321378425411108671638043997418587920514093063932389622776462602643252193853914604597010189199902895580670590976.000000 1430974070616670293431385227180619315534339135553755958519635840438823907832505604370623799076685861017384409105495521129429729280.000000 0.000000
0.000000 0.000000 0.000000
52613632833533321454559201299150531946696709862723057539934899741899008123749428084200638729923360104257904302876244803116335104.000000 -628088196024155937946891530760600631865339471256304978533686407869044121774754920915299972955116376518584572319636251551532580864.000000 0.000000
-628088196024155937946891530760600631865339471256304978533686407869044121774754920915299972955116376518584572319636251551532580864.000000 335779896465055700204181938702626872783240601995178549352475891158277415555774163294488246222127244765743267856575196445091561472.000000 0.000000
0.000000 0.000000 0.000000
-2502906304202276213049801696548868383563691894027149473878381318404365349986916254866201229314155156275294853030802661503401984.000000 -386121060435834741706961376018738081026089875805557360288682163794037181777215980177229748248721574947703966791330834797683539968.000000 0.000000
-386121060435834741706961376018738081026089875805557360288682163794037181777215980177229748248721574947703966791330834797683539968.000000 215148027269809580742904137668825270727733811958615885345920850815163449377201904932910399135986646806214490509412190517676998656.000000 0.000000
0.000000 0.000000 0.000000
29804170837419924785235362642079485100134302991928522782604534404845793772136475789364553608913316508997019021695593878063677440.000000 6721598272502305398712481232521605283592089530797647631474077093109031301337358294031070427340068722717050202767254698072211456.000000 0.000000
6721598272502305398712481232521605283592089530797647631474077093109031301337358294031070427340068722717050202767254698072211456.000000 2106478520458044255199739536352303092853584247067669243400950185522423332069173672331055569729061132545836521641323755120623616.000000 0.000000
0.000000 0.000000 0.000000
3264795015560343661527918068521537197659072255224634266429309171187609492668768884246107888657213991706629064917620903001993510912.000000 1291821392783109612544774350518981250802336096405735613002920503988761863024071471531700236637273129650583256349242642301387276288.000000 0.000000
1291821392783109612544774350518981250802336096405735613002920503988761863024071471531700236637273129650583256349242642301387276288.000000 308993266783779242753109881586462350867001580915678740776679051267249042963549429164426459536264687065836548222284687998204248064.000000 0.000000
0.000000 0.000000 0.000000
-705212157733156989274270002393845159019032110082025574381939214564289707019235432848935935159993619302537603603082282838158999552.000000 -1311725853891765527907410271567113782417601708302813115512027598339418606294454336870691577606125224006338661186638863717478957056.000000 0.000000
-1311725853891765527907410271567113782417601708302813115512027598339418606294454336870691577606125224006338661186638863717478957056.000000 760446389397174543965029972715863163358237823263489712792263603224800443280588108266656754179473720544397002092851418332733112320.000000 0.000000
0.000000 0.000000 0.000000
-10115250993532620456451233940216582683504871792798039261346267415473987646700072918353521635801222684973387143392473004993801093120.000000 1810667415106460615694582566666801482977039094127932407101548194148468124708376473382700955796514241162161055067581976594310234112.000000 0.000000
1810667415106460615694582566666801482977039094127932407101548194148468124708376473382700955796514241162161055067581976594310234112.000000 552525557370814800183442822926140597658346522223417917554499231737487103595236504070062412851385374697238533850873550249532588032.000000 0.000000
0.000000 0.000000 0.000000
4012333050591767216517188926373673128506812841421139674185709174405092810760895751090432297279292121792140604026991535693385170944.000000 -1517477752541120862997453616161398341996197946789367973651226020522865966779633883309399030390896121797800968749970723493470273536.000000 0.000000
-1517477752541120862997453616161398341996197946789367973651226020522865966779633883309399030390896121797800968749970723493470273536.000000 355899603921530708756599392441268258628604106270069423701415494573764755685232912188997483509108204603444101280899936675398942720.000000 0.000000
0.000000 0.000000 0.000000
363017418862767989238803841667739065285646467842063085086045405604998567328234512564499467902741469907795623835796545347856105472.000000 1714819351159165772482335482125843825156357785355190419198675800322222810885679242885245235118204938695868453973154186523926593536.000000 0.000000
1714819351159165772482335482125843825156357785355190419198675800322222810885679242885245235118204938695868453973154186523926593536.000000 919863232694176276184594827668396902284545902722279207111314155892619908879140925636441330081980685564598957246376158602140319744.000000 0.000000
0.000000 0.000000 0.000000
15526419856414262662595819810996428392468740107967148951195650471944402604665227064201905671757280348917486775036723991289004032.000000 -13057233543805851148324658789239460129890950849598446263051707454146815188070534486986027290432926075150641306906751741806510080.000000 0.000000
-13057233543805851148324658789239460129890950849598446263051707454146815188070534486986027290432926075150641306906751741806510080.000000 5118947443221298529944805115139156426157652639822459871030394751684754720968295214496797064021483927480447554480670566198018048.000000 0.000000
0.000000 0.000000 0.000000
-9863062183410218500954104924972555967303593710630716531210617908297210103051657916566996816164328331614691756938099075860922368.000000 3968799443490602444798288900193774995828739154817626042309282189388833167209293833646508227920918292618127107331708909067960320.000000 0.000000
3968799443490602444798288900193774995828739154817626042309282189388833167209293833646508227920918292618127107331708909067960320.000000 1877505718007417866290396304232889356196083514456677136501551342479216632560503636451369854932225402911642448540947575851712512.000000 0.000000
0.000000 0.000000 0.000000
-410586144300368063346012864663112625012698227796793848058741112530372016720004343931625382681655562701902904834723274195590241583104.000000 17858955819931706227258759902048702693893560224016725982598174306430153878568385464114349066409610346450122384772063137394654707712.000000 0.000000
17858955819931706227258759902048702693893560224016725982598174306430153878568385464114349066409610346450122384772063137394654707712.000000 1535897234265473466295745045955391109724887488637844605215421900053766676665345327136413453157008083393572649420100356383413633024.000000 0.000000
0.000000 0.000000 0.000000
-134385775027374803662031809274470135611564015947332090082874614828747247727882114923343552597999018024974976574015688579625984720896.000000 425130156566645460584829750110060109117624839156414894079208061614092509049628818317697936076928879876345480830113304176180068352.000000 0.000000
425130156566645460584829750110060109117624839156414894079208061614092509049628818317697936076928879876345480830113304176180068352.000000 11298882279611628628052587827582460384731736287406381722740957317182133739314981112516518618561604587452295366300689706518577152.000000 0.000000
0.000000 0.000000 0.000000
1303621268344698527887696889908513223662804339712208604294422974105314980890382445773233150330501397177488927071423137278326734848.000000 -849492831920935474210910856340410500094794697671520457179079506254232365281445787219842406061489801637989786767664028913925881856.000000 0.000000
-849492831920935474210910856340410500094794697671520457179079506254232365281445787219842406061489801637989786767664028913925881856.000000 286601413886902280485008632665215325578105791239451111428946504182173616637124727733465020009041605713578055607159639847118831616.000000 0.000000
0.000000 0.000000 0.000000
30369292091068833135424567180553320754530863906233529824966751367996594106309939926381962427838053055553818395991890577038770176.000000 625660594842780858030046355392925369129939297586163157932161356304545399958486945837804135064736195789015130747176165923218259968.000000 0.000000
625660594842780858030046355392925369129939297586163157932161356304545399958486945837804135064736195789015130747176165923218259968.000000 345477332504008353368473135062157111360206340700051627781331776002725450672030265263165232041683797265717037541043431391115608064.000000 0.000000
0.000000 0.000000 0.000000
176531817363281433758534259845948101337510277059112298653191248738410269568249005570562790546561554033036534119703662710327607296.000000 -639343107566485516942734300597782755110152023473910421093641733080567451517616412310936774751656737371390478953407183818030317568.000000 0.000000
-639343107566485516942734300597782755110152023473910421093641733080567451517616412310936774751656737371390478953407183818030317568.000000 338326154959278426006169539279287145141028544886612488278853151440530982964887779339808654530757338523214721466238859710933499904.000000 0.000000
0.000000 0.000000 0.000000
1975303189808717243627744848198509382270854686183165663439068326707671607840864850260714801929832817867732993694021376770972844032.000000 606024584894734644333779448637022477764104899478714407827806288413671639388824062016023922289004144985382000821586601467621408768.000000 0.000000
606024584894734644333779448637022477764104899478714407827806288413671639388824062016023922289004144985382000821586601467621408768.000000 122692751483673038303635750949822641685786040512408169937361076700269051863878002916908021414722480165185391813263251084729647104.000000 0.000000
0.000000 0.000000 0.000000
567990203891036358909488883337293596696290593215887797601208091116191180880545703424230025665530736902192880693241949115989884928.000000 64560608799513706695846293956329935891310501834899022010620494355547215602850670079728402710234556383525039936924289356485623808.000000 0.000000
64560608799513706695846293956329935891310501834899022010620494355547215602850670079728402710234556383525039936924289356485623808.000000 5495401395608714365523718765959754777859873210550044736347033482802144584672251644996748886174800533694336555445888912153640960.000000 0.000000
0.000000 0.000000 0.000000
-161119337504040367912664754898587985137105260011542972686636744316196817425680186170440525765190886775300031036294214539527747272704.000000 6307086093395501462194189782149581916852931827635224251953969833294128730009444962961026305649119447926679099829586574493549068288.000000 0.000000
6307086093395501462194189782149581916852931827635224251953969833294128730009444962961026305649119447926679099829586574493549068288.000000 489987270655827465793428589039868427143880911043854694673008861051537581777147416137807888004323229651393828200267383162359775232.000000 0.000000
0.000000 0.000000 0.000000
1841206523430928030559102396486338291824123273323177548152492178279141527976340025324306861564428405298696575897451235244477775872.000000 -2620906444714181238623114872652309584831005593733712383930269099757808885003022586901832498055435804475541810208198228369618239488.000000 0.000000
-2620906444714181238623114872652309584831005593733712383930269099757808885003022586901832498055435804475541810208198228369618239488.000000 1230458527498642748998173133176661680149851296348548973044128451432055131580765570320432907532070935544286792490989843066289913856.000000 0.000000
0.000000 0.000000 0.000000
-7922120001357479976357668233520039947733846621300920817119944402942761522288264154157268991991647563722833535445462194357866070016.000000 -3509873133966786960875895502815727262778676412997513116406316858758937173974391370926829070284306629150704493315402868161572241408.000000 0.000000
-3509873133966786960875895502815727262778676412997513116406316858758937173974391370926829070284306629150704493315402868161572241408.000000 1732284848096777920056365119394559263705625406884384773073087171807336953659917337938692237142169710672372519834455783561033154560.000000 0.000000
0.000000 0.000000 0.000000
-11405714076900366909685326725905623817185452896874971125819711360757433855800916183221793791718565712960287828303389747869544087552.000000 -3969221676622858323908694562841391913988974615494251397639435473715715509886963457264062236699324548999303757608855533842581159936.000000 0.000000
-3969221676622858323908694562841391913988974615494251397639435473715715509886963457264062236699324548999303757608855533842581159936.000000 1789645400053226577168903058052990905765815086147636316819080908654811857174388620769068630524547744796064729682104384590855536640.000000 0.000000
0.000000 0.000000 0.000000
190390506660774012407471371213665272382109003847488392840475501429132109353498776512533445841352988647957548323108459825734877184.000000 -160321868082572630801938791852246924481788567776285033655976132809957934061595421516425932902271413972393194224563899856477749248.000000 0.000000
-160321868082572630801938791852246924481788567776285033655976132809957934061595421516425932902271413972393194224563899856477749248.000000 62962289080384160207769821318242993966259543887281109355272280135260030677706286072242342311495777592737433032494341691740782592.000000 0.000000
0.000000 0.000000 0.000000
1533815046921168383579380978348332795040179320615467167640899529352126275373345147915607421768269405963102632898852332536594432.000000 9119211460695019091956330681510438350624855883642666744931910781038068688957402448125980272676739091337411912978442448632020992.000000 0.000000
9119211460695019091956330681510438350624855883642666744931910781038068688957402448125980272676739091337411912978442448632020992.000000 4937056171068512115879753885182900144790848167227537198524978678676236653711750385828116619387610673793596427605276191992315904.000000 0.000000
0.000000 0.000000 0.000000
2897980912350073347427051501645394068779919459258552247107083454822331960892161208889973877374583298135149773898954851717807603712.000000 -91067054736576295755717751438565917633124968606979239259883803831413660454167327567082981853854574772278418595952887613932699648.000000 0.000000
-91067054736576295755717751438565917633124968606979239259883803831413660454167327567082981853854574772278418595952887613932699648.000000 7201651040160305635828097979804822545546857333107139412131008097585119001298068408191439480031370439318228584649195686429982720.000000 0.000000
0.000000 0.000000 0.000000
440725462421436245682996852469980367318903210298446426408497172319723093250738558025352439466539168577235331124026417220161634304.000000 691222462662669726323980316444494005240314215546587623002705064098853346823579380778344375307374383803027112815506496212860665856.000000 0.000000
691222462662669726323980316444494005240314215546587623002705064098853346823579380778344375307374383803027112815506496212860665856.000000 328343731695440231068202991754690512751558153785713812628481319044217873512272279546098544721384954577895653279361878329686753280.000000 0.000000
0.000000 0.000000 0.000000
12947295217503412616284645764574336489298088661135676497312272669909981091848962835147445529047030738797773410652333171252658176.000000 5438460861343742647600311249938815908850787280863709831182031629926970477426669773594943325332751108544111585955563605013299200.000000 0.000000
5438460861343742647600311249938815908850787280863709831182031629926970477426669773594943325332751108544111585955563605013299200.000000 1377307275750538979758268043685026560905717561279153686534245064587310079905261930638758685376400422794227305090519018648895488.000000 0.000000
0.000000 0.000000 0.000000
717923883521417632982813406763025210882614316450899007988757824779418593652830416067576744417528666099833363274443479507020021760.000000 142004926761273092894206623520675321146731501663922215060233696667979980685507359547085308841635171561983154731991050529716305920.000000 0.000000
142004926761273092894206623520675321146731501663922215060233696667979980685507359547085308841635171561983154731991050529716305920.000000 25691570542299847112804222006046611212921486008877469165614225622360751282616118621990584501759244082408573358846600222452219904.000000 0.000000
0.000000 0.000000 0.000000
411547874478687074377278832574618302312866856291729575298181069145247828570250699699794570677232091937747632455924526814024695808.000000 620815739657767498753651164067802253645669262131522506659950514444034802127638364234678055458968408733980209123799953864703082496.000000 0.000000
620815739657767498753651164067802253645669262131522506659950514444034802127638364234678055458968408733980209123799953864703082496.000000 295750711061013321927184370737009050246697765108200872561675129020620652013047197737295008537760002890528018953182480847096250368.000000 0.000000
0.000000 0.000000 0.000000
1656708089170100188730867460899673523092612930565181163369428654658524065071099274031736239534706777574210589267094967502346649600.000000 -255890984242490580094323174794773094010094540263991613231420924729268026815286106303293660231837243880008774548442179490163982336.000000 0.000000
-255890984242490580094323174794773094010094540263991613231420924729268026815286106303293660231837243880008774548442179490163982336.000000 36512583094524048681963137563432426237106492005674482596855252404444013451203534157916447817263750006879661263992429161536815104.000000 0.000000
0.000000 0.000000 0.000000
136877956824384451054865753903191528624075824861410818776601861515526387534792050060296195445218613981045057320042155785238609920.000000 -568171260431989137482160158398366031835183372529611691658197233820332316398350451064857836866639802734234205146542470786608791552.000000 0.000000
-568171260431989137482160158398366031835183372529611691658197233820332316398350451064857836866639802734234205146542470786608791552.000000 302951866566009692836697231045268808953590442350981956548414591576165648357189034914920049313576826735038995151594216153516343296.000000 0.000000
0.000000 0.000000 0.000000
423453276289219034266413368797330150153711666871804297004781620611290776236009783323175149025845741318591382551672529156562747392.000000 708669611069163075133984483297611409667436604777107532217296310616229376385025476635442876254458470989038693598049527826202230784.000000 0.000000
708669611069163075133984483297611409667436604777107532217296310616229376385025476635442876254458470989038693598049527826202230784.000000 346800131392709488472828855506968324648175788009523904457976825673955971596118921172820815763753959309200317391437292598191980544.000000 0.000000
0.000000 0.000000 0.000000
869402021290031650414821759833330725973777772832090354580536770575842457895973003734036964540588991875692918183174187918154530816.000000 -380650035426902663285213909396873989217839920495174576865540010283016397503064991160871302650414302682407374638832553507650797568.000000 0.000000
-380650035426902663285213909396873989217839920495174576865540010283016397503064991160871302650414302682407374638832553507650797568.000000 98280747197960235763294242230817667727531729220231068892805959398907010441065173845951589614261356702333049948607889084895985664.000000 0.000000
0.000000 0.000000 0.000000
2028001206302732599100834958392365292071255517802921970056558984519544861476101113029940934274402356866788425597731802480906338304.000000 1543033923895226407009658143553220247681202403451008891428645975518708983548183726917273567401203264273919085857048052855795089408.000000 0.000000
1543033923895226407009658143553220247681202403451008891428645975518708983548183726917273567401203264273919085857048052855795089408.000000 575324963714090954884042454239878857846052937787688348488272339784440037331413571546768955522212030687199525271262401757093822464.000000 0.000000
0.000000 0.000000 0.000000
-27674762059278051707945992087927970073780688915690449384487232909611260308872600356714505602113438414039007983024141671627489280.000000 -448481013744992181624706826226287168775597517767977267262693033976153594806143526537102702556633963470743364478826793212953231360.000000 0.000000
-448481013744992181624706826226287168775597517767977267262693033976153594806143526537102702556633963470743364478826793212953231360.000000 254598934797218447685751269013021578191470551158774014464349790195686167427353006812932157225083261143268552972084990930327699456.000000 0.000000
0.000000 0.000000 0.000000
-69765987984879811889603700858580669575807997284879935531590843330380178517670983047747252090580498507058266314214518691073097728.000000 8706933601606026284864601740768256087839617347607061511130888056185233879802456250934843699652080618473475584824188502508830720.000000 0.000000
8706933601606026284864601740768256087839617347607061511130888056185233879802456250934843699652080618473475584824188502508830720.000000 2174246521695344107704466446884844792417467853543003907205858380172028404097237205274415656226404628266270865240961216738754560.000000 0.000000
0.000000 0.000000 0.000000
2265855954029700537345175233456436286163841511678964839983557608811577336519442142613571807408041748926248477490843448433388290048.000000 -1770486588509872230385467774464682519292821039857431638386529951110496915557111900055912890852665383092841946840350407866271662080.000000 0.000000
-1770486588509872230385467774464682519292821039857431638386529951110496915557111900055912890852665383092841946840350407866271662080.000000 674833841261053414870642721440588036055907613964849659357919606875192082496891073224534237191417139836998730053634205314107572224.000000 0.000000
0.000000 0.000000 0.000000
2816668387297331781338650846905190212846282489836874206283672816027310421874599010040274983538395035601844215985636963109484625920.000000 -2845733959499533897726379484423445860894072436539741309073347468503606617671575315059771449607830699277692376593749753144822202368.000000 0.000000
-2845733959499533897726379484423445860894072436539741309073347468503606617671575315059771449607830699277692376593749753144822202368.000000 1204444092235152458769285237841908708100423121615695225048449158474032320241627296708569439856209286159282345138573745000667938816.000000 0.000000
0.000000 0.000000 0.000000
2615560961014333346985983137237365581643229392219871570768484787215951263675556149308436603466557672127395312794397449792430014464.000000 -365896865430337348267218674390068645734974525382947459779582519786138881969270703093701976069731668515865611665727153764873273344.000000 0.000000
-365896865430337348267218674390068645734974525382947459779582519786138881969270703093701976069731668515865611665727153764873273344.000000 33709911459529671983355452120325488099104409948394514365329031880891061681247689648314030110447142079434217339198918642592907264.000000 0.000000
0.000000 0.000000 0.000000
-19678403879271798740521503148722674683058392301052775660624166713318594671107424031894521621274807968685273002339487398404030464.000000 552562099605870065841955275496227563965933884220757299659446234654252428602866110282832241720370915096376189103919616751097085952.000000 0.000000
552562099605870065841955275496227563965933884220757299659446234654252428602866110282832241720370915096376189103919616751097085952.000000 312971591286896160687982604664862149145396832627531126776590923706268654027884774669675505473726696916850639624712918909608525824.000000 0.000000
0.000000 0.000000 0.000000
-4277980829463495718794394212452319605955820302599463672075813614567287256190165649453843446529461441622453379509509236369827823616.000000 995061166081205826483769900479283544019915148259748315168699968765729038562721727291276149590453805285995557585570632090024673280.000000 0.000000
995061166081205826483769900479283544019915148259748315168699968765729038562721727291276149590453805285995557585570632090024673280.000000 362733310861420571552671599510513154718468160044825498995022981595348814759078441797464433941545525189246000588019329467169112064.000000 0.000000
0.000000 0.000000 0.000000
-185559894731996778473960534621303615364306849113909634823821064625711742987676731637116851264084513723310775495517825051077378048.000000 -479803946211853016843552171048702332698805216604077690024064302466629082617606500915018446388024179702225188610030033994229219328.000000 0.000000
-479803946211853016843552171048702332698805216604077690024064302466629082617606500915018446388024179702225188610030033994229219328.000000 277848298133104390393788205679086930349638717577356938405703713287449600594428524290817502036622691838442403402957488705186562048.000000 0.000000
0.000000 0.000000 0.000000
-16796142569975734591189286084507221252891546414639401101943044189141152287568338438916542154540231095600895575029707282834620678144.000000 2070806013048588164091182672292565841190860632726931727262777271343694958922891294847450314130915419197024820998271458880908165120.000000 0.000000
2070806013048588164091182672292565841190860632726931727262777271343694958922891294847450314130915419197024820998271458880908165120.000000 470985125965935221633384474160225366340115220724859857266754427831699206472321564208847553883658530275760157851608419369180200960.000000 0.000000
0.000000 0.000000 0.000000
1624362248696189808656911226185066814044343456864625095562702609616628121320699664822543532356298599385033935643787054440828108800.000000 639523064594750284517589296942595596682251084397082366485943996514986567067002527895786023873335764288862250988252798083313696768.000000 0.000000
639523064594750284517589296942595596682251084397082366485943996514986567067002527895786023873335764288862250988252798083313696768.000000 152858656373762999226895082816748915211802543351918215868625699021994585282139704349523550187432800507243799880839089100997787648.000000 0.000000
0.000000 0.000000 0.000000
797298756031686900540365704598031487384028829061965185308420950410040202784929891960545841055547421095799390261027949140382842880.000000 124573956474612018607645725180196894377730411407987761574429106882540241620495287587080963135515844295714206143189675793002266624.000000 0.000000
124573956474612018607645725180196894377730411407987761574429106882540241620495287587080963135515844295714206143189675793002266624.000000 13432457588848881571529715810043875950283378574416919047636702293262723291623774618849901463592591619842375681640932868647550976.000000 0.000000
0.000000 0.000000 0.000000
1196430898259683046624636870521439265000945840875206956397006889372446388640632217057899470938561287764660146511890591210201415680.000000 902623854650180764808860512876272252081617646453137052444414126952101974201792150443089919176022474101664433766158166173419569152.000000 0.000000
902623854650180764808860512876272252081617646453137052444414126952101974201792150443089919176022474101664433766158166173419569152.000000 337819781259849576219318064954926434116678368854546857408841995298786756760060322276443828303718030802860881554067869268380221440.000000 0.000000
0.000000 0.000000 0.000000
341825932871154879676642134053377838782369945806410638434346426666538210573667843955198760224405835070520515421641312454838321152.000000 2002363775643757354655249659281527598020005331373400594225358338307072731903547606709668736177196535617518370152741967446631514112.000000 0.000000
2002363775643757354655249659281527598020005331373400594225358338307072731903547606709668736177196535617518370152741967446631514112.000000 1083498426922269024303238327483092470135804116369726922227594336378535461248102333128985127454528760687800228666937323133689921536.000000 0.000000
0.000000 0.000000 0.000000
2499726011557062103805075504871076549262425649057565256054338080685474505298273227021271398979146392948877363212379960934867664896.000000 -552568746147038759604436737354274163196384191918428932426951211978353931612820436875966133392963010999011708147427781437439344640.000000 0.000000
-552568746147038759604436737354274163196384191918428932426951211978353931612820436875966133392963010999011708147427781437439344640.000000 78878932907476720116521164330478339447698680931722065407798048077797698555272510419679707550326946172877559218917448691700727808.000000 0.000000
0.000000 0.000000 0.000000
3806511994324114782937925539266220817787274442935756447120351595907009390643585056948174549770856651924421851556920660314019594240.000000 1169415656541269583802627066498121058859274304853456653286538472184943616522382106772433628623407405587370265208871695758961672192.000000 0.000000
1169415656541269583802627066498121058859274304853456653286538472184943616522382106772433628623407405587370265208871695758961672192.000000 225364123102123743279556089783927247675391866978663880547039244369804813925856032528771767915235669419966607281994615185834246144.000000 0.000000
0.000000 0.000000 0.000000
40367446216091878652478901110197827988005253455297193981938370003459551800570403352090757385866701494555732486236701345689108480.000000 1263777263131707384947886027570706620113035166706479472087109927991647214073588694685523476362332852228848820496683928692325351424.000000 0.000000
1263777263131707384947886027570706620113035166706479472087109927991647214073588694685523476362332852228848820496683928692325351424.000000 699477000478053731536739640703790473236726084151843380547946164143415972157298063608318903658981111477622100504950083214152564736.000000 0.000000
0.000000 0.000000 0.000000
1134280113733206248561850400667612617889231025642715012505155764269495651753355879037536230256279124786617817919914561128714207232.000000 525828609856333598834593074498496871388214658091875968322086293033106825271124171003526041576246036418069286156814272932893163520.000000 0.000000
525828609856333598834593074498496871388214658091875968322086293033106825271124171003526041576246036418069286156814272932893163520.000000 142441350134848992613194997563967944519555645645151421626899875100941190199488411398386444247934015671559947588936414713983533056.000000 0.000000
0.000000 0.000000 0.000000
4576728949939231556280909184751723822469480508732642317256789082010249945002479808786206713301667000812239718504519601642524377088.000000 716801849483879065485466960104418714942097622008291923549607542380407236652110199688753921397165641207228021719441212036177985536.000000 0.000000
716801849483879065485466960104418714942097622008291923549607542380407236652110199688753921397165641207228021719441212036177985536.000000 73662743263639040825676712348877920875717405171739649194090136105761681485676577472945162778638493061242518191543233265740546048.000000 0.000000
0.000000 0.000000 0.000000
965851115155992522880523567148200566365309426582362108650344480081790211641245319679290145605331301986664789753249266016628768768.000000 -396005351709513074509254518315462564363507530146441247669874997549359813197694160083525336425870624952309303293977735581812129792.000000 0.000000
-396005351709513074509254518315462564363507530146441247669874997549359813197694160083525336425870624952309303293977735581812129792.000000 97569863282915993010567877400648604504853121569911229586573033564160544232954239169578305990583851751704888223363814262304669696.000000 0.000000
0.000000 0.000000 0.000000
-3625248683647958686978901744865761039561352827520183727479954418975912244723481968325045015915323776316042639718412098809391742976.000000 -848561207494459737673612178615045802039006259736509537055123933188037446479012227347906438550919039373588032367702629941902311424.000000 0.000000
-848561207494459737673612178615045802039006259736509537055123933188037446479012227347906438550919039373588032367702629941902311424.000000 310455134035314068898742823861571640029968099506442440589770005003798215527694461167906788305407755946111152237672865137164288000.000000 0.000000
0.000000 0.000000 0.000000
37271858716880248677749768302097470557350935970709823862943185918396812250298554597388330529021188938855881075693578201327468544.000000 -150608204952872763098975862874866493319751795125550022699673428363261388051443572023592810775143427617013759181439830732381880320.000000 0.000000
-150608204952872763098975862874866493319751795125550022699673428363261388051443572023592810775143427617013759181439830732381880320.000000 80710679112418340164712416646881915652393500344797434541245992459163864124092396679724570566870027728118428198037459741058269184.000000 0.000000
0.000000 0.000000 0.000000
169724421594964905469301835554709071017520897142390996305519575462307555105158683682825200586914832706603934029914789713325064192.000000 7177533366069013628848154289314275619217019362137080681223548582780673526809778998277519505773839765691817565661621489121431126016.000000 0.000000
7177533366069013628848154289314275619217019362137080681223548582780673526809778998277519505773839765691817565661621489121431126016.000000 3978216132645569486592703246578932303019616914639096963481080949441591896872186542676545502446635192575077614192791404323304112128.000000 0.000000
0.000000 0.000000 0.000000
-732095144530591668879953751155281638658599350860806075336916755269254003851465954473815403148387090099819388436914900469547008.000000 -1037318074183423916680175778467683700649782302733629168844701388996396533191072919294905572969082830960532591209592580758044672.000000 0.000000
-1037318074183423916680175778467683700649782302733629168844701388996396533191072919294905572969082830960532591209592580758044672.000000 597662946636093396484770937111046875009035921868921845754273357946366356690911113390841948632347726871621119992825270151151616.000000 0.000000
0.000000 0.000000 0.000000
-521475801207263931583837751770132126616781079633638035421279211135881673228479299826924372632401949566760259425037109508351983616.000000 -827710605759636073102528912550055864528284592951313039440058182454966538968424432724288348154715793555183388407269408266738728960.000000 0.000000
-827710605759636073102528912550055864528284592951313039440058182454966538968424432724288348154715793555183388407269408266738728960.000000 478597144247359976548648752082087767137414492477291252802784588163288740133362200237200886828652119012787130207350569129312518144.000000 0.000000
0.000000 0.000000 0.000000
745559178090480579404199978438215650575530730833441825531002267503111252726958765091486393466300695945282851197579552689062150144.000000 497190186530598203624100346659561636716880190674275720651139637876962866504208011782959128455027531310095412454315556136724463616.000000 0.000000
497190186530598203624100346659561636716880190674275720651139637876962866504208011782959128455027531310095412454315556136724463616.000000 169751332380454797628013438703913932425009334944506971231493622308801088003290048109320099370716440215182258414944349369904660480.000000 0.000000
0.000000 0.000000 0.000000
-56646774132623875421576758400316767238461510148875171440857988260532139753403045402738871596035811665478518107730133344464142336.000000 -8608069526966861001751351541852790326428264298850063644440750341703422856793229500245210205004183047555773316920821187463872512.000000 0.000000
-8608069526966861001751351541852790326428264298850063644440750341703422856793229500245210205004183047555773316920821187463872512.000000 2318526219038406022679749393890127986548499288052325795010163456118888095809691750495268080819386761845691069283225259151982592.000000 0.000000
0.000000 0.000000 0.000000
391533859397589847680843296091978334503862340917059892971907815141591598345635669762162641095761683315310816055923624798117167104.000000 610666109701423847919914049211802451038781228067403107323045224638771910929340070883012107909353284866722796402682583901083271168.000000 0.000000
610666109701423847919914049211802451038781228067403107323045224638771910929340070883012107909353284866722796402682583901083271168.000000 294374065968611290706655930753836696685055765438922324552583863615215057301595100866019340645124472985288932688535313813965111296.000000 0.000000
0.000000 0.000000 0.000000
133194876457484225804379789153507197986071994598030099056910926768848057386272061411976709717190882759859270327400839165094395904.000000 97021169714506960897102136004372417933660402055298028628516088285033484322878138001048546050332490176936547713220403348298006528.000000 0.000000
97021169714506960897102136004372417933660402055298028628516088285033484322878138001048546050332490176936547713220403348298006528.000000 37603891601172508440575339366321439007661631148864952269357828814636286838333933147506205806327501756532583088518024851110232064.000000 0.000000
0.000000 0.000000 0.000000
3525319110463600321635971906351981705948957312818352445383749100478341312084336178167582841257802020748805461268483952485597184.000000 -5568706467724729276291218178017048322542210838027826153798416819659038936438944631618349902130620495885632068172679678777098240.000000 0.000000
-5568706467724729276291218178017048322542210838027826153798416819659038936438944631618349902130620495885632068172679678777098240.000000 2720249571201006613453568146191104965090988391155847257768838995458184086113818929580515917829695209489534731012103952056451072.000000 0.000000
0.000000 0.000000 0.000000
703291448990797670027846053580138566313352526373980089332153169642952185969399797374113263277629213253729020703211219516303343616.000000 832070138830591851874505311254999287868261886258585990086603023627105853675955446837579253265240576467956860048825894415196225536.000000 0.000000
832070138830591851874505311254999287868261886258585990086603023627105853675955446837579253265240576467956860048825894415196225536.000000 372417721954035864034549558103794812474167277583574208932627138717085398870806962756055906486880794288790556771553446947509501952.000000 0.000000
0.000000 0.000000 0.000000
883290481082235882311534928567292356263459215389281396805185836271009526578595262761827589528742826408764722546185070047930613760.000000 -240515744806450117277321401023231869269451734035455456236071231130123848277890747039497442855397719538886045197011855696860282880.000000 0.000000
-240515744806450117277321401023231869269451734035455456236071231130123848277890747039497442855397719538886045197011855696860282880.000000 41678978033899307252251680566144610665475736521159346336195538700012257320941315449318639879111719016591858263486723208675065856.000000 0.000000
0.000000 0.000000 0.000000
-206200363349174850618832884519004050621341273949476009256308393266526341703864899433063011540779139725052529725175503725734658048.000000 208511614710590585614941107562091797126274685641428270028039674169417888336497025108167301094875573526361198874056108629662105600.000000 0.000000
208511614710590585614941107562091797126274685641428270028039674169417888336497025108167301094875573526361198874056108629662105600.000000 113734185943563285055825244049857188118630835512980598684347223605036192175342160819704966599939951030592220204701701526389784576.000000 0.000000
0.000000 0.000000 0.000000
548507111893670714978439579776959135148339787630689745634927499423985004996736868109220740354488798398750019449211300803237642240.000000 634874149018666505392219750221047371564084502502124289168012602609189467115149061678389215166678694978892066654110738370913107968.000000 0.000000
634874149018666505392219750221047371564084502502124289168012602609189467115149061678389215166678694978892066654110738370913107968.000000 281589793798673578504492712825842233892189767063932457748233944343861236657357485249328842443615541571461471589642289714464555008.000000 0.000000
0.000000 0.000000 0.000000
3594593810247594940365209991694018397626050314684474251278347254986149598145039565391947670677710802096948887819833665046708224.000000 1355404738602325604745697383530266952098665113183909784422774791180238213742742446685055885840013033463307388839200355745005568.000000 0.000000
1355404738602325604745697383530266952098665113183909784422774791180238213742742446685055885840013033463307388839200355745005568.000000 313058888335542033831353424515986235552902430978107972856919878965935349861561080086285726623906058435770896188606088067678208.000000 0.000000
0.000000 0.000000 0.000000
201822234718253705946928422684567765901494674517949116591130103879511883061092883913377827236335058032131571069931053928452980736.000000 -312060626197981869166925792059934017130360195692102911443938147020411181104344540687214552830054888089913196674644529666035023872.000000 0.000000
-312060626197981869166925792059934017130360195692102911443938147020411181104344540687214552830054888089913196674644529666035023872.000000 149313195995689125832751908675433142347597429678767136854303304236239375053609418140465726509769061258533291560364658840301469696.000000 0.000000
0.000000 0.000000 0.000000
2101067307322460699597825203850326312132817505200702851895330955291871076950979699514110668757499801658682239426345379645358080.000000 -599417248389891755742609093132867161679302053835252843379076383333137173271398486747085507699017923273312242500306339411001344.000000 0.000000
-599417248389891755742609093132867161679302053835252843379076383333137173271398486747085507699017923273312242500306339411001344.000000 108845635922761420339784578731479750865813913213617054443493526569640315121380495111114571758428328509977610462701238368600064.000000 0.000000
0.000000 0.000000 0.000000
106093907793493864430955310847678350641452319380037029051504508791000418307659572998200621841173997152379795772458669712999448576.000000 448308622247282170492899793722045105785124236967909061836504717395978846390437923807592032244237853334198354964697732028785754112.000000 0.000000
448308622247282170492899793722045105785124236967909061836504717395978846390437923807592032244237853334198354964697732028785754112.000000 241440794470416859063050906113621050338974700710162512668298875916918442950731760868001950040824733433356301843679108819188711424.000000 0.000000
0.000000 0.000000 0.000000
-72479332795501970760512455375979504256894369132647464082239012680698714373896909482034160289077174847321280188051584556977881088.000000 -253671585478714161371147115215180713414374391504368023681966757659068663779444747004037046458832538579923502881183001391136768.000000 0.000000
-253671585478714161371147115215180713414374391504368023681966757659068663779444747004037046458832538579923502881183001391136768.000000 2788958984492327756777709578045254898636726021939088994207936172877892862168845432698034417882105424974171633714271376522608640.000000 0.000000
0.000000 0.000000 0.000000
58359954669035358688476794361612838891494520580173443690419554400567106943332582131188945521618427240307784829885311656549941248.000000 67241540198634515613355412092278982243350839704128821102570107052937859649579561160432065251976536919524642130340788940232982528.000000 0.000000
67241540198634515613355412092278982243350839704128821102570107052937859649579561160432065251976536919524642130340788940232982528.000000 29825939843527916448897576401095953091549520920592896792871996372988413376983957961955651849065295750741217536731094776392187904.000000 0.000000
0.000000 0.000000 0.000000
-64524784478471561559843034322170779565770643087963904968770478470338344710395779349505925872352025030625313071112446042027111481344.000000 1647317237490295775836677022319678323283000745709817597360992965595783036593976363347226252903207000506855314455892626906351140864.000000 0.000000
1647317237490295775836677022319678323283000745709817597360992965595783036593976363347226252903207000506855314455892626906351140864.000000 84770462129548280987670432390865218675275622373290310021621303800145618928028350489693979553092163288333214934139865253552324608.000000 0.000000
0.000000 0.000000 0.000000
77637602509900211789562984692452314062534983026160757227707894014854373777746213311673584576372241827730616296719091298788704256.000000 -460626851737233746579544998166902672046380243008885275225432245116125073964319379986192638518576500533052117296561406647004561408.000000 0.000000
-460626851737233746579544998166902672046380243008885275225432245116125073964319379986192638518576500533052117296561406647004561408.000000 249118267932934515130044282992653569600913439141824119251048211262826228014272782617968765179332828947990952689909770094850867200.000000 0.000000
0.000000 0.000000 0.000000
4214809909301446606634778641120309897257690515759108747626801465529504226829452621713017587755828890679636386345039044997545984.000000 479222681433346780966607682004433648830871636924016225366943676934052833173411648850849594267603152496369360410413340687335424.000000 0.000000
479222681433346780966607682004433648830871636924016225366943676934052833173411648850849594267603152496369360410413340687335424.000000 36495999987536423388686603181742204549691599753718561879667345908004278765353858950275195713813420718891667946168649206726656.000000 0.000000
0.000000 0.000000 0.000000
-7822505969353651016316085111588299059163214437621376607640969169314790693290921163046220795619533342593035303926999259738537984.000000 -15751221947776851225929500580245525559405599063049136927793409552511504186713665303464607508139362722939691849340154579108495360.000000 0.000000
-15751221947776851225929500580245525559405599063049136927793409552511504186713665303464607508139362722939691849340154579108495360.000000 9086262983457246007137716673341456876650024971943333525124536963259698751935497612543898837303043035405347399956917095072006144.000000 0.000000
0.000000 0.000000 0.000000
3064614944786238637223239436290994408557619559620399193725454909732164155503659412969653362316669065756346693677684427149279232.000000 -1263853842691702033836226798878273898162585173915592981102415147456314664613409421711303648004679088264586396634830199385489408.000000 0.000000
-1263853842691702033836226798878273898162585173915592981102415147456314664613409421711303648004679088264586396634830199385489408.000000 323388725546635721457626556516052005006503960506602637933942438710835499417264382098642907180933520911191056432636143893217280.000000 0.000000
0.000000 0.000000 0.000000
-1759454200968159696276830353620833842414712254189871089717319279122970116793128164716264619576880252063808048304499978823253622784.000000 -409047889963492760443487202515910522750945286785178763265697396628610273455804343741186886096380677176376261625818957428228620288.000000 0.000000
-409047889963492760443487202515910522750945286785178763265697396628610273455804343741186886096380677176376261625818957428228620288.000000 149238270976346852612262096405652264081400858106482418669405564491935552852237552947686356850469581560801988180430135758912749568.000000 0.000000
0.000000 0.000000 0.000000
245069283528392947198722881414664065332824670788212727205627444289742837282572320493639448934636572989265575038831002088636416.000000 120912273575135438084451562546975185020951596436543858696034984958704806259233905015999884448003625253195904761376991759826944.000000 0.000000
120912273575135438084451562546975185020951596436543858696034984958704806259233905015999884448003625253195904761376991759826944.000000 36160698283290004979600968457959181078700311783757990942299325781060586439845744962147539810294959750482603017751715226058752.000000 0.000000
0.000000 0.000000 0.000000
13040704471916308330052174755160220071073332019731849414204141083216598790953589963446600126278380706808645905137837991876624384.000000 -19389983574134955203059567537500889522589454315960849844947869804634993186868019655815273240534339010775549257241779292583493632.000000 0.000000
-19389983574134955203059567537500889522589454315960849844947869804634993186868019655815273240534339010775549257241779292583493632.000000 9644603015785513679756705478340077077481148069770811812753747941743463444535971652517587866600342875897596748032272422955646976.000000 0.000000
0.000000 0.000000 0.000000
205028266826379694032871484566547817853021279804688608940314089772676636602269233658872934705672457250596861721852998192386277376.000000 135674309511607303516554762071302913314066517060603863490425536353438203861737168566618287292813250908449948138743015154229706752.000000 0.000000
135674309511607303516554762071302913314066517060603863490425536353438203861737168566618287292813250908449948138743015154229706752.000000 48636246018725171720084824931891236400972162655486944305891278473840303845360876725047844699157354445571933048742846034566184960.000000 0.000000
0.000000 0.000000 0.000000
599045458298619212927104120169836855976608007315509742125732845151434909772080192449286884549475633484988972084417865466651869184.000000 -573007640974574841122056149129515726061207965828947735579266142530918055892044322047611340363914403738779222087440901442199617536.000000 0.000000
-573007640974574841122056149129515726061207965828947735579266142530918055892044322047611340363914403738779222087440901442199617536.000000 237477918902701905727274690735827041291396126467886597092131140356399830747622078065740649724463870873795358025076397562667204608.000000 0.000000
0.000000 0.000000 0.000000
655134443131014711818092226131966898314048720293024717507213025571289721047003692165417139620885825825004053405269754288717955072.000000 581666680956833375197477267753408361798807543961448733933809489594838124136845306937891361187025799443298593372231860946611470336.000000 0.000000
581666680956833375197477267753408361798807543961448733933809489594838124136845306937891361187025799443298593372231860946611470336.000000 233840201552142070539922701972784295166131959297324440356519143683400979578261341284203072517447828867704404602693539050691756032.000000 0.000000
0.000000 0.000000 0.000000
855550878539691122220688345163511136275732141401350979037341432985452939410260385571752556702558916720483598324031563602329600.000000 574185473280069634247859068660700589631887849714122428181024925457206025204642050965622699747674266271167953168631757495336960.000000 0.000000
574185473280069634247859068660700589631887849714122428181024925457206025204642050965622699747674266271167953168631757495336960.000000 219170825997986303220942378447641153761549565788781997514813069997844905616017319311306613068480722712106354798226502057984000.000000 0.000000
0.000000 0.000000 0.000000
473272056217592305827974931934024291870383931076401345263934610010491445388812861010948403752279501595406458719038594141355245568.000000 -147578277848761383957169182992498775790579214594388312525978160539812856200425290385823679058849125744400603869826533798637993984.000000 0.000000
-147578277848761383957169182992498775790579214594388312525978160539812856200425290385823679058849125744400603869826533798637993984.000000 28907386558424452737165935937648228923994006771161848180604279362814853830267779704089924569594803090212916452400065063466041344.000000 0.000000
0.000000 0.000000 0.000000
-1393622025715940851581143068918951289746763304658033507525690386885201856754078951413282240487098139821675955127022942831262040064.000000 1346741881736829987567666775485620035045563477808707750481500509396899148415112511914471079220859617437915107270811013111122755584.000000 0.000000
1346741881736829987567666775485620035045563477808707750481500509396899148415112511914471079220859617437915107270811013111122755584.000000 783693582185990589595672496549435481165401845655155003080766150245215878659343108139021946486093836529204484287166952369867980800.000000 0.000000
0.000000 0.000000 0.000000
180133198794815746338772756300134587235258529916929430354165180981462741199861173275638159109240213256484855227058291796068007936.000000 25239491605465157109901652221398128024486159634179407881055960361542610535944320064820000117862153443479380343231137763716759552.000000 0.000000
25239491605465157109901652221398128024486159634179407881055960361542610535944320064820000117862153443479380343231137763716759552.000000 4115265409131505125772777718060543828432795017726085669259360071177742000617898127856233344417985484406730377157073565906894848.000000 0.000000
0.000000 0.000000 0.000000
578258179864554800615551731043085360188133167454665473904581272876356109021008179651748184238292983752496107113723521437003677696.000000 -1632658451728515334802025496760139683390826505480947094836593159761115673894868169157770833733101405530692910170145356591310831616.000000 0.000000
-1632658451728515334802025496760139683390826505480947094836593159761115673894868169157770833733101405530692910170145356591310831616.000000 847739571676373010459064587381965302634388635653092517787719231635826687143856491874662814830235189893481370098328964318961336320.000000 0.000000
0.000000 0.000000 0.000000
-157520140003145723501854801734819918773603707297283970296365895578756742687918385552810083639710236858900632413328114072827199488.000000 86006905333796210770342475109111041839698641017859549780904999623119195771665739423058508945536622315834413355500567405621411840.000000 0.000000
86006905333796210770342475109111041839698641017859549780904999623119195771665739423058508945536622315834413355500567405621411840.000000 47373776961602541336534687024972618120438735818261760557305537970169816765657817936425723033192320104947273611240793648863903744.000000 0.000000
0.000000 0.000000 0.000000
4891492401413754984662777007892846557599873002555440982923418320584531507271802561981465245675741853640881253076930128464083681280.000000 2395209161847083483707960454278548378473506177649566011747005243435689855178006946883867620817995965432109165533122753350888062976.000000 0.000000
2395209161847083483707960454278548378473506177649566011747005243435689855178006946883867620817995965432109165533122753350888062976.000000 675938699685351562550786948097051514414226300967510541513874432405851884182037462229513407431790713596722966743821792834763096064.000000 0.000000
0.000000 0.000000 0.000000
