# vtk DataFile Version 2.0
Test
ASCII
DATASET POLYDATA
POINTS 1437 float
0.000000 0.000000 0.000000
30.000000 0.000000 0.000000
30.000000 100.000000 0.000000
0.000000 100.000000 0.000000
16.400000 50.000000 0.000000
2.142857 0.000000 0.000000
4.285714 0.000000 0.000000
6.428571 0.000000 0.000000
8.571429 0.000000 0.000000
10.714286 0.000000 0.000000
12.857143 0.000000 0.000000
15.000000 0.000000 0.000000
17.142857 0.000000 0.000000
19.285714 0.000000 0.000000
21.428571 0.000000 0.000000
23.571429 0.000000 0.000000
25.714286 0.000000 0.000000
27.857143 0.000000 0.000000
30.000000 2.040816 0.000000
30.000000 4.081633 0.000000
30.000000 6.122449 0.000000
30.000000 8.163265 0.000000
30.000000 10.204082 0.000000
30.000000 12.244898 0.000000
30.000000 14.285714 0.000000
30.000000 16.326531 0.000000
30.000000 18.367347 0.000000
30.000000 20.408163 0.000000
30.000000 22.448980 0.000000
30.000000 24.489796 0.000000
30.000000 26.530612 0.000000
30.000000 28.571429 0.000000
30.000000 30.612245 0.000000
30.000000 32.653061 0.000000
30.000000 34.693878 0.000000
30.000000 36.734694 0.000000
30.000000 38.775510 0.000000
30.000000 40.816327 0.000000
30.000000 42.857143 0.000000
30.000000 44.897959 0.000000
30.000000 46.938776 0.000000
30.000000 48.979592 0.000000
30.000000 51.020408 0.000000
30.000000 53.061224 0.000000
30.000000 55.102041 0.000000
30.000000 57.142857 0.000000
30.000000 59.183673 0.000000
30.000000 61.224490 0.000000
30.000000 63.265306 0.000000
30.000000 65.306122 0.000000
30.000000 67.346939 0.000000
30.000000 69.387755 0.000000
30.000000 71.428571 0.000000
30.000000 73.469388 0.000000
30.000000 75.510204 0.000000
30.000000 77.551020 0.000000
30.000000 79.591837 0.000000
30.000000 81.632653 0.000000
30.000000 83.673469 0.000000
30.000000 85.714286 0.000000
30.000000 87.755102 0.000000
30.000000 89.795918 0.000000
30.000000 91.836735 0.000000
30.000000 93.877551 0.000000
30.000000 95.918367 0.000000
30.000000 97.959184 0.000000
27.857143 100.000000 0.000000
25.714286 100.000000 0.000000
23.571429 100.000000 0.000000
21.428571 100.000000 0.000000
19.285714 100.000000 0.000000
17.142857 100.000000 0.000000
15.000000 100.000000 0.000000
12.857143 100.000000 0.000000
10.714286 100.000000 0.000000
8.571429 100.000000 0.000000
6.428571 100.000000 0.000000
4.285714 100.000000 0.000000
2.142857 100.000000 0.000000
0.000000 97.959184 0.000000
0.000000 95.918367 0.000000
0.000000 93.877551 0.000000
0.000000 91.836735 0.000000
0.000000 89.795918 0.000000
0.000000 87.755102 0.000000
0.000000 85.714286 0.000000
0.000000 83.673469 0.000000
0.000000 81.632653 0.000000
0.000000 79.591837 0.000000
0.000000 77.551020 0.000000
0.000000 75.510204 0.000000
0.000000 73.469388 0.000000
0.000000 71.428571 0.000000
0.000000 69.387755 0.000000
0.000000 67.346939 0.000000
0.000000 65.306122 0.000000
0.000000 63.265306 0.000000
0.000000 61.224490 0.000000
0.000000 59.183673 0.000000
0.000000 57.142857 0.000000
0.000000 55.102041 0.000000
0.000000 53.061224 0.000000
0.000000 51.020408 0.000000
0.000000 48.979592 0.000000
0.000000 46.938776 0.000000
0.000000 44.897959 0.000000
0.000000 42.857143 0.000000
0.000000 40.816327 0.000000
0.000000 38.775510 0.000000
0.000000 36.734694 0.000000
0.000000 34.693878 0.000000
0.000000 32.653061 0.000000
0.000000 30.612245 0.000000
0.000000 28.571429 0.000000
0.000000 26.530612 0.000000
0.000000 24.489796 0.000000
0.000000 22.448980 0.000000
0.000000 20.408163 0.000000
0.000000 18.367347 0.000000
0.000000 16.326531 0.000000
0.000000 14.285714 0.000000
0.000000 12.244898 0.000000
0.000000 10.204082 0.000000
0.000000 8.163265 0.000000
0.000000 6.122449 0.000000
0.000000 4.081633 0.000000
0.000000 2.040816 0.000000
16.388506 50.179028 0.000000
16.354213 50.355116 0.000000
16.297683 50.525374 0.000000
16.219846 50.687005 0.000000
16.121979 50.837355 0.000000
16.005689 50.973956 0.000000
15.872886 51.094564 0.000000
15.725750 51.197200 0.000000
15.566697 51.280178 0.000000
15.398339 51.342135 0.000000
15.223440 51.382054 0.000000
15.044872 51.399281 0.000000
14.865568 51.393531 0.000000
14.688471 51.364899 0.000000
14.516489 51.313856 0.000000
14.352446 51.241239 0.000000
14.199037 51.148241 0.000000
14.058779 51.036389 0.000000
13.933976 50.907520 0.000000
13.826677 50.763749 0.000000
13.738644 50.607437 0.000000
13.671322 50.441152 0.000000
13.625817 50.267622 0.000000
13.602876 50.089698 0.000000
13.602876 49.910302 0.000000
13.625817 49.732378 0.000000
13.671322 49.558848 0.000000
13.738644 49.392563 0.000000
13.826677 49.236251 0.000000
13.933976 49.092480 0.000000
14.058779 48.963611 0.000000
14.199037 48.851759 0.000000
14.352446 48.758761 0.000000
14.516489 48.686144 0.000000
14.688471 48.635101 0.000000
14.865568 48.606469 0.000000
15.044872 48.600719 0.000000
15.223440 48.617946 0.000000
15.398339 48.657865 0.000000
15.566697 48.719822 0.000000
15.725750 48.802800 0.000000
15.872886 48.905436 0.000000
16.005689 49.026044 0.000000
16.121979 49.162645 0.000000
16.219846 49.312995 0.000000
16.297683 49.474626 0.000000
16.354213 49.644884 0.000000
16.388506 49.820972 0.000000
16.142290 51.090246 0.000000
16.381031 49.246029 0.000000
16.476220 50.570036 0.000000
16.567534 49.809478 0.000000
13.432060 49.919357 0.000000
27.959184 67.346939 0.000000
15.062546 51.587060 0.000000
27.959184 79.591837 0.000000
2.040816 20.408163 0.000000
2.040816 30.612245 0.000000
2.040816 81.632653 0.000000
2.040816 69.387755 0.000000
27.959184 16.326531 0.000000
27.959184 24.489796 0.000000
27.959184 32.653061 0.000000
2.000226 63.022103 0.000000
2.040816 38.775510 0.000000
27.959184 38.775510 0.000000
2.063520 56.953992 0.000000
27.959184 59.183673 0.000000
15.000000 97.857143 0.000000
15.000000 2.142857 0.000000
27.959184 44.897959 0.000000
27.959184 51.020408 0.000000
2.058026 48.891267 0.000000
2.040816 12.244898 0.000000
27.959184 8.163265 0.000000
2.119286 91.907213 0.000000
27.959184 87.755102 0.000000
8.571429 2.142857 0.000000
21.428571 97.857143 0.000000
2.040816 6.122449 0.000000
27.959184 93.877551 0.000000
23.571429 2.142857 0.000000
6.428571 97.857143 0.000000
2.040816 44.897959 0.000000
15.808727 51.356253 0.000000
2.040816 77.551020 0.000000
27.959184 71.428571 0.000000
2.040816 26.530612 0.000000
4.285714 2.142857 0.000000
25.714286 97.857143 0.000000
2.021897 52.958989 0.000000
27.959184 53.061224 0.000000
27.914278 55.273576 0.000000
27.959184 61.224490 0.000000
27.879705 47.169173 0.000000
2.040816 36.734694 0.000000
1.985319 42.671502 0.000000
2.040816 4.081633 0.000000
27.959184 95.918367 0.000000
27.842785 41.012410 0.000000
27.904213 63.341606 0.000000
1.981595 60.897410 0.000000
2.040816 34.693878 0.000000
2.142857 97.857143 0.000000
27.857143 2.142857 0.000000
21.428571 2.142857 0.000000
8.571429 97.857143 0.000000
19.285714 2.142857 0.000000
10.714286 97.857143 0.000000
12.857143 2.142857 0.000000
17.142857 97.857143 0.000000
2.040816 73.469388 0.000000
2.040816 85.714286 0.000000
27.959184 28.571429 0.000000
27.957036 12.244796 0.000000
27.959184 20.408163 0.000000
27.959184 75.510204 0.000000
27.959184 81.632653 0.000000
2.040816 24.489796 0.000000
2.040816 18.367347 0.000000
2.101567 67.270721 0.000000
27.990742 34.718564 0.000000
2.040816 16.326531 0.000000
2.040816 10.204082 0.000000
2.040816 89.795918 0.000000
27.959184 83.673469 0.000000
27.959184 89.795918 0.000000
2.098379 2.081372 0.000000
27.901617 97.918624 0.000000
28.130079 4.091715 0.000000
1.869924 95.908287 0.000000
16.576970 50.167357 0.000000
25.954712 32.689406 0.000000
4.048051 69.354174 0.000000
4.081633 24.489796 0.000000
25.916213 79.588913 0.000000
4.086221 18.371935 0.000000
3.897904 34.877606 0.000000
3.923124 61.572806 0.000000
26.128612 39.133691 0.000000
26.214823 61.491956 0.000000
3.871989 43.375621 0.000000
26.265426 45.355943 0.000000
26.372982 51.593494 0.000000
15.011971 95.726257 0.000000
14.987483 4.273197 0.000000
4.095212 12.258477 0.000000
25.904714 87.741449 0.000000
8.590547 95.733404 0.000000
4.124327 91.817489 0.000000
23.644909 4.177846 0.000000
1.898679 46.664421 0.000000
1.887660 50.867252 0.000000
28.104743 49.216969 0.000000
28.091622 57.507646 0.000000
1.793213 54.763850 0.000000
1.898425 40.673936 0.000000
28.092220 43.114891 0.000000
1.898792 59.041649 0.000000
26.349643 53.492500 0.000000
3.788008 38.504633 0.000000
26.348185 4.174096 0.000000
28.073402 36.848913 0.000000
3.770644 95.809804 0.000000
1.947709 64.759841 0.000000
27.961478 65.481833 0.000000
2.032166 32.492602 0.000000
21.409200 4.266343 0.000000
6.436167 2.135262 0.000000
23.563887 97.864684 0.000000
17.151762 2.133952 0.000000
12.848401 97.865884 0.000000
10.720797 2.136346 0.000000
19.279431 97.863426 0.000000
25.741048 2.116095 0.000000
4.208553 97.884202 0.000000
2.040816 71.428571 0.000000
27.959184 73.469388 0.000000
2.040044 28.570656 0.000000
2.040816 79.591837 0.000000
2.040816 75.510204 0.000000
27.959184 30.612245 0.000000
27.959184 69.387755 0.000000
27.959184 77.551020 0.000000
2.040816 22.448980 0.000000
27.959184 22.448980 0.000000
27.959252 26.530681 0.000000
27.959184 18.367347 0.000000
2.040816 83.673469 0.000000
27.959184 14.285714 0.000000
25.913747 81.628033 0.000000
2.043283 87.757569 0.000000
2.046930 14.291828 0.000000
27.956122 10.201020 0.000000
27.953028 85.708130 0.000000
2.051111 8.173560 0.000000
27.948877 91.826428 0.000000
27.877535 6.025956 0.000000
2.132881 93.976795 0.000000
4.000357 6.267740 0.000000
4.120886 4.222927 0.000000
25.999609 93.732219 0.000000
25.879089 95.777048 0.000000
15.649674 48.560769 0.000000
26.010158 67.277614 0.000000
25.918367 24.489796 0.000000
4.081633 79.591837 0.000000
25.916050 16.328010 0.000000
23.873553 79.584761 0.000000
3.481175 55.433151 0.000000
24.733850 51.947925 0.000000
3.652422 50.744354 0.000000
25.910700 12.249504 0.000000
23.509255 6.363423 0.000000
26.366938 49.758281 0.000000
26.399277 43.548901 0.000000
3.661711 59.758281 0.000000
25.957156 34.691433 0.000000
10.699495 4.264413 0.000000
19.300303 95.735157 0.000000
17.109994 4.256463 0.000000
12.860039 95.741544 0.000000
25.918367 71.428571 0.000000
4.081633 75.510204 0.000000
4.081051 71.394408 0.000000
4.082695 22.452337 0.000000
4.101940 14.313488 0.000000
25.897715 85.686136 0.000000
4.098775 10.200519 0.000000
25.900922 89.799710 0.000000
3.484993 40.079859 0.000000
26.104841 46.997441 0.000000
26.094660 40.880576 0.000000
26.217182 37.055706 0.000000
26.283778 59.646794 0.000000
3.394990 47.531927 0.000000
3.704894 44.917521 0.000000
26.589189 56.610962 0.000000
3.896163 33.117193 0.000000
4.081633 30.612245 0.000000
4.081633 26.530612 0.000000
25.925339 8.209651 0.000000
6.124956 95.705249 0.000000
26.056738 64.934647 0.000000
3.837443 65.195708 0.000000
3.643332 63.322448 0.000000
26.181899 63.192966 0.000000
19.294998 4.257059 0.000000
10.706283 95.741406 0.000000
26.301437 55.150246 0.000000
12.863256 4.267083 0.000000
17.136818 95.732295 0.000000
25.918367 28.571429 0.000000
25.922292 30.652514 0.000000
6.508559 4.176475 0.000000
23.491534 95.823372 0.000000
4.048622 67.346368 0.000000
25.918367 73.469388 0.000000
25.918367 77.551020 0.000000
25.918367 20.408163 0.000000
4.082867 81.631419 0.000000
4.087811 85.710574 0.000000
4.083002 20.414121 0.000000
4.090228 89.806980 0.000000
4.086073 16.326679 0.000000
25.912810 83.674407 0.000000
3.917278 36.754068 0.000000
14.878780 48.427563 0.000000
4.121149 8.218141 0.000000
25.878782 91.781783 0.000000
25.877030 6.294134 0.000000
4.191064 93.660458 0.000000
3.706610 41.587650 0.000000
24.360874 63.474693 0.000000
5.368991 63.172792 0.000000
5.674069 34.909097 0.000000
6.109733 24.502512 0.000000
6.088864 69.353595 0.000000
6.132398 16.325610 0.000000
23.981312 34.665250 0.000000
5.376427 43.319631 0.000000
23.882585 71.433605 0.000000
6.124736 79.588316 0.000000
24.776210 45.416620 0.000000
24.946431 56.614079 0.000000
10.752083 6.375586 0.000000
12.894743 93.625460 0.000000
23.836000 87.699130 0.000000
6.155926 89.782091 0.000000
19.248565 93.623411 0.000000
6.164366 12.302233 0.000000
23.886460 30.607260 0.000000
23.877559 77.543952 0.000000
15.993494 48.772633 0.000000
5.251211 40.260448 0.000000
6.178688 93.732220 0.000000
3.877467 52.261786 0.000000
23.990247 8.280891 0.000000
17.186835 6.364626 0.000000
21.413206 6.362392 0.000000
3.711363 57.087486 0.000000
24.548632 37.413315 0.000000
5.712568 65.433508 0.000000
5.793943 32.523932 0.000000
24.589986 59.837123 0.000000
24.813004 53.682843 0.000000
5.250488 60.030776 0.000000
3.697518 48.909379 0.000000
24.119046 65.396539 0.000000
24.581314 40.691301 0.000000
10.603714 93.717869 0.000000
4.068917 28.558713 0.000000
4.081027 73.434619 0.000000
8.607507 4.236797 0.000000
21.392703 95.762913 0.000000
5.512345 38.522043 0.000000
17.126865 93.618251 0.000000
12.870913 6.383653 0.000000
25.921385 69.390773 0.000000
6.123796 22.456285 0.000000
25.918367 75.510204 0.000000
25.919947 26.532192 0.000000
4.081633 77.551021 0.000000
25.918367 22.448980 0.000000
25.918055 18.367035 0.000000
6.126108 20.415041 0.000000
23.865516 81.626176 0.000000
4.094668 87.761959 0.000000
25.903092 10.196473 0.000000
4.085158 83.675760 0.000000
25.916212 14.283559 0.000000
23.851875 83.638664 0.000000
6.166237 10.285603 0.000000
23.833198 89.714059 0.000000
6.100145 6.368968 0.000000
23.899708 93.630706 0.000000
3.849996 53.640692 0.000000
26.304700 57.958096 0.000000
26.390976 48.299874 0.000000
26.662179 42.156926 0.000000
24.928849 50.372815 0.000000
13.812511 49.014983 0.000000
6.961847 40.150704 0.000000
7.220966 63.583340 0.000000
8.149957 24.495948 0.000000
23.871440 16.336385 0.000000
22.546365 63.639938 0.000000
7.533761 34.314286 0.000000
23.539398 53.218806 0.000000
4.879497 50.090533 0.000000
23.877395 24.489952 0.000000
21.837403 77.544605 0.000000
4.942273 54.893282 0.000000
14.042009 51.239805 0.000000
21.957799 8.394841 0.000000
10.796003 91.534377 0.000000
6.137275 83.658457 0.000000
19.389985 91.656620 0.000000
10.642977 8.412362 0.000000
24.862291 43.842084 0.000000
23.887457 69.399677 0.000000
23.901485 28.589395 0.000000
23.882196 73.469776 0.000000
21.816253 81.579636 0.000000
5.179307 44.681010 0.000000
14.210175 48.650784 0.000000
21.781554 87.648985 0.000000
8.115148 12.462592 0.000000
8.650546 6.363441 0.000000
21.350405 93.635979 0.000000
24.663411 55.112128 0.000000
24.480994 61.756706 0.000000
8.023152 93.717055 0.000000
23.611367 50.645005 0.000000
24.922753 46.689466 0.000000
24.939931 48.967472 0.000000
5.138432 47.437222 0.000000
25.210225 42.253593 0.000000
15.083357 6.376675 0.000000
23.974703 32.674592 0.000000
24.018641 67.390173 0.000000
6.071740 28.533435 0.000000
6.032696 30.572869 0.000000
5.838095 36.820875 0.000000
19.313303 6.356962 0.000000
24.567791 39.067474 0.000000
5.934916 67.348646 0.000000
15.007592 93.613408 0.000000
6.109735 26.530614 0.000000
6.121468 71.394012 0.000000
6.121217 73.470014 0.000000
23.877083 22.449448 0.000000
23.876771 20.408631 0.000000
6.132219 18.371608 0.000000
8.164746 22.457893 0.000000
23.879217 75.504801 0.000000
6.122447 77.547502 0.000000
23.842069 85.655271 0.000000
23.863821 14.301895 0.000000
6.125976 81.631425 0.000000
24.747281 58.245451 0.000000
6.161833 14.324055 0.000000
6.156358 87.744384 0.000000
5.495841 61.447891 0.000000
14.375028 51.419444 0.000000
5.313717 41.826386 0.000000
6.202877 8.383179 0.000000
23.796848 91.616228 0.000000
23.850972 12.298467 0.000000
23.897727 10.313937 0.000000
6.162642 91.852046 0.000000
5.223624 58.441069 0.000000
13.628586 49.241874 0.000000
2.786570 54.199171 0.000000
5.093535 51.130499 0.000000
5.387914 52.233716 0.000000
3.358323 58.372731 0.000000
24.678812 35.893973 0.000000
13.607142 50.739267 0.000000
22.941442 41.026261 0.000000
23.223788 58.324579 0.000000
23.506071 46.765140 0.000000
6.482216 44.584016 0.000000
8.099406 69.355946 0.000000
6.357803 51.489803 0.000000
22.132765 34.570382 0.000000
21.884366 69.430514 0.000000
10.192943 24.500200 0.000000
8.163184 77.547578 0.000000
21.829594 16.348760 0.000000
21.836354 24.490489 0.000000
17.181425 8.462694 0.000000
7.654894 36.253489 0.000000
22.760177 61.916415 0.000000
6.728181 59.905241 0.000000
6.727014 41.596743 0.000000
12.864459 8.477611 0.000000
23.654334 49.356826 0.000000
8.007345 30.508084 0.000000
21.902053 28.606170 0.000000
8.137542 26.525713 0.000000
8.177006 81.607427 0.000000
21.794374 83.590324 0.000000
7.186926 38.525330 0.000000
7.015107 61.839380 0.000000
5.338531 56.651487 0.000000
19.872151 8.442610 0.000000
8.073424 89.599073 0.000000
8.271438 10.346690 0.000000
21.677622 89.640501 0.000000
23.449478 42.463540 0.000000
23.325650 51.972959 0.000000
23.330042 44.183491 0.000000
23.482458 55.740324 0.000000
5.148041 48.818759 0.000000
22.916720 37.715653 0.000000
22.015822 32.583921 0.000000
5.370442 53.547470 0.000000
7.507431 65.450312 0.000000
23.896408 26.568497 0.000000
8.160817 73.433612 0.000000
17.111241 91.511375 0.000000
22.292825 65.495872 0.000000
12.895571 91.525891 0.000000
21.867085 71.444405 0.000000
21.840385 75.505773 0.000000
23.876297 18.366873 0.000000
21.835560 22.450155 0.000000
8.248460 20.346607 0.000000
7.751615 32.465326 0.000000
8.179687 18.373078 0.000000
6.122212 75.510593 0.000000
21.807868 14.311537 0.000000
21.825204 79.544809 0.000000
6.150539 85.692882 0.000000
5.134328 46.040850 0.000000
21.779006 85.615406 0.000000
8.199717 16.395014 0.000000
8.224250 14.413504 0.000000
21.795834 12.397585 0.000000
21.699169 10.521320 0.000000
8.336322 91.561994 0.000000
8.133293 8.293858 0.000000
21.867399 91.706531 0.000000
23.516586 54.541985 0.000000
14.453896 48.556442 0.000000
25.238225 47.787622 0.000000
14.195523 51.302253 0.000000
22.958862 36.215682 0.000000
8.144178 41.549260 0.000000
8.421890 60.301761 0.000000
22.353255 54.162532 0.000000
22.464967 50.846703 0.000000
6.554031 48.817472 0.000000
21.044218 61.921272 0.000000
9.470408 34.412306 0.000000
19.896736 69.445945 0.000000
19.808323 75.512543 0.000000
10.221840 20.423287 0.000000
19.779021 79.496142 0.000000
19.775124 16.420730 0.000000
20.236331 34.461634 0.000000
19.795086 24.491422 0.000000
10.240021 16.469720 0.000000
6.413503 45.848624 0.000000
9.056013 63.626981 0.000000
10.165013 26.527671 0.000000
21.835011 20.408395 0.000000
19.674844 83.449691 0.000000
14.297504 48.455887 0.000000
22.349999 43.088950 0.000000
22.951502 60.196152 0.000000
9.021800 38.116547 0.000000
13.488444 50.412650 0.000000
6.365724 50.317585 0.000000
6.104654 55.080214 0.000000
18.986056 89.489607 0.000000
6.699509 57.246979 0.000000
10.044108 89.521230 0.000000
6.601349 43.002505 0.000000
10.776634 10.563823 0.000000
19.201430 10.542748 0.000000
23.606551 57.055676 0.000000
23.283637 45.471428 0.000000
23.009116 39.542705 0.000000
23.832626 47.983859 0.000000
22.107680 67.447639 0.000000
15.057387 8.467088 0.000000
21.878659 26.546718 0.000000
7.788147 67.381749 0.000000
20.781556 63.691942 0.000000
6.822586 58.427025 0.000000
8.162715 75.507075 0.000000
21.851491 73.475068 0.000000
9.702112 32.457152 0.000000
15.011124 91.520063 0.000000
21.917862 30.606984 0.000000
8.157559 71.390001 0.000000
8.072002 28.525975 0.000000
8.189608 83.659761 0.000000
10.208953 22.458613 0.000000
21.830076 18.393231 0.000000
8.165398 79.588241 0.000000
8.204106 85.655068 0.000000
8.212602 87.685542 0.000000
22.247762 52.043814 0.000000
10.281506 14.600909 0.000000
19.858600 87.627281 0.000000
19.768295 14.405443 0.000000
21.235482 35.786207 0.000000
22.055492 42.090022 0.000000
3.552023 46.248317 0.000000
6.477218 52.631238 0.000000
14.074613 51.468753 0.000000
21.267521 43.206749 0.000000
7.623500 49.895400 0.000000
7.454519 45.456673 0.000000
21.425923 51.623124 0.000000
19.361609 61.974414 0.000000
9.742125 67.387394 0.000000
19.951424 30.585322 0.000000
10.178004 71.399416 0.000000
10.202151 75.508143 0.000000
10.215226 79.565717 0.000000
10.248198 83.596478 0.000000
11.433770 34.358749 0.000000
19.659779 36.124614 0.000000
12.179625 26.525518 0.000000
12.330199 22.397486 0.000000
12.379252 16.414770 0.000000
17.653408 16.572879 0.000000
22.785660 47.586351 0.000000
7.869402 42.860172 0.000000
22.191123 56.893194 0.000000
21.406815 60.365026 0.000000
20.149475 67.520403 0.000000
19.845856 26.522525 0.000000
19.833442 73.494494 0.000000
10.069707 28.525376 0.000000
22.416736 49.749231 0.000000
7.460504 51.703671 0.000000
8.504576 39.859453 0.000000
8.319729 58.828183 0.000000
6.142505 46.759018 0.000000
22.247990 55.335280 0.000000
12.138980 89.165857 0.000000
17.914119 87.426583 0.000000
20.501555 65.594878 0.000000
9.496715 36.254127 0.000000
21.453194 39.077570 0.000000
21.596484 40.733754 0.000000
14.940569 10.545587 0.000000
16.964368 10.537124 0.000000
9.347761 65.498670 0.000000
8.621300 61.895188 0.000000
19.866367 71.473464 0.000000
22.239990 45.093362 0.000000
20.085298 32.542839 0.000000
19.792146 20.435077 0.000000
9.960094 30.507728 0.000000
12.859253 10.560230 0.000000
19.755888 85.526995 0.000000
19.783344 18.420410 0.000000
19.794302 22.450164 0.000000
17.066556 89.326025 0.000000
19.795951 77.496775 0.000000
22.136729 44.061282 0.000000
19.763883 81.477675 0.000000
10.233900 18.523933 0.000000
21.140825 37.504092 0.000000
19.893126 12.404498 0.000000
10.186732 12.619033 0.000000
10.207936 87.508327 0.000000
22.312564 53.030694 0.000000
6.717193 53.961431 0.000000
6.742458 56.121620 0.000000
21.677005 58.660720 0.000000
13.589769 50.546941 0.000000
7.741061 44.214374 0.000000
13.464216 50.616384 0.000000
9.731885 41.136364 0.000000
20.771535 57.274625 0.000000
8.490613 45.067810 0.000000
9.770659 59.143020 0.000000
10.909450 63.350601 0.000000
18.269947 67.566536 0.000000
17.861750 71.474869 0.000000
17.779913 75.435925 0.000000
18.286676 34.422817 0.000000
17.740798 79.435896 0.000000
17.931061 26.036097 0.000000
17.751471 22.477908 0.000000
11.993406 86.711078 0.000000
19.799139 60.341528 0.000000
21.244001 54.730634 0.000000
21.388285 52.675732 0.000000
12.183673 18.409634 0.000000
17.904275 14.697684 0.000000
14.937172 12.623506 0.000000
20.195854 40.358456 0.000000
19.156221 37.692705 0.000000
15.971062 87.354230 0.000000
7.670109 47.668472 0.000000
22.283335 46.855371 0.000000
12.497769 12.516127 0.000000
10.099674 39.603104 0.000000
11.326083 36.218072 0.000000
7.587670 52.882251 0.000000
7.602988 55.066063 0.000000
8.205827 57.600085 0.000000
21.520459 50.660827 0.000000
11.200897 65.480608 0.000000
21.158313 44.526039 0.000000
19.917008 28.573413 0.000000
10.188569 73.446985 0.000000
10.107031 69.353833 0.000000
19.055881 63.775158 0.000000
9.979963 60.454699 0.000000
15.030091 89.429578 0.000000
12.063477 28.521896 0.000000
11.642173 32.450128 0.000000
17.710887 81.477091 0.000000
12.233194 24.486911 0.000000
12.348198 14.417529 0.000000
10.207948 77.534361 0.000000
20.813159 41.775923 0.000000
18.135238 32.534665 0.000000
10.231889 81.583041 0.000000
17.790086 18.857560 0.000000
12.268043 20.263178 0.000000
17.754728 12.524423 0.000000
17.695072 83.522785 0.000000
17.763346 85.427074 0.000000
10.264455 85.656827 0.000000
8.820647 43.882350 0.000000
21.139207 55.958668 0.000000
7.329007 46.709657 0.000000
7.262855 50.785023 0.000000
21.362822 53.706851 0.000000
9.152980 42.529334 0.000000
22.666549 48.546495 0.000000
19.997708 42.720216 0.000000
9.935453 43.443779 0.000000
20.298905 55.292628 0.000000
20.557708 52.296448 0.000000
8.413521 51.971256 0.000000
11.253178 59.742807 0.000000
18.344843 60.443324 0.000000
12.510949 63.822848 0.000000
13.376062 50.795308 0.000000
12.194346 69.609129 0.000000
12.137227 73.802319 0.000000
13.266774 35.914998 0.000000
12.354395 77.371553 0.000000
15.570282 81.157153 0.000000
9.276905 56.768396 0.000000
17.926610 28.516085 0.000000
14.066417 28.531066 0.000000
15.487165 85.063526 0.000000
10.915829 40.435770 0.000000
14.205293 26.529933 0.000000
16.356414 34.470521 0.000000
14.348169 24.430784 0.000000
14.300444 22.468969 0.000000
14.214024 20.463572 0.000000
14.338414 18.528045 0.000000
12.275711 79.523779 0.000000
12.276331 81.544532 0.000000
14.357292 16.475358 0.000000
13.104567 34.145465 0.000000
12.309176 83.595850 0.000000
21.259966 45.407997 0.000000
10.839131 38.035403 0.000000
18.688418 65.626666 0.000000
9.591784 44.777881 0.000000
21.296096 49.784683 0.000000
21.398977 46.874424 0.000000
10.083488 61.990333 0.000000
17.983654 30.585260 0.000000
11.650226 67.428015 0.000000
20.594933 51.387278 0.000000
17.935745 69.502373 0.000000
17.678127 61.994429 0.000000
17.793213 36.330390 0.000000
11.928024 30.489825 0.000000
17.714892 24.320786 0.000000
17.638297 73.445268 0.000000
17.756835 77.396780 0.000000
18.028161 20.703249 0.000000
20.255031 43.935113 0.000000
20.379419 54.313924 0.000000
7.933531 56.400666 0.000000
20.422535 58.893288 0.000000
15.815976 14.836234 0.000000
8.280065 50.838455 0.000000
13.284558 50.557202 0.000000
11.663219 84.968960 0.000000
9.078122 45.887169 0.000000
7.826578 53.942857 0.000000
16.006397 18.582932 0.000000
19.701456 41.632086 0.000000
20.094516 38.804836 0.000000
21.717299 47.786848 0.000000
14.020261 87.168140 0.000000
14.146818 14.622322 0.000000
20.499408 53.327593 0.000000
10.397307 42.274427 0.000000
22.646028 46.030523 0.000000
19.272818 43.494399 0.000000
10.673454 44.193049 0.000000
13.122384 50.744545 0.000000
19.519165 54.741257 0.000000
19.804380 51.985680 0.000000
9.137345 51.239811 0.000000
17.776570 37.947859 0.000000
16.704981 60.634159 0.000000
19.687352 57.729439 0.000000
13.368895 67.503124 0.000000
12.801308 38.087834 0.000000
13.971901 30.512311 0.000000
13.267924 50.331371 0.000000
15.989487 69.502298 0.000000
15.857555 71.451203 0.000000
8.792296 54.371752 0.000000
15.789840 73.443897 0.000000
15.750812 75.369138 0.000000
11.265259 61.323052 0.000000
16.003038 77.408426 0.000000
16.823206 65.659908 0.000000
16.322296 36.223027 0.000000
20.826485 48.485949 0.000000
13.529375 50.962152 0.000000
10.982401 58.231536 0.000000
9.990519 45.794936 0.000000
18.636350 40.995957 0.000000
16.003580 32.382339 0.000000
17.344079 63.825391 0.000000
8.645174 53.039147 0.000000
12.947977 65.530577 0.000000
12.049109 72.173263 0.000000
13.543201 32.471576 0.000000
20.374875 45.164146 0.000000
15.936278 79.415766 0.000000
19.614641 53.830879 0.000000
12.200779 75.516685 0.000000
16.007785 30.322203 0.000000
9.073497 55.600853 0.000000
20.676059 50.545301 0.000000
15.970465 28.419413 0.000000
20.208040 56.401263 0.000000
8.677880 49.988306 0.000000
15.853522 82.673711 0.000000
8.162433 46.155518 0.000000
16.115013 26.406294 0.000000
16.308481 24.505451 0.000000
18.912542 42.317302 0.000000
21.631832 48.931676 0.000000
14.286139 77.517569 0.000000
16.188761 22.980853 0.000000
19.181537 59.006020 0.000000
16.333669 20.834067 0.000000
14.306527 79.498459 0.000000
15.649829 16.853705 0.000000
14.968672 36.207508 0.000000
14.166993 81.354495 0.000000
11.558615 39.494344 0.000000
14.125777 83.266107 0.000000
13.333460 85.173408 0.000000
12.664947 62.258933 0.000000
19.791833 52.867707 0.000000
21.742244 46.088515 0.000000
18.526488 39.391355 0.000000
11.200639 43.178038 0.000000
18.266160 43.118423 0.000000
11.764165 44.063257 0.000000
18.695660 54.139700 0.000000
9.324854 50.532839 0.000000
9.480077 53.661749 0.000000
13.161463 39.922661 0.000000
9.621993 46.659925 0.000000
16.889712 39.283543 0.000000
12.324608 59.001106 0.000000
20.527255 47.512687 0.000000
19.162557 52.492828 0.000000
14.217585 63.483201 0.000000
14.557630 37.801643 0.000000
18.414413 58.011042 0.000000
8.578613 49.035985 0.000000
20.504533 49.751157 0.000000
9.340541 52.113240 0.000000
10.399435 55.952810 0.000000
15.896601 62.369781 0.000000
20.646526 46.265566 0.000000
8.565534 47.040842 0.000000
19.174252 56.754469 0.000000
14.857041 65.893928 0.000000
10.014697 54.758370 0.000000
13.392193 50.140757 0.000000
16.412445 67.592022 0.000000
19.870929 51.195965 0.000000
14.038380 69.407389 0.000000
19.528164 44.619035 0.000000
11.738238 42.135677 0.000000
12.812193 60.382387 0.000000
17.871425 41.886648 0.000000
13.827574 71.433500 0.000000
13.046316 50.463260 0.000000
13.243285 51.041841 0.000000
19.413704 55.740076 0.000000
13.809389 73.446906 0.000000
16.237600 37.670984 0.000000
13.725099 75.491856 0.000000
14.547260 34.291607 0.000000
17.703442 59.219529 0.000000
13.713818 50.903029 0.000000
15.827702 64.246442 0.000000
10.243336 57.146715 0.000000
10.495991 45.079863 0.000000
19.053152 53.276450 0.000000
20.873765 49.185248 0.000000
12.844168 50.664110 0.000000
10.962866 55.153057 0.000000
18.212182 53.494494 0.000000
17.258246 42.774937 0.000000
10.022217 52.847173 0.000000
17.062435 57.933784 0.000000
13.438753 51.197620 0.000000
12.212752 57.735694 0.000000
19.910058 46.859393 0.000000
9.916938 51.244622 0.000000
14.344550 39.419241 0.000000
14.246505 60.238021 0.000000
18.442936 56.041372 0.000000
20.028294 48.476540 0.000000
13.887098 51.109272 0.000000
13.275027 49.914017 0.000000
11.322732 44.937686 0.000000
12.118402 40.937426 0.000000
11.311346 56.895935 0.000000
13.079606 50.158378 0.000000
14.434107 61.763730 0.000000
19.715898 45.838173 0.000000
19.148732 51.732031 0.000000
9.238974 47.714924 0.000000
19.911209 50.446426 0.000000
18.510577 52.903174 0.000000
7.618889 49.023274 0.000000
10.323769 53.967598 0.000000
18.647693 44.261756 0.000000
16.480658 59.238527 0.000000
18.716561 55.144341 0.000000
13.678611 51.138782 0.000000
17.489815 40.503110 0.000000
15.572420 38.968663 0.000000
12.938615 50.968535 0.000000
10.305235 46.433776 0.000000
17.909105 56.974746 0.000000
10.980332 41.383933 0.000000
14.837819 67.821848 0.000000
9.511106 49.736871 0.000000
9.525661 58.002296 0.000000
20.243897 49.101525 0.000000
15.268937 60.893569 0.000000
19.103649 46.410052 0.000000
12.154971 45.109861 0.000000
17.748362 53.044060 0.000000
19.369476 48.351635 0.000000
12.622029 50.896359 0.000000
10.801278 53.241784 0.000000
13.009685 42.171929 0.000000
15.677880 58.131868 0.000000
17.790902 55.408661 0.000000
13.578172 58.771972 0.000000
12.368106 56.526923 0.000000
15.826242 40.323323 0.000000
13.587155 51.371096 0.000000
9.465277 49.091021 0.000000
13.509920 49.563275 0.000000
14.453948 40.783165 0.000000
18.590754 52.181825 0.000000
19.230336 51.021474 0.000000
16.861091 56.679505 0.000000
10.996953 45.809594 0.000000
18.941145 45.337040 0.000000
17.808798 54.014866 0.000000
17.899828 54.648482 0.000000
19.829731 49.695700 0.000000
8.326209 48.277906 0.000000
16.741858 41.573916 0.000000
19.707306 47.765502 0.000000
10.143244 47.322548 0.000000
12.789977 50.341969 0.000000
10.316569 52.014259 0.000000
17.735915 43.956858 0.000000
12.988057 51.205543 0.000000
10.202002 50.529327 0.000000
15.101175 59.457749 0.000000
13.855186 51.332704 0.000000
13.448983 49.765429 0.000000
17.527738 56.155788 0.000000
11.674613 55.813718 0.000000
10.893710 54.465072 0.000000
13.412345 41.170763 0.000000
13.783480 51.598883 0.000000
17.364463 53.590269 0.000000
11.417666 53.842825 0.000000
16.789897 43.677434 0.000000
10.934300 52.490514 0.000000
15.863126 56.988568 0.000000
18.405798 45.962865 0.000000
14.266807 42.004752 0.000000
12.545424 55.323075 0.000000
19.000435 47.808167 0.000000
13.279411 49.642049 0.000000
16.789912 55.565239 0.000000
10.684743 51.358554 0.000000
10.939788 46.827363 0.000000
18.010538 52.515859 0.000000
18.581720 51.494915 0.000000
13.252448 57.321256 0.000000
10.400573 49.775356 0.000000
19.255637 50.376173 0.000000
16.196094 42.645957 0.000000
17.103222 54.284424 0.000000
18.160125 45.044728 0.000000
12.516129 43.299718 0.000000
19.370757 49.027802 0.000000
13.230231 51.381316 0.000000
19.242868 47.171163 0.000000
12.531130 50.557141 0.000000
12.760049 50.035242 0.000000
14.416377 57.929494 0.000000
13.594321 49.422503 0.000000
11.704126 45.563787 0.000000
7.358242 48.350751 0.000000
12.744480 51.136130 0.000000
15.431684 41.700210 0.000000
17.218213 54.948704 0.000000
9.411523 48.545541 0.000000
17.627515 45.666183 0.000000
16.720551 53.797118 0.000000
12.236497 45.951709 0.000000
17.061597 53.149969 0.000000
15.945287 55.996968 0.000000
10.869592 50.329786 0.000000
12.278247 50.816121 0.000000
11.214068 51.824935 0.000000
11.124919 47.697222 0.000000
15.775635 43.530892 0.000000
18.463252 47.067482 0.000000
14.247820 51.629657 0.000000
10.331421 48.223372 0.000000
14.924007 57.145400 0.000000
11.749549 54.603508 0.000000
16.507201 54.836714 0.000000
11.566734 46.359522 0.000000
18.094408 51.903036 0.000000
13.212055 56.071862 0.000000
13.432456 49.395577 0.000000
18.603428 50.851526 0.000000
17.378473 52.665556 0.000000
19.155431 49.698865 0.000000
13.586278 51.855089 0.000000
18.790824 48.518385 0.000000
12.987785 49.637177 0.000000
17.331645 44.813550 0.000000
11.480348 52.973378 0.000000
10.138169 49.073321 0.000000
13.011411 49.853488 0.000000
12.761810 51.417312 0.000000
6.698721 47.623765 0.000000
12.464125 50.202942 0.000000
15.098166 42.826410 0.000000
12.439877 51.161335 0.000000
13.884212 43.176417 0.000000
16.909466 45.458920 0.000000
16.152438 54.258540 0.000000
12.026602 53.308837 0.000000
16.728017 52.668177 0.000000
13.345067 55.034917 0.000000
12.748632 45.430150 0.000000
11.749160 52.237773 0.000000
12.125708 46.728242 0.000000
12.278560 51.513442 0.000000
13.310444 44.113248 0.000000
11.918673 51.102765 0.000000
15.010870 56.101293 0.000000
13.041562 51.679354 0.000000
13.346791 49.144657 0.000000
14.464575 51.653830 0.000000
14.050930 51.763086 0.000000
18.377781 48.004476 0.000000
18.094125 51.300169 0.000000
17.932659 46.530935 0.000000
18.693762 50.266879 0.000000
16.512697 53.326079 0.000000
15.776577 55.169175 0.000000
11.262599 48.385158 0.000000
11.009583 49.870436 0.000000
17.625437 52.173070 0.000000
18.699994 49.145398 0.000000
15.574398 44.403797 0.000000
16.473062 44.560621 0.000000
11.305146 51.238932 0.000000
10.956304 48.899646 0.000000
14.825931 43.785207 0.000000
13.194079 49.382044 0.000000
12.253532 50.446858 0.000000
12.396571 49.848143 0.000000
12.686589 49.734069 0.000000
12.728755 54.431669 0.000000
17.900212 47.627262 0.000000
14.147460 56.774954 0.000000
17.646504 47.070508 0.000000
16.013232 53.678466 0.000000
13.822163 51.957059 0.000000
18.166385 48.680963 0.000000
13.378236 54.315805 0.000000
12.294005 49.495908 0.000000
13.032789 49.112684 0.000000
14.705914 44.638234 0.000000
14.874754 51.569335 0.000000
14.806793 55.132499 0.000000
11.458053 50.306864 0.000000
13.552161 48.977396 0.000000
12.814457 46.283695 0.000000
18.087277 50.799141 0.000000
17.071286 52.297088 0.000000
11.680167 47.125964 0.000000
17.197945 46.304635 0.000000
12.551339 44.462572 0.000000
18.590162 49.706531 0.000000
16.268439 52.878384 0.000000
17.681472 51.610382 0.000000
14.304831 51.851575 0.000000
15.371731 54.414388 0.000000
16.224565 45.375958 0.000000
17.904872 48.247927 0.000000
14.108973 55.649661 0.000000
11.669673 48.919442 0.000000
11.776850 51.646053 0.000000
11.896565 50.588524 0.000000
12.592082 51.787847 0.000000
12.631174 49.412195 0.000000
10.864279 50.791753 0.000000
12.944466 49.378276 0.000000
14.100465 44.121762 0.000000
13.444759 51.623175 0.000000
12.203348 52.729729 0.000000
10.892635 49.447408 0.000000
12.050339 50.060778 0.000000
14.541902 51.490016 0.000000
17.028005 46.911888 0.000000
12.708745 46.982619 0.000000
15.433608 53.769110 0.000000
17.710332 48.980041 0.000000
16.513923 52.258656 0.000000
14.874035 51.771525 0.000000
17.525276 47.940597 0.000000
12.844724 52.034340 0.000000
12.574891 53.124499 0.000000
13.438207 45.703477 0.000000
11.907433 48.324342 0.000000
12.604665 49.027900 0.000000
13.941357 44.959417 0.000000
11.917195 49.573962 0.000000
13.551008 52.162845 0.000000
14.603445 51.889151 0.000000
18.169011 50.291339 0.000000
12.380941 52.208700 0.000000
15.396497 45.260873 0.000000
13.275085 51.940076 0.000000
17.290909 51.864795 0.000000
15.860724 53.186992 0.000000
17.681259 51.082684 0.000000
18.167847 49.231634 0.000000
13.047289 53.626200 0.000000
11.448875 49.758112 0.000000
14.561679 54.288151 0.000000
14.044970 54.738967 0.000000
16.507255 46.065095 0.000000
12.155519 51.878763 0.000000
13.246532 48.846138 0.000000
14.674530 51.623126 0.000000
14.089140 52.065167 0.000000
11.916613 47.768262 0.000000
13.205180 44.893102 0.000000
11.383234 50.777262 0.000000
16.464244 46.696696 0.000000
15.106482 51.802148 0.000000
14.876494 53.769563 0.000000
14.105969 48.363905 0.000000
16.154864 52.484590 0.000000
17.757726 49.425269 0.000000
14.692530 45.454761 0.000000
13.868247 53.902712 0.000000
13.097596 52.884579 0.000000
13.410067 46.555587 0.000000
17.536568 48.543069 0.000000
12.878342 48.864047 0.000000
12.196635 49.176258 0.000000
16.810417 51.977126 0.000000
15.305813 53.230941 0.000000
14.877127 52.008157 0.000000
17.286803 47.444950 0.000000
17.323167 51.361254 0.000000
12.700940 52.515882 0.000000
13.181035 52.351204 0.000000
17.664933 50.566507 0.000000
18.011940 49.786671 0.000000
15.745309 45.934567 0.000000
14.351155 52.137451 0.000000
12.368087 47.429353 0.000000
12.118052 48.798846 0.000000
12.257459 53.822923 0.000000
13.496616 48.730532 0.000000
14.143649 45.676366 0.000000
11.552393 48.074286 0.000000
13.837969 52.227717 0.000000
11.376936 49.319714 0.000000
15.886542 46.576126 0.000000
17.192280 48.221247 0.000000
13.298056 47.154955 0.000000
17.314509 49.148025 0.000000
15.156291 52.061888 0.000000
16.329272 51.938985 0.000000
14.769223 53.188065 0.000000
14.422382 48.274796 0.000000
12.715137 47.841940 0.000000
13.346390 48.494870 0.000000
13.975922 48.602089 0.000000
17.602806 49.857908 0.000000
14.662310 46.179140 0.000000
13.607820 52.606658 0.000000
13.614280 53.184309 0.000000
12.552001 48.572004 0.000000
15.691634 52.716604 0.000000
16.700212 47.320474 0.000000
15.438258 51.517034 0.000000
16.987112 51.588757 0.000000
17.329139 50.894668 0.000000
15.248434 51.590077 0.000000
13.032816 48.554527 0.000000
12.385823 48.034651 0.000000
14.617674 52.157741 0.000000
15.164729 45.858584 0.000000
17.738220 50.162003 0.000000
13.710849 48.844009 0.000000
14.025666 52.403050 0.000000
13.968603 46.241007 0.000000
14.201818 48.109284 0.000000
17.439152 50.192118 0.000000
16.035921 52.147935 0.000000
14.893862 52.371179 0.000000
13.871172 46.880107 0.000000
13.274157 48.159952 0.000000
14.668344 48.456935 0.000000
17.328525 49.526278 0.000000
15.108970 52.774353 0.000000
17.195115 48.757354 0.000000
16.206577 47.154176 0.000000
13.787074 48.447824 0.000000
16.966761 47.792036 0.000000
17.006906 51.146006 0.000000
16.564802 51.680225 0.000000
15.381789 51.761942 0.000000
15.661912 51.466398 0.000000
14.220847 53.185255 0.000000
12.823239 48.168034 0.000000
15.325879 46.496563 0.000000
13.969955 52.771266 0.000000
14.065250 48.747264 0.000000
17.238427 50.520784 0.000000
12.908160 47.499900 0.000000
14.417241 52.554495 0.000000
14.410159 46.801051 0.000000
14.497148 48.030964 0.000000
16.903309 48.485442 0.000000
15.920353 51.534959 0.000000
16.864555 48.953486 0.000000
16.990874 50.779758 0.000000
13.749497 47.406380 0.000000
15.449726 52.063606 0.000000
16.984572 50.526896 0.000000
13.365190 47.696155 0.000000
16.992973 49.274964 0.000000
16.388557 47.701615 0.000000
16.722997 51.353379 0.000000
17.256195 49.877252 0.000000
15.720577 52.301053 0.000000
15.695226 47.048012 0.000000
15.923498 51.840754 0.000000
14.766513 52.740023 0.000000
15.336844 52.381447 0.000000
13.892488 48.189924 0.000000
16.375343 51.446869 0.000000
13.587189 48.303006 0.000000
14.701290 48.232690 0.000000
13.897011 48.808103 0.000000
14.418554 53.722592 0.000000
14.270013 47.287641 0.000000
14.574928 52.917371 0.000000
13.017177 47.873196 0.000000
14.955430 48.214385 0.000000
16.654235 48.701001 0.000000
14.721915 47.314417 0.000000
16.724137 51.019428 0.000000
14.260915 47.887609 0.000000
16.475276 51.151926 0.000000
16.673675 48.128505 0.000000
16.609672 49.151505 0.000000
17.045143 50.224592 0.000000
16.679978 50.715073 0.000000
15.973902 47.503850 0.000000
13.616110 47.998614 0.000000
16.007779 51.236724 0.000000
17.014948 49.585468 0.000000
16.191866 51.661293 0.000000
15.260325 47.015649 0.000000
15.708220 51.682475 0.000000
14.066882 47.655500 0.000000
13.730393 48.667975 0.000000
13.939524 47.926605 0.000000
14.787803 47.979958 0.000000
15.066909 47.960110 0.000000
16.259041 48.051144 0.000000
16.288085 49.068679 0.000000
16.550269 49.610521 0.000000
15.526778 47.488809 0.000000
16.510149 50.919751 0.000000
16.477445 48.413044 0.000000
16.487894 49.417810 0.000000
14.499076 47.691606 0.000000
16.734498 49.379297 0.000000
16.952568 49.882061 0.000000
16.470272 48.905752 0.000000
16.722273 50.429575 0.000000
15.080084 48.422415 0.000000
16.275162 51.232461 0.000000
16.274404 50.952374 0.000000
15.703288 51.966294 0.000000
16.154101 51.422461 0.000000
14.916264 46.867381 0.000000
16.400274 50.751706 0.000000
13.747441 47.736651 0.000000
13.589532 48.528841 0.000000
15.880965 47.849220 0.000000
15.476312 48.485495 0.000000
16.151726 48.347633 0.000000
16.274977 48.659445 0.000000
16.159239 48.902712 0.000000
15.282036 48.434241 0.000000
16.762170 49.673109 0.000000
15.096318 47.354117 0.000000
16.800250 50.127075 0.000000
16.521160 50.371535 0.000000
15.197776 48.217866 0.000000
14.895168 47.665933 0.000000
15.668606 48.354214 0.000000
15.347989 48.000647 0.000000
16.543975 49.959043 0.000000
15.871188 48.245665 0.000000
15.996603 48.543670 0.000000
16.704298 49.931790 0.000000
15.240735 47.726583 0.000000
15.526145 47.844476 0.000000
15.439461 48.259796 0.000000
15.827628 48.654662 0.000000
15.785793 48.500682 0.000000
15.642796 48.079589 0.000000
POLYGONS 2699 10796
3 638 743 547
3 887 1006 964
3 1300 1301 1263
3 1072 1281 1120
3 1387 1399 1374
3 1206 1267 1232
3 1315 1341 1337
3 902 907 886
3 286 337 270
3 996 1059 956
3 1048 1110 1081
3 1316 1342 1321
3 809 939 876
3 559 570 510
3 1264 1289 1220
3 1300 1337 1301
3 887 964 640
3 1001 1018 981
3 1212 1230 1186
3 941 1003 876
3 549 745 683
3 1188 1250 140
3 797 860 765
3 1299 1316 1283
3 743 748 700
3 885 997 945
3 699 806 801
3 699 801 745
3 719 797 765
3 858 913 822
3 822 1027 776
3 561 617 571
3 969 1092 939
3 1082 1113 1059
3 1022 1083 1057
3 531 680 614
3 469 708 616
3 1079 1116 1095
3 431 638 547
3 1207 1248 1148
3 1151 1197 1092
3 747 806 616
3 1120 1281 1177
3 646 745 549
3 1141 1151 1092
3 1228 1253 1231
3 140 1250 1218
3 1041 1103 1045
3 893 935 751
3 1375 1396 1373
3 432 475 337
3 561 571 530
3 949 959 843
3 642 742 572
3 1048 1081 1066
3 1114 1118 1057
3 1004 1036 969
3 1108 1122 1100
3 1261 1283 1231
3 766 938 868
3 776 858 822
3 1087 1111 1062
3 401 470 429
3 1405 1406 1375
3 1192 1220 1149
3 1419 1430 178
3 1294 1364 1323
3 372 401 371
3 1299 1409 1342
3 547 743 700
3 843 959 937
3 1320 1359 1341
3 1190 1217 1208
3 636 1294 612
3 1337 1341 1334
3 1415 1428 1392
3 880 996 956
3 1180 1219 1196
3 1429 1435 1428
3 1136 1140 1102
3 531 1117 680
3 1351 1381 1322
3 1316 1321 1264
3 1152 1254 1208
3 479 642 572
3 279 423 217
3 712 870 785
3 401 429 371
3 577 677 546
3 1415 1429 1428
3 620 1013 682
3 573 648 558
3 1232 1286 1206
3 1356 1360 1349
3 890 913 775
3 1164 1171 1118
3 712 785 590
3 1285 1315 1300
3 578 619 500
3 511 573 558
3 1184 1262 1246
3 1380 1413 1395
3 278 362 199
3 139 1188 140
3 1386 1407 1332
3 1090 1143 1107
3 620 641 581
3 904 991 944
3 969 1024 1004
3 765 871 771
3 280 465 221
3 1092 1197 941
3 772 826 747
3 1375 1406 1396
3 765 771 727
3 707 774 679
3 941 1197 1031
3 282 336 193
3 951 982 962
3 1348 1411 1351
3 970 1007 935
3 942 989 985
3 1192 1264 1220
3 1413 1432 1395
3 1367 1399 1387
3 1255 1287 1247
3 700 711 580
3 1246 1262 1245
3 281 364 219
3 1010 1105 1054
3 1336 1409 1299
3 1120 1177 1078
3 1274 1300 1263
3 1190 1244 1217
3 701 859 743
3 575 609 485
3 1219 1255 1196
3 576 610 484
3 885 932 839
3 954 1105 1043
3 485 609 495
3 283 399 223
3 484 610 496
3 1113 1207 1148
3 963 988 957
3 572 644 538
3 218 286 270
3 1416 1417 420
3 841 900 864
3 951 962 905
3 1217 1244 1232
3 1054 1105 954
3 717 792 766
3 619 777 706
3 578 740 672
3 1019 1055 1041
3 285 343 228
3 407 646 549
3 1303 1356 1259
3 1433 1436 1425
3 284 466 226
3 952 997 885
3 681 792 677
3 463 479 336
3 1263 1301 1243
3 1114 1284 1164
3 649 700 580
3 366 430 365
3 1036 1141 1092
3 1041 1045 997
3 809 876 841
3 1100 1122 1049
3 434 476 338
3 497 611 432
3 743 859 748
3 338 541 423
3 498 638 431
3 937 959 838
3 293 366 365
3 1401 1430 1419
3 672 684 619
3 652 807 698
3 270 467 341
3 717 766 716
3 1187 1261 1231
3 1427 1430 258
3 643 674 576
3 1108 1192 1149
3 1005 1040 994
3 484 643 576
3 291 372 371
3 430 474 402
3 951 1007 958
3 861 943 880
3 149 964 150
3 155 468 156
3 942 985 910
3 1118 1171 1134
3 365 430 402
3 775 913 858
3 338 423 279
3 647 738 575
3 1081 1163 1121
3 701 743 638
3 343 433 265
3 812 956 904
3 1086 1179 1098
3 1098 1179 1119
3 485 647 575
3 608 645 482
3 538 543 427
3 1170 1254 1152
3 998 1007 970
3 639 708 570
3 1147 1253 1228
3 1035 1133 1072
3 437 608 482
3 1082 1170 1113
3 935 1007 951
3 1158 1178 1116
3 1283 1316 1228
3 1051 1071 989
3 343 543 538
3 1302 1309 1266
3 1031 1100 1003
3 420 1429 1416
3 865 904 890
3 286 432 337
3 436 577 546
3 1178 1180 1116
3 1180 1196 1160
3 910 985 936
3 792 867 766
3 1045 1103 1077
3 1136 1150 1140
3 1026 1087 1062
3 1397 1415 1392
3 773 885 839
3 579 637 577
3 639 839 772
3 1149 1279 1195
3 1210 1230 1212
3 218 270 198
3 1059 1113 1074
3 883 961 916
3 1413 1436 1432
3 219 286 218
3 267 498 431
3 1196 1255 1247
3 411 649 580
3 685 814 760
3 221 269 197
3 1087 1216 1165
3 223 268 210
3 1352 1377 1346
3 1019 1041 947
3 1354 1375 1373
3 886 912 902
3 998 1029 1007
3 839 932 772
3 1113 1148 1074
3 495 609 461
3 989 1071 1032
3 1144 1281 1072
3 650 723 579
3 496 610 462
3 1121 1143 1090
3 708 772 747
3 564 807 652
3 733 779 681
3 1097 1176 1135
3 1177 1184 1146
3 953 1023 961
3 958 982 951
3 1348 1351 1289
3 381 495 461
3 607 737 648
3 841 864 749
3 382 496 462
3 427 572 538
3 881 977 850
3 1315 1337 1300
3 607 648 573
3 1191 1314 468
3 1376 1392 1353
3 503 1137 620
3 917 943 861
3 840 903 783
3 581 641 476
3 770 874 548
3 269 486 342
3 1083 1195 1114
3 479 572 336
3 1402 1417 1416
3 504 577 436
3 618 740 475
3 1362 1375 1354
3 873 939 809
3 651 717 716
3 774 904 865
3 160 612 161
3 1252 1284 1114
3 1206 1286 1171
3 1381 1411 1389
3 337 578 500
3 1377 1398 176
3 913 957 822
3 1392 1413 1353
3 499 608 437
3 102 279 217
3 104 278 199
3 41 280 221
3 777 842 706
3 710 1137 503
3 996 1082 1059
3 819 952 885
3 619 706 500
3 1331 1362 1354
3 992 1048 1023
3 885 945 932
3 45 281 219
3 275 499 437
3 685 849 814
3 1230 1302 1266
3 1242 1276 1260
3 1379 1410 177
3 1129 1238 1214
3 1001 1064 1018
3 177 1403 1379
3 1049 1083 1022
3 883 916 748
3 100 282 193
3 913 963 957
3 1230 1266 1186
3 107 283 223
3 1067 1120 1078
3 220 361 194
3 1372 1399 1367
3 1124 1179 1086
3 706 807 564
3 806 873 809
3 895 903 840
3 1077 1141 1036
3 946 1010 960
3 699 745 646
3 1370 1423 1404
3 944 1014 963
3 1326 1344 1288
3 176 1393 1377
3 872 936 811
3 1389 1411 1387
3 336 540 463
3 1135 1176 1131
3 1377 1400 1398
3 38 284 226
3 1303 1360 1356
3 1293 1359 1325
3 228 265 190
3 682 804 641
3 1350 1403 1378
3 423 463 217
3 1219 1304 1255
3 1279 1310 1252
3 997 1045 945
3 767 881 850
3 948 1039 970
3 226 266 192
3 1177 1281 1243
3 258 1430 1421
3 1308 1332 1256
3 953 961 883
3 637 733 681
3 1376 1397 1392
3 714 840 783
3 98 285 228
3 486 577 504
3 1288 1376 1329
3 899 1005 994
3 1293 1325 1269
3 1161 1235 1198
3 1094 1214 1154
3 1179 1205 1153
3 1148 1236 1215
3 1199 1303 1259
3 1301 1337 1334
3 723 779 733
3 1344 1397 1376
3 1040 1124 1086
3 1035 1072 1014
3 1325 1360 1303
3 486 579 577
3 1353 1413 1380
3 1150 1248 1207
3 1367 1387 1348
3 1392 1428 1413
3 258 1421 1403
3 1416 1429 1415
3 1000 1093 1033
3 715 839 639
3 376 497 432
3 1217 1232 1175
3 1318 1378 1355
3 776 1027 709
3 1236 1273 1215
3 1124 1205 1179
3 1330 1373 1347
3 1255 1327 1287
3 1203 1237 1168
3 1346 1371 1344
3 1307 1347 1339
3 1378 1421 1401
3 228 343 265
3 1110 1163 1081
3 1030 1116 1076
3 285 543 343
3 369 499 275
3 762 811 684
3 1280 1302 1230
3 1233 1300 1274
3 1269 1303 1240
3 133 1382 211
3 1356 1407 1319
3 1214 1238 1154
3 502 613 465
3 956 1059 991
3 1264 1321 1289
3 578 672 619
3 173 1398 1394
3 337 467 270
3 1115 1169 1168
3 946 960 864
3 1134 1216 1087
3 209 369 275
3 819 885 773
3 1042 1214 1094
3 4 1427 258
3 1290 1346 1326
3 1172 1213 1141
3 222 287 191
3 397 424 340
3 1107 1109 1071
3 1014 1072 1068
3 723 838 779
3 1357 1395 1385
3 1118 1134 1105
3 1227 1273 1263
3 1148 1248 1236
3 1159 1193 1126
3 199 434 338
3 130 1410 1406
3 1398 1400 1394
3 1036 1092 969
3 227 267 220
3 895 965 962
3 277 397 340
3 1342 1367 1321
3 1108 1149 1122
3 741 865 775
3 336 572 427
3 910 936 872
3 994 1086 1039
3 1295 1310 1279
3 1324 1352 1290
3 270 341 198
3 702 840 714
3 970 1039 998
3 410 650 579
3 1010 1054 960
3 1265 1288 1225
3 1189 1202 1163
3 561 709 617
3 989 1032 1012
3 1078 1177 1146
3 988 1120 1067
3 1199 1259 1145
3 1346 1402 1371
3 1265 1326 1288
3 1325 1359 1320
3 977 1020 952
3 1275 1318 1313
3 812 904 774
3 1109 1162 1145
3 1147 1228 1192
3 1222 1326 1265
3 1171 1286 1216
3 709 1027 750
3 1145 1223 1194
3 291 371 247
3 1245 1257 1202
3 1298 1324 1260
3 1204 1265 1225
3 992 1023 953
3 1377 1402 1346
3 1133 1215 1144
3 1295 1335 1310
3 1223 1292 1268
3 1403 1421 1378
3 1277 1336 1312
3 1234 1250 1224
3 897 1028 1000
3 751 935 815
3 1373 1379 1347
3 1329 1376 1353
3 1198 1276 1242
3 1292 1384 1331
3 1304 1353 1327
3 748 916 802
3 651 716 582
3 1130 1183 1158
3 435 473 400
3 1272 1330 1307
3 341 465 280
3 1139 1172 1141
3 1306 1354 1330
3 1169 1203 1168
3 1123 1159 1085
3 1111 1211 1062
3 962 982 895
3 1202 1221 1143
3 859 883 748
3 943 996 880
3 760 859 701
3 612 1323 161
3 949 995 959
3 965 1025 962
3 1026 1134 1087
3 288 397 277
3 1164 1229 1206
3 1326 1346 1344
3 289 344 248
3 1371 1416 1397
3 1078 1146 1124
3 358 501 269
3 1074 1133 1035
3 1131 1173 1080
3 1121 1163 1143
3 983 1005 899
3 1074 1148 1133
3 1239 1306 1272
3 1426 1436 1433
3 1394 1419 178
3 1247 1287 1277
3 331 435 370
3 991 1014 944
3 1225 1329 1271
3 1167 1242 1183
3 1421 1430 1401
3 1241 1307 1275
3 278 678 362
3 410 579 486
3 503 620 581
3 963 1068 988
3 1149 1195 1122
3 1271 1329 1304
3 1221 1240 1181
3 1290 1352 1346
3 1045 1069 945
3 501 548 410
3 1153 1163 1110
3 1047 1126 1088
3 639 772 708
3 878 942 910
3 463 540 217
3 198 341 280
3 1327 1357 1287
3 945 1069 1004
3 702 714 653
3 1202 1257 1221
3 771 871 790
3 210 678 278
3 199 338 279
3 277 301 288
3 1347 1350 1339
3 1357 1385 1336
3 170 1417 1393
3 362 503 434
3 991 1035 1014
3 901 1019 938
3 542 679 584
3 1204 1225 1178
3 1395 1431 1420
3 1085 1159 1126
3 1126 1235 1161
3 1165 1190 1111
3 1395 1420 1385
3 467 564 502
3 653 714 589
3 1320 1360 1325
3 1327 1380 1357
3 1142 1169 1132
3 1006 1135 1002
3 381 461 327
3 1088 1161 1128
3 382 462 329
3 376 432 286
3 469 562 421
3 500 706 564
3 575 738 494
3 1084 1123 1046
3 1397 1416 1415
3 1203 1277 1237
3 1290 1326 1222
3 584 642 479
3 1260 1290 1222
3 641 804 551
3 966 1047 1011
3 1195 1279 1252
3 1393 1402 1377
3 764 860 797
3 752 965 895
3 1229 1310 1302
3 1116 1180 1160
3 165 1418 1414
3 1162 1240 1199
3 684 847 777
3 281 464 364
3 1142 1203 1169
3 642 775 742
3 1289 1351 1340
3 811 879 847
3 1237 1312 1261
3 900 1049 1022
3 1235 1276 1198
3 745 749 683
3 679 774 741
3 783 903 849
3 547 649 527
3 1363 1412 1296
3 1409 1420 1372
3 1200 1272 1241
3 1002 1065 179
3 1011 1088 1053
3 1086 1098 1039
3 491 631 602
3 215 381 327
3 1243 1262 1184
3 216 382 329
3 1229 1302 1280
3 269 342 197
3 616 699 562
3 1321 1367 1348
3 869 923 897
3 268 491 363
3 992 1075 1048
3 370 400 373
3 1122 1195 1083
3 1322 1369 1351
3 510 570 442
3 719 765 718
3 341 502 465
3 1220 1340 1279
3 611 711 618
3 1183 1204 1158
3 486 504 342
3 658 776 709
3 1004 1069 1036
3 989 1012 985
3 269 501 410
3 879 1009 966
3 897 1000 949
3 197 342 284
3 1222 1265 1183
3 762 872 811
3 1062 1211 1082
3 707 812 774
3 819 979 930
3 954 1026 917
3 370 435 400
3 809 841 801
3 475 578 337
3 1081 1104 1038
3 1262 1366 1245
3 43 218 198
3 1259 1319 1223
3 950 1009 879
3 644 858 776
3 44 219 218
3 847 966 914
3 268 532 407
3 1206 1280 1267
3 194 464 281
3 190 372 291
3 1146 1205 1124
3 559 715 639
3 1059 1074 991
3 654 719 718
3 564 652 502
3 991 1074 1035
3 1073 1169 1115
3 1289 1340 1220
3 40 221 197
3 106 223 210
3 1009 1085 1047
3 364 411 376
3 1046 1123 1085
3 1159 1241 1193
3 549 683 631
3 1235 1313 1276
3 411 580 497
3 1012 1046 950
3 549 631 491
3 1187 1213 1172
3 199 279 103
3 475 740 578
3 1032 1084 1012
3 1030 1050 1008
3 570 708 469
3 1033 1130 1079
3 198 280 42
3 512 651 582
3 1331 1384 1362
3 680 1070 1064
3 1051 1090 1071
3 210 278 105
3 1043 1134 1026
3 1098 1119 1037
3 879 966 847
3 1165 1244 1190
3 35 289 248
3 1396 1410 1379
3 194 281 46
3 1175 1232 1185
3 1288 1329 1225
3 895 982 903
3 1091 1132 1060
3 914 1011 955
3 331 370 292
3 868 938 767
3 1166 1239 1200
3 217 282 101
3 1107 1162 1109
3 1044 1099 153
3 1069 1077 1036
3 193 543 285
3 773 839 715
3 1047 1088 1011
3 1282 1388 1314
3 407 491 268
3 944 963 890
3 1106 1196 1142
3 1434 1435 1429
3 1240 1303 1199
3 1123 1200 1159
3 1193 1235 1126
3 904 944 890
3 698 770 548
3 1009 1047 966
3 191 283 108
3 1076 1160 1106
3 1362 1405 1375
3 942 1051 989
3 1186 1266 1249
3 1279 1340 1295
3 197 284 39
3 492 612 159
3 1395 1432 1431
3 1352 1400 1377
3 990 1089 1055
3 1298 1355 1324
3 1233 1274 1238
3 917 1026 943
3 1012 1084 1046
3 1157 1182 1070
3 1345 1384 1358
3 942 1052 1051
3 1342 1372 1367
3 1372 1424 1399
3 1075 1110 1048
3 952 1020 997
3 867 922 901
3 337 500 467
3 434 581 476
3 1087 1165 1111
3 193 285 99
3 411 497 376
3 95 291 247
3 980 1016 992
3 986 1028 897
3 947 1041 1020
3 888 1025 965
3 1359 1368 1341
3 897 949 869
3 1301 1334 1262
3 267 431 361
3 966 1011 914
3 1428 1436 1413
3 1319 1358 1292
3 47 220 194
3 1016 1063 1037
3 551 707 679
3 546 717 651
3 683 803 631
3 503 581 434
3 611 618 475
3 876 984 841
3 1418 1433 1414
3 1071 1109 1032
3 1044 1125 1099
3 401 571 470
3 1046 1085 1009
3 267 361 220
3 811 847 684
3 1229 1280 1206
3 1276 1298 1260
3 1223 1319 1292
3 545 744 147
3 1000 1056 949
3 1145 1259 1223
3 1093 1167 1130
3 229 264 222
3 421 562 532
3 109 222 191
3 1332 1407 1349
3 191 357 283
3 500 564 467
3 1065 1080 1044
3 1017 1052 942
3 502 652 613
3 707 861 812
3 682 1013 954
3 1350 1378 1339
3 168 1434 420
3 761 805 618
3 1132 1169 1073
3 697 929 860
3 1237 1261 1187
3 1073 1089 990
3 551 804 707
3 995 1030 1008
3 501 652 548
3 37 226 192
3 370 373 227
3 1333 1386 1305
3 950 1046 1009
3 342 466 284
3 1146 1246 1205
3 954 1043 1026
3 697 860 764
3 1060 1132 1073
3 814 980 926
3 1106 1132 1091
3 1275 1339 1318
3 824 912 886
3 767 938 881
3 838 959 908
3 1119 1153 1075
3 560 701 638
3 940 1060 990
3 878 910 857
3 1215 1273 1227
3 857 872 805
3 217 540 282
3 1324 1383 1352
3 811 936 879
3 1317 1343 1294
3 1401 1419 1383
3 882 1016 980
3 698 869 770
3 936 950 879
3 877 973 862
3 580 611 497
3 1193 1275 1235
3 930 952 819
3 1099 1125 539
3 361 527 464
3 1126 1161 1088
3 1268 1331 1306
3 1190 1254 1111
3 548 650 410
3 1344 1376 1288
3 658 709 561
3 507 653 589
3 1194 1268 1239
3 1334 1368 1293
3 97 228 190
3 967 1025 888
3 861 880 812
3 1148 1215 1133
3 1330 1347 1307
3 1205 1246 1189
3 1003 1100 1049
3 1181 1240 1162
3 1075 1153 1110
3 584 741 642
3 1037 1075 992
3 1220 1279 1149
3 880 956 812
3 637 677 577
3 1018 1064 1042
3 736 868 767
3 432 611 475
3 960 1054 769
3 1085 1126 1047
3 750 784 617
3 1304 1327 1255
3 740 805 762
3 527 649 411
3 433 561 530
3 258 1422 127
3 1393 1417 1402
3 399 532 268
3 1260 1324 1290
3 546 651 436
3 287 442 421
3 1178 1271 1180
3 1103 1139 1077
3 882 980 814
3 1243 1301 1262
3 807 923 869
3 873 969 939
3 1038 1052 1017
3 716 736 582
3 836 979 819
3 990 1055 971
3 721 844 632
3 959 1008 908
3 654 718 563
3 801 841 749
3 342 504 466
3 847 914 777
3 359 436 266
3 1008 1050 968
3 902 912 845
3 621 701 560
3 751 815 778
3 548 874 650
3 940 971 922
3 362 434 199
3 850 977 896
3 560 638 498
3 410 486 269
3 1211 1254 1170
3 1378 1401 1355
3 1109 1145 1127
3 1080 1173 1125
3 1029 1063 882
3 492 1338 1297
3 1321 1348 1289
3 1160 1196 1106
3 1168 1237 1187
3 958 1029 882
3 552 628 583
3 1354 1373 1330
3 444 654 563
3 1400 1419 1394
3 1379 1403 1350
3 1089 1103 1055
3 900 1022 946
3 1277 1312 1237
3 760 926 859
3 1387 1411 1348
3 1282 1314 1191
3 487 653 507
3 905 962 884
3 720 778 686
3 750 1027 899
3 192 289 36
3 864 960 919
3 442 469 421
3 1249 1282 1191
3 815 951 905
3 652 698 548
3 1116 1160 1076
3 292 370 227
3 930 977 952
3 882 1063 1016
3 1259 1356 1319
3 1147 1192 1108
3 995 1008 959
3 357 399 283
3 896 930 828
3 161 1323 162
3 899 994 948
3 1127 1194 1166
3 506 583 418
3 943 1062 996
3 938 1019 947
3 860 871 765
3 470 721 632
3 48 227 220
3 505 654 444
3 1229 1284 1252
3 971 1055 1019
3 531 614 142
3 473 657 621
3 672 762 684
3 976 978 818
3 133 211 134
3 1402 1416 1371
3 685 760 621
3 892 978 976
3 644 776 658
3 924 978 892
3 552 583 506
3 110 229 222
3 190 291 96
3 856 968 875
3 1385 1420 1409
3 894 924 892
3 393 510 442
3 709 750 617
3 770 869 843
3 357 421 399
3 810 857 761
3 1319 1407 1358
3 1050 1091 1015
3 1426 1433 1423
3 1180 1271 1219
3 1072 1120 1068
3 1380 1395 1357
3 984 1049 900
3 1143 1221 1181
3 875 922 808
3 632 844 751
3 1028 1093 1000
3 1143 1181 1107
3 1032 1127 1084
3 681 856 808
3 336 427 193
3 899 1027 983
3 755 850 828
3 361 464 194
3 293 365 229
3 211 1382 1345
3 680 1157 1070
3 1158 1204 1178
3 1186 1249 1155
3 908 1008 968
3 1168 1172 1115
3 1183 1242 1222
3 957 1067 1005
3 1167 1183 1130
3 1095 1116 1030
3 846 884 817
3 919 960 803
3 272 505 444
3 571 721 470
3 1227 1263 1243
3 876 1003 984
3 1287 1336 1277
3 538 561 433
3 192 360 289
3 723 733 579
3 1177 1243 1184
3 621 760 701
3 1252 1310 1229
3 371 383 247
3 580 711 611
3 845 912 823
3 440 495 381
3 1245 1366 1257
3 751 778 720
3 1003 1049 984
3 441 496 382
3 1107 1181 1162
3 779 908 856
3 104 199 103
3 1228 1264 1192
3 1358 1384 1292
3 43 198 42
3 846 905 884
3 44 218 43
3 135 1305 136
3 1049 1122 1083
3 45 219 44
3 364 376 219
3 1358 1407 1386
3 106 210 105
3 41 221 40
3 421 532 399
3 1198 1242 1167
3 1162 1199 1145
3 47 194 46
3 102 217 101
3 1109 1127 1032
3 656 720 686
3 40 197 39
3 1030 1076 1050
3 107 223 106
3 644 658 538
3 1164 1206 1171
3 437 482 413
3 1141 1213 1151
3 1045 1077 1069
3 1042 1094 993
3 1156 1250 1234
3 656 686 550
3 1355 1401 1383
3 1139 1141 1077
3 109 191 108
3 100 193 99
3 407 549 491
3 869 949 843
3 994 1039 948
3 1005 1067 1040
3 1195 1252 1114
3 849 958 882
3 780 823 703
3 542 584 423
3 105 278 104
3 803 960 769
3 864 919 749
3 780 845 823
3 103 279 102
3 42 280 41
3 1080 1125 1044
3 805 872 762
3 46 281 45
3 1306 1330 1272
3 1355 1383 1324
3 380 506 418
3 1384 1408 1362
3 692 836 819
3 566 780 655
3 431 547 527
3 1170 1207 1113
3 1015 1091 1060
3 348 437 413
3 101 282 100
3 215 327 254
3 216 329 255
3 108 283 107
3 1292 1331 1268
3 513 656 404
3 1342 1409 1372
3 1196 1247 1142
3 1131 1212 1173
3 373 498 267
3 487 507 445
3 438 509 366
3 949 1056 995
3 677 792 717
3 1115 1172 1139
3 431 527 361
3 151 1065 152
3 469 616 562
3 39 284 38
3 227 373 267
3 657 783 685
3 1318 1355 1298
3 38 226 37
3 1034 1096 987
3 999 1017 975
3 265 372 190
3 655 780 703
3 359 504 436
3 1239 1272 1200
3 692 773 622
3 1266 1309 1249
3 657 685 621
3 226 359 266
3 344 544 406
3 1329 1353 1304
3 442 570 469
3 1293 1366 1334
3 1182 1233 1129
3 375 437 348
3 1039 1063 998
3 1048 1066 1023
3 208 301 277
3 1171 1216 1134
3 1155 1249 1191
3 1073 1115 1089
3 617 721 571
3 99 285 98
3 1338 1365 1297
3 507 589 435
3 741 775 642
3 1215 1227 1144
3 463 584 479
3 1406 1410 1396
3 693 850 755
3 1067 1078 1040
3 1272 1307 1241
3 782 846 817
3 1079 1095 1056
3 1432 1436 1426
3 848 965 752
3 1052 1104 1090
3 374 425 347
3 813 970 893
3 98 228 97
3 1057 1118 1010
3 1228 1316 1264
3 1271 1304 1219
3 752 840 702
3 566 655 586
3 400 498 373
3 37 192 36
3 777 914 842
3 222 393 287
3 1010 1118 1105
3 749 919 683
3 18 256 231
3 79 257 230
3 1078 1124 1040
3 402 559 510
3 1145 1194 1127
3 1128 1167 1093
3 814 926 760
3 215 254 5
3 216 255 66
3 49 292 227
3 48 220 47
3 926 980 953
3 1183 1265 1204
3 1331 1354 1306
3 508 565 509
3 1257 1269 1221
3 1152 1208 1112
3 97 190 96
3 1225 1271 1178
3 110 222 109
3 111 293 229
3 884 1025 967
3 1056 1095 995
3 79 78 3
3 1 18 17
3 153 1099 154
3 857 910 872
3 362 678 503
3 1405 1408 1382
3 406 615 552
3 1221 1269 1240
3 875 1015 940
3 947 977 881
3 1031 1197 1147
3 429 585 513
3 899 948 813
3 297 374 347
3 1309 1335 1322
3 825 918 798
3 1224 1270 1234
3 622 773 715
3 572 742 644
3 1200 1241 1159
3 799 825 798
3 1064 1070 1042
3 298 375 348
3 1268 1306 1239
3 1391 1423 1370
3 906 976 818
3 363 678 210
3 1307 1339 1275
3 1093 1130 1033
3 1014 1068 963
3 1428 1435 1425
3 508 509 438
3 380 418 379
3 1309 1322 1296
3 967 972 817
3 985 1012 950
3 1269 1325 1303
3 1232 1267 1185
3 995 1095 1030
3 635 799 798
3 781 906 818
3 531 1218 1156
3 589 657 473
3 975 1017 878
3 562 699 646
3 1166 1200 1123
3 1257 1293 1269
3 782 817 688
3 1117 1157 680
3 1223 1268 1194
3 287 421 357
3 1233 1238 1129
3 750 899 813
3 541 542 423
3 1133 1144 1072
3 582 736 615
3 302 369 209
3 728 799 635
3 1088 1128 1053
3 305 438 366
3 783 849 685
3 889 967 888
3 445 507 331
3 132 1382 133
3 1353 1380 1327
3 808 867 792
3 1153 1189 1163
3 435 589 473
3 1194 1239 1166
3 265 401 372
3 377 412 345
3 616 806 699
3 378 416 346
3 1011 1053 955
3 226 466 359
3 364 464 411
3 999 1038 1017
3 686 846 782
3 586 655 477
3 404 656 550
3 800 863 759
3 579 733 637
3 1275 1313 1235
3 704 753 722
3 558 719 654
3 18 231 17
3 79 230 78
3 843 937 770
3 903 982 958
3 1256 1332 1291
3 914 955 842
3 704 722 660
3 1351 1369 1340
3 747 1024 873
3 553 653 487
3 999 1066 1038
3 541 641 551
3 1187 1231 1213
3 623 848 752
3 739 800 759
3 1431 1432 1426
3 184 366 293
3 711 761 618
3 503 678 602
3 406 552 506
3 476 541 338
3 36 289 35
3 221 358 269
3 817 972 906
3 159 612 160
3 344 406 259
3 604 673 630
3 1161 1198 1128
3 538 658 561
3 1097 1135 1006
3 888 965 848
3 268 363 210
3 1053 1093 1028
3 49 227 48
3 266 512 428
3 1062 1082 996
3 569 728 635
3 738 790 673
3 295 381 215
3 1328 1412 1363
3 850 896 828
3 781 818 689
3 296 382 216
3 890 963 913
3 590 785 662
3 5 254 0
3 66 255 2
3 371 429 383
3 682 954 917
3 810 878 857
3 111 229 110
3 209 275 233
3 605 673 604
3 299 377 345
3 1127 1166 1084
3 96 291 95
3 448 586 477
3 1082 1211 1170
3 300 378 346
3 603 728 569
3 1241 1275 1193
3 793 902 845
3 618 805 740
3 1128 1198 1167
3 771 790 738
3 308 380 379
3 1322 1363 1296
3 343 538 433
3 761 857 805
3 1002 1080 1065
3 282 540 336
3 889 972 967
3 16 301 208
3 648 719 558
3 277 340 294
3 659 781 689
3 77 302 209
3 167 1434 168
3 473 560 400
3 587 781 659
3 221 465 358
3 684 777 619
3 660 722 591
3 1334 1366 1262
3 714 783 657
3 853 892 891
3 736 767 693
3 682 917 861
3 851 907 787
3 393 442 287
3 255 329 225
3 254 327 224
3 1084 1166 1123
3 957 1005 983
3 936 985 950
3 408 553 487
3 935 951 815
3 585 720 656
3 383 513 260
3 900 946 864
3 1040 1086 994
3 1339 1378 1318
3 681 808 792
3 677 717 546
3 511 558 425
3 1090 1107 1071
3 1163 1202 1143
3 491 602 363
3 692 819 773
3 754 892 853
3 516 587 517
3 467 502 341
3 617 784 721
3 968 1050 1015
3 961 975 916
3 492 1258 636
3 552 676 628
3 1066 1081 1038
3 144 1001 145
3 260 513 404
3 838 908 779
3 528 605 405
3 516 517 439
3 670 800 739
3 622 715 559
3 164 1418 165
3 754 853 704
3 696 871 835
3 405 605 604
3 587 659 517
3 1033 1056 1000
3 778 905 846
3 886 907 851
3 841 984 900
3 439 517 350
3 238 439 350
3 219 376 286
3 473 621 560
3 574 645 608
3 664 782 688
3 1189 1245 1202
3 162 1323 394
3 670 739 671
3 408 591 553
3 547 700 649
3 623 702 553
3 588 643 484
3 806 809 801
3 624 754 704
3 1130 1158 1079
3 602 710 503
3 585 656 513
3 790 871 696
3 1076 1106 1091
3 470 585 429
3 169 1417 170
3 804 861 707
3 898 1018 993
3 248 344 259
3 834 837 794
3 829 925 921
3 916 975 810
3 724 793 687
3 277 294 232
3 172 1398 173
3 1383 1400 1352
3 458 603 569
3 1063 1098 1037
3 367 508 438
3 754 894 892
3 745 801 749
3 545 981 898
3 566 586 488
3 355 533 459
3 596 622 474
3 794 837 691
3 1115 1139 1089
3 356 534 460
3 524 603 458
3 1247 1277 1203
3 395 533 355
3 662 785 588
3 396 534 356
3 661 692 622
3 1210 1267 1230
3 208 277 232
3 679 741 584
3 259 506 380
3 489 660 591
3 402 510 393
3 589 714 657
3 854 894 754
3 632 751 720
3 0 254 126
3 2 255 65
3 130 1406 131
3 180 331 292
3 470 632 585
3 830 925 829
3 297 347 196
3 512 582 428
3 663 687 566
3 248 259 189
3 299 345 204
3 231 301 17
3 135 1333 1305
3 626 788 756
3 631 803 710
3 305 366 184
3 474 559 402
3 374 511 425
3 300 346 205
3 298 348 195
3 367 438 214
3 230 302 78
3 824 886 786
3 562 646 532
3 349 487 445
3 1053 1128 1093
3 232 294 234
3 443 588 484
3 867 901 766
3 247 383 260
3 670 671 601
3 828 902 793
3 35 248 34
3 34 248 189
3 550 782 664
3 233 275 235
3 485 495 412
3 837 863 691
3 945 1004 932
3 755 828 793
3 601 671 529
3 734 788 626
3 1197 1253 1147
3 697 764 627
3 928 931 833
3 796 832 831
3 1276 1313 1298
3 873 1024 969
3 50 292 49
3 180 292 50
3 418 488 379
3 824 915 912
3 627 675 556
3 706 923 807
3 1168 1187 1172
3 484 496 416
3 663 724 687
3 7 295 215
3 68 296 216
3 95 247 94
3 94 247 186
3 247 260 186
3 753 889 888
3 408 487 349
3 112 293 111
3 184 293 112
3 753 888 848
3 788 918 821
3 924 928 820
3 444 485 412
3 234 374 297
3 436 651 512
3 763 832 796
3 514 588 443
3 367 515 508
3 567 665 515
3 514 662 588
3 1371 1397 1344
3 691 863 800
3 624 854 754
3 694 786 633
3 856 875 808
3 596 661 622
3 392 524 458
3 833 931 834
3 358 613 501
3 633 705 567
3 661 787 692
3 627 764 675
3 703 823 757
3 1343 1364 1294
3 204 440 381
3 961 1023 999
3 443 484 416
3 205 441 382
3 755 793 724
3 265 530 401
3 354 524 392
3 556 675 599
3 235 375 298
3 820 928 833
3 767 850 693
3 798 918 788
3 508 665 565
3 565 596 509
3 600 734 626
3 545 746 744
3 732 854 624
3 568 794 691
3 753 848 722
3 907 979 836
3 288 301 231
3 202 398 325
3 530 571 401
3 583 724 663
3 418 566 488
3 418 663 566
3 400 560 498
3 490 734 600
3 930 979 828
3 236 377 299
3 276 398 202
3 820 833 791
3 322 395 250
3 323 396 253
3 756 854 732
3 126 254 224
3 65 255 225
3 237 378 300
3 204 381 295
3 12 297 196
3 205 382 296
3 833 834 690
3 214 438 305
3 201 397 324
3 1039 1098 1063
3 264 393 222
3 568 691 666
3 73 298 195
3 195 378 237
3 705 726 665
3 425 505 347
3 940 990 971
3 290 302 230
3 813 893 784
3 631 710 602
3 1037 1119 1075
3 1106 1142 1132
3 862 973 887
3 368 397 201
3 592 732 624
3 196 272 236
3 590 662 514
3 127 1422 128
3 591 623 553
3 9 299 204
3 694 827 824
3 626 732 478
3 791 833 690
3 827 920 915
3 70 300 205
3 775 858 742
3 691 800 666
3 574 608 415
3 223 399 268
3 828 979 902
3 690 834 794
3 287 357 191
3 722 848 623
3 1033 1079 1056
3 592 704 660
3 592 660 522
3 667 789 554
3 626 756 732
3 1349 1360 1291
3 415 608 537
3 250 395 355
3 271 378 195
3 427 543 193
3 253 396 356
3 208 232 15
3 209 233 76
3 711 802 761
3 345 495 440
3 346 496 441
3 726 851 787
3 863 934 759
3 489 591 408
3 688 906 781
3 554 789 694
3 414 576 493
3 492 636 612
3 623 752 702
3 595 735 625
3 695 789 667
3 266 360 192
3 759 870 712
3 377 444 412
3 606 607 535
3 1154 1238 1226
3 675 737 599
3 272 444 377
3 490 600 335
3 460 576 414
3 666 800 670
3 345 440 204
3 1022 1057 946
3 346 441 205
3 600 626 478
3 378 443 416
3 752 895 840
3 232 234 14
3 271 514 443
3 388 529 454
3 789 829 827
3 233 235 75
3 779 856 681
3 1007 1029 958
3 690 794 669
3 271 443 378
3 787 836 692
3 786 851 705
3 388 601 529
3 347 505 272
3 599 606 525
3 453 490 335
3 829 921 920
3 294 511 374
3 842 986 923
3 597 735 595
3 413 590 514
3 204 295 8
3 478 732 592
3 205 296 69
3 784 893 844
3 759 934 870
3 331 507 435
3 525 535 457
3 664 688 587
3 294 374 234
3 173 1394 174
3 535 607 536
3 142 614 143
3 1210 1212 1131
3 482 712 590
3 599 737 606
3 624 704 592
3 129 1410 130
3 1055 1103 1041
3 853 891 889
3 234 297 13
3 908 968 856
3 669 794 568
3 235 298 74
3 615 736 676
3 830 927 925
3 275 437 375
3 426 573 511
3 525 606 535
3 471 567 403
3 309 445 331
3 554 633 471
3 275 375 235
3 457 535 339
3 635 734 490
3 348 413 271
3 563 727 485
3 787 907 836
3 915 920 823
3 665 726 565
3 472 525 334
3 272 377 236
3 17 301 16
3 196 347 272
3 425 558 505
3 788 909 756
3 705 851 726
3 557 703 629
3 340 481 426
3 236 299 10
3 195 348 271
3 261 403 367
3 245 367 214
3 261 367 245
3 831 927 830
3 6 215 5
3 7 215 6
3 477 655 557
3 67 216 66
3 68 216 67
3 416 496 346
3 237 300 71
3 444 563 485
3 740 762 672
3 78 302 77
3 666 670 483
3 676 736 693
3 412 495 345
3 704 853 753
3 196 236 11
3 695 829 789
3 417 575 494
3 695 831 830
3 829 920 827
3 419 600 478
3 645 712 482
3 195 237 72
3 16 208 15
3 77 209 76
3 556 668 627
3 485 727 647
3 555 791 690
3 643 731 713
3 569 635 490
3 655 703 557
3 648 797 719
3 727 771 647
3 668 729 627
3 335 600 419
3 988 1067 957
3 731 785 768
3 768 870 825
3 483 670 601
3 630 735 597
3 334 525 457
3 409 669 568
3 558 654 505
3 406 506 259
3 413 514 271
3 516 664 587
3 695 830 829
3 522 660 489
3 181 1308 1256
3 353 528 405
3 8 295 7
3 15 232 14
3 481 607 573
3 69 296 68
3 76 233 75
3 535 536 339
3 821 909 788
3 768 799 713
3 796 831 695
3 718 765 727
3 825 934 933
3 891 976 972
3 696 835 832
3 725 855 795
3 459 575 417
3 947 1020 977
3 630 763 735
3 849 882 814
3 471 633 567
3 696 763 630
3 725 795 729
3 409 568 526
3 629 852 758
3 645 739 712
3 339 536 455
3 1052 1090 1051
3 556 599 525
3 555 690 669
3 802 810 761
3 820 978 924
3 14 234 13
3 588 731 643
3 478 592 419
3 398 537 422
3 75 235 74
3 453 569 490
3 635 798 788
3 379 586 448
3 340 426 294
3 689 911 820
3 384 408 349
3 274 460 414
3 419 592 522
3 387 526 483
3 877 987 973
3 147 744 148
3 273 459 417
3 446 471 403
3 756 909 894
3 604 630 597
3 261 446 403
3 349 445 213
3 9 204 8
3 70 205 69
3 13 297 12
3 550 664 516
3 317 458 453
3 515 665 508
3 74 298 73
3 403 567 515
3 687 845 780
3 10 299 9
3 335 419 385
3 628 755 724
3 356 460 274
3 71 300 70
3 403 515 367
3 387 483 456
3 355 459 273
3 554 694 633
3 703 757 629
3 785 870 768
3 11 236 10
3 827 915 824
3 694 824 786
3 565 661 596
3 726 787 661
3 891 972 889
3 335 385 262
3 729 795 697
3 72 237 71
3 458 569 453
3 627 729 697
3 12 196 11
3 353 391 319
3 625 667 595
3 509 596 430
3 870 934 825
3 317 453 335
3 273 417 353
3 472 593 556
3 309 331 180
3 689 820 791
3 73 195 72
3 757 921 852
3 922 971 901
3 392 458 317
3 634 729 668
3 464 527 411
3 304 384 349
3 725 729 634
3 426 511 294
3 593 668 556
3 354 392 321
3 263 389 183
3 224 327 206
3 225 329 207
3 404 550 516
3 182 317 262
3 853 889 753
3 447 522 384
3 688 781 587
3 436 512 266
3 213 445 309
3 763 796 735
3 246 263 183
3 920 921 757
3 482 590 413
3 686 782 550
3 789 827 694
3 449 523 409
3 456 601 388
3 835 929 832
3 333 449 409
3 448 477 332
3 758 855 730
3 483 601 456
3 313 448 332
3 494 528 417
3 304 349 213
3 243 447 384
3 419 522 447
3 567 705 665
3 855 927 795
3 244 317 182
3 673 696 630
3 384 522 489
3 1060 1073 990
3 730 855 725
3 517 659 598
3 629 758 730
3 446 521 471
3 474 622 559
3 189 380 308
3 379 448 240
3 262 385 182
3 352 452 446
3 389 452 352
3 390 537 276
3 696 832 763
3 718 727 563
3 931 933 834
3 519 668 593
3 243 384 304
3 634 668 519
3 409 526 333
3 598 659 555
3 318 454 251
3 588 785 731
3 263 520 452
3 419 447 385
3 674 728 603
3 308 379 240
3 689 791 659
3 417 528 353
3 865 890 775
3 59 321 252
3 120 319 249
3 768 825 799
3 795 927 866
3 320 455 201
3 731 768 713
3 818 978 911
3 817 906 688
3 756 894 854
3 390 454 415
3 635 788 734
3 317 335 262
3 183 389 311
3 713 799 728
3 557 594 477
3 594 730 725
3 659 791 555
3 385 447 243
3 405 604 520
3 170 1393 171
3 452 595 521
3 739 759 712
3 493 603 524
3 594 725 634
3 477 594 518
3 472 556 525
3 240 448 313
3 625 695 667
3 866 927 831
3 404 516 351
3 311 389 352
3 352 446 261
3 523 598 555
3 414 524 354
3 583 663 418
3 415 537 390
3 818 911 689
3 452 521 446
3 537 608 499
3 529 671 574
3 477 518 332
3 521 554 471
3 260 404 351
3 332 518 450
3 518 519 450
3 526 568 483
3 605 738 673
3 557 629 594
3 350 598 523
3 523 555 409
3 450 519 386
3 273 353 319
3 821 928 909
3 481 573 426
3 493 524 414
3 350 523 449
3 451 593 334
3 517 598 350
3 273 319 200
3 351 516 439
3 186 351 303
3 303 439 238
3 92 303 238
3 53 304 213
3 114 245 214
3 51 180 50
3 113 305 184
3 88 306 185
3 212 306 88
3 90 307 212
3 94 186 93
3 115 245 114
3 53 213 52
3 55 243 54
3 114 305 113
3 214 305 114
3 116 245 115
3 89 212 88
3 32 308 240
3 33 308 32
3 27 312 242
3 52 213 51
3 51 309 180
3 213 309 51
3 55 310 243
3 88 185 87
3 91 307 90
3 116 311 245
3 238 307 91
3 28 312 27
3 186 303 93
3 90 212 89
3 92 238 91
3 54 304 53
3 313 332 188
3 31 313 30
3 30 313 188
3 26 187 25
3 29 188 28
3 188 312 28
3 243 304 54
3 27 242 26
3 242 314 26
3 93 303 92
3 240 313 31
3 188 332 312
3 32 240 31
3 189 308 33
3 26 314 187
3 30 188 29
3 34 189 33
3 56 310 55
3 57 182 56
3 182 310 56
3 113 184 112
3 117 311 116
3 118 183 117
3 183 311 117
3 182 385 310
3 310 385 243
3 350 449 212
3 307 350 212
3 238 350 307
3 212 449 333
3 306 333 185
3 212 333 306
3 386 519 451
3 494 605 528
3 518 594 519
3 206 327 326
3 207 329 328
3 332 450 312
3 246 391 263
3 290 369 302
3 274 354 321
3 274 321 203
3 795 866 697
3 519 593 451
3 671 739 645
3 398 422 369
3 673 790 696
3 454 529 415
3 312 386 242
3 242 386 314
3 386 451 314
3 384 489 408
3 786 886 851
3 757 852 629
3 391 520 263
3 259 380 189
3 334 593 472
3 333 387 185
3 311 352 245
3 245 352 261
3 312 450 386
3 594 634 519
3 325 398 290
3 333 526 387
3 488 586 379
3 629 730 594
3 324 397 288
3 808 922 867
3 244 392 317
3 314 334 187
3 314 451 334
3 825 933 918
3 263 452 389
3 625 796 695
3 351 439 303
3 260 351 186
3 253 356 203
3 123 322 250
3 520 595 452
3 62 323 253
3 866 929 697
3 206 326 322
3 250 355 200
3 520 604 597
3 758 927 855
3 207 328 323
3 185 315 87
3 87 315 86
3 252 392 244
3 521 667 554
3 832 929 866
3 633 786 705
3 461 533 395
3 462 534 396
3 119 246 118
3 24 316 23
3 118 246 183
3 187 316 25
3 25 316 24
3 58 244 57
3 57 244 182
3 200 319 120
3 203 321 59
3 185 387 315
3 256 324 288
3 632 720 585
3 249 391 246
3 187 334 316
3 555 669 409
3 326 395 322
3 520 597 595
3 328 396 323
3 568 666 483
3 993 1094 974
3 85 239 84
3 86 239 85
3 239 318 84
3 405 520 391
3 266 428 360
3 576 674 493
3 387 456 315
3 713 728 674
3 315 456 239
3 493 674 603
3 334 457 316
3 23 241 22
3 120 249 119
3 241 320 22
3 59 252 58
3 200 355 273
3 203 356 274
3 241 457 339
3 423 584 463
3 86 315 239
3 274 414 354
3 239 388 318
3 241 339 320
3 206 322 123
3 207 323 62
3 388 454 318
3 257 325 290
3 321 392 252
3 735 796 625
3 339 455 320
3 23 316 241
3 119 249 246
3 58 252 244
3 239 456 388
3 591 722 623
3 595 667 521
3 83 251 82
3 84 251 83
3 84 318 251
3 529 574 415
3 675 797 737
3 1370 1404 394
3 319 391 249
3 878 1017 942
3 316 457 241
3 834 933 837
3 551 679 542
3 892 976 891
3 251 454 390
3 793 845 687
3 628 724 583
3 687 780 566
3 121 200 120
3 22 201 21
3 21 201 20
3 122 200 121
3 22 320 201
3 82 202 81
3 60 203 59
3 61 203 60
3 1373 1396 1379
3 353 405 391
3 565 726 661
3 494 738 605
3 553 702 653
3 574 671 645
3 461 609 533
3 492 1297 1258
3 179 1065 151
3 462 610 534
3 366 509 430
3 123 250 122
3 62 253 61
3 201 455 368
3 422 499 369
3 821 931 928
3 1016 1037 992
3 536 607 481
3 1385 1409 1336
3 534 576 460
3 276 537 398
3 201 324 20
3 202 325 81
3 1382 1408 1345
3 955 1053 1028
3 175 1382 132
3 1403 1422 258
3 251 390 202
3 533 575 459
3 430 596 474
3 778 846 686
3 264 402 393
3 124 206 123
3 125 206 124
3 63 207 62
3 64 207 63
3 912 915 823
3 606 737 607
3 82 251 202
3 1249 1309 1296
3 832 866 831
3 764 797 675
3 1152 1207 1170
3 898 993 974
3 955 986 842
3 1155 1191 539
3 1242 1260 1222
3 784 844 721
3 122 250 200
3 455 536 424
3 911 978 820
3 61 253 203
3 256 288 231
3 680 1064 480
3 202 390 276
3 290 398 369
3 1150 1152 1140
3 750 813 784
3 126 224 125
3 65 225 64
3 884 967 817
3 257 290 230
3 1185 1267 1210
3 138 1188 139
3 329 462 328
3 946 1057 1010
3 327 461 326
3 165 1414 166
3 1295 1369 1335
3 823 920 757
3 19 256 18
3 20 256 19
3 80 257 79
3 81 257 80
3 326 461 395
3 328 462 396
3 938 947 881
3 1391 1431 1426
3 815 905 778
3 909 924 894
3 81 325 257
3 20 324 256
3 1347 1379 1350
3 422 537 499
3 1390 1424 1391
3 424 536 481
3 1189 1246 1245
3 1112 1208 1174
3 1184 1246 1146
3 125 224 206
3 64 225 207
3 429 513 383
3 1104 1121 1090
3 1364 1390 1370
3 998 1063 1029
3 1213 1231 1151
3 875 940 922
3 957 983 822
3 1031 1147 1108
3 650 874 723
3 1351 1411 1381
3 1111 1254 1211
3 368 455 424
3 962 1025 884
3 433 530 265
3 925 927 758
3 852 925 758
3 647 771 738
3 1273 1274 1263
3 1345 1408 1384
3 1015 1060 940
3 602 678 363
3 1153 1205 1189
3 766 868 716
3 1054 1101 769
3 1317 1374 1343
3 643 713 674
3 1261 1312 1299
3 1175 1176 1097
3 968 1015 875
3 693 755 628
3 365 402 264
3 1302 1335 1309
3 1423 1433 1418
3 476 641 541
3 1142 1247 1203
3 428 544 360
3 1096 1174 1138
3 531 1156 1117
3 1364 1370 394
3 1256 1270 1224
3 1231 1253 1151
3 682 861 804
3 1314 1388 1365
3 933 934 837
3 1125 1155 539
3 428 615 544
3 582 615 428
3 1332 1349 1291
3 973 1058 1006
3 534 610 576
3 802 916 810
3 533 609 575
3 1119 1179 1153
3 810 975 878
3 420 1434 1429
3 1154 1226 1209
3 1013 1054 954
3 923 986 897
3 424 481 340
3 1258 1294 636
3 1365 1388 1297
3 620 1101 1013
3 1058 1097 1006
3 1287 1357 1336
3 987 1096 1058
3 1013 1101 1054
3 1227 1281 1144
3 1076 1091 1050
3 972 976 906
3 1425 1436 1428
3 1112 1174 1096
3 1094 1154 1136
3 1257 1366 1293
3 723 937 838
3 842 923 706
3 1305 1332 1308
3 909 928 924
3 893 970 935
3 859 926 883
3 1156 1234 1201
3 862 887 640
3 1038 1104 1052
3 971 1019 901
3 229 365 264
3 1312 1336 1299
3 1313 1318 1298
3 1070 1182 1129
3 1020 1041 997
3 961 999 975
3 1226 1274 1273
3 744 746 640
3 973 1006 887
3 532 646 407
3 1391 1426 1423
3 176 1398 172
3 1238 1274 1226
3 174 1394 178
3 1208 1254 1190
3 150 964 179
3 1101 1137 769
3 166 330 167
3 177 1410 129
3 983 1027 822
3 131 1406 175
3 1026 1062 943
3 1151 1253 1197
3 156 468 157
3 466 504 359
3 137 181 138
3 468 1365 157
3 1293 1368 1359
3 1291 1360 1320
3 330 1434 167
3 948 970 813
3 480 1001 144
3 128 1422 177
3 926 953 883
3 1089 1139 1103
3 1138 1175 1097
3 742 858 644
3 171 1393 176
3 1404 1418 164
3 420 1417 169
3 545 898 816
3 1150 1207 1152
3 166 1414 330
3 676 693 628
3 1345 1386 1333
3 181 1188 138
3 987 1058 973
3 1261 1299 1283
3 1258 1317 1294
3 1034 1112 1096
3 737 797 648
3 131 175 132
3 171 176 172
3 368 424 397
3 826 1024 747
3 1018 1042 993
3 162 394 163
3 174 1427 4
3 1399 1424 1390
3 150 179 151
3 1176 1210 1131
3 1004 1024 826
3 128 177 129
3 896 977 930
3 1023 1066 999
3 143 480 144
3 1328 1361 1258
3 137 1308 181
3 620 1137 1101
3 683 919 803
3 1249 1296 1282
3 1070 1214 1042
3 1297 1328 1258
3 181 1256 1224
3 1258 1361 1317
3 211 1333 135
3 541 551 542
3 1068 1120 988
3 1243 1281 1227
3 1388 1412 1328
3 1164 1284 1229
3 1256 1291 1270
3 1244 1286 1232
3 211 1345 1333
3 465 613 358
3 175 1406 1405
3 772 932 826
3 903 958 849
3 1270 1311 1234
3 175 1405 1382
3 1154 1209 1136
3 1361 1389 1317
3 1362 1408 1405
3 769 1137 803
3 816 877 862
3 4 258 127
3 1216 1244 1165
3 157 1338 158
3 932 1004 826
3 1297 1388 1328
3 146 545 147
3 974 1094 1061
3 168 420 169
3 637 681 677
3 163 1404 164
3 1185 1210 1176
3 145 981 146
3 1117 1201 1157
3 746 862 640
3 1136 1209 1150
3 1414 1425 330
3 1156 1201 1117
3 545 816 746
3 898 974 816
3 1226 1273 1236
3 1383 1419 1400
3 980 992 953
3 1349 1407 1356
3 177 1422 1403
3 770 937 874
3 480 1064 1001
3 134 211 135
3 1343 1390 1364
3 1291 1320 1270
3 1201 1251 1157
3 1363 1381 1361
3 1424 1431 1391
3 921 925 852
3 1234 1278 1201
3 148 640 149
3 1323 1364 394
3 1335 1369 1322
3 154 539 155
3 394 1404 163
3 1420 1424 1372
3 1031 1108 1100
3 1105 1134 1043
3 157 1365 1338
3 1358 1386 1345
3 158 492 159
3 1296 1412 1282
3 1343 1399 1390
3 136 1305 137
3 1129 1214 1070
3 1002 1135 1080
3 181 1224 1188
3 1305 1308 137
3 1175 1185 1176
3 1251 1285 1182
3 1081 1121 1104
3 613 652 501
3 716 868 736
3 140 1218 141
3 974 1021 877
3 1390 1391 1370
3 1021 1034 987
3 152 1044 153
3 1058 1138 1097
3 1080 1135 1131
3 1226 1236 1209
3 964 1002 179
3 1173 1212 1186
3 1425 1435 330
3 615 676 552
3 807 869 698
3 178 1427 174
3 877 1021 987
3 1270 1320 1311
3 955 1028 986
3 1278 1315 1251
3 141 531 142
3 1140 1152 1112
3 1234 1311 1278
3 1267 1280 1230
3 981 1018 898
3 1317 1389 1374
3 1034 1140 1112
3 803 1137 710
3 143 614 480
3 1061 1102 1021
3 148 744 640
3 1310 1335 1302
3 1173 1186 1155
3 154 1099 539
3 1094 1136 1061
3 816 974 877
3 1174 1217 1138
3 1157 1251 1182
3 146 981 545
3 1374 1399 1343
3 1314 1365 468
3 816 862 746
3 1096 1138 1058
3 1209 1248 1150
3 544 615 406
3 974 1061 1021
3 330 1435 1434
3 1285 1300 1233
3 1102 1140 1034
3 158 1338 492
3 1311 1341 1278
3 1201 1278 1251
3 835 871 860
3 1138 1217 1175
3 1236 1248 1209
3 1224 1250 1188
3 1218 1250 1156
3 1216 1286 1244
3 1021 1102 1034
3 152 1065 1044
3 1328 1363 1361
3 1381 1389 1361
3 1282 1412 1388
3 1278 1341 1315
3 1125 1173 1155
3 1404 1423 1418
3 1182 1285 1233
3 141 1218 531
3 918 931 821
3 1061 1136 1102
3 918 933 931
3 1251 1315 1285
3 1420 1431 1424
3 837 934 863
3 860 929 835
3 614 680 480
3 1374 1389 1387
3 178 1430 1427
3 874 937 723
3 1340 1369 1295
3 145 1001 981
3 640 964 149
3 155 539 468
3 289 360 344
3 360 544 344
3 539 1191 468
3 559 639 570
3 1294 1323 612
3 708 747 616
3 620 682 641
3 700 802 711
3 748 802 700
3 774 865 741
3 747 873 806
3 844 893 751
3 901 938 766
3 939 941 876
3 902 979 907
3 956 991 904
3 939 1092 941
3 941 1031 1003
3 964 1006 1002
3 1083 1114 1057
3 1079 1158 1116
3 1114 1164 1118
3 1208 1217 1174
3 1231 1283 1228
3 1299 1342 1316
3 1305 1386 1332
3 1320 1341 1311
3 1322 1381 1363
3 1341 1368 1334
3 1414 1433 1425
POINT_DATA 1437
SCALARS UX float 1
LOOKUP_TABLE default
0.000000
-0.000000
0.000000
0.000000
7654370.961328
-0.000000
-0.000000
-0.000000
0.000000
0.000000
0.000000
-0.000000
-0.000000
0.000000
-0.000000
0.000001
-0.000001
-0.000000
94353.179953
-120366.967293
119281.602317
384852.024099
639010.708820
505314.914576
632344.060040
726969.402715
1137351.536848
1605354.133936
817801.157253
1377224.488727
-21081.230125
-2187895.612392
-711295.935670
349456.409401
-10829168.932001
-4690574.810318
-2598382.192585
-5310056.413187
-6261809.185343
-8748494.818332
41048424.696565
-160851037.325976
-65082944.650529
-18418414.194825
-3194213.845774
4063801.580966
5576310.334125
9976146.090108
8186560.609990
9553542.269735
7946239.971466
11585707.659601
9445220.639636
7103971.654043
5589892.255748
5432294.179246
5869629.214630
5941828.332674
5588595.975264
5085299.708925
3802780.055576
2591440.539546
1118654.181980
1090174.379833
1178790.573739
1601685.327961
-0.000000
-0.000000
0.000000
-0.000000
0.000001
-0.000001
0.000000
0.000000
-0.000000
0.000000
-0.000000
0.000000
-0.000000
-1317918.322886
90086.480776
942566.341107
2109664.429465
2023777.783170
2024260.842454
2378954.828100
2546150.972833
3777824.287137
4729533.121303
3405621.156427
3163203.814534
6970698.746205
7893568.091950
8428931.845194
12706171.465353
16151134.583080
7416526.711614
12777797.698015
12616713.728207
11833124.507251
8002615.827834
6196012.279046
4669960.785710
4175347.606472
4058285.853173
5067346.700057
6152706.200472
6130895.005754
4463356.305673
1436210.202162
1791651.004218
2128686.728603
2377528.740892
1262959.276074
1525349.156433
903011.760799
83030.996773
786511.844321
1289280.106312
825150.352221
526736.950431
510142.029807
499532.535345
505746.937599
408380.756430
314494.124901
313685.685433
4912449.123830
5022578.419184
2030745.734054
18270734.192597
5321548.712964
5106584.768885
-1286235.766296
3346245.788848
10176813.348523
10673122.574021
7620865.237413
7352544.141710
15788141.229233
20488262.416620
16065062.939285
-23590986.964009
23370703.776147
339137.378005
19565142.274986
9116409.894304
-1534185.248794
-5992085.779993
-5552515.664703
-2050953.587012
-2961852.578506
-10837463.853248
-3935952.083302
5380791.733594
5084014.617568
-1975435.009276
4150558.838587
3216527.414956
5686978.372244
13637686.897747
9833404.053989
8406607.570311
6112457.136557
5185667.573394
6014811.721875
12761076.862629
12464953.542169
18251951.566033
19479197.295597
3239888.842717
4828637.747193
8343554.363373
7164944.782397
9906182.733963
4986750.071033
4129437.154511
6185692.594845
8045255.518039
-3256154.211796
7285708.071005
6075338.575611
5875776.281329
925375.299873
1649946.573102
3764575.270627
8613880.458599
840446.229830
2260163.182411
812605.965990
17174979.766420
2460894.732527
-4777496.164373
12361205.929575
5734895.653174
-4237815.900158
-145148.960673
5536270.030391
-44865739.796842
4203953.355835
509328.534825
756336.909976
1852814.072515
3801668.224354
-24036.436807
-1326164.321192
432515.131555
1113613.020758
60693.944237
-659033.356004
4363630.637868
6922969.202533
3013375.222664
9457628.507642
1083739.631489
880068.168182
3041392.842789
5889693.677939
-18869367.549157
-3367831.845859
7243478.316023
45556922.284329
635971.917264
4555726.556922
413420.322692
1857097.627772
-5356550.507681
12164073.581298
14011033.099999
1699016.444018
-621780.302134
-683554.471532
-270754.452236
-1632567.482858
-244904.234187
-1699337.399308
-1520456.424042
-2563388.052081
6966207.572613
2512394.555898
-377257.982104
639908.169192
1661789.240456
5601799.428878
5938499.173351
188058.570885
1135183.232891
13734029.936307
-10946123.685617
825176.925938
497962.413645
1788458.396110
5598260.913271
2388903.534138
634073.997777
1950552.189147
-116184.869469
-425105.036593
5236803.821413
697019.854605
9002667.716563
-446836.231348
5888722.108699
1125940.786196
1852383.520735
16052209.799087
-4425575.916415
8396784.533778
4643639.360856
18688406.059716
-3735558.097490
-806250.168107
-566539.419702
505841.853718
3261201.029071
-3071021.582457
826183.763480
-357868.546434
4245473.464593
2780011.916918
-2748133.661496
4334385.720461
10693370.910171
6083077.708711
-6381465.076597
12402303.952488
-31066421.927179
1869735.768879
-512199.570549
-4602223.515938
-825224.835370
14944049.300463
9417277.659749
2052172.289723
95332.287041
301490.946421
229008.402751
70954.145378
-2356781.101763
-1115279.017033
-1537260.954203
60990.530299
-460364.028260
7879834.029891
7120095.021478
1515139.939660
2556734.133680
511622.653384
-687393.788487
12586842.170883
5442628.726350
324211.508295
927935.095932
650982.594947
981802.618957
3015648.023244
630124.694927
5950004.388364
2023134.646349
523145.106681
634432.153156
5098257.701566
563417.397695
721211.191499
1268008.830135
450083.519698
507038.408895
410483.801212
424758.390730
2608322.153591
12580458.272508
10202308.539256
974523.759593
3535969.863380
706333.244208
6004151.389600
10241584.561988
-16566845.800068
2010531.840406
631711.480353
323652.994491
9740011.661642
18217770.286195
13774098.334841
-10825.280423
1419736.957319
-2567703.453430
182490.187113
-3595141.739554
11014001.928807
502400.246175
9228455.844918
481238.200858
584810.487551
3514218.811839
492151.473794
2597327.960367
6063849.641361
14301798.281022
-14077219.380632
-6659994.325599
5733812.302168
4430768.130027
3472243.718134
1206978.819066
1663821.657336
1946721.246632
237276.755779
598404.572601
-1924230.636158
9204196.430617
15108278.429658
16977595.637629
8102151.392145
116945.437841
-2591344.891654
-8972475.868377
884604.663710
-735262.573340
117291.441071
-40723.035790
764715.077007
1042470.506465
12221623.771798
6547795.988817
5507265.840245
1015012.633504
3764707.675632
2511859.223090
1250981.349672
1787332.083828
824795.087790
5606422.685830
616137.382750
10027484.129506
600043.304504
1634512.578903
804280.389936
-961832.155897
4717810.460854
5733523.680623
16934009.032438
1720118.682941
-613442.796808
10516916.221861
665625.259801
1384889.022276
3550612.773962
9914780.970380
3535006.433617
18811000.360633
-98449.959847
124124.256417
-932609.882079
3851135.982073
1580599.025023
878048.843048
497026.905429
972558.433816
5568712.183706
14489629.426572
5784027.692244
-918808.121073
6359778.405643
-160015.217991
-51127.883384
264120.278731
18243145.102181
-6666723.774080
14716347.833704
1406732.012464
6634426.990863
-15687344.802794
14852601.224617
4605034.822380
14525038.400105
-9674290.711878
-2746475.756286
2056535.008436
6966552.752673
636262.724694
-1670656.878559
1978725.530684
608702.524444
378792.717388
9908635.394500
-336636.260984
6166577.622323
267442.117170
2096495.256422
1062866.786620
1208456.002402
1202052.183746
5967784.194246
2013017.243609
628690.786258
3059550.232980
671031.127061
5452112.581078
484016.341000
1934970.419207
737270.116819
1059522.428609
5439963.645180
6579300.757759
17675152.747557
-5390561.165851
5578260.094422
1595075.942726
4668130.510648
17196005.468799
-577878.140658
962041.825254
12965069.365800
1443647.637782
-11940850.497861
15600.352491
594910.237691
5566226.382756
5219467.629845
-6020066.171139
-216645.831913
1461699.297731
2867332.517505
1977031.538165
406981.679219
19885773.058696
8462468.922864
1671223.869763
8635168.207037
5994149.426717
3862672.985145
6639047.965196
4388356.291678
483318.915130
305717.981129
883792.246915
-9013696.857187
8956088.325599
-989311.820596
4707346.439871
11967448.234993
10269519.414218
3970680.566750
-7836264.072275
227429.175953
709760.885109
8202756.707338
2710991.038242
1919209.171058
1316281.970612
83886.986332
2640686.980929
16502055.791545
1163402.453271
-1186461.628225
7552071.471423
5608754.139919
1167086.649857
1046340.309656
1128645.112253
409120.819904
5207811.948800
4350241.770726
3274155.805131
633939.698581
3441627.278772
3930020.530623
510220.183639
1275728.185645
17222883.001970
30940631.174307
4720036.298910
573938.877663
2123604.609479
500753.277837
447545.560998
815640.367278
11486978.154735
7573372.295236
6959270.510079
5242720.163270
4222685.252363
10049450.121467
1268442.174073
3285720.652206
1978737.436017
3953043.771381
12209772.470564
3574609.878477
9814367.024184
4813766.972077
1402271.891207
10614072.150378
-518066.615990
4273847.249881
946704.206948
1574425.506183
408003.394528
1107829.007398
7665433.970455
11628408.973020
3510068.178620
350898.043113
8916022.772077
2009107.048515
1892899.201739
-755256.961060
3331061.089205
5412517.680698
3260992.911745
14649569.394469
12560427.852801
281593.497008
1549306.474386
470615.293515
3876624.694356
11757294.271618
-3544933.665863
19534833.397395
-5121032.273471
3604126.302068
2359406.906275
2281889.582224
4552124.137432
17126299.694841
323103.834566
5485706.393188
1948053.123347
14793179.869699
2488891.611923
7628440.569964
5217587.921157
1316501.456692
728047.477596
809136.118299
1684750.273206
642643.966995
-569110.658907
927415.940129
6003894.155316
2514039.150732
3888280.767351
5819377.615035
569364.965921
642140.321927
471894.099086
719146.050055
891183.269592
412636.630722
2032017.067894
-11245087.087826
6238391.550832
6626825.318356
7474474.148888
1279628.761760
2807278.708046
11806136.499502
-6329892.156975
4055526.215539
3535052.792261
8821222.806297
1453453.507723
15917735.413931
5906345.822596
-204.134589
3796535.796404
1137414.354835
891527.976636
1485774.924143
699472.288983
2392458.704976
17192241.382554
-494894.364472
930769.735162
5957203.105439
6060788.036053
13861162.710222
8542077.509654
1836131.895664
-6531396.264527
-702250.405992
6399677.593206
5324901.130457
11356820.427647
2110604.434814
4335705.960660
823173.129574
715665.651046
1382485.840501
6303387.632721
2176949.447840
7958576.440046
12685813.670754
302101.416014
803190.188721
16608941.671892
12666810.882889
11544678.684071
14260189.711544
8632891.722485
1267737.670402
2153633.016863
275506.700286
10397068.394343
2556793.231796
3689859.421359
947404.636495
965986.771280
3776378.039997
1777433.777821
1667309.285936
9773031.581418
600729.126390
4415593.336491
356121.274479
1290681.315030
13016565.487998
4480620.822273
3140998.648180
15758352.749369
3753914.350899
3035042.873903
1125071.972915
8104617.665504
11106825.962682
16775974.897963
1076571.618008
10346813.892231
10577068.483687
2397211.294622
3615117.215834
-239881.124549
4333963.454828
59461.882914
178547.809898
666586.702739
1004408.438224
10092494.885396
3939708.812516
5099394.207287
7339251.511389
21366694.681328
1203681.906922
10174675.584974
637020.653340
7635265.484853
1205972.595103
2126108.441386
11363121.766672
3635501.054894
-668778.200159
2234930.966273
5980804.783156
21647926.757572
1814879.056448
3112041.585822
5826049.104642
-161631.533934
20388.703606
17126022.790649
14830773.617671
19302061.551871
14312579.239434
2206771.422627
962872.364171
802894.441713
810784.872776
10244602.947988
730537.253922
47151.966822
3488169.253541
4906426.927579
12413373.905404
3799323.001938
534440.339351
1609800.501314
416151.073148
465033.175205
2956212.034403
8006996.824789
4996602.908367
10177837.594256
8073141.947958
-4004538.523575
3659164.636164
-312049.697459
2514118.959101
14834549.227473
-84670.418526
11483016.737512
16862627.009033
16658732.384173
17090670.210692
6148349.496227
918725.098490
4548382.466515
1289071.671189
-361352.439614
3020405.135289
8806742.084826
6091196.333967
15112496.537698
529567.154171
29868.039858
546973.770581
5257373.570707
3300626.331800
1296442.178746
2444822.365078
8993182.780635
956056.034551
2044713.356762
2033954.644161
2851175.329104
9087113.966369
11382188.378773
3081938.041370
15461691.893400
15115398.276103
1813972.994115
8245106.928968
10516560.915789
14759641.342506
12504049.724010
2697455.443406
357774.257226
407929.004771
3990630.451284
-544982.655330
557188.300978
6766081.463556
9818382.115282
683698.681483
3375002.201085
-511888.939641
537941.367508
457598.490603
8333037.373366
12612866.573936
3391228.595786
5702973.408526
5693481.449660
4085121.965470
117659.283139
7438757.147187
3341857.975494
14692981.630347
1329830.549693
3205146.375440
6232357.194509
17777294.908634
-624195.195574
8460260.367897
11273195.900450
15497123.131298
-581897.548451
11657330.104965
12722320.582484
2686498.951902
7965665.346119
4283799.316624
10079369.473722
-136397.823244
357144.988952
5338982.760446
2399150.585302
800118.921057
1165585.211664
-43869.045725
329925.292675
302953.456917
-206617.841233
3922416.862547
4122164.077113
584841.564210
-152620.757021
3562408.713936
13885599.440378
1823063.967661
17770931.514600
4894515.966074
8580724.599203
13796086.167709
14373744.940087
152282.090263
22324421.448416
6971698.787239
14798151.744799
14246690.722770
5048798.807064
274073.487758
2139557.091551
10322973.247527
5192796.623651
1283647.226488
8365969.655781
11152347.338941
9545169.751815
9881277.063773
348382.783567
-867835.926345
-4189899.880999
3756327.946735
5339981.243592
3851779.848326
-315647.627278
6192059.218361
2659219.524088
7657891.203907
1058508.527910
622072.101335
13198903.600691
2966536.420158
-1844251.370739
1269192.007330
4941942.060190
-1355150.467379
9541380.091057
7038536.942030
-658120.602489
2963420.948902
11542027.859368
13793890.140228
21721416.653510
1868991.562503
-12012.611378
-3222185.595274
13000747.172840
11251889.079212
6654472.903783
10227122.795219
9363492.389747
12667590.913609
5887800.831234
18069430.117092
1595908.180666
6099596.932662
-4363668.608935
9994473.590540
4736045.018594
3484148.901445
1483911.406936
16290472.917929
4461286.987985
20782402.982236
9634225.042269
-260933.034855
8934264.711197
5448511.922944
10565121.048680
9496069.658385
323085.214951
9013334.321646
5871801.891987
357108.293088
4211517.743038
4306311.617099
5268244.540042
3737828.886390
1074791.510703
1090996.334823
5762195.467925
7518983.579162
6531195.139555
220585.399048
10032716.865724
991966.484818
5514756.588909
642564.159888
2662649.601052
5698345.739772
2013338.973223
4869688.425668
5247647.956820
19389822.930937
16614889.270800
4011872.855845
5772020.631775
3482186.792479
876747.603217
4626459.973149
18457269.166083
3977480.853665
4096407.170381
2422121.532948
2228065.383790
6844622.093830
10509822.133592
319233.948199
9681151.603991
19500316.482639
1209562.418190
8255443.113736
5119745.904537
2848205.169105
-696690.685886
7675883.278266
17967242.461324
8015494.404039
3267056.678131
5499689.679283
18774272.826761
2832112.107426
-4421364.146792
16012433.010410
10450891.671980
10147623.480703
5297995.593867
4462658.300879
12627546.856473
5384549.087642
11140692.052772
-1707284.719172
-2403605.917256
3197809.558456
12016470.789224
2258891.954142
10276157.982947
-245529.439396
9135121.458540
-2836960.268861
17701425.134543
11190635.721568
4269408.176839
13950925.774247
7961814.524935
-1831133.788670
1341904.671396
23356353.298444
472542.718442
1590201.594320
9040897.750594
-6684973.506044
9804392.134736
3893550.281981
-1504265.623039
2240930.526727
11049520.730858
1776615.396240
-4892742.739823
-7004288.924768
-5633301.386244
4345481.717225
2309678.375849
9951945.760068
-3408720.088075
15234934.001826
8480702.001080
10687715.942753
3671058.037688
-1217777.657185
6684054.254729
4910186.305316
3157563.823994
324272.209616
9373363.872633
5190419.341594
-7355524.318190
3170464.193696
5101143.253822
-25840.312070
3865891.653098
3442504.818187
2622397.104070
15744417.064410
5850847.201488
11907428.366217
9241056.424463
11457529.205108
35513.985520
6484637.888454
7261318.022877
-4274894.316138
-2980184.963706
1832042.062353
5287818.848949
11724549.743344
1581870.030377
10886760.676241
13812452.016940
4437025.876411
-2274541.905088
7506658.918718
-4159897.983885
2500191.722064
7320687.370809
1599050.988381
11421765.008744
3285804.036151
6135093.664400
23404339.998900
23145673.201671
2191756.353198
4571428.798031
5608301.617065
-1292883.307539
1875691.670903
-1095637.296745
-375935.375259
2338469.327157
-6735593.258603
1930136.295324
9487706.536771
6413789.394111
-5611496.564929
4593232.605672
7766438.529611
3069154.846057
1665892.361858
-9998395.187063
15887237.125504
2932409.419729
4536404.526817
2047141.327975
11689607.352861
981483.168413
4422688.708221
4187445.546092
-1529190.179490
-7386173.509407
11917537.214498
-1962723.806030
2812878.527527
5101362.806939
10888182.483119
10850669.017868
4943862.278876
1262606.684385
1237369.634879
29885033.108917
2750787.176748
4069606.161783
10062302.851613
-8410707.492706
1221939.234010
3107281.902817
-4659688.410600
13642272.266825
2886297.877160
3516229.288224
5756319.732488
-6033886.933597
3799840.851473
22654157.414342
3999265.883309
3959979.348185
20287812.641802
3193827.779267
16814991.662093
12372713.227498
3962572.171892
-8847996.137897
1414972.100675
1680834.741703
3588871.710069
-934305.434099
10954725.391368
-1378610.499680
12663396.557468
1675965.831175
41213937.372762
2973300.498419
7145646.521115
17123511.573139
12611950.918173
2079362.504892
7810703.730705
1644928.040190
6776646.510751
-6177463.919496
-6923310.048944
1954199.044303
2542405.787103
-2144281.958746
-5620344.485433
-8675094.797933
4714311.009994
1668295.159035
1405803.732565
-6819311.435578
2388618.816642
4349493.338636
17533111.600345
9760496.534782
20506233.992207
8847831.720866
5839445.398259
-2992879.921487
1911846.429123
-5899603.861108
4741254.852297
-8759582.643243
14317871.304733
-10649411.409406
2709375.712329
4570755.494313
-4610445.887178
-6610138.820256
4612834.537891
1261166.473683
3288655.543870
25156107.883440
12654064.655200
878557.833793
3088625.368140
6429487.939321
6209256.150229
1621487.123762
1874609.518891
523053.193893
689216.260675
5021054.887824
-1219205.352369
2804618.216865
-2829532.421454
-5953939.276290
356769.264951
-7459680.933839
14887998.514167
-5250107.969027
20988488.679592
5481140.044852
-4104320.926309
4413580.405170
-2427266.578087
8093149.225064
5276353.196263
8756763.735357
13400027.020213
5082977.440210
1495123.604522
2584292.832217
3887529.858618
14133191.190325
284811.804434
1733528.821318
4461205.408922
2143300.867361
22865949.656770
5812882.618226
-15781301.187369
16647782.097212
3009086.122546
-4304814.472616
13714817.389939
1162970.350906
-4314659.730304
-8574282.124411
10101229.201211
-2087199.886557
700701.011878
-3881978.984012
4152377.084805
6946012.539547
4735777.118518
698131.481034
3837197.148731
16806896.430583
4701468.088164
1169210.071738
25989373.717169
-5421226.933959
13517615.994598
3468400.940136
9418459.764864
2865930.060875
12092011.234479
5326214.768966
-5357412.580744
3763068.637593
4981823.046020
1080007.982891
2668163.688877
-7094926.140607
5221516.667261
934408.002835
1867747.131978
5679951.163753
5059939.326186
24503238.762055
3727563.352228
2486750.016758
7551673.208706
2404965.892910
28062934.396895
6988698.648269
2643618.541882
-3803348.698784
585769.970392
7929486.440150
808355.011643
-1528993.903183
5002614.467616
-697846.855230
5713407.484224
3522596.165264
34099401.199954
6514790.118428
22318704.698276
5664440.020496
1428016.485439
27805855.740006
18824924.093857
1542675.576422
-1517748.392757
2214503.788030
147768.434603
5779382.305536
23766797.870374
3949392.858009
-9382062.512841
5062045.795755
8365869.585954
13476874.244836
6096816.069250
5979399.951637
1405366.032127
3344884.297689
-820301.834858
2674739.504130
4380909.227328
8195221.968260
3565099.262244
-154920.570133
-332213.184184
-499092.002881
3571813.438908
806704.851135
1888473.358642
-3533548.660315
13465725.102455
17312076.792138
1541210.076863
6204064.224240
2124470.603430
5559493.068822
4274154.094537
7143157.685465
3806007.154063
17900167.017360
20449797.419621
696656.302798
22520525.650617
-8081921.617166
11711613.732888
6603771.265390
1002679.578736
4896291.449296
126431.135387
-3286098.174737
9420452.953437
2707516.247407
6039197.961692
6617040.580810
-5509991.282871
2905752.054591
7508115.301201
6837347.632951
18347488.500200
16675773.448283
2752414.513543
4886361.412158
10562775.698927
5391724.267350
22765847.168426
-2687458.985236
343857.512214
5534653.031374
6075077.060469
2868375.963429
14209779.679501
6441299.515279
8147512.450904
21499666.872331
-350415.078548
3243685.325950
25170238.026169
4907672.615275
7946880.433083
109499.330682
-12976211.908183
3170069.050166
3559985.899621
8211046.361544
9531389.306972
-4012628.677324
4063546.461842
2442936.538077
24632664.196704
5465171.507282
1153239.272630
-3214407.406619
-7268046.730974
4695150.882071
11167132.561574
19940738.341624
3362637.907008
23172469.396538
28072424.900060
16955741.520290
7954163.701679
5211272.830811
6409605.333621
6942793.332959
11955048.156529
22986927.353977
7567351.440655
27893664.587847
2514471.427428
6512581.477258
4272353.735222
6515440.410374
1408614.889385
1764336.756972
855703.291401
4865618.067205
-3009068.570047
7251379.862560
7903236.899175
-3028437.245332
4089511.260957
3654913.303372
7488372.901236
18340585.863593
3433050.912833
26870335.793050
3652939.077483
3793390.602908
2792989.040589
2177975.977356
281533.101054
1954510.783362
11382697.631888
6564946.576845
-3214502.730615
4234765.487017
9640779.724259
6418253.577817
394688.179831
-1862668.224169
10733297.678581
291302.033897
4962104.280268
9921378.626488
3127669.538611
5060141.002992
19429189.555269
4996886.006904
2564129.576696
12908487.657016
2479705.547802
15298255.186093
-3334106.761089
15467072.866793
8504666.641304
10910323.211977
18234402.038845
10397705.823969
10509563.253558
1242883.416735
8307942.508232
5125980.058894
5910959.708303
-346867.868644
9160306.094842
12912486.398819
10066217.942335
5335249.165995
16323315.709450
9272927.726430
-100463.710807
-13429765.552921
10187491.595861
14113413.971717
11513151.956707
12099605.414120
SCALARS UY float 1
LOOKUP_TABLE default
-0.000000
0.000000
0.000000
-0.000000
-3512082.061205
-0.000000
-0.000000
-0.000000
0.000000
-0.000000
0.000000
-0.000000
0.000000
-0.000000
0.000000
-0.000000
0.000000
0.000000
886534.314546
746466.753922
822026.044992
1130965.967512
1474771.574355
1671747.204457
1805019.914276
1928249.216347
2177158.584268
2612714.442816
3729856.547140
3754682.543464
4783128.580196
5723364.626316
4827264.276011
4910221.213754
3269478.191559
4198891.609443
10001631.294269
2388025.700695
1969254.097198
-14365272.922722
-20435736.183496
-77274196.774133
-48354616.321396
-28051226.596350
-19995197.674820
-10924333.651935
-5268901.791322
-3899029.024314
-2573581.363519
2408336.899471
3867299.697061
5507573.041474
4527837.599547
4533408.623381
2155479.909077
-632591.291284
295299.986466
1394960.211609
3515127.959341
1946344.415491
2140645.799368
2386883.739942
2967293.976923
2008415.997083
1383695.685463
939156.074463
0.000000
-0.000001
0.000001
-0.000001
0.000001
-0.000001
0.000000
0.000000
-0.000000
0.000000
-0.000000
0.000000
0.000000
-334948.565691
-1338396.374257
-2140455.894704
-2832578.671398
-2831886.094768
-3120580.446368
-3265277.100548
-3048573.300673
-2681356.825540
-2997403.907839
-2966662.901211
-3283208.558759
-4094477.180923
-2901781.943654
-2477480.228234
-1780775.877666
-815635.612062
-782249.174715
6414881.456146
6965196.362063
8020570.609350
9393520.337034
7094080.483683
3251992.871861
2354853.613113
2725145.157370
2770123.470577
1154790.103267
319433.897185
-687502.164516
339324.531206
-45495.000049
-327082.181729
-489963.672345
-115846.772500
-179883.225269
-1116635.525358
-1284838.923869
-1056713.000620
-524047.242914
-470455.511432
-369293.844642
-761634.466472
-640202.053295
-552082.388793
-407961.581425
-264592.626829
-112100.594191
-3840485.753223
-3175676.017028
-7829564.222805
-1722366.998406
8001495.931328
7189426.833269
16326797.743262
22257878.225440
27811885.501232
28937175.812626
28487149.164662
27899397.485552
23166590.084848
12591393.431051
11239113.350433
16249178.716269
15744572.189650
-21974533.178956
-28392844.141497
-15095712.370846
-11369503.401050
-10624676.217081
-5963197.392653
-10033835.545856
-11797383.942311
-16448066.298470
-8405792.163912
-6940086.242896
-10718530.715090
-15034195.383440
-8708702.839011
-3375471.343515
-2585739.248413
-7622214.805299
-11899707.486753
-15167217.987691
-16635453.389983
-15899683.367343
-4095030.654976
-7844.209908
-2284193.410024
750271.063928
7018274.625451
-12398896.756450
-7060509.318586
-3343498.681499
-6358378.506274
-4679559.389631
4059185.667943
-6986143.359839
-1559453.669841
-7613863.790511
-9463979.889321
3385143.596459
28142870.391118
458591.045301
-556549.288716
262477.579460
-1934282.921932
-299626.376385
2096569.958211
1749562.084852
7628598.368379
-803557.165635
1867314.326849
-2657819.638334
4100266.066889
-6325793.062568
-2655626.767620
184457.191847
12618059.384120
-960264.521378
3879001.039893
-783047.527256
1332577.722061
-1489871.296324
909193.169613
119344.560931
-2061567.557395
-456495.396740
1130288.693376
458620.874750
-396187.790715
2010248.876964
19580782.830019
-3302039.534823
2225880.187845
-298249.588866
-421762.509602
-3320015.189625
1720544.166880
-13470741.927165
-10257497.779017
-2690674.183345
19979233.691828
760527.899990
1703919.018924
-328384.557295
1077280.715523
1459606.353696
1177155.260580
5670031.212179
513985.968902
-297951.484001
579753.265895
-242129.688201
142791.901864
177785.885953
-323575.381212
-178414.504191
730672.808387
-3162863.552926
-2580280.785723
3733390.112408
1628961.301919
2233546.029683
1973197.275402
1214049.371354
-478021.340428
-708724.110484
882596.931054
8806799.478492
-798094.281724
-651336.289509
-2400762.533600
3167544.669775
1281423.501742
-203578.114379
923788.016146
556810.106669
-626997.573923
-2642788.518668
812309.103764
-714348.282255
-827816.276695
630910.697601
-772190.944854
553211.080445
2816155.822227
5656638.039953
-2265763.576070
1840368.710461
6612808.470018
23160718.341050
-2788688.802572
715696.061002
-797388.919602
1744316.533047
-194767.615889
-1073273.633864
588856.903253
2889539.853987
2927773.436392
16909081.267824
-8497164.022788
3837795.807483
1491162.477208
180049.849640
6689398.040964
3661648.556850
-1044428.035675
723736.127575
7195092.382058
-276103.549985
-1036716.526067
905440.442177
320305.040868
165535.001113
-152655.214917
1541657.210791
-71106.653190
1539456.954741
-825803.466126
2332416.996842
393689.336534
-133512.813896
-2066264.320281
2981452.949664
-67832.324941
-4235980.883791
-2919271.787783
5888194.045884
396935.298128
-220630.064789
-549673.010625
2389585.925839
2206354.700353
2279924.549873
-2473729.074664
1906802.027892
883936.036030
-2628444.488015
-684980.247634
1461881.000160
1450851.972883
-583715.922722
1267492.238548
1102913.331841
-981790.881447
-405960.856190
-218996.808244
361949.234048
-110952.878756
5542468.060202
-338062.683111
4650679.377289
-1192891.916157
2136899.271709
1313635.369493
770480.866725
4518343.488336
5805717.777700
1722937.197799
755829.049256
8356125.548102
10649234.895561
2107820.744908
1129667.319898
-1181463.505864
1998308.058604
82321.831805
2030318.524781
-2132905.152861
-5653463.240894
-871761.421238
-389523.679793
-1140947.589356
4175438.158411
-667110.052566
26252.965059
251121.837395
3967954.431277
-282000.407495
5927177.634623
-3599360.480035
2443776.420851
2047167.511019
-4533631.552589
212595.678142
-335306.068206
-1357691.771499
1279954.729790
-560799.687950
2207157.440321
-732537.132454
1633759.527188
-1361635.267655
115952.086636
820070.130058
723049.013695
-873646.616266
230001.290090
2047859.400618
1159558.670819
-493293.762783
-444897.873132
-1796976.638868
-3537429.490934
899508.674234
3256811.938696
-2163014.734650
-2047810.892111
-580597.894792
-2176371.987339
-1055745.553953
2775286.429500
512896.589185
-15737776.041275
-651138.376594
-405668.583573
874105.044333
-518796.362606
1071787.705378
-4809992.390569
808943.024395
359760.270063
-2021851.816230
1534892.204666
-1115993.997904
1991225.936250
2018582.080386
-9831540.868220
-2004121.013917
1116726.949497
3430575.228789
-766415.049960
722023.622241
2092049.036228
-818447.240114
-709839.196965
-808049.216181
3330901.744359
1853075.203325
367076.842402
1082388.892964
-880850.334215
3954694.596829
1132053.451449
511917.067911
556195.795234
-2970248.598760
2250266.354429
1644181.046888
5196.762149
765112.935787
7208897.741045
2736947.096193
2915533.532576
-2316959.383127
18723840.610520
1713998.892896
-674410.458130
-2185422.790478
15597.893204
-541688.799304
627367.450208
73659.525593
-765674.963970
-2508626.487166
-2130197.713123
3255205.281227
3004938.880122
-3435605.221561
3687323.052748
2467118.421799
-975545.900198
519212.661767
-1973056.154061
1609298.014945
-1641489.001433
1937769.372533
810344.853708
-692447.363753
3445911.551410
-608256.236903
957064.318792
1568578.624658
-3513815.872056
3535941.534117
2416526.162836
11028820.117429
-17921518.225789
2483611.857520
5765788.518369
-526629.493467
2240220.658842
-3247662.883534
-242920.728979
3923047.964807
578678.340427
2860483.596556
2296637.603407
3976336.397281
-36718246.170852
975334.974569
354461.994745
-2929681.489868
-1111855.934139
-363090.069774
-1573050.592054
-5509953.007410
2532327.811342
3018095.234896
-61555.873801
2466280.367961
-5176497.885226
-1739443.158650
-815571.927726
-72463.037468
1125434.578593
5506855.802522
-874018.704732
-938712.383460
5350484.187134
1051644.916538
6567697.709353
1633161.950224
16847326.646448
412060.869529
1480208.298817
-1275471.090799
270050.058951
-27144.108449
547413.312401
101573.064541
8284441.026808
269763.390167
-2217673.312857
-1054604.003593
6134207.068282
10268205.169353
3089137.294726
2790181.034744
-868834.399140
-790234.844955
250729.052303
-459389.815967
1896918.880241
1896183.589192
-3142279.548816
1607427.859082
-1477981.744529
-1073432.451744
2076547.423012
12698411.341118
1435683.710874
-442242.549554
2376384.194182
1675984.072913
1506973.753849
-1241942.849196
3495634.818722
-11020606.198998
4264838.417064
-241851.475052
1733913.969147
2372767.343058
1453743.391012
-7339673.674772
-10063578.544041
6245812.815120
-168468.639324
2297336.725602
5461192.846241
3615797.796240
1620726.430540
-10014550.930143
-1205076.168420
-1739711.658924
2262101.003707
2909933.199591
631990.169446
-363925.385930
-713985.691016
3630438.824807
2734061.576857
-776145.438126
7750524.953431
115658.439190
3140055.314685
-253238.538883
-2079100.954206
-592295.797997
528982.693745
5325175.044465
5286652.549366
126045.755172
-1113170.786120
-711730.945900
-991612.870466
-7827989.925366
3468266.889198
-2007854.807729
7594139.375798
3094330.671178
211038.720330
2974848.359106
3384677.980162
5103722.448772
2575915.539929
2507067.459687
-72521.684876
-7541002.798799
-751778.564717
240714.803018
595736.754429
2638662.611128
2768877.019932
-962331.453126
-96389.960006
-1749485.157887
11586801.051534
1898197.316822
1560532.140240
-1442327.588045
2672013.516682
-1709805.453323
-1502247.689132
-1196262.981886
1395913.850807
1031862.763611
-921816.243617
-429284.972904
816649.363151
6790226.488167
-2391043.188912
1223135.051394
22043591.045458
1725617.825216
503144.132607
3520291.888426
9827662.301454
1249938.797203
3308205.547181
2648581.891854
-535527.969666
6232266.323103
2797484.029860
-1727535.334029
-300938.836401
2361795.702614
2174838.589218
2432643.279231
-1099676.786304
2775450.882500
5809855.400308
-1243793.421236
3020491.047255
-2744341.608846
-4906782.149843
-1694735.474558
3049343.358526
-1022688.541159
-7439697.495187
4476099.566545
2668198.690293
-2079590.215619
2849327.261708
-1277531.313485
2461542.502161
-452036.159197
520470.314098
7046449.800857
-5149017.767348
-4730722.387095
9879621.535583
-13996028.807555
463622.008030
3165423.794593
6988711.135471
2636159.777658
3509265.054632
2111992.258674
-409555.337971
-624839.673184
-727773.645090
1972333.833416
2061487.808519
457576.154145
-1790581.318442
-1008499.068444
2656759.337035
-1887677.110831
-1338846.760722
-1357468.625366
8799562.027408
-786217.915940
-800911.162796
1681189.325035
1486455.031060
-1205511.008273
2085603.248873
2780801.310662
-20193234.631039
-483570.479314
-445834.408592
2124529.372721
7417329.536101
3981673.443057
7705052.317824
2224364.479481
2154816.500308
-700329.324223
-4718932.246029
-2145785.170480
-1914713.975424
1021485.156066
-1177851.673944
-164811.074656
-374996.687730
1320130.581725
-3914929.206525
1671492.391354
7657703.614701
3863293.885300
10336938.178949
2116370.020273
5134475.077154
-1248291.945670
3013349.144007
308195.466411
-1096006.486125
3020147.240827
4188004.448341
9557048.389779
-461223.826079
-5855886.834537
6791869.919914
-817244.604432
2191890.001357
3824543.943350
410370.747868
925859.838520
5039621.420775
4361276.962208
2702497.765446
5736202.490111
2613367.069231
2725635.483752
-931648.035196
-604111.520106
-3977134.205891
2341521.969568
2293723.896675
-478195.898071
1677665.372493
197252.774104
72629.845393
-1268885.196815
2188819.723463
1169460.963416
-797131.962857
-1695823.443994
12298371.894082
1708983.317025
979038.226354
6339340.053766
-8030821.333749
2773565.796023
-2768039.523023
-245218.314892
11575423.516058
1352206.079208
2663752.058479
-3582477.280736
3631015.388538
1038923.925728
972437.608384
855067.675758
294627.510733
1958484.409055
1632209.236991
-1275123.081798
3985437.576907
12134478.056625
11637503.599358
-248488.702957
1085127.612886
682856.113905
5704714.964815
1632430.341493
1588184.356887
2267145.849071
2028321.654468
-802153.505693
-1589749.652788
-1164546.446357
-601085.142016
2134740.050032
2738070.877907
5076088.241399
681328.305053
4967398.204853
2092565.947045
2988215.779063
4415431.868155
4924601.006352
2297088.382796
585450.580274
-1424923.498225
-1774655.958358
-2437947.350075
-641556.321698
-609817.976753
-4613031.720496
3824407.499742
1694429.251902
-3202478.438944
1122954.781755
-148935.487754
871903.971276
-3878667.884906
-3673160.027115
-2083804.620252
1263003.406501
12089992.550634
970401.668675
772777.105571
12204953.107521
-894883.759794
-838687.606415
10917198.438132
-1582677.675179
9958350.066673
14626366.417433
-364517.959514
-4134663.739678
2814559.882924
2709074.388646
-11235217.267359
6513542.285497
272771.267078
-827076.222423
-127242.075614
2654483.691390
1312066.545338
2810749.999877
-1453925.897577
3468116.472073
-1095576.817162
-2559463.845129
361983.293056
-242286.880425
150258.342943
495679.443778
665414.141917
-884069.564244
-1572431.620474
-283482.722792
641358.810091
-2415183.668915
3958331.075330
-1235487.229679
4711721.537718
-322803.095684
-1554369.556527
2291396.030497
4465720.860766
2321385.117383
671745.123230
7910617.440134
2875137.893896
3632870.780976
87348.596987
-1487407.418436
806782.346512
367687.693217
834339.870900
1221529.428585
4021839.714815
12212692.325172
3824274.318326
6695729.868543
901598.456867
452819.663717
-10282119.433034
-2363343.532940
620524.289522
-2519288.180370
-122040.879612
7057571.416152
4162722.787215
3057310.679706
2023461.336812
-437399.213384
11615616.883333
-415608.188326
-3935328.761148
4705531.662726
-2014876.681776
-7558578.801007
2549724.865420
-3625762.739846
-1007679.732940
-183905.642568
4001843.986583
4625914.941967
6236532.229104
508706.756747
-1079926.982455
-6633634.709501
1727712.396505
63347.321406
3200271.293487
-451120.351853
-127643.738427
-6459232.173752
1239117.593035
3737245.383972
2027825.671519
51307.579829
-15057665.557853
303626.792943
74301.869245
2256718.414899
1171952.169742
4100501.507641
922602.546961
5620018.351599
3614513.917035
-550429.088079
3248114.408015
2627379.295829
-443859.731931
-939577.651530
52651.376026
1458853.314190
6097212.390909
-1549456.161774
6572922.588884
-612921.371064
2785699.920722
2477041.828610
1043983.149251
530339.788958
3885832.737466
-732901.100662
-572596.421924
486815.322346
2619664.493372
-413103.358956
-1624102.419729
984501.968151
-1691492.785454
-1502704.640703
-448079.563227
336793.468896
887799.228670
5072276.669384
-443310.075718
6609929.958578
1612381.355356
-995961.352881
873916.216251
-2672311.440523
-5513305.998267
-2179518.451693
323906.789401
-440191.628475
-743108.045049
1060338.340809
2668453.565627
1563762.727639
-2762400.845766
5130595.632944
-3007536.045560
60398.005309
2424686.531705
5769586.974407
-189124.608716
-996318.331256
3804966.983347
2585610.024631
2267911.905147
754336.437167
2096292.449833
-724376.657721
-8303615.083145
2704120.200853
2619467.994735
-1062424.482739
3061877.416748
-1858609.562291
2556423.471805
-953326.817776
-3221098.644711
-7228296.891775
-10114605.805091
2282744.942802
-2235583.388091
4290574.773803
-1821630.201221
-175582.776761
2294439.460195
-3998737.209904
3394458.701388
-1994352.234283
-2557056.908659
-6089950.781130
-139206.099610
-8920677.056477
-445705.589957
-3249758.573101
1871430.401342
-199779.283563
1656859.091188
-10903009.631598
1031604.337199
619975.843989
-1727905.800975
-1913955.601585
4608448.047223
-7015699.911920
1068507.084359
-8089944.907936
-4157721.227259
-1330870.177257
-1514056.795651
2303246.476192
-1568698.066316
5537684.574352
1665831.587850
-2311431.539688
471380.495158
-1449358.002245
-4945825.475964
-523874.337258
-160379.842171
1231156.194306
2796193.607901
-7172257.109812
-14520955.955710
1915927.196705
2257287.229718
-3873828.213482
2569831.730377
-3953538.223529
-1000782.298952
840614.389452
-3567157.071034
1410057.082253
1466033.743254
5106467.436774
239216.695306
-4123023.793336
-2198083.953338
-2060479.909747
-6293998.032213
-1441999.447527
-3416209.648150
3118487.391170
-10164661.654264
3787194.218409
11697.638893
388758.062913
-20048658.579539
-806700.813007
-18483488.366250
-890557.017325
-5213084.942271
-6230694.560491
2863975.371004
-2853300.887975
530211.505821
-4064101.124862
-8485381.313890
1592690.712285
3334336.616230
983079.993080
-1169671.036020
-515147.443442
-3696462.686063
-548891.972031
654527.239804
-6831684.524014
-2063721.609715
4102294.426139
-6066372.546597
-12537951.942682
-4460504.176990
3038718.535795
-1033749.246603
-1186659.811821
-7570138.393089
304851.461442
-2242202.919035
-292714.588404
-1348744.915243
1843921.050225
-1931447.075575
-678014.206245
-4821698.430761
-4356289.058256
2251122.563336
6439051.182021
1173182.392327
-251134.173022
-846986.614668
-6164626.422951
5546176.071183
-3123977.853009
-4704444.862638
-1695093.699711
12362286.446950
424678.746979
-3109847.938577
2200456.699060
-5067710.971902
-1919730.683978
-1522164.409172
-2627174.726566
4779661.664130
-11659902.165945
-1701163.350971
169422.128785
-8872177.531774
-2199708.556155
-8334447.330584
-239156.258121
2518194.490596
15286697.533057
-695567.687892
-1052001.299527
402075.889286
4644566.844412
-1819818.952465
1279036.450139
-423699.910668
-2004910.547344
-2154562.758000
-11942626.955988
-1996033.106145
2703457.450062
2451865.800157
41709398.677097
-1121021.692335
-4686505.119703
11828865.531964
-6404855.969267
-4979446.375429
-10653178.676022
-2581667.337628
-3709010.096095
-6161761.447760
3645024.207891
1400998.853364
1409350.334036
-1750538.774670
1496527.908117
-9633845.316848
4107144.956906
-6121718.843572
-2715947.160544
-9861308.774281
-1415686.200821
-469960.410537
12617246.223290
5262325.754705
545627.699198
9730865.153228
-1849403.977386
9236198.721941
-3512548.963590
-10030297.174561
-2626070.794206
3131223.548252
2122019.174219
-67692.730777
375049.760236
3101003.433871
-1901440.279226
-3895680.643151
-5814874.224605
4750546.620783
-3355237.671194
7618969.530677
2766104.568723
1554825.899777
5188678.772430
-6700976.686875
-4220269.791733
-2838741.611684
-4759162.976368
4815273.020361
136786.124629
-5710209.368051
2157615.873234
-2006611.125411
-10105747.593490
-3428026.032577
-5330748.767202
-2646074.795922
7728566.716013
3504591.750048
10441816.499822
231024.644982
-3504742.066909
7369193.638049
-10948305.941692
-3313719.893308
-7650258.348959
25708509.959888
812424.075443
3400348.619026
-3892448.006175
-879605.257786
-6069982.936446
-6568196.060239
-4844900.159210
303510.706771
-2345001.201640
-3416320.245925
8959988.154783
-5858809.144162
-11491288.133625
3710679.257904
-4908431.716852
-6036372.542389
3710436.920327
-747225.873532
15166214.941028
-6018338.870347
-16393681.348765
-6232333.525868
3742807.752187
2739815.695161
-2341272.280726
-25895763.867482
572030.385278
305457.855114
-3482557.345012
6395086.229982
-1144765.470874
-3626264.198494
9988949.048500
-2138546.762978
2847768.527569
28205844.045119
7960144.796617
-3628348.974718
-2660659.348382
-2605384.156528
-3479241.560087
-5283962.934037
-987431.079953
-2186524.756202
-7866297.876561
5035130.408720
-7071535.206100
4582461.447280
-4838934.287515
-8190790.711153
-7338163.064045
11014105.729745
-6251406.286601
-3851706.344997
-1912908.987306
1198263.776746
-499408.187546
4551989.774638
-3526756.987022
14316808.079113
-3825116.432141
13224092.351675
7435804.912247
-2801705.581194
-2557656.588234
4573186.875374
-4758642.981582
28219582.733756
15288044.525663
-8263313.868547
10572736.692287
-679985.958509
-6251967.667501
19473668.576477
-2557696.274425
-6162131.371160
-299017.742824
-2916737.819339
-6340410.473878
-2914748.397138
15382872.458409
30981639.255115
6698420.039939
-6524438.784328
1920250.546932
-8692659.073818
-6243910.324012
-6083525.326525
-7906354.311745
-17881531.299541
-2447466.650546
-5690115.799014
6021504.020510
-2353473.873453
-1892668.370487
357349.749381
-13272982.991100
478623.164792
-7906091.884450
-4398455.140688
-4632198.243698
-4718844.859479
25759219.311635
5761610.357158
13017307.413093
-5892483.038270
-6660802.212520
-2973085.555203
-9601873.036202
-750840.838574
-5528452.213535
-2610472.058877
8914779.219405
-3702013.661068
11934476.814205
-8051883.346778
29491661.882526
-1753086.984665
-3766556.557793
28817799.047048
-3307365.524671
-217410.639367
38324594.147235
-5554256.331135
-4010771.118020
-11189391.039784
1239056.669075
-2462481.117042
-7392347.620751
-3193749.607311
10876607.070030
25564379.575314
-3406646.151185
-1431545.342673
-12586171.002134
-6108153.509921
22275906.545404
-4353978.607736
-8612149.517169
-10087355.379939
-11756755.637197
987461.006633
2260004.859718
26428157.173968
23196725.024614
-4783679.531224
-4717794.104384
-6782263.183269
-8574449.091307
-3816559.144917
-3546203.847538
-5837805.148990
6633742.938575
-6130809.030113
-9309663.535699
-1787779.551943
13815779.967528
-3015591.894610
956040.493280
-3816433.565039
17005971.823257
-1003302.757032
-2520923.232690
-4197196.654230
-3684969.564908
744278.858322
-5765586.045676
11317889.684116
-7231108.946126
10749760.867239
17627410.687122
22223783.331345
-6772464.807019
3881796.462691
-2629584.405799
-10352155.682389
-19963088.493289
-3676413.376731
-4021183.031450
4281225.473567
-3258406.323792
-14597600.032631
-6833089.049646
-10341364.409412
-723221.897851
-7677681.308818
871720.201351
-6024052.271261
-2489065.326245
-2375309.682018
-2455218.159870
-8099832.411833
-3213193.024834
5013261.989342
-4088631.537694
3348933.055538
-7310520.839149
19423599.752925
-3761825.977976
-11717228.911803
-4574262.195497
-6507922.353807
-15259150.352170
-5150346.136749
-6898823.899592
-9649653.538180
-9213733.682943
329584.512470
-10014406.976227
-9442221.039995
-10557316.617820
-737934.090705
-3065126.002704
-6296346.183182
-3152006.328320
-18916617.063705
5516643.108405
2207592.311274
10370146.857669
6153118.493177
-7526206.624267
217559.110384
-3955531.385333
-1245189.326460
7618924.147547
864429.400095
-1368979.351011
-6388930.286907
-5982812.032194
-6326857.811114
-1450769.899134
-8247671.526039
-5340284.565358
-4175053.080351
-18316426.669418
-10272776.273420
559961.017995
-2278244.399332
-3151910.212987
6034046.403584
2488987.426788
-5412751.580359
-7716412.406627
-12910113.798461
4021319.463781
2995636.694272
2925448.951990
500009.689168
CELL_DATA 2699
TENSORS STRESS float
26572.849781 -16068.145430 0.000000
-16068.145430 5243.344796 0.000000
0.000000 0.000000 0.000000
8709.257189 3170.885630 0.000000
3170.885630 707.560000 0.000000
0.000000 0.000000 0.000000
87256.576434 -76121.514057 0.000000
-76121.514057 30366.074390 0.000000
0.000000 0.000000 0.000000
-2439020.198445 514983.669987 0.000000
514983.669987 176368.136145 0.000000
0.000000 0.000000 0.000000
55317.726037 448752.315405 0.000000
448752.315405 244768.141661 0.000000
0.000000 0.000000 0.000000
14239.751588 1412.627317 0.000000
1412.627317 92.919878 0.000000
0.000000 0.000000 0.000000
-971283.314095 -364990.581750 0.000000
-364990.581750 168216.624267 0.000000
0.000000 0.000000 0.000000
33078.717936 21373.626438 0.000000
21373.626438 7268.994569 0.000000
0.000000 0.000000 0.000000
-60358.501530 -34187.713969 0.000000
-34187.713969 18312.840317 0.000000
0.000000 0.000000 0.000000
1547.580702 519.486769 0.000000
519.486769 108.152448 0.000000
0.000000 0.000000 0.000000
18382.019693 8922.222714 0.000000
8922.222714 2509.911587 0.000000
0.000000 0.000000 0.000000
83946.013786 -22902.911180 0.000000
-22902.911180 4162.406970 0.000000
0.000000 0.000000 0.000000
-308378.755017 89692.226395 0.000000
89692.226395 37116.288289 0.000000
0.000000 0.000000 0.000000
84.360530 -25.939399 0.000000
-25.939399 5.002386 0.000000
0.000000 0.000000 0.000000
-251.060655 -143.090654 0.000000
-143.090654 81.078147 0.000000
0.000000 0.000000 0.000000
151056.913092 -138128.308947 0.000000
-138128.308947 56190.856532 0.000000
0.000000 0.000000 0.000000
-446850.084802 590463.977760 0.000000
590463.977760 339857.048446 0.000000
0.000000 0.000000 0.000000
-25552732.208511 -2120527.973611 0.000000
-2120527.973611 338482.697936 0.000000
0.000000 0.000000 0.000000
490888.882251 -559819.090826 0.000000
-559819.090826 239297.598619 0.000000
0.000000 0.000000 0.000000
18725.422254 -47573.794355 0.000000
-47573.794355 24679.424374 0.000000
0.000000 0.000000 0.000000
9.186895 -23.841395 0.000000
-23.841395 12.292912 0.000000
0.000000 0.000000 0.000000
1203.401978 -599.532190 0.000000
-599.532190 170.756899 0.000000
0.000000 0.000000 0.000000
-321502.723449 -65320.847775 0.000000
-65320.847775 21798.625094 0.000000
0.000000 0.000000 0.000000
3815.568977 -2566.813668 0.000000
-2566.813668 894.248173 0.000000
0.000000 0.000000 0.000000
8153.624826 611.245405 0.000000
611.245405 40.068199 0.000000
0.000000 0.000000 0.000000
1928.516827 -3746.708193 0.000000
-3746.708193 1943.376286 0.000000
0.000000 0.000000 0.000000
-4171966.184922 148732.704178 0.000000
148732.704178 10525.680834 0.000000
0.000000 0.000000 0.000000
531.842871 195.976653 0.000000
195.976653 66.456354 0.000000
0.000000 0.000000 0.000000
1.999214 -11.062944 0.000000
-11.062944 5.970901 0.000000
0.000000 0.000000 0.000000
-1449647.720387 -239756.851924 0.000000
-239756.851924 68986.542524 0.000000
0.000000 0.000000 0.000000
-25670.923820 -1719.211480 0.000000
-1719.211480 224.266630 0.000000
0.000000 0.000000 0.000000
1742.843370 1991.244581 0.000000
1991.244581 880.202562 0.000000
0.000000 0.000000 0.000000
10117.178191 -10246.186656 0.000000
-10246.186656 4341.365651 0.000000
0.000000 0.000000 0.000000
343480.567087 39455.592210 0.000000
39455.592210 2995.005001 0.000000
0.000000 0.000000 0.000000
-8015.010878 17130.495516 0.000000
17130.495516 9876.602115 0.000000
0.000000 0.000000 0.000000
755271.830566 -706390.548333 0.000000
-706390.548333 290065.312444 0.000000
0.000000 0.000000 0.000000
-31759.782799 15540.168269 0.000000
15540.168269 7913.332313 0.000000
0.000000 0.000000 0.000000
33980.111072 92080.768694 0.000000
92080.768694 48373.609669 0.000000
0.000000 0.000000 0.000000
8791.530930 -704.107534 0.000000
-704.107534 46.463453 0.000000
0.000000 0.000000 0.000000
-36685504.092346 2051592.740051 0.000000
2051592.740051 228951.373950 0.000000
0.000000 0.000000 0.000000
2416.545480 -344.802447 0.000000
-344.802447 32.356779 0.000000
0.000000 0.000000 0.000000
-881417.863514 65158.489398 0.000000
65158.489398 9332.405756 0.000000
0.000000 0.000000 0.000000
-21326.388370 156585.690051 0.000000
156585.690051 88494.177718 0.000000
0.000000 0.000000 0.000000
-1131309.265124 123742.942842 0.000000
123742.942842 25362.247788 0.000000
0.000000 0.000000 0.000000
23646.616825 -51506.899614 0.000000
-51506.899614 26401.982922 0.000000
0.000000 0.000000 0.000000
-11839.116087 5910.250181 0.000000
5910.250181 3013.866875 0.000000
0.000000 0.000000 0.000000
2285.682195 1493.569893 0.000000
1493.569893 525.122265 0.000000
0.000000 0.000000 0.000000
645.829706 -80.509745 0.000000
-80.509745 109.847913 0.000000
0.000000 0.000000 0.000000
-37368.323698 126408.156935 0.000000
126408.156935 72373.139289 0.000000
0.000000 0.000000 0.000000
229204.229724 180826.372464 0.000000
180826.372464 64597.794978 0.000000
0.000000 0.000000 0.000000
-1147.026353 169.691902 0.000000
169.691902 44.749298 0.000000
0.000000 0.000000 0.000000
51240.579119 -22537.578976 0.000000
-22537.578976 5799.313217 0.000000
0.000000 0.000000 0.000000
35607.478316 -17926.130849 0.000000
-17926.130849 5533.868086 0.000000
0.000000 0.000000 0.000000
48.209831 -114.418681 0.000000
-114.418681 58.448396 0.000000
0.000000 0.000000 0.000000
23255.571101 5394.115352 0.000000
5394.115352 812.114338 0.000000
0.000000 0.000000 0.000000
49441.653213 41519.499782 0.000000
41519.499782 16258.494505 0.000000
0.000000 0.000000 0.000000
0.000000 0.000000 0.000000
0.000000 0.000000 0.000000
0.000000 0.000000 0.000000
-14365951.403897 -561890.333785 0.000000
-561890.333785 43778.606710 0.000000
0.000000 0.000000 0.000000
2234.656006 -19303.796630 0.000000
-19303.796630 10542.830097 0.000000
0.000000 0.000000 0.000000
-51319.930156 1230.779178 0.000000
1230.779178 189.999023 0.000000
0.000000 0.000000 0.000000
-3642.233987 -591.410955 0.000000
-591.410955 167.749337 0.000000
0.000000 0.000000 0.000000
-99145.529916 292186.993150 0.000000
292186.993150 167692.869435 0.000000
0.000000 0.000000 0.000000
15995.597442 -8176.233253 0.000000
-8176.233253 2357.159889 0.000000
0.000000 0.000000 0.000000
395483.100925 353731.112931 0.000000
353731.112931 142524.953039 0.000000
0.000000 0.000000 0.000000
11695.156467 6290.870927 0.000000
6290.870927 1898.564046 0.000000
0.000000 0.000000 0.000000
-1360229.755171 722374.958892 0.000000
722374.958892 384411.064212 0.000000
0.000000 0.000000 0.000000
-136811.448435 -62943.619647 0.000000
-62943.619647 31457.732412 0.000000
0.000000 0.000000 0.000000
42614.543499 53035.186878 0.000000
53035.186878 24097.777315 0.000000
0.000000 0.000000 0.000000
49010.129013 95367.802337 0.000000
95367.802337 47428.781556 0.000000
0.000000 0.000000 0.000000
27894.847718 -9593.955216 0.000000
-9593.955216 2040.347644 0.000000
0.000000 0.000000 0.000000
12427.252004 -74895.847883 0.000000
-74895.847883 41565.345551 0.000000
0.000000 0.000000 0.000000
37793.666062 43264.960832 0.000000
43264.960832 19111.358349 0.000000
0.000000 0.000000 0.000000
197414.605444 207836.074296 0.000000
207836.074296 89318.581800 0.000000
0.000000 0.000000 0.000000
-521465.965674 -206828.217142 0.000000
-206828.217142 91537.480795 0.000000
0.000000 0.000000 0.000000
107276.285787 -126413.197438 0.000000
-126413.197438 56391.385738 0.000000
0.000000 0.000000 0.000000
-42348.222423 164.369653 0.000000
164.369653 11.233597 0.000000
0.000000 0.000000 0.000000
301943.008456 354102.501714 0.000000
354102.501714 157727.174793 0.000000
0.000000 0.000000 0.000000
95986.333180 -54274.287614 0.000000
-54274.287614 17000.580190 0.000000
0.000000 0.000000 0.000000
-145226.626979 -316287.235903 0.000000
-316287.235903 182367.018486 0.000000
0.000000 0.000000 0.000000
-1470449.597999 -443789.578813 0.000000
-443789.578813 187222.283271 0.000000
0.000000 0.000000 0.000000
845740.734191 -404094.451207 0.000000
-404094.451207 111943.553956 0.000000
0.000000 0.000000 0.000000
49818.947584 24578.961409 0.000000
24578.961409 6981.372677 0.000000
0.000000 0.000000 0.000000
50505.023155 -15781.134139 0.000000
-15781.134139 3191.724265 0.000000
0.000000 0.000000 0.000000
-7909.158460 -244309.223062 0.000000
-244309.223062 134943.607262 0.000000
0.000000 0.000000 0.000000
6692.348232 3484.716653 0.000000
3484.716653 1151.174366 0.000000
0.000000 0.000000 0.000000
-18019.283590 -22849.835344 0.000000
-22849.835344 13216.264742 0.000000
0.000000 0.000000 0.000000
1800.928508 -13000.350926 0.000000
-13000.350926 7071.754135 0.000000
0.000000 0.000000 0.000000
-140.220593 -79.265162 0.000000
-79.265162 41.774337 0.000000
0.000000 0.000000 0.000000
39.227312 -104.886154 0.000000
-104.886154 54.235249 0.000000
0.000000 0.000000 0.000000
-742001.266099 -131138.914698 0.000000
-131138.914698 39654.240717 0.000000
0.000000 0.000000 0.000000
-119327.477994 177673.563377 0.000000
177673.563377 102459.189562 0.000000
0.000000 0.000000 0.000000
-9.502042 -20.202812 0.000000
-20.202812 11.648515 0.000000
0.000000 0.000000 0.000000
-49857.491430 -18728.003029 0.000000
-18728.003029 8718.548441 0.000000
0.000000 0.000000 0.000000
38665.297451 -176712.391334 0.000000
-176712.391334 98753.405589 0.000000
0.000000 0.000000 0.000000
-434.148901 -440.800566 0.000000
-440.800566 250.991502 0.000000
0.000000 0.000000 0.000000
-671673.216611 194775.177399 0.000000
194775.177399 80525.447453 0.000000
0.000000 0.000000 0.000000
3.336973 -10.556290 0.000000
-10.556290 5.535472 0.000000
0.000000 0.000000 0.000000
356341.707358 -127787.978718 0.000000
-127787.978718 28148.752829 0.000000
0.000000 0.000000 0.000000
-11083.580905 642.550473 0.000000
642.550473 29.600069 0.000000
0.000000 0.000000 0.000000
-64985.242136 -53311.198921 0.000000
-53311.198921 29823.074487 0.000000
0.000000 0.000000 0.000000
37708.762384 -40281.258439 0.000000
-40281.258439 17452.619465 0.000000
0.000000 0.000000 0.000000
-15594040.884500 959617.994459 0.000000
959617.994459 119246.174526 0.000000
0.000000 0.000000 0.000000
-186755.369515 -45747.184721 0.000000
-45747.184721 17464.972949 0.000000
0.000000 0.000000 0.000000
-4633197.963086 -34984.198594 0.000000
-34984.198594 1878.582358 0.000000
0.000000 0.000000 0.000000
-225744.077988 245716.974837 0.000000
245716.974837 148448.495255 0.000000
0.000000 0.000000 0.000000
-63120.223916 25612.423081 0.000000
25612.423081 12269.256052 0.000000
0.000000 0.000000 0.000000
95.190899 343.821457 0.000000
343.821457 181.908718 0.000000
0.000000 0.000000 0.000000
582.229917 -448.862315 0.000000
-448.862315 168.532832 0.000000
0.000000 0.000000 0.000000
8918.417661 -4790.176964 0.000000
-4790.176964 1448.082456 0.000000
0.000000 0.000000 0.000000
70436.263654 -62414.148827 0.000000
-62414.148827 25044.581274 0.000000
0.000000 0.000000 0.000000
74.038441 131.754121 0.000000
131.754121 64.676235 0.000000
0.000000 0.000000 0.000000
83.995025 59.318140 0.000000
59.318140 21.247175 0.000000
0.000000 0.000000 0.000000
-54042.409494 -12913.455941 0.000000
-12913.455941 4784.556187 0.000000
0.000000 0.000000 0.000000
694309.913766 275246.832453 0.000000
275246.832453 65176.080952 0.000000
0.000000 0.000000 0.000000
65817.770264 -37358.978819 0.000000
-37358.978819 11695.354024 0.000000
0.000000 0.000000 0.000000
359.021225 79.802760 0.000000
79.802760 11.447517 0.000000
0.000000 0.000000 0.000000
3666.927668 -48062.905129 0.000000
-48062.905129 26408.076396 0.000000
0.000000 0.000000 0.000000
45447.906642 -39826.541606 0.000000
-39826.541606 15908.680808 0.000000
0.000000 0.000000 0.000000
19389.599678 8097.979859 0.000000
8097.979859 2022.549090 0.000000
0.000000 0.000000 0.000000
165090.541424 -33936.513279 0.000000
-33936.513279 6980.358774 0.000000
0.000000 0.000000 0.000000
-238074.687344 -81143.972592 0.000000
-81143.972592 36356.552445 0.000000
0.000000 0.000000 0.000000
2431.169612 -62085.334051 0.000000
-62085.334051 34331.793932 0.000000
0.000000 0.000000 0.000000
-4604.097279 28118.386924 0.000000
28118.386924 15697.346479 0.000000
0.000000 0.000000 0.000000
7126.375362 21846.332990 0.000000
21846.332990 10818.905943 0.000000
0.000000 0.000000 0.000000
192618.973292 331462.174765 0.000000
331462.174765 161785.456048 0.000000
0.000000 0.000000 0.000000
4103.569620 65879.488094 0.000000
65879.488094 36245.062945 0.000000
0.000000 0.000000 0.000000
15857.048902 -3854.811653 0.000000
-3854.811653 603.268819 0.000000
0.000000 0.000000 0.000000
-4773.078434 3802.997147 0.000000
3802.997147 2121.451033 0.000000
0.000000 0.000000 0.000000
-1281645.259618 77092.826193 0.000000
77092.826193 9247.964792 0.000000
0.000000 0.000000 0.000000
5330.867310 -2605.089956 0.000000
-2605.089956 733.834282 0.000000
0.000000 0.000000 0.000000
323930.374466 98804.600995 0.000000
98804.600995 19267.169318 0.000000
0.000000 0.000000 0.000000
15077.120143 -8378.574776 0.000000
-8378.574776 2962.112148 0.000000
0.000000 0.000000 0.000000
82456.147724 -72116.837460 0.000000
-72116.837460 28776.906710 0.000000
0.000000 0.000000 0.000000
-22296.907558 2837.838078 0.000000
2837.838078 661.205040 0.000000
0.000000 0.000000 0.000000
3709.720807 1509.471707 0.000000
1509.471707 392.340385 0.000000
0.000000 0.000000 0.000000
12.436666 -3.884760 0.000000
-3.884760 0.759637 0.000000
0.000000 0.000000 0.000000
4729.414076 -13636.657799 0.000000
-13636.657799 9920.108523 0.000000
0.000000 0.000000 0.000000
-20859.188547 5617.830578 0.000000
5617.830578 2235.084007 0.000000
0.000000 0.000000 0.000000
118.892889 22.389683 0.000000
22.389683 2.745706 0.000000
0.000000 0.000000 0.000000
-13816.046163 3169.827149 0.000000
3169.827149 1145.531888 0.000000
0.000000 0.000000 0.000000
-17768.876463 2930.520541 0.000000
2930.520541 842.803270 0.000000
0.000000 0.000000 0.000000
18607.101010 -7278.794843 0.000000
-7278.794843 1711.314595 0.000000
0.000000 0.000000 0.000000
-98599.222633 13918.716775 0.000000
13918.716775 3536.475197 0.000000
0.000000 0.000000 0.000000
-2467664.135432 -579842.465268 0.000000
-579842.465268 212683.081483 0.000000
0.000000 0.000000 0.000000
-928.006200 -32422.824311 0.000000
-32422.824311 18543.810124 0.000000
0.000000 0.000000 0.000000
-261996.943744 -142558.629870 0.000000
-142558.629870 74469.938276 0.000000
0.000000 0.000000 0.000000
-20600.403419 32931.738175 0.000000
32931.738175 18991.564093 0.000000
0.000000 0.000000 0.000000
-40798191.136178 1433266.130817 0.000000
1433266.130817 99942.312798 0.000000
0.000000 0.000000 0.000000
-42674.138301 16283.489975 0.000000
16283.489975 7623.294838 0.000000
0.000000 0.000000 0.000000
-95.719626 3576.557747 0.000000
3576.557747 1994.522702 0.000000
0.000000 0.000000 0.000000
662127.112002 -557422.730272 0.000000
-557422.730272 218534.371331 0.000000
0.000000 0.000000 0.000000
-51739.024948 2595.188798 0.000000
2595.188798 625.819248 0.000000
0.000000 0.000000 0.000000
-470.800021 -242.101405 0.000000
-242.101405 124.734815 0.000000
0.000000 0.000000 0.000000
-250303.848486 142375.898757 0.000000
142375.898757 75137.681601 0.000000
0.000000 0.000000 0.000000
12878.273974 4164.071907 0.000000
4164.071907 839.242737 0.000000
0.000000 0.000000 0.000000
2339.046947 -1754.200561 0.000000
-1754.200561 918.114614 0.000000
0.000000 0.000000 0.000000
-30819.403801 23896.906969 0.000000
23896.906969 13313.748027 0.000000
0.000000 0.000000 0.000000
35632.866604 -60028.582433 0.000000
-60028.582433 29183.275228 0.000000
0.000000 0.000000 0.000000
-392981.014616 -255720.721922 0.000000
-255720.721922 139095.625738 0.000000
0.000000 0.000000 0.000000
75954.144689 -66319.053735 0.000000
-66319.053735 41776.818961 0.000000
0.000000 0.000000 0.000000
16871.708740 -12842.207066 0.000000
-12842.207066 4798.775606 0.000000
0.000000 0.000000 0.000000
-9114.847677 -6336.666183 0.000000
-6336.666183 3536.747553 0.000000
0.000000 0.000000 0.000000
-172786.708892 -57379.956849 0.000000
-57379.956849 25326.932970 0.000000
0.000000 0.000000 0.000000
58887.874754 -32208.216558 0.000000
-32208.216558 9846.968064 0.000000
0.000000 0.000000 0.000000
176885.696703 -94813.105253 0.000000
-94813.105253 28562.571938 0.000000
0.000000 0.000000 0.000000
56585.634864 61269.989911 0.000000
61269.989911 26592.622676 0.000000
0.000000 0.000000 0.000000
23231.386828 -2983.286047 0.000000
-2983.286047 257.584351 0.000000
0.000000 0.000000 0.000000
142.336927 328.587454 0.000000
328.587454 197.272339 0.000000
0.000000 0.000000 0.000000
19272.388827 -8777.541558 0.000000
-8777.541558 2345.032351 0.000000
0.000000 0.000000 0.000000
8861.373667 10193.376415 0.000000
10193.376415 4513.439405 0.000000
0.000000 0.000000 0.000000
46507.559440 14869.245322 0.000000
14869.245322 2967.953041 0.000000
0.000000 0.000000 0.000000
-2670857.933550 262994.959829 0.000000
262994.959829 49023.414742 0.000000
0.000000 0.000000 0.000000
32292.423328 30545.410639 0.000000
30545.410639 12601.272818 0.000000
0.000000 0.000000 0.000000
-465.900894 -81.924363 0.000000
-81.924363 24.673669 0.000000
0.000000 0.000000 0.000000
3975.877860 1704.397942 0.000000
1704.397942 453.799530 0.000000
0.000000 0.000000 0.000000
-5402.208539 -19721.884768 0.000000
-19721.884768 11424.167450 0.000000
0.000000 0.000000 0.000000
7556.851728 -787.330312 0.000000
-787.330312 69.388022 0.000000
0.000000 0.000000 0.000000
44852.291245 -33166.134357 0.000000
-33166.134357 12729.950290 0.000000
0.000000 0.000000 0.000000
10517.593284 -5793.030841 0.000000
-5793.030841 1776.981881 0.000000
0.000000 0.000000 0.000000
-865538.137613 683191.352311 0.000000
683191.352311 380461.578834 0.000000
0.000000 0.000000 0.000000
7940.845162 8238.268459 0.000000
8238.268459 3521.766628 0.000000
0.000000 0.000000 0.000000
-694743.883535 -147676.237086 0.000000
-147676.237086 51023.722695 0.000000
0.000000 0.000000 0.000000
-933.864657 -34717.596943 0.000000
-34717.596943 19567.160624 0.000000
0.000000 0.000000 0.000000
-343966287.169017 -2405556.372813 0.000000
-2405556.372813 33726.451601 0.000000
0.000000 0.000000 0.000000
-19247.586319 -26031.060213 0.000000
-26031.060213 14838.223690 0.000000
0.000000 0.000000 0.000000
-618213.667224 165610.764625 0.000000
165610.764625 68430.086378 0.000000
0.000000 0.000000 0.000000
-3811.284965 3068.120610 0.000000
3068.120610 1717.103827 0.000000
0.000000 0.000000 0.000000
-40002168.927808 -857445.639861 0.000000
-857445.639861 37114.725878 0.000000
0.000000 0.000000 0.000000
178178.303399 35385.098513 0.000000
35385.098513 4635.873827 0.000000
0.000000 0.000000 0.000000
-21333.037978 7621.283211 0.000000
7621.283211 3477.375024 0.000000
0.000000 0.000000 0.000000
20534.800041 -57922.349499 0.000000
-57922.349499 30094.035695 0.000000
0.000000 0.000000 0.000000
9916.183960 -4802.478474 0.000000
-4802.478474 1344.127601 0.000000
0.000000 0.000000 0.000000
1855.205929 -11086.414888 0.000000
-11086.414888 6051.245538 0.000000
0.000000 0.000000 0.000000
46197.333041 -50706.588462 0.000000
-50706.588462 22823.436988 0.000000
0.000000 0.000000 0.000000
-3886999.008687 -723004.007337 0.000000
-723004.007337 225652.872126 0.000000
0.000000 0.000000 0.000000
506470.620663 121465.280915 0.000000
121465.280915 18712.791631 0.000000
0.000000 0.000000 0.000000
-127604.495604 -83915.387918 0.000000
-83915.387918 45547.305194 0.000000
0.000000 0.000000 0.000000
81542.678146 49765.280525 0.000000
49765.280525 17181.980252 0.000000
0.000000 0.000000 0.000000
19.715373 6465.472681 0.000000
6465.472681 3616.200949 0.000000
0.000000 0.000000 0.000000
-16510769.391582 -1604104.643771 0.000000
-1604104.643771 295507.372882 0.000000
0.000000 0.000000 0.000000
7144.266269 -45702.298630 0.000000
-45702.298630 24902.077495 0.000000
0.000000 0.000000 0.000000
10.351720 -4.464886 0.000000
-4.464886 1.143513 0.000000
0.000000 0.000000 0.000000
-10269.635166 15739.842019 0.000000
15739.842019 9083.775600 0.000000
0.000000 0.000000 0.000000
16404.358635 -3814.335198 0.000000
-3814.335198 571.847806 0.000000
0.000000 0.000000 0.000000
13479.099280 3917.583271 0.000000
3917.583271 786.416292 0.000000
0.000000 0.000000 0.000000
-148365.749162 -91094.202515 0.000000
-91094.202515 48811.405169 0.000000
0.000000 0.000000 0.000000
-201108.964306 -112000.233514 0.000000
-112000.233514 58934.896869 0.000000
0.000000 0.000000 0.000000
71582.246547 63657.060986 0.000000
63657.060986 25583.878206 0.000000
0.000000 0.000000 0.000000
-9753.935638 4723.374529 0.000000
4723.374529 2397.068798 0.000000
0.000000 0.000000 0.000000
6558.421512 -12135.372097 0.000000
-12135.372097 5993.587173 0.000000
0.000000 0.000000 0.000000
157210.006847 -208365.463664 0.000000
-208365.463664 96091.697804 0.000000
0.000000 0.000000 0.000000
-189242.944583 -4523.522470 0.000000
-4523.522470 2207.928548 0.000000
0.000000 0.000000 0.000000
47346.022051 -9783.550070 0.000000
-9783.550070 1363.366384 0.000000
0.000000 0.000000 0.000000
-29056.300729 9403.678983 0.000000
9403.678983 4112.176682 0.000000
0.000000 0.000000 0.000000
3727.168880 5967.365794 0.000000
5967.365794 2261.246981 0.000000
0.000000 0.000000 0.000000
-31368.315803 93006.376414 0.000000
93006.376414 54641.524956 0.000000
0.000000 0.000000 0.000000
8100.977584 -3145.750820 0.000000
-3145.750820 741.645339 0.000000
0.000000 0.000000 0.000000
67474.599565 135453.315285 0.000000
135453.315285 67738.529917 0.000000
0.000000 0.000000 0.000000
4359.618793 -7199.239917 0.000000
-7199.239917 3546.083917 0.000000
0.000000 0.000000 0.000000
576390.515858 452640.471532 0.000000
452640.471532 171580.254778 0.000000
0.000000 0.000000 0.000000
-2337.904301 83.126590 0.000000
83.126590 8.562839 0.000000
0.000000 0.000000 0.000000
14641.797476 8145.518435 0.000000
8145.518435 2515.594826 0.000000
0.000000 0.000000 0.000000
124446.313506 -24610.597306 0.000000
-24610.597306 3182.561973 0.000000
0.000000 0.000000 0.000000
45033.323595 8535.101125 0.000000
8535.101125 1079.656013 0.000000
0.000000 0.000000 0.000000
-20508.676553 -19294.813511 0.000000
-19294.813511 9298.060845 0.000000
0.000000 0.000000 0.000000
-12688.385307 188596.899237 0.000000
188596.899237 105123.032937 0.000000
0.000000 0.000000 0.000000
-1762360.647798 459735.557584 0.000000
459735.557584 179656.352629 0.000000
0.000000 0.000000 0.000000
3997.662369 1902.183421 0.000000
1902.183421 473.937071 0.000000
0.000000 0.000000 0.000000
164358.845058 -177046.280539 0.000000
-177046.280539 76697.982101 0.000000
0.000000 0.000000 0.000000
4519.952305 1304.124931 0.000000
1304.124931 239.297326 0.000000
0.000000 0.000000 0.000000
5663.095906 -634.781986 0.000000
-634.781986 52.075293 0.000000
0.000000 0.000000 0.000000
4531.773403 3975.856400 0.000000
3975.856400 1588.339912 0.000000
0.000000 0.000000 0.000000
44753.579096 -20059.128781 0.000000
-20059.128781 5290.975673 0.000000
0.000000 0.000000 0.000000
-91967.212975 -14941.339940 0.000000
-14941.339940 4316.410709 0.000000
0.000000 0.000000 0.000000
-231005.624942 -108710.298205 0.000000
-108710.298205 54656.601912 0.000000
0.000000 0.000000 0.000000
-1143389.240894 164335.884412 0.000000
164335.884412 42017.931147 0.000000
0.000000 0.000000 0.000000
11178.260539 -3891.327060 0.000000
-3891.327060 837.025051 0.000000
0.000000 0.000000 0.000000
-955.368888 -990.737648 0.000000
-990.737648 585.753759 0.000000
0.000000 0.000000 0.000000
-5500.345568 14009.738634 0.000000
14009.738634 8096.355594 0.000000
0.000000 0.000000 0.000000
-19152.958442 -5861.849124 0.000000
-5861.849124 2482.746375 0.000000
0.000000 0.000000 0.000000
-63268.093669 -82944.147928 0.000000
-82944.147928 51934.487273 0.000000
0.000000 0.000000 0.000000
-289098.685777 -202247.012276 0.000000
-202247.012276 110886.075294 0.000000
0.000000 0.000000 0.000000
64526.403653 3060.707322 0.000000
3060.707322 185.359825 0.000000
0.000000 0.000000 0.000000
221063.016268 -234509.081178 0.000000
-234509.081178 101053.861522 0.000000
0.000000 0.000000 0.000000
1108.463504 2976.671044 0.000000
2976.671044 1552.095048 0.000000
0.000000 0.000000 0.000000
-80353.646285 365642.533323 0.000000
365642.533323 208249.537802 0.000000
0.000000 0.000000 0.000000
-72966.518349 825.276148 0.000000
825.276148 126.337178 0.000000
0.000000 0.000000 0.000000
505.873203 2903.575949 0.000000
2903.575949 1612.371845 0.000000
0.000000 0.000000 0.000000
16551.269803 6216.682159 0.000000
6216.682159 1822.207801 0.000000
0.000000 0.000000 0.000000
14507.785546 11838.810119 0.000000
11838.810119 4602.249573 0.000000
0.000000 0.000000 0.000000
13277.811093 1613.779709 0.000000
1613.779709 131.694961 0.000000
0.000000 0.000000 0.000000
4.346176 -1171.550243 0.000000
-1171.550243 736.349672 0.000000
0.000000 0.000000 0.000000
-227130.400767 279476.324199 0.000000
279476.324199 160544.067343 0.000000
0.000000 0.000000 0.000000
-7991.426171 9009.692699 0.000000
9009.692699 4339.974159 0.000000
0.000000 0.000000 0.000000
-54556.092787 183299.665538 0.000000
183299.665538 109959.236660 0.000000
0.000000 0.000000 0.000000
4.347506 234.021203 0.000000
234.021203 129.801673 0.000000
0.000000 0.000000 0.000000
44788.928019 40063.712505 0.000000
40063.712505 16220.504876 0.000000
0.000000 0.000000 0.000000
16144.760136 26658.226885 0.000000
26658.226885 12911.156818 0.000000
0.000000 0.000000 0.000000
-9967.628650 -22885.809986 0.000000
-22885.809986 13252.984198 0.000000
0.000000 0.000000 0.000000
-4712.815232 -3083.787181 0.000000
-3083.787181 1673.861224 0.000000
0.000000 0.000000 0.000000
-35570.789035 -217445.770842 0.000000
-217445.770842 123141.766720 0.000000
0.000000 0.000000 0.000000
-1343.153820 -433.670102 0.000000
-433.670102 186.385811 0.000000
0.000000 0.000000 0.000000
25495.394806 56920.678927 0.000000
56920.678927 28870.707609 0.000000
0.000000 0.000000 0.000000
23.897765 685.673455 0.000000
685.673455 379.406614 0.000000
0.000000 0.000000 0.000000
24894.054905 30435.276657 0.000000
30435.276657 13751.865188 0.000000
0.000000 0.000000 0.000000
-123262.938332 -12610.750058 0.000000
-12610.750058 2431.663433 0.000000
0.000000 0.000000 0.000000
-11268.988147 17369.150121 0.000000
17369.150121 10021.092450 0.000000
0.000000 0.000000 0.000000
-1216216.177738 64668.622449 0.000000
64668.622449 6762.957457 0.000000
0.000000 0.000000 0.000000
101.707852 346.875315 0.000000
346.875315 182.853444 0.000000
0.000000 0.000000 0.000000
11028.045509 -14820.120510 0.000000
-14820.120510 6888.863100 0.000000
0.000000 0.000000 0.000000
-28571.801980 -27730.466914 0.000000
-27730.466914 9397.968914 0.000000
0.000000 0.000000 0.000000
177444.792384 221340.382584 0.000000
221340.382584 100421.159184 0.000000
0.000000 0.000000 0.000000
10908.770933 4570.367214 0.000000
4570.367214 1156.191247 0.000000
0.000000 0.000000 0.000000
25611.633583 3084.491052 0.000000
3084.491052 249.811191 0.000000
0.000000 0.000000 0.000000
76080.211398 -66938.520450 0.000000
-66938.520450 28968.792538 0.000000
0.000000 0.000000 0.000000
-643.747726 -594.735784 0.000000
-594.735784 334.955927 0.000000
0.000000 0.000000 0.000000
-1443143.004566 -167742.057059 0.000000
-167742.057059 36194.478126 0.000000
0.000000 0.000000 0.000000
31466.054794 -7783.341921 0.000000
-7783.341921 1233.173574 0.000000
0.000000 0.000000 0.000000
-22105.551330 -5905.102638 0.000000
-5905.102638 2333.978381 0.000000
0.000000 0.000000 0.000000
-12505.413017 -158274.878061 0.000000
-158274.878061 88911.765760 0.000000
0.000000 0.000000 0.000000
-373817.787507 -89167.000500 0.000000
-89167.000500 33237.514513 0.000000
0.000000 0.000000 0.000000
177601.212177 -283285.916027 0.000000
-283285.916027 136286.039789 0.000000
0.000000 0.000000 0.000000
5184.980531 4709.321148 0.000000
4709.321148 1930.639694 0.000000
0.000000 0.000000 0.000000
-21500428.216556 198371.948061 0.000000
198371.948061 15540.205287 0.000000
0.000000 0.000000 0.000000
-360189.293655 -569392.674029 0.000000
-569392.674029 327737.719612 0.000000
0.000000 0.000000 0.000000
-450.032022 437.777662 0.000000
437.777662 248.572678 0.000000
0.000000 0.000000 0.000000
21380.545229 -97379.408595 0.000000
-97379.408595 52602.268509 0.000000
0.000000 0.000000 0.000000
13780.620963 2518.482281 0.000000
2518.482281 300.774190 0.000000
0.000000 0.000000 0.000000
-89992823.819537 -448238.906205 0.000000
-448238.906205 4626.549167 0.000000
0.000000 0.000000 0.000000
118405.661381 17999.451468 0.000000
17999.451468 1816.474957 0.000000
0.000000 0.000000 0.000000
19171.162725 -5897.336607 0.000000
-5897.336607 1170.648482 0.000000
0.000000 0.000000 0.000000
-38068.837584 49702.725787 0.000000
49702.725787 29541.631504 0.000000
0.000000 0.000000 0.000000
52039.812717 -29191.016794 0.000000
-29191.016794 9066.793462 0.000000
0.000000 0.000000 0.000000
2605822.401185 176533.975032 0.000000
176533.975032 8458.746323 0.000000
0.000000 0.000000 0.000000
49501.592223 -192756.907859 0.000000
-192756.907859 102428.886630 0.000000
0.000000 0.000000 0.000000
34705.476596 24469.383492 0.000000
24469.383492 8756.672932 0.000000
0.000000 0.000000 0.000000
-2059016.110339 396465.844742 0.000000
396465.844742 127222.470240 0.000000
0.000000 0.000000 0.000000
-5423.102914 -11647.401710 0.000000
-11647.401710 6747.400518 0.000000
0.000000 0.000000 0.000000
120861.587094 -113225.154230 0.000000
-113225.154230 46460.782993 0.000000
0.000000 0.000000 0.000000
93099.296135 -20590.638990 0.000000
-20590.638990 2941.274988 0.000000
0.000000 0.000000 0.000000
30413.399517 -45486.631471 0.000000
-45486.631471 21930.942325 0.000000
0.000000 0.000000 0.000000
-261363.335716 161793.275325 0.000000
161793.275325 87529.313401 0.000000
0.000000 0.000000 0.000000
158148.975187 130281.713796 0.000000
130281.713796 50553.248173 0.000000
0.000000 0.000000 0.000000
28260.725343 -7430.373033 0.000000
-7430.373033 1292.154034 0.000000
0.000000 0.000000 0.000000
2727.884759 2767.736447 0.000000
2767.736447 1081.483581 0.000000
0.000000 0.000000 0.000000
1038673.157614 -1199636.192730 0.000000
-1199636.192730 531824.857667 0.000000
0.000000 0.000000 0.000000
-1788033.480870 7718.001596 0.000000
7718.001596 299.883284 0.000000
0.000000 0.000000 0.000000
-261640505.057241 8038103.619972 0.000000
8038103.619972 498407.309386 0.000000
0.000000 0.000000 0.000000
3916.468979 -1915.548150 0.000000
-1915.548150 537.793142 0.000000
0.000000 0.000000 0.000000
3102.598239 -14895.526259 0.000000
-14895.526259 8026.325345 0.000000
0.000000 0.000000 0.000000
-172330.230418 -47272.127770 0.000000
-47272.127770 19211.958483 0.000000
0.000000 0.000000 0.000000
110234.008782 29648.145569 0.000000
29648.145569 5088.765390 0.000000
0.000000 0.000000 0.000000
324.082885 215.169695 0.000000
215.169695 74.377041 0.000000
0.000000 0.000000 0.000000
-932965.701210 131873.595918 0.000000
131873.595918 33551.819311 0.000000
0.000000 0.000000 0.000000
26234.180422 -17849.557746 0.000000
-17849.557746 6834.344671 0.000000
0.000000 0.000000 0.000000
1807.754194 -5297.765181 0.000000
-5297.765181 2838.407117 0.000000
0.000000 0.000000 0.000000
-140970022.063453 2345627.860640 0.000000
2345627.860640 77902.781188 0.000000
0.000000 0.000000 0.000000
-9072.490459 -4981.615942 0.000000
-4981.615942 2608.152607 0.000000
0.000000 0.000000 0.000000
23810.238385 8610.351362 0.000000
8610.351362 1918.567621 0.000000
0.000000 0.000000 0.000000
19276.295407 1557.517464 0.000000
1557.517464 87.767795 0.000000
0.000000 0.000000 0.000000
-71701.485768 18423.929911 0.000000
18423.929911 8015.037946 0.000000
0.000000 0.000000 0.000000
4275.335522 -2278.658510 0.000000
-2278.658510 676.543577 0.000000
0.000000 0.000000 0.000000
17755.466999 -303.428411 0.000000
-303.428411 3.512791 0.000000
0.000000 0.000000 0.000000
-1681.424790 -250331.420709 0.000000
-250331.420709 165176.902669 0.000000
0.000000 0.000000 0.000000
21163.533518 3803.724798 0.000000
3803.724798 1025.224216 0.000000
0.000000 0.000000 0.000000
115711.665303 -1281.399882 0.000000
-1281.399882 3207.107750 0.000000
0.000000 0.000000 0.000000
-20974997.435170 1644123.087587 0.000000
1644123.087587 248731.830566 0.000000
0.000000 0.000000 0.000000
191278.776828 -214214.277333 0.000000
-214214.277333 93938.424195 0.000000
0.000000 0.000000 0.000000
-125666.773301 -83811.953525 0.000000
-83811.953525 48966.446814 0.000000
0.000000 0.000000 0.000000
-82846.638926 48546.989179 0.000000
48546.989179 25783.582399 0.000000
0.000000 0.000000 0.000000
7737.533148 8663.778520 0.000000
8663.778520 3823.878716 0.000000
0.000000 0.000000 0.000000
-48222.773857 -17344.478217 0.000000
-17344.478217 7914.967241 0.000000
0.000000 0.000000 0.000000
-5580.520562 -22.541287 0.000000
-22.541287 628.894849 0.000000
0.000000 0.000000 0.000000
299879.696369 -31603.602481 0.000000
-31603.602481 2204.024407 0.000000
0.000000 0.000000 0.000000
-2293.460942 -354.304355 0.000000
-354.304355 96.686997 0.000000
0.000000 0.000000 0.000000
-162.318292 535.632996 0.000000
535.632996 306.808488 0.000000
0.000000 0.000000 0.000000
1593.303813 4774.706390 0.000000
4774.706390 2611.551318 0.000000
0.000000 0.000000 0.000000
81545.480873 318552.981935 0.000000
318552.981935 184609.450981 0.000000
0.000000 0.000000 0.000000
8149.084462 -32036.587881 0.000000
-32036.587881 17212.235200 0.000000
0.000000 0.000000 0.000000
14292.204356 -19719.435218 0.000000
-19719.435218 9934.763876 0.000000
0.000000 0.000000 0.000000
-95164.032908 -28795.896914 0.000000
-28795.896914 12166.479137 0.000000
0.000000 0.000000 0.000000
7818.540062 3352.871202 0.000000
3352.871202 856.966964 0.000000
0.000000 0.000000 0.000000
94.726467 -29.135401 0.000000
-29.135401 5.620206 0.000000
0.000000 0.000000 0.000000
0.000000 0.000000 0.000000
0.000000 0.000000 0.000000
0.000000 0.000000 0.000000
-5029.657225 6821.354020 0.000000
6821.354020 3954.164784 0.000000
0.000000 0.000000 0.000000
76728.531695 65424.819279 0.000000
65424.819279 28469.621452 0.000000
0.000000 0.000000 0.000000
-222608.478097 128780.025990 0.000000
128780.025990 69021.800376 0.000000
0.000000 0.000000 0.000000
854484.566554 339247.930704 0.000000
339247.930704 81310.621751 0.000000
0.000000 0.000000 0.000000
1783054.998557 -437327.756232 0.000000
-437327.756232 68791.668388 0.000000
0.000000 0.000000 0.000000
49807.039018 38686.834345 0.000000
38686.834345 14581.438659 0.000000
0.000000 0.000000 0.000000
369379.585276 -91958.620916 0.000000
-91958.620916 22193.920654 0.000000
0.000000 0.000000 0.000000
-536732.868834 -65458.058666 0.000000
-65458.058666 14712.457372 0.000000
0.000000 0.000000 0.000000
-230987.256350 -578212.200895 0.000000
-578212.200895 332204.037072 0.000000
0.000000 0.000000 0.000000
1062774.596612 -1255645.419027 0.000000
-1255645.419027 560594.677575 0.000000
0.000000 0.000000 0.000000
-278387.891327 11962.812661 0.000000
11962.812661 1019.241094 0.000000
0.000000 0.000000 0.000000
-763445.890365 -288237.206918 0.000000
-288237.206918 134894.621709 0.000000
0.000000 0.000000 0.000000
34722.449625 -14942.263843 0.000000
-14942.263843 3820.034074 0.000000
0.000000 0.000000 0.000000
68225.235021 -113269.594334 0.000000
-113269.594334 54917.662037 0.000000
0.000000 0.000000 0.000000
4058.582869 -2758.801782 0.000000
-2758.801782 1322.079169 0.000000
0.000000 0.000000 0.000000
67646.258609 -23036.814359 0.000000
-23036.814359 5160.364383 0.000000
0.000000 0.000000 0.000000
-53625.027564 -16807.133774 0.000000
-16807.133774 7265.555951 0.000000
0.000000 0.000000 0.000000
-695863.480454 -355658.082291 0.000000
-355658.082291 190233.899227 0.000000
0.000000 0.000000 0.000000
-64875.398995 21507.365329 0.000000
21507.365329 10603.281922 0.000000
0.000000 0.000000 0.000000
-11915.021446 -19476.132350 0.000000
-19476.132350 11314.025578 0.000000
0.000000 0.000000 0.000000
-28179231.425635 -707517.709712 0.000000
-707517.709712 35496.866594 0.000000
0.000000 0.000000 0.000000
47042.058372 160382.142140 0.000000
160382.142140 84542.639628 0.000000
0.000000 0.000000 0.000000
81281.740747 -44800.246234 0.000000
-44800.246234 13749.139791 0.000000
0.000000 0.000000 0.000000
335161.299812 101367.805839 0.000000
101367.805839 19288.404164 0.000000
0.000000 0.000000 0.000000
-46950.219934 8540.242445 0.000000
8540.242445 6165.810287 0.000000
0.000000 0.000000 0.000000
-4661819.217701 -1802684.574489 0.000000
-1802684.574489 845969.921901 0.000000
0.000000 0.000000 0.000000
12223.921360 3840.572832 0.000000
3840.572832 765.518538 0.000000
0.000000 0.000000 0.000000
60357.515221 -22840.879864 0.000000
-22840.879864 5267.920709 0.000000
0.000000 0.000000 0.000000
-23236.626203 -579746.570306 0.000000
-579746.570306 324038.134027 0.000000
0.000000 0.000000 0.000000
3626.779155 1373.568772 0.000000
1373.568772 322.751904 0.000000
0.000000 0.000000 0.000000
-29914.918294 27834.812524 0.000000
27834.812524 15781.282953 0.000000
0.000000 0.000000 0.000000
118577.537322 -53773.939662 0.000000
-53773.939662 14322.462486 0.000000
0.000000 0.000000 0.000000
50105.886114 115147.506655 0.000000
115147.506655 58551.985782 0.000000
0.000000 0.000000 0.000000
-1400001940.470261 -14859039.043381 0.000000
-14859039.043381 315301.509439 0.000000
0.000000 0.000000 0.000000
170153.324789 -29289.827382 0.000000
-29289.827382 3295.779076 0.000000
0.000000 0.000000 0.000000
-16404.416553 -18612.582946 0.000000
-18612.582946 10673.852573 0.000000
0.000000 0.000000 0.000000
-29062.101995 -119982.025537 0.000000
-119982.025537 68449.077203 0.000000
0.000000 0.000000 0.000000
153.255375 79.542965 0.000000
79.542965 23.406734 0.000000
0.000000 0.000000 0.000000
-1366028.565929 558297.464997 0.000000
558297.464997 267670.118142 0.000000
0.000000 0.000000 0.000000
-5281698.213923 -887775.038455 0.000000
-887775.038455 259015.698614 0.000000
0.000000 0.000000 0.000000
-196778.277982 -229798.915961 0.000000
-229798.915961 131661.435517 0.000000
0.000000 0.000000 0.000000
18458.437870 -6447.119101 0.000000
-6447.119101 1537.335507 0.000000
0.000000 0.000000 0.000000
97753.058143 -554152.278521 0.000000
-554152.278521 299331.871837 0.000000
0.000000 0.000000 0.000000
139.105788 184.033578 0.000000
184.033578 84.830192 0.000000
0.000000 0.000000 0.000000
-1603855839.549427 11230583.511562 0.000000
11230583.511562 158231.008407 0.000000
0.000000 0.000000 0.000000
-10675.984482 2222.547908 0.000000
2222.547908 754.037070 0.000000
0.000000 0.000000 0.000000
23998.929538 5354.768301 0.000000
5354.768301 809.763185 0.000000
0.000000 0.000000 0.000000
-138618381.517533 256826.921988 0.000000
256826.921988 3824.722567 0.000000
0.000000 0.000000 0.000000
-11445829.036000 1072163.723821 0.000000
1072163.723821 191187.578039 0.000000
0.000000 0.000000 0.000000
84371.952973 -7338.955388 0.000000
-7338.955388 155.144291 0.000000
0.000000 0.000000 0.000000
40364.155303 59806.208726 0.000000
59806.208726 30289.835729 0.000000
0.000000 0.000000 0.000000
-117960.219792 -52560.770154 0.000000
-52560.770154 25925.175722 0.000000
0.000000 0.000000 0.000000
184525.752393 -27885.463758 0.000000
-27885.463758 10805.364867 0.000000
0.000000 0.000000 0.000000
2371.907053 114034.273704 0.000000
114034.273704 63232.372458 0.000000
0.000000 0.000000 0.000000
-4011.624302 -711.542691 0.000000
-711.542691 211.345386 0.000000
0.000000 0.000000 0.000000
509.589126 1380.179152 0.000000
1380.179152 592.151897 0.000000
0.000000 0.000000 0.000000
243198.854367 -97539.911159 0.000000
-97539.911159 23571.849629 0.000000
0.000000 0.000000 0.000000
25603.192927 -15536.862214 0.000000
-15536.862214 4684.309040 0.000000
0.000000 0.000000 0.000000
-42757.965868 -2892.211160 0.000000
-2892.211160 153.888034 0.000000
0.000000 0.000000 0.000000
-213555.791811 -211887.619371 0.000000
-211887.619371 120571.051010 0.000000
0.000000 0.000000 0.000000
-42548.061200 -78054.571603 0.000000
-78054.571603 45166.406960 0.000000
0.000000 0.000000 0.000000
-103598.496382 -100918.955599 0.000000
-100918.955599 58609.563837 0.000000
0.000000 0.000000 0.000000
-57775.594165 6418.869387 0.000000
6418.869387 970.614410 0.000000
0.000000 0.000000 0.000000
102017.487775 41689.779109 0.000000
41689.779109 10230.602947 0.000000
0.000000 0.000000 0.000000
-1210270.634607 -9377.774693 0.000000
-9377.774693 609.631208 0.000000
0.000000 0.000000 0.000000
-1327.327630 -91163.903042 0.000000
-91163.903042 50799.036642 0.000000
0.000000 0.000000 0.000000
-2547190.237882 -245327.048048 0.000000
-245327.048048 44957.455773 0.000000
0.000000 0.000000 0.000000
13.857468 -60.089882 0.000000
-60.089882 32.109459 0.000000
0.000000 0.000000 0.000000
-284308.105589 -39292.162902 0.000000
-39292.162902 9803.622800 0.000000
0.000000 0.000000 0.000000
-1547863.526405 -190115.051726 0.000000
-190115.051726 43699.266244 0.000000
0.000000 0.000000 0.000000
43.051681 -54.948226 0.000000
-54.948226 25.086267 0.000000
0.000000 0.000000 0.000000
4438.589261 -1894.428045 0.000000
-1894.428045 479.864425 0.000000
0.000000 0.000000 0.000000
0.000000 0.000000 0.000000
0.000000 0.000000 0.000000
0.000000 0.000000 0.000000
136282.222341 -353579.578070 0.000000
-353579.578070 209228.985004 0.000000
0.000000 0.000000 0.000000
25094.439907 -268282.974430 0.000000
-268282.974430 147077.414709 0.000000
0.000000 0.000000 0.000000
196449.141942 22673.219284 0.000000
22673.219284 2113.558936 0.000000
0.000000 0.000000 0.000000
-2960.381458 3758.160373 0.000000
3758.160373 2161.427344 0.000000
0.000000 0.000000 0.000000
-241626.149437 -261786.020490 0.000000
-261786.020490 150158.446505 0.000000
0.000000 0.000000 0.000000
-1027964.951985 -354726.480574 0.000000
-354726.480574 159339.622955 0.000000
0.000000 0.000000 0.000000
226319.010068 342695.322561 0.000000
342695.322561 163105.735981 0.000000
0.000000 0.000000 0.000000
1307.862510 -300.618731 0.000000
-300.618731 44.494799 0.000000
0.000000 0.000000 0.000000
101785.977844 -35390.006404 0.000000
-35390.006404 7620.985638 0.000000
0.000000 0.000000 0.000000
16426.791038 6148.152807 0.000000
6148.152807 1403.705140 0.000000
0.000000 0.000000 0.000000
180169.247482 286016.648124 0.000000
286016.648124 141638.061201 0.000000
0.000000 0.000000 0.000000
4798.166262 -2645.465698 0.000000
-2645.465698 1011.357330 0.000000
0.000000 0.000000 0.000000
-38477.660259 61584.494626 0.000000
61584.494626 35533.283972 0.000000
0.000000 0.000000 0.000000
11798.985014 7904.729069 0.000000
7904.729069 2746.989872 0.000000
0.000000 0.000000 0.000000
-24316.647896 9678.927140 0.000000
9678.927140 4604.197659 0.000000
0.000000 0.000000 0.000000
4982.292165 -3109.362500 0.000000
-3109.362500 1001.551974 0.000000
0.000000 0.000000 0.000000
987.976518 169.224904 0.000000
169.224904 20.182774 0.000000
0.000000 0.000000 0.000000
42020.381818 -10777.017194 0.000000
-10777.017194 1774.137136 0.000000
0.000000 0.000000 0.000000
382247.131118 -546094.321261 0.000000
-546094.321261 256546.418343 0.000000
0.000000 0.000000 0.000000
-32416.529098 25052.464093 0.000000
25052.464093 3846.952425 0.000000
0.000000 0.000000 0.000000
-30442.873645 -22533.968189 0.000000
-22533.968189 17024.629879 0.000000
0.000000 0.000000 0.000000
-8.675624 -104.357426 0.000000
-104.357426 58.652089 0.000000
0.000000 0.000000 0.000000
5876.398130 -757.448432 0.000000
-757.448432 78.593701 0.000000
0.000000 0.000000 0.000000
176.687792 18061.917839 0.000000
18061.917839 10030.802310 0.000000
0.000000 0.000000 0.000000
-9235.891541 1958.078223 0.000000
1958.078223 463.321194 0.000000
0.000000 0.000000 0.000000
-82127486.905315 -1077849.331305 0.000000
-1077849.331305 28544.559360 0.000000
0.000000 0.000000 0.000000
28482.040754 38881.675610 0.000000
38881.675610 18779.794337 0.000000
0.000000 0.000000 0.000000
75660.545777 3891.758695 0.000000
3891.758695 1252.319258 0.000000
0.000000 0.000000 0.000000
59638.579433 1335.533260 0.000000
1335.533260 19.932209 0.000000
0.000000 0.000000 0.000000
1489.151351 1051.806763 0.000000
1051.806763 376.777539 0.000000
0.000000 0.000000 0.000000
820.859218 447.036216 0.000000
447.036216 136.038173 0.000000
0.000000 0.000000 0.000000
-3993.080507 -30200.764971 0.000000
-30200.764971 17268.075147 0.000000
0.000000 0.000000 0.000000
-317725.755130 86562.859462 0.000000
86562.859462 34614.894701 0.000000
0.000000 0.000000 0.000000
1532208.227757 204182.354838 0.000000
204182.354838 17916.028541 0.000000
0.000000 0.000000 0.000000
3515.940684 -5143.933428 0.000000
-5143.933428 2429.780151 0.000000
0.000000 0.000000 0.000000
1480.721435 3214.824025 0.000000
3214.824025 1714.341136 0.000000
0.000000 0.000000 0.000000
38.049990 12.166617 0.000000
12.166617 2.428353 0.000000
0.000000 0.000000 0.000000
3127.264291 -13735.063284 0.000000
-13735.063284 7294.221757 0.000000
0.000000 0.000000 0.000000
46418.901819 -29963.351072 0.000000
-29963.351072 10474.142923 0.000000
0.000000 0.000000 0.000000
-1120248.526994 166331.179158 0.000000
166331.179158 44547.813760 0.000000
0.000000 0.000000 0.000000
4713.727183 7295.588344 0.000000
7295.588344 3713.320685 0.000000
0.000000 0.000000 0.000000
45686.522325 -73429.378078 0.000000
-73429.378078 35380.297251 0.000000
0.000000 0.000000 0.000000
59013.591631 33586.175338 0.000000
33586.175338 10506.468920 0.000000
0.000000 0.000000 0.000000
85.957217 146.582778 0.000000
146.582778 71.420724 0.000000
0.000000 0.000000 0.000000
62858.125161 -65441.118870 0.000000
-65441.118870 35660.310118 0.000000
0.000000 0.000000 0.000000
-55815.632878 -140135.188227 0.000000
-140135.188227 83965.946807 0.000000
0.000000 0.000000 0.000000
87054.925467 45899.191278 0.000000
45899.191278 13659.563526 0.000000
0.000000 0.000000 0.000000
3445.590713 1096.286791 0.000000
1096.286791 224.907412 0.000000
0.000000 0.000000 0.000000
95769.366628 171146.882312 0.000000
171146.882312 84073.448520 0.000000
0.000000 0.000000 0.000000
48693.617010 -2565.714729 0.000000
-2565.714729 93.440007 0.000000
0.000000 0.000000 0.000000
2246.835641 -3902.861908 0.000000
-3902.861908 1755.335900 0.000000
0.000000 0.000000 0.000000
-93152.316190 -21844.362837 0.000000
-21844.362837 4012.790851 0.000000
0.000000 0.000000 0.000000
-57164.859504 18352.789561 0.000000
18352.789561 7968.699198 0.000000
0.000000 0.000000 0.000000
-1435236.002332 170310.587091 0.000000
170310.587091 37864.009232 0.000000
0.000000 0.000000 0.000000
-308052.494433 137638.550622 0.000000
137638.550622 68113.828671 0.000000
0.000000 0.000000 0.000000
245091.740268 188754.752437 0.000000
188754.752437 70833.418632 0.000000
0.000000 0.000000 0.000000
358711.979821 237763.304554 0.000000
237763.304554 82041.446633 0.000000
0.000000 0.000000 0.000000
-100260.073924 288279.444749 0.000000
288279.444749 165511.125563 0.000000
0.000000 0.000000 0.000000
4344.200732 -694.333817 0.000000
-694.333817 73.890520 0.000000
0.000000 0.000000 0.000000
101528.256838 -5320.508318 0.000000
-5320.508318 260.390272 0.000000
0.000000 0.000000 0.000000
29467.837802 -9566.874440 0.000000
-9566.874440 1934.967657 0.000000
0.000000 0.000000 0.000000
55599.413712 34970.630694 0.000000
34970.630694 11700.913072 0.000000
0.000000 0.000000 0.000000
-15575.919028 38096.935061 0.000000
38096.935061 21870.186710 0.000000
0.000000 0.000000 0.000000
76134.812570 35676.796259 0.000000
35676.796259 9770.023367 0.000000
0.000000 0.000000 0.000000
23916.937155 17923.368090 0.000000
17923.368090 6630.935916 0.000000
0.000000 0.000000 0.000000
7899.631116 731.856666 0.000000
731.856666 44.909782 0.000000
0.000000 0.000000 0.000000
-2725011.867691 603180.927306 0.000000
603180.927306 229122.786835 0.000000
0.000000 0.000000 0.000000
775444.624654 -47935.341164 0.000000
-47935.341164 3891.041936 0.000000
0.000000 0.000000 0.000000
-35626.373345 2213.871649 0.000000
2213.871649 198.263838 0.000000
0.000000 0.000000 0.000000
-114782933.647791 1970689.934976 0.000000
1970689.934976 67526.512578 0.000000
0.000000 0.000000 0.000000
36813.476509 -15792.864841 0.000000
-15792.864841 4030.353327 0.000000
0.000000 0.000000 0.000000
123906.243281 31911.625642 0.000000
31911.625642 5247.004477 0.000000
0.000000 0.000000 0.000000
-10665.225766 1077.280346 0.000000
1077.280346 6317.123931 0.000000
0.000000 0.000000 0.000000
836505.799664 503081.371615 0.000000
503081.371615 163668.380966 0.000000
0.000000 0.000000 0.000000
4137.807905 4494.934572 0.000000
4494.934572 1972.196311 0.000000
0.000000 0.000000 0.000000
5464.486501 -2213.701450 0.000000
-2213.701450 533.864821 0.000000
0.000000 0.000000 0.000000
-1891.094763 692937.028379 0.000000
692937.028379 385500.374679 0.000000
0.000000 0.000000 0.000000
40971.154652 -74680.604958 0.000000
-74680.604958 47938.213078 0.000000
0.000000 0.000000 0.000000
251534.212623 278798.147644 0.000000
278798.147644 121963.832216 0.000000
0.000000 0.000000 0.000000
33780.874979 -45663.820121 0.000000
-45663.820121 20860.458375 0.000000
0.000000 0.000000 0.000000
-68149.506789 210658.894965 0.000000
210658.894965 119352.457178 0.000000
0.000000 0.000000 0.000000
1062693.888949 -226251.314991 0.000000
-226251.314991 31193.167454 0.000000
0.000000 0.000000 0.000000
-24042.798616 6954.064745 0.000000
6954.064745 2297.378467 0.000000
0.000000 0.000000 0.000000
-10.594368 60.291971 0.000000
60.291971 34.210169 0.000000
0.000000 0.000000 0.000000
-54835.198596 160654.115584 0.000000
160654.115584 92189.880274 0.000000
0.000000 0.000000 0.000000
10.854630 16.905620 0.000000
16.905620 8.093334 0.000000
0.000000 0.000000 0.000000
9409.361436 -5033.101490 0.000000
-5033.101490 1512.161465 0.000000
0.000000 0.000000 0.000000
-17161.130834 1508.659919 0.000000
1508.659919 2437.404847 0.000000
0.000000 0.000000 0.000000
-58510.428929 159814.135799 0.000000
159814.135799 97789.917237 0.000000
0.000000 0.000000 0.000000
5895.384944 8224.947205 0.000000
8224.947205 3844.356119 0.000000
0.000000 0.000000 0.000000
81442.639563 -1497.727799 0.000000
-1497.727799 85.232679 0.000000
0.000000 0.000000 0.000000
-1.157015 0.949755 0.000000
0.949755 0.515757 0.000000
0.000000 0.000000 0.000000
13087.082648 -7299.010115 0.000000
-7299.010115 2258.096197 0.000000
0.000000 0.000000 0.000000
12609.916804 35414.675071 0.000000
35414.675071 18394.478907 0.000000
0.000000 0.000000 0.000000
30566.040564 -19224.655273 0.000000
-19224.655273 6615.981433 0.000000
0.000000 0.000000 0.000000
9291.500367 -28441.655767 0.000000
-28441.655767 15716.342768 0.000000
0.000000 0.000000 0.000000
47320.102490 34124.790287 0.000000
34124.790287 12366.230476 0.000000
0.000000 0.000000 0.000000
-2531846.666097 -305903.561714 0.000000
-305903.561714 70306.000449 0.000000
0.000000 0.000000 0.000000
61413.176209 13862.801476 0.000000
13862.801476 2123.851165 0.000000
0.000000 0.000000 0.000000
132913.408003 107932.533698 0.000000
107932.533698 41205.161159 0.000000
0.000000 0.000000 0.000000
2739.949925 6051.069101 0.000000
6051.069101 3065.626118 0.000000
0.000000 0.000000 0.000000
-21673.773395 34306.365724 0.000000
34306.365724 19799.278881 0.000000
0.000000 0.000000 0.000000
2305.923746 1936.343415 0.000000
1936.343415 779.579172 0.000000
0.000000 0.000000 0.000000
316688.771834 325686.979713 0.000000
325686.979713 138759.679491 0.000000
0.000000 0.000000 0.000000
7936.751240 1040.087740 0.000000
1040.087740 96.801303 0.000000
0.000000 0.000000 0.000000
73171.501441 -39924.217929 0.000000
-39924.217929 31659.943893 0.000000
0.000000 0.000000 0.000000
21696.653056 7924.323431 0.000000
7924.323431 1772.627790 0.000000
0.000000 0.000000 0.000000
-17158.413426 -4738.966435 0.000000
-4738.966435 1916.737622 0.000000
0.000000 0.000000 0.000000
-78352.737468 -23530.419139 0.000000
-23530.419139 17514.811698 0.000000
0.000000 0.000000 0.000000
-1525.321946 -1869.971670 0.000000
-1869.971670 1062.897178 0.000000
0.000000 0.000000 0.000000
164831.908443 35221.357444 0.000000
35221.357444 5872.187307 0.000000
0.000000 0.000000 0.000000
459078.299975 467459.552949 0.000000
467459.552949 198465.628402 0.000000
0.000000 0.000000 0.000000
18490.739699 -19703.063626 0.000000
-19703.063626 8503.624536 0.000000
0.000000 0.000000 0.000000
485389.519388 149238.660597 0.000000
149238.660597 28781.029996 0.000000
0.000000 0.000000 0.000000
263422.813023 360970.131913 0.000000
360970.131913 167883.767674 0.000000
0.000000 0.000000 0.000000
193.294509 126.710355 0.000000
126.710355 43.468348 0.000000
0.000000 0.000000 0.000000
-13863.827884 -2797.649814 0.000000
-2797.649814 929.322852 0.000000
0.000000 0.000000 0.000000
-14183.367440 -10741.209989 0.000000
-10741.209989 5952.710557 0.000000
0.000000 0.000000 0.000000
-29922.678024 20903.022634 0.000000
20903.022634 11459.164169 0.000000
0.000000 0.000000 0.000000
-2962787.972236 -756381.599301 0.000000
-756381.599301 291958.684988 0.000000
0.000000 0.000000 0.000000
27808.849864 -13432.173366 0.000000
-13432.173366 3429.574671 0.000000
0.000000 0.000000 0.000000
4038.455009 37110.339496 0.000000
37110.339496 20563.262745 0.000000
0.000000 0.000000 0.000000
-30645295.169179 1779623.302010 0.000000
1779623.302010 204156.252752 0.000000
0.000000 0.000000 0.000000
-638855.720916 -21055.830183 0.000000
-21055.830183 2425.328781 0.000000
0.000000 0.000000 0.000000
-71762.135633 292727.237180 0.000000
292727.237180 166848.484679 0.000000
0.000000 0.000000 0.000000
-4927.843980 6812.847188 0.000000
6812.847188 3962.618385 0.000000
0.000000 0.000000 0.000000
-82946.512837 95757.921988 0.000000
95757.921988 55534.370615 0.000000
0.000000 0.000000 0.000000
186055.986889 -640667.116496 0.000000
-640667.116496 337930.489221 0.000000
0.000000 0.000000 0.000000
181967.938242 24685.149428 0.000000
24685.149428 2205.296708 0.000000
0.000000 0.000000 0.000000
-107914.703140 -19528.675783 0.000000
-19528.675783 7132.056577 0.000000
0.000000 0.000000 0.000000
109240.149553 -83984.474075 0.000000
-83984.474075 31486.774601 0.000000
0.000000 0.000000 0.000000
-160.402550 221.713332 0.000000
221.713332 127.732598 0.000000
0.000000 0.000000 0.000000
-963264.285767 -117833.133711 0.000000
-117833.133711 26577.472927 0.000000
0.000000 0.000000 0.000000
-13368402.719025 -475108.213616 0.000000
-475108.213616 33708.839046 0.000000
0.000000 0.000000 0.000000
-57540.958154 3211.683300 0.000000
3211.683300 479.008735 0.000000
0.000000 0.000000 0.000000
-216720.319908 -111595.501612 0.000000
-111595.501612 57516.340999 0.000000
0.000000 0.000000 0.000000
178186.796839 -620145.662348 0.000000
-620145.662348 327140.472933 0.000000
0.000000 0.000000 0.000000
-15401.052071 -16895.960264 0.000000
-16895.960264 9659.685090 0.000000
0.000000 0.000000 0.000000
-13964974.609543 -1323404.025437 0.000000
-1323404.025437 238456.656488 0.000000
0.000000 0.000000 0.000000
-1219.919966 -4451.175800 0.000000
-4451.175800 2602.276709 0.000000
0.000000 0.000000 0.000000
108963.890202 72492.102462 0.000000
72492.102462 25090.199307 0.000000
0.000000 0.000000 0.000000
42065.334030 18193.273547 0.000000
18193.273547 4674.219642 0.000000
0.000000 0.000000 0.000000
25387.630197 -12100.018605 0.000000
-12100.018605 3343.646004 0.000000
0.000000 0.000000 0.000000
-183986.445563 12964.202792 0.000000
12964.202792 1776.508319 0.000000
0.000000 0.000000 0.000000
11314.730961 -32478.593785 0.000000
-32478.593785 16900.703530 0.000000
0.000000 0.000000 0.000000
-91625.440942 -31868.203042 0.000000
-31868.203042 14366.053652 0.000000
0.000000 0.000000 0.000000
93773.521376 41475.038879 0.000000
41475.038879 10845.136247 0.000000
0.000000 0.000000 0.000000
134605.350043 -85187.291014 0.000000
-85187.291014 28601.195029 0.000000
0.000000 0.000000 0.000000
7184.732611 -4071.573414 0.000000
-4071.573414 1302.529836 0.000000
0.000000 0.000000 0.000000
486.168985 443.487342 0.000000
443.487342 195.053786 0.000000
0.000000 0.000000 0.000000
35014.572204 35410.632020 0.000000
35410.632020 15004.085130 0.000000
0.000000 0.000000 0.000000
32503.464672 -29434.799558 0.000000
-29434.799558 11923.551553 0.000000
0.000000 0.000000 0.000000
-1166.934991 329.602321 0.000000
329.602321 134.393656 0.000000
0.000000 0.000000 0.000000
-15020.814155 -15359.989669 0.000000
-15359.989669 8939.404864 0.000000
0.000000 0.000000 0.000000
-622.645503 -107.529011 0.000000
-107.529011 31.954712 0.000000
0.000000 0.000000 0.000000
395088.461449 6417.248337 0.000000
6417.248337 344.774047 0.000000
0.000000 0.000000 0.000000
72708.009830 -98612.999575 0.000000
-98612.999575 54189.609807 0.000000
0.000000 0.000000 0.000000
257166.955124 -79940.628538 0.000000
-79940.628538 16444.891422 0.000000
0.000000 0.000000 0.000000
40824.506886 70500.660578 0.000000
70500.660578 34415.266130 0.000000
0.000000 0.000000 0.000000
-581916.619574 -245624.615742 0.000000
-245624.615742 119240.744775 0.000000
0.000000 0.000000 0.000000
-92618.143435 -39195.258302 0.000000
-39195.258302 19600.846288 0.000000
0.000000 0.000000 0.000000
373.291104 57.302940 0.000000
57.302940 5.772924 0.000000
0.000000 0.000000 0.000000
538894.285521 644282.063149 0.000000
644282.063149 288669.550196 0.000000
0.000000 0.000000 0.000000
-323716.156732 223998.277471 0.000000
223998.277471 123249.583562 0.000000
0.000000 0.000000 0.000000
40929.375955 41189.656779 0.000000
41189.656779 17423.247476 0.000000
0.000000 0.000000 0.000000
-10608.554289 -26633.681087 0.000000
-26633.681087 15607.686875 0.000000
0.000000 0.000000 0.000000
13171.913718 -28226.508080 0.000000
-28226.508080 11618.685061 0.000000
0.000000 0.000000 0.000000
83746.830090 63987.466612 0.000000
63987.466612 31413.538147 0.000000
0.000000 0.000000 0.000000
160137.518612 -22663.328123 0.000000
-22663.328123 2285.447043 0.000000
0.000000 0.000000 0.000000
1213.814074 528.030920 0.000000
528.030920 154.807060 0.000000
0.000000 0.000000 0.000000
385.275532 -166.530171 0.000000
-166.530171 42.721789 0.000000
0.000000 0.000000 0.000000
-149099.237456 -198861.354024 0.000000
-198861.354024 112776.623363 0.000000
0.000000 0.000000 0.000000
-25266.382867 34613.844205 0.000000
34613.844205 19896.863329 0.000000
0.000000 0.000000 0.000000
-2421622.449403 -816607.974319 0.000000
-816607.974319 370012.518531 0.000000
0.000000 0.000000 0.000000
233.476338 -1291.692000 0.000000
-1291.692000 697.214966 0.000000
0.000000 0.000000 0.000000
691.133394 -200.281231 0.000000
-200.281231 36.704301 0.000000
0.000000 0.000000 0.000000
-7577.616718 -4539.355293 0.000000
-4539.355293 2419.300863 0.000000
0.000000 0.000000 0.000000
-2486.003525 -445.547244 0.000000
-445.547244 62.280852 0.000000
0.000000 0.000000 0.000000
84.165987 -39.952882 0.000000
-39.952882 11.013967 0.000000
0.000000 0.000000 0.000000
-748177262.656376 -5418690.902419 0.000000
-5418690.902419 78591.407106 0.000000
0.000000 0.000000 0.000000
12.096386 -3.135710 0.000000
-3.135710 0.518647 0.000000
0.000000 0.000000 0.000000
36229.061975 22988.272216 0.000000
22988.272216 7699.562984 0.000000
0.000000 0.000000 0.000000
2512.601878 6228.960320 0.000000
6228.960320 2349.289308 0.000000
0.000000 0.000000 0.000000
110518.325152 72996.354939 0.000000
72996.354939 31147.776525 0.000000
0.000000 0.000000 0.000000
80026.234153 17021.365567 0.000000
17021.365567 6858.929148 0.000000
0.000000 0.000000 0.000000
19048.547350 35477.454664 0.000000
35477.454664 17582.332922 0.000000
0.000000 0.000000 0.000000
47207.259785 58029.123594 0.000000
58029.123594 29939.903264 0.000000
0.000000 0.000000 0.000000
423.046357 241.529334 0.000000
241.529334 75.906924 0.000000
0.000000 0.000000 0.000000
-55176.613021 279298.853763 0.000000
279298.853763 158779.865241 0.000000
0.000000 0.000000 0.000000
-27102570.776990 -1052631.503808 0.000000
-1052631.503808 80911.312224 0.000000
0.000000 0.000000 0.000000
2174343.271069 -1093809.993434 0.000000
-1093809.993434 314792.347461 0.000000
0.000000 0.000000 0.000000
23812.583303 -12763.472308 0.000000
-12763.472308 3842.419427 0.000000
0.000000 0.000000 0.000000
3572.486468 1503.304955 0.000000
1503.304955 379.411199 0.000000
0.000000 0.000000 0.000000
-1098603.856906 -26003.029244 0.000000
-26003.029244 4812.258446 0.000000
0.000000 0.000000 0.000000
33563.172581 87358.886835 0.000000
87358.886835 45083.571674 0.000000
0.000000 0.000000 0.000000
1000.017493 -3290.272528 0.000000
-3290.272528 1777.830078 0.000000
0.000000 0.000000 0.000000
-41476777425.032410 52663670.634692 0.000000
52663670.634692 133688.618452 0.000000
0.000000 0.000000 0.000000
-123547.744510 -96035.051462 0.000000
-96035.051462 53395.742286 0.000000
0.000000 0.000000 0.000000
1758.464599 975.414691 0.000000
975.414691 385.362331 0.000000
0.000000 0.000000 0.000000
145402.033227 -78453.937498 0.000000
-78453.937498 24669.834555 0.000000
0.000000 0.000000 0.000000
127422.887453 -269782.348051 0.000000
-269782.348051 135921.268305 0.000000
0.000000 0.000000 0.000000
118675.278854 94866.222080 0.000000
94866.222080 37142.495271 0.000000
0.000000 0.000000 0.000000
12189.654540 62026.885795 0.000000
62026.885795 33374.144862 0.000000
0.000000 0.000000 0.000000
-72524.408600 35377.624348 0.000000
35377.624348 29647.605193 0.000000
0.000000 0.000000 0.000000
-70253.151262 31541.357026 0.000000
31541.357026 15632.826864 0.000000
0.000000 0.000000 0.000000
12532.193213 -20735.135254 0.000000
-20735.135254 10046.561351 0.000000
0.000000 0.000000 0.000000
13324.347056 26872.919543 0.000000
26872.919543 13479.810526 0.000000
0.000000 0.000000 0.000000
474.713630 63.044511 0.000000
63.044511 57.809738 0.000000
0.000000 0.000000 0.000000
13825.099857 3113.051736 0.000000
3113.051736 453.072948 0.000000
0.000000 0.000000 0.000000
-15960.371274 16551.072062 0.000000
16551.072062 9469.276717 0.000000
0.000000 0.000000 0.000000
-14971.745090 38211.713132 0.000000
38211.713132 17874.717097 0.000000
0.000000 0.000000 0.000000
232013.645495 -133141.950249 0.000000
-133141.950249 41981.269005 0.000000
0.000000 0.000000 0.000000
17806.080894 1754.391140 0.000000
1754.391140 114.640587 0.000000
0.000000 0.000000 0.000000
287208.293873 -99031.745514 0.000000
-99031.745514 28663.363854 0.000000
0.000000 0.000000 0.000000
-158449.295818 -112670.202838 0.000000
-112670.202838 61909.280100 0.000000
0.000000 0.000000 0.000000
119.535826 152.205682 0.000000
152.205682 69.443231 0.000000
0.000000 0.000000 0.000000
-2181.866563 1162.395689 0.000000
1162.395689 622.755089 0.000000
0.000000 0.000000 0.000000
448.463699 -1064.716967 0.000000
-1064.716967 544.490116 0.000000
0.000000 0.000000 0.000000
212318.471609 105906.882453 0.000000
105906.882453 30321.438779 0.000000
0.000000 0.000000 0.000000
-2216.714866 -2729.872722 0.000000
-2729.872722 1566.945260 0.000000
0.000000 0.000000 0.000000
141528.168009 -345276.298404 0.000000
-345276.298404 179875.017414 0.000000
0.000000 0.000000 0.000000
19212.803412 10538.773949 0.000000
10538.773949 3224.577431 0.000000
0.000000 0.000000 0.000000
-46535.183756 16501.159775 0.000000
16501.159775 7516.769338 0.000000
0.000000 0.000000 0.000000
155655.370102 -106981.062604 0.000000
-106981.062604 39792.637329 0.000000
0.000000 0.000000 0.000000
3101.510389 1892.415787 0.000000
1892.415787 621.073956 0.000000
0.000000 0.000000 0.000000
-1925.748066 -301.767450 0.000000
-301.767450 83.272163 0.000000
0.000000 0.000000 0.000000
41883.212278 8921.904159 0.000000
8921.904159 1230.199725 0.000000
0.000000 0.000000 0.000000
-4993.575369 8215.454151 0.000000
8215.454151 4790.632718 0.000000
0.000000 0.000000 0.000000
-214534.544136 91661.584897 0.000000
91661.584897 44804.478881 0.000000
0.000000 0.000000 0.000000
16707.560549 212292.593257 0.000000
212292.593257 127879.840033 0.000000
0.000000 0.000000 0.000000
22079.131676 -7054.091045 0.000000
-7054.091045 1408.303638 0.000000
0.000000 0.000000 0.000000
1864.267754 18132.419750 0.000000
18132.419750 9935.247118 0.000000
0.000000 0.000000 0.000000
39216.095763 -33773.577881 0.000000
-33773.577881 13597.123206 0.000000
0.000000 0.000000 0.000000
147058.854323 -165641.700312 0.000000
-165641.700312 83721.278752 0.000000
0.000000 0.000000 0.000000
39544.176523 50.838010 0.000000
50.838010 0.043567 0.000000
0.000000 0.000000 0.000000
-102345.560554 66374.561557 0.000000
66374.561557 35941.097512 0.000000
0.000000 0.000000 0.000000
-15198.151401 -36016.205049 0.000000
-36016.205049 20730.793955 0.000000
0.000000 0.000000 0.000000
1091.816825 -8428.340950 0.000000
-8428.340950 4274.717947 0.000000
0.000000 0.000000 0.000000
5576.405780 -4001.933440 0.000000
-4001.933440 1463.359602 0.000000
0.000000 0.000000 0.000000
3922.262731 -43018.344187 0.000000
-43018.344187 23370.584363 0.000000
0.000000 0.000000 0.000000
-894729.042305 125832.721980 0.000000
125832.721980 31831.950420 0.000000
0.000000 0.000000 0.000000
-166.106741 89.461041 0.000000
89.461041 46.624829 0.000000
0.000000 0.000000 0.000000
-84484.475645 -6147.679217 0.000000
-6147.679217 924.282955 0.000000
0.000000 0.000000 0.000000
40785.138613 2917.951557 0.000000
2917.951557 140.229103 0.000000
0.000000 0.000000 0.000000
99431.654380 280728.045730 0.000000
280728.045730 145858.715958 0.000000
0.000000 0.000000 0.000000
0.000000 0.000000 0.000000
0.000000 0.000000 0.000000
0.000000 0.000000 0.000000
194668.186832 76583.684248 0.000000
76583.684248 18234.171369 0.000000
0.000000 0.000000 0.000000
89437.169706 -5963.615638 0.000000
-5963.615638 272.003351 0.000000
0.000000 0.000000 0.000000
8246.905575 -12855.271555 0.000000
-12855.271555 6237.612733 0.000000
0.000000 0.000000 0.000000
199113.193163 -28352.605984 0.000000
-28352.605984 2895.319195 0.000000
0.000000 0.000000 0.000000
-7271.940972 9059.850517 0.000000
9059.850517 5231.649570 0.000000
0.000000 0.000000 0.000000
13369.763246 1096.085800 0.000000
1096.085800 61.138695 0.000000
0.000000 0.000000 0.000000
-6400.857297 -149.134220 0.000000
-149.134220 16.418056 0.000000
0.000000 0.000000 0.000000
20430.117143 12012.729505 0.000000
12012.729505 3863.659161 0.000000
0.000000 0.000000 0.000000
-12133.724168 -76287.496417 0.000000
-76287.496417 43211.481126 0.000000
0.000000 0.000000 0.000000
6558.365738 -6783.333994 0.000000
-6783.333994 3031.222265 0.000000
0.000000 0.000000 0.000000
282417.673899 130653.135599 0.000000
130653.135599 35420.598589 0.000000
0.000000 0.000000 0.000000
-112757.925566 -73041.542661 0.000000
-73041.542661 39700.594820 0.000000
0.000000 0.000000 0.000000
-1083.054513 -409.594821 0.000000
-409.594821 191.089890 0.000000
0.000000 0.000000 0.000000
-7548.334293 14784.432602 0.000000
14784.432602 8275.751228 0.000000
0.000000 0.000000 0.000000
3.032735 4.263067 0.000000
4.263067 1.995064 0.000000
0.000000 0.000000 0.000000
-61108.424734 -40419.584919 0.000000
-40419.584919 21955.345500 0.000000
0.000000 0.000000 0.000000
-1617.203730 14326.658583 0.000000
14326.658583 8078.705149 0.000000
0.000000 0.000000 0.000000
-232.396298 9039.008254 0.000000
9039.008254 5187.782579 0.000000
0.000000 0.000000 0.000000
52081.541302 -41344.974601 0.000000
-41344.974601 15755.614075 0.000000
0.000000 0.000000 0.000000
-2349062.397264 -232707.115719 0.000000
-232707.115719 43692.737456 0.000000
0.000000 0.000000 0.000000
1417.801681 960.769896 0.000000
960.769896 356.978969 0.000000
0.000000 0.000000 0.000000
1012.997030 -511.663310 0.000000
-511.663310 147.654329 0.000000
0.000000 0.000000 0.000000
5.517607 -7.009578 0.000000
-7.009578 3.196079 0.000000
0.000000 0.000000 0.000000
155210.225557 -17399.966742 0.000000
-17399.966742 1475.866552 0.000000
0.000000 0.000000 0.000000
-56.569680 -1469.007556 0.000000
-1469.007556 821.155132 0.000000
0.000000 0.000000 0.000000
63056.974067 46842.412413 0.000000
46842.412413 17254.751159 0.000000
0.000000 0.000000 0.000000
-592205.243727 -43715.393697 0.000000
-43715.393697 12286.842369 0.000000
0.000000 0.000000 0.000000
15856.082364 -8840.711390 0.000000
-8840.711390 2763.406924 0.000000
0.000000 0.000000 0.000000
-5338.987319 -3238.520331 0.000000
-3238.520331 937.382000 0.000000
0.000000 0.000000 0.000000
-310663.486859 -109159.996988 0.000000
-109159.996988 49417.798958 0.000000
0.000000 0.000000 0.000000
-361.597143 -113.741965 0.000000
-113.741965 48.972370 0.000000
0.000000 0.000000 0.000000
46303.091391 18804.244170 0.000000
18804.244170 4596.511440 0.000000
0.000000 0.000000 0.000000
149861.712371 -86745.958877 0.000000
-86745.958877 27512.939547 0.000000
0.000000 0.000000 0.000000
31317.576171 -13110.676364 0.000000
-13110.676364 3266.528693 0.000000
0.000000 0.000000 0.000000
38685.169380 -38690.151286 0.000000
-38690.151286 16318.168520 0.000000
0.000000 0.000000 0.000000
24091.210998 9623.431541 0.000000
9623.431541 2356.845894 0.000000
0.000000 0.000000 0.000000
-386.692154 117.649110 0.000000
117.649110 49.837872 0.000000
0.000000 0.000000 0.000000
35.478658 139.620577 0.000000
139.620577 127.651017 0.000000
0.000000 0.000000 0.000000
-55.177514 -7.083648 0.000000
-7.083648 0.646670 0.000000
0.000000 0.000000 0.000000
-15161020.664859 -240001.388412 0.000000
-240001.388412 7636.021667 0.000000
0.000000 0.000000 0.000000
35506.643651 27579.943417 0.000000
27579.943417 10368.273178 0.000000
0.000000 0.000000 0.000000
-40109880.000847 -1138578.200896 0.000000
-1138578.200896 64491.068656 0.000000
0.000000 0.000000 0.000000
-154633.164903 3717.353516 0.000000
3717.353516 882.748024 0.000000
0.000000 0.000000 0.000000
-3.406008 297.750530 0.000000
297.750530 196.299859 0.000000
0.000000 0.000000 0.000000
122156.614669 80040.990597 0.000000
80040.990597 27450.889708 0.000000
0.000000 0.000000 0.000000
13458.349007 14713.247775 0.000000
14713.247775 6388.046141 0.000000
0.000000 0.000000 0.000000
-75.513424 -133.704525 0.000000
-133.704525 77.175611 0.000000
0.000000 0.000000 0.000000
7965.451183 -68483.092102 0.000000
-68483.092102 37538.356202 0.000000
0.000000 0.000000 0.000000
24630.592055 56024.171834 0.000000
56024.171834 25429.746896 0.000000
0.000000 0.000000 0.000000
-18198.359053 19150.728233 0.000000
19150.728233 10927.217344 0.000000
0.000000 0.000000 0.000000
6273.367679 11223.884977 0.000000
11223.884977 5284.849450 0.000000
0.000000 0.000000 0.000000
94659.123675 100759.461892 0.000000
100759.461892 43407.874559 0.000000
0.000000 0.000000 0.000000
163718.644805 62153.758683 0.000000
62153.758683 14359.240723 0.000000
0.000000 0.000000 0.000000
-77.448366 194.564535 0.000000
194.564535 111.948831 0.000000
0.000000 0.000000 0.000000
-7146.825309 -2596.241844 0.000000
-2596.241844 1191.688458 0.000000
0.000000 0.000000 0.000000
-5617.323231 3816.909183 0.000000
3816.909183 2103.805739 0.000000
0.000000 0.000000 0.000000
218343.673817 210601.197096 0.000000
210601.197096 87567.543087 0.000000
0.000000 0.000000 0.000000
-1984.677793 2284.177808 0.000000
2284.177808 1509.525819 0.000000
0.000000 0.000000 0.000000
-847040.560858 289398.451277 0.000000
289398.451277 129542.828488 0.000000
0.000000 0.000000 0.000000
-1807936.540711 -25102.279997 0.000000
-25102.279997 3733.725880 0.000000
0.000000 0.000000 0.000000
18960.028965 4983.983944 0.000000
4983.983944 834.951013 0.000000
0.000000 0.000000 0.000000
71898.507518 -3596.047214 0.000000
-3596.047214 576.713762 0.000000
0.000000 0.000000 0.000000
155300.285709 189157.001470 0.000000
189157.001470 85218.384822 0.000000
0.000000 0.000000 0.000000
-598111.456394 -26120.307191 0.000000
-26120.307191 2262.721643 0.000000
0.000000 0.000000 0.000000
-6747.934293 -2419.105198 0.000000
-2419.105198 757.472775 0.000000
0.000000 0.000000 0.000000
2.319566 4.020939 0.000000
4.020939 1.964894 0.000000
0.000000 0.000000 0.000000
-2277655.252028 72699.904891 0.000000
72699.904891 4611.053526 0.000000
0.000000 0.000000 0.000000
-23174.825385 30041.199951 0.000000
30041.199951 17282.877059 0.000000
0.000000 0.000000 0.000000
-6215145.164964 1118047.886645 0.000000
1118047.886645 342442.845613 0.000000
0.000000 0.000000 0.000000
323.406710 -2003.000548 0.000000
-2003.000548 1122.648982 0.000000
0.000000 0.000000 0.000000
58.315309 -26.160964 0.000000
-26.160964 6.908477 0.000000
0.000000 0.000000 0.000000
6380.751187 -2799.429827 0.000000
-2799.429827 739.138307 0.000000
0.000000 0.000000 0.000000
20.155639 170.625695 0.000000
170.625695 93.152237 0.000000
0.000000 0.000000 0.000000
25882.760274 -40898.348888 0.000000
-40898.348888 39772.095808 0.000000
0.000000 0.000000 0.000000
-116.296360 -79.004010 0.000000
-79.004010 43.110176 0.000000
0.000000 0.000000 0.000000
-96224.731139 -680902.982522 0.000000
-680902.982522 385032.617110 0.000000
0.000000 0.000000 0.000000
2597.906426 -2321.476620 0.000000
-2321.476620 932.454304 0.000000
0.000000 0.000000 0.000000
-865842.535819 540860.846802 0.000000
540860.846802 291905.120708 0.000000
0.000000 0.000000 0.000000
440.269423 -6061.691163 0.000000
-6061.691163 2202.852927 0.000000
0.000000 0.000000 0.000000
-66557.143967 -1595.359346 0.000000
-1595.359346 119.169233 0.000000
0.000000 0.000000 0.000000
802.209956 341.040623 0.000000
341.040623 86.324828 0.000000
0.000000 0.000000 0.000000
214782.547020 -577988.404588 0.000000
-577988.404588 299043.605101 0.000000
0.000000 0.000000 0.000000
124432.624700 22463.462034 0.000000
22463.462034 2646.710616 0.000000
0.000000 0.000000 0.000000
84679.047073 177518.594755 0.000000
177518.594755 89314.167554 0.000000
0.000000 0.000000 0.000000
8187.059181 -13359.152120 0.000000
-13359.152120 6343.652691 0.000000
0.000000 0.000000 0.000000
55015.479548 24500.398031 0.000000
24500.398031 6442.495231 0.000000
0.000000 0.000000 0.000000
-218020.178021 220857.838929 0.000000
220857.838929 125582.536530 0.000000
0.000000 0.000000 0.000000
4394.446693 -786.575807 0.000000
-786.575807 91.888179 0.000000
0.000000 0.000000 0.000000
124399.401591 66885.944400 0.000000
66885.944400 32347.959001 0.000000
0.000000 0.000000 0.000000
-15730.123871 12678.346175 0.000000
12678.346175 7091.465575 0.000000
0.000000 0.000000 0.000000
74.422053 4.091417 0.000000
4.091417 0.149634 0.000000
0.000000 0.000000 0.000000
155329.467092 26884.158020 0.000000
26884.158020 3107.285029 0.000000
0.000000 0.000000 0.000000
29279.062254 -48720.418747 0.000000
-48720.418747 11975.536606 0.000000
0.000000 0.000000 0.000000
-766.454769 -117.384019 0.000000
-117.384019 26.025919 0.000000
0.000000 0.000000 0.000000
23987.318735 12380.852752 0.000000
12380.852752 3649.853901 0.000000
0.000000 0.000000 0.000000
-956866.319997 -292933.077112 0.000000
-292933.077112 125552.888099 0.000000
0.000000 0.000000 0.000000
184824.318672 -164546.840350 0.000000
-164546.840350 66163.665906 0.000000
0.000000 0.000000 0.000000
160527.121463 -30524.564322 0.000000
-30524.564322 4120.037651 0.000000
0.000000 0.000000 0.000000
17721.753084 19065.175185 0.000000
19065.175185 8066.195512 0.000000
0.000000 0.000000 0.000000
44731.885239 68151.316489 0.000000
68151.316489 30888.923200 0.000000
0.000000 0.000000 0.000000
277228.198756 -21049.102893 0.000000
-21049.102893 1261.099846 0.000000
0.000000 0.000000 0.000000
2904.587588 1018.469999 0.000000
1018.469999 220.107200 0.000000
0.000000 0.000000 0.000000
97084.498421 74836.034087 0.000000
74836.034087 43449.902412 0.000000
0.000000 0.000000 0.000000
97791.550345 18669.284332 0.000000
18669.284332 12433.178960 0.000000
0.000000 0.000000 0.000000
32878.067160 -3937.760022 0.000000
-3937.760022 313.079551 0.000000
0.000000 0.000000 0.000000
36248.676504 39454.001130 0.000000
39454.001130 17153.359043 0.000000
0.000000 0.000000 0.000000
-8516.610445 6750.237854 0.000000
6750.237854 3061.108367 0.000000
0.000000 0.000000 0.000000
16242.059386 3071.226193 0.000000
3071.226193 403.513879 0.000000
0.000000 0.000000 0.000000
-32820.616597 49076.131607 0.000000
49076.131607 28291.161312 0.000000
0.000000 0.000000 0.000000
-82990.983156 282851.247633 0.000000
282851.247633 163767.024228 0.000000
0.000000 0.000000 0.000000
2713.348018 -8224.632200 0.000000
-8224.632200 4298.211934 0.000000
0.000000 0.000000 0.000000
-61.104916 -54.067700 0.000000
-54.067700 30.470853 0.000000
0.000000 0.000000 0.000000
5.959537 -17.682005 0.000000
-17.682005 9.226273 0.000000
0.000000 0.000000 0.000000
-5163.460551 2859.626780 0.000000
2859.626780 1486.935545 0.000000
0.000000 0.000000 0.000000
3360.040898 84.150414 0.000000
84.150414 1.571557 0.000000
0.000000 0.000000 0.000000
1812.777293 6834.438164 0.000000
6834.438164 3625.066118 0.000000
0.000000 0.000000 0.000000
23.875624 6.571948 0.000000
6.571948 1.147982 0.000000
0.000000 0.000000 0.000000
26053.446853 51346.033259 0.000000
51346.033259 25211.847686 0.000000
0.000000 0.000000 0.000000
26503.474593 12749.674993 0.000000
12749.674993 3624.132867 0.000000
0.000000 0.000000 0.000000
31112.255402 5101.975167 0.000000
5101.975167 814.804064 0.000000
0.000000 0.000000 0.000000
-13469.347731 8178.819660 0.000000
8178.819660 4459.252570 0.000000
0.000000 0.000000 0.000000
56156.249378 295368.982680 0.000000
295368.982680 159111.272986 0.000000
0.000000 0.000000 0.000000
-78626.705821 -7296.699420 0.000000
-7296.699420 1291.210547 0.000000
0.000000 0.000000 0.000000
134477.088166 107740.520043 0.000000
107740.520043 41244.805669 0.000000
0.000000 0.000000 0.000000
1067.308604 -1186.720477 0.000000
-1186.720477 385.459152 0.000000
0.000000 0.000000 0.000000
-6308.634909 5569.991559 0.000000
5569.991559 3118.031027 0.000000
0.000000 0.000000 0.000000
18105.894634 16843.375991 0.000000
16843.375991 6931.497575 0.000000
0.000000 0.000000 0.000000
-446776.243241 -278589.188604 0.000000
-278589.188604 149781.073488 0.000000
0.000000 0.000000 0.000000
6168.039527 -39638.969445 0.000000
-39638.969445 21414.043876 0.000000
0.000000 0.000000 0.000000
-144998.878190 74114.458025 0.000000
74114.458025 38099.419667 0.000000
0.000000 0.000000 0.000000
28159.542306 5603.122401 0.000000
5603.122401 724.076137 0.000000
0.000000 0.000000 0.000000
-14827.259267 -30732.098994 0.000000
-30732.098994 17727.245171 0.000000
0.000000 0.000000 0.000000
-1383.017534 -18182.636472 0.000000
-18182.636472 10248.669602 0.000000
0.000000 0.000000 0.000000
462.259973 16312.608887 0.000000
16312.608887 9035.045635 0.000000
0.000000 0.000000 0.000000
-572917.661129 6967.604543 0.000000
6967.604543 4664.070222 0.000000
0.000000 0.000000 0.000000
22524.437394 -18495.141608 0.000000
-18495.141608 7003.553539 0.000000
0.000000 0.000000 0.000000
21229.203034 -23495.175300 0.000000
-23495.175300 10330.911722 0.000000
0.000000 0.000000 0.000000
-6072.443482 7716.012838 0.000000
7716.012838 4498.740233 0.000000
0.000000 0.000000 0.000000
-145430.986620 -46904.787418 0.000000
-46904.787418 20435.931545 0.000000
0.000000 0.000000 0.000000
42334.830548 56569.435315 0.000000
56569.435315 17312.234481 0.000000
0.000000 0.000000 0.000000
-42099.723841 -10102.572778 0.000000
-10102.572778 4669.215715 0.000000
0.000000 0.000000 0.000000
242524.389797 282238.609617 0.000000
282238.609617 125417.189550 0.000000
0.000000 0.000000 0.000000
-181055.801517 -257831.943035 0.000000
-257831.943035 151824.031612 0.000000
0.000000 0.000000 0.000000
-46596.695087 131271.384312 0.000000
131271.384312 75173.054580 0.000000
0.000000 0.000000 0.000000
82453.494123 66102.001151 0.000000
66102.001151 25312.804082 0.000000
0.000000 0.000000 0.000000
345148.869699 273316.762550 0.000000
273316.762550 104021.537588 0.000000
0.000000 0.000000 0.000000
5176.823411 -4505.995714 0.000000
-4505.995714 1793.776465 0.000000
0.000000 0.000000 0.000000
17466.054374 -9907.926207 0.000000
-9907.926207 3101.703871 0.000000
0.000000 0.000000 0.000000
-135.470392 -80.243902 0.000000
-80.243902 42.317663 0.000000
0.000000 0.000000 0.000000
-3952797.106192 542335.023076 0.000000
542335.023076 134558.361303 0.000000
0.000000 0.000000 0.000000
76142.487194 -42643.118599 0.000000
-42643.118599 13227.650160 0.000000
0.000000 0.000000 0.000000
-1901497.489777 294164.512014 0.000000
294164.512014 80405.477074 0.000000
0.000000 0.000000 0.000000
16184.732709 88224.591951 0.000000
88224.591951 47174.879679 0.000000
0.000000 0.000000 0.000000
8098.319219 3791.722667 0.000000
3791.722667 1034.525457 0.000000
0.000000 0.000000 0.000000
-2342906.844310 361884.744300 0.000000
361884.744300 98735.247565 0.000000
0.000000 0.000000 0.000000
61848.815778 21209.900822 0.000000
21209.900822 4512.626350 0.000000
0.000000 0.000000 0.000000
-144525.086993 155665.403911 0.000000
155665.403911 88918.547518 0.000000
0.000000 0.000000 0.000000
392640.444663 -71536.469113 0.000000
-71536.469113 8618.239812 0.000000
0.000000 0.000000 0.000000
-1015837.722534 -1451884.473173 0.000000
-1451884.473173 838377.100109 0.000000
0.000000 0.000000 0.000000
11002.793097 -1377.249085 0.000000
-1377.249085 113.728110 0.000000
0.000000 0.000000 0.000000
-57.018959 477.359380 0.000000
477.359380 269.177926 0.000000
0.000000 0.000000 0.000000
30904.732371 -34078.944088 0.000000
-34078.944088 14881.861477 0.000000
0.000000 0.000000 0.000000
15171.550767 -14628.845209 0.000000
-14628.845209 6081.826184 0.000000
0.000000 0.000000 0.000000
11363.487345 36388.389585 0.000000
36388.389585 18999.191354 0.000000
0.000000 0.000000 0.000000
16587.740894 -19.965559 0.000000
-19.965559 76.791760 0.000000
0.000000 0.000000 0.000000
42272.692686 1561.357980 0.000000
1561.357980 72.686277 0.000000
0.000000 0.000000 0.000000
102235.801544 -70623.592606 0.000000
-70623.592606 25214.137221 0.000000
0.000000 0.000000 0.000000
-43732.874378 15563.407107 0.000000
15563.407107 7100.264453 0.000000
0.000000 0.000000 0.000000
-425.779344 2408.269273 0.000000
2408.269273 1408.511787 0.000000
0.000000 0.000000 0.000000
202921.892787 -541475.426794 0.000000
-541475.426794 282904.046728 0.000000
0.000000 0.000000 0.000000
-103319.679253 -73955.190941 0.000000
-73955.190941 40807.255119 0.000000
0.000000 0.000000 0.000000
32426.145735 -5020.143331 0.000000
-5020.143331 509.951404 0.000000
0.000000 0.000000 0.000000
269.068040 96.758312 0.000000
96.758312 21.363055 0.000000
0.000000 0.000000 0.000000
-85979.394592 81528.936986 0.000000
81528.936986 46195.337726 0.000000
0.000000 0.000000 0.000000
19553.254948 -25110.562300 0.000000
-25110.562300 11482.712883 0.000000
0.000000 0.000000 0.000000
23651.560850 -3980.571786 0.000000
-3980.571786 959.363112 0.000000
0.000000 0.000000 0.000000
4635.276106 1432.897908 0.000000
1432.897908 283.624605 0.000000
0.000000 0.000000 0.000000
50815.486180 17663.826512 0.000000
17663.826512 3838.573122 0.000000
0.000000 0.000000 0.000000
-1189.970280 28181.043953 0.000000
28181.043953 16510.910422 0.000000
0.000000 0.000000 0.000000
12642.960214 6369.576629 0.000000
6369.576629 1835.178720 0.000000
0.000000 0.000000 0.000000
7057.095048 -1556.951051 0.000000
-1556.951051 458.317718 0.000000
0.000000 0.000000 0.000000
108088.365383 22385.830014 0.000000
22385.830014 3005.399526 0.000000
0.000000 0.000000 0.000000
90280.908245 15516.604891 0.000000
15516.604891 1744.422542 0.000000
0.000000 0.000000 0.000000
16616.081111 -7867.153203 0.000000
-7867.153203 2164.657851 0.000000
0.000000 0.000000 0.000000
-81601.254481 -10946.081631 0.000000
-10946.081631 3473.972797 0.000000
0.000000 0.000000 0.000000
-22103.729608 48272.225836 0.000000
48272.225836 27824.997027 0.000000
0.000000 0.000000 0.000000
24723.031756 -56349.932555 0.000000
-56349.932555 29554.178820 0.000000
0.000000 0.000000 0.000000
3550.211804 -547.675606 0.000000
-547.675606 55.439045 0.000000
0.000000 0.000000 0.000000
10379.873816 -14875.195117 0.000000
-14875.195117 7026.738263 0.000000
0.000000 0.000000 0.000000
-5962.713414 6316.854580 0.000000
6316.854580 3665.248937 0.000000
0.000000 0.000000 0.000000
3518.120958 73618.283193 0.000000
73618.283193 40650.314616 0.000000
0.000000 0.000000 0.000000
587574.057815 97218.526541 0.000000
97218.526541 11303.086948 0.000000
0.000000 0.000000 0.000000
503355.496466 322328.599245 0.000000
322328.599245 109030.584485 0.000000
0.000000 0.000000 0.000000
-6809.380209 -2525.780026 0.000000
-2525.780026 1176.848517 0.000000
0.000000 0.000000 0.000000
-2986.704150 63320.318155 0.000000
63320.318155 36109.119747 0.000000
0.000000 0.000000 0.000000
3920.829709 -35872.136402 0.000000
-35872.136402 19678.710776 0.000000
0.000000 0.000000 0.000000
1167062.963014 -842335.614409 0.000000
-842335.614409 304167.297641 0.000000
0.000000 0.000000 0.000000
9469.808284 -448.928290 0.000000
-448.928290 20.102753 0.000000
0.000000 0.000000 0.000000
9140.036882 -30166.453452 0.000000
-30166.453452 15866.868714 0.000000
0.000000 0.000000 0.000000
67.899884 63.897941 0.000000
63.897941 26.305104 0.000000
0.000000 0.000000 0.000000
-72673.684412 18761.279029 0.000000
18761.279029 3959.095109 0.000000
0.000000 0.000000 0.000000
5265.371587 -8447.908649 0.000000
-8447.908649 4066.044420 0.000000
0.000000 0.000000 0.000000
-5434.741143 -38020.121656 0.000000
-38020.121656 21690.748331 0.000000
0.000000 0.000000 0.000000
292507.173995 139762.602675 0.000000
139762.602675 38742.718573 0.000000
0.000000 0.000000 0.000000
-1432700.912361 -14847.971924 0.000000
-14847.971924 1159.947047 0.000000
0.000000 0.000000 0.000000
51143.479191 18792.979705 0.000000
18792.979705 4225.933365 0.000000
0.000000 0.000000 0.000000
81323.853942 -37312.235590 0.000000
-37312.235590 10346.910738 0.000000
0.000000 0.000000 0.000000
-2256.771837 -10441.835299 0.000000
-10441.835299 5789.857183 0.000000
0.000000 0.000000 0.000000
623.330899 -301.106357 0.000000
-301.106357 84.190761 0.000000
0.000000 0.000000 0.000000
15452.561453 58046.369386 0.000000
58046.369386 30783.156901 0.000000
0.000000 0.000000 0.000000
-470007.019642 -245758.567088 0.000000
-245758.567088 127040.484687 0.000000
0.000000 0.000000 0.000000
-125890.409374 -64435.067799 0.000000
-64435.067799 33145.922917 0.000000
0.000000 0.000000 0.000000
17.671017 4.893752 0.000000
4.893752 0.859548 0.000000
0.000000 0.000000 0.000000
-1027.441922 -77592.749177 0.000000
-77592.749177 43541.935871 0.000000
0.000000 0.000000 0.000000
327992.128962 169501.369825 0.000000
169501.369825 48118.732318 0.000000
0.000000 0.000000 0.000000
-206899.783910 70352.221230 0.000000
70352.221230 31397.467068 0.000000
0.000000 0.000000 0.000000
42964.853074 40444.350934 0.000000
40444.350934 16655.131957 0.000000
0.000000 0.000000 0.000000
-5112273.878495 317393.307331 0.000000
317393.307331 38612.756739 0.000000
0.000000 0.000000 0.000000
-115524.511981 -36730.119738 0.000000
-36730.119738 15895.449085 0.000000
0.000000 0.000000 0.000000
43605.907293 33946.931835 0.000000
33946.931835 12817.020505 0.000000
0.000000 0.000000 0.000000
-5777877.584293 331409.160472 0.000000
331409.160472 37317.371807 0.000000
0.000000 0.000000 0.000000
20293.537092 18075.693879 0.000000
18075.693879 7279.403350 0.000000
0.000000 0.000000 0.000000
24275.618992 -187301.681803 0.000000
-187301.681803 108526.441358 0.000000
0.000000 0.000000 0.000000
-190261547.343870 4645964.824616 0.000000
4645964.824616 226161.805590 0.000000
0.000000 0.000000 0.000000
19.895511 -127.601733 0.000000
-127.601733 69.192602 0.000000
0.000000 0.000000 0.000000
-434908.300078 9472.178765 0.000000
9472.178765 656.574243 0.000000
0.000000 0.000000 0.000000
-3008479.852021 8127.040604 0.000000
8127.040604 174.519193 0.000000
0.000000 0.000000 0.000000
-6.589972 -2.189318 0.000000
-2.189318 0.966967 0.000000
0.000000 0.000000 0.000000
-4401.959903 -419.404183 0.000000
-419.404183 592.368643 0.000000
0.000000 0.000000 0.000000
5023.502047 -24190.685079 0.000000
-24190.685079 12987.214521 0.000000
0.000000 0.000000 0.000000
-230734.842109 -67725.793590 0.000000
-67725.793590 29114.444648 0.000000
0.000000 0.000000 0.000000
45399.258396 78090.387024 0.000000
78090.387024 37557.757970 0.000000
0.000000 0.000000 0.000000
2371.899481 1595.418391 0.000000
1595.418391 555.729545 0.000000
0.000000 0.000000 0.000000
2867.890388 8906.562493 0.000000
8906.562493 4717.750902 0.000000
0.000000 0.000000 0.000000
68417.271743 247.645712 0.000000
247.645712 69.885482 0.000000
0.000000 0.000000 0.000000
30966.124945 -215057.393408 0.000000
-215057.393408 116806.120564 0.000000
0.000000 0.000000 0.000000
2664252.741027 -931303.605791 0.000000
-931303.605791 200748.158120 0.000000
0.000000 0.000000 0.000000
-1866544.361799 -176443.028075 0.000000
-176443.028075 31724.529743 0.000000
0.000000 0.000000 0.000000
-34885.944595 99758.097879 0.000000
99758.097879 58458.868992 0.000000
0.000000 0.000000 0.000000
61169.898116 -268732.855444 0.000000
-268732.855444 143686.691000 0.000000
0.000000 0.000000 0.000000
14484.744873 23690.092400 0.000000
23690.092400 11508.988197 0.000000
0.000000 0.000000 0.000000
244.033538 544.884154 0.000000
544.884154 282.222732 0.000000
0.000000 0.000000 0.000000
-1076.601423 863.677723 0.000000
863.677723 459.554533 0.000000
0.000000 0.000000 0.000000
5324.725426 1151.128789 0.000000
1151.128789 161.952436 0.000000
0.000000 0.000000 0.000000
303521.638373 -28719.971630 0.000000
-28719.971630 1800.865117 0.000000
0.000000 0.000000 0.000000
43414.555359 36115.350395 0.000000
36115.350395 14246.744222 0.000000
0.000000 0.000000 0.000000
4931.932209 -9332.375709 0.000000
-9332.375709 4658.486358 0.000000
0.000000 0.000000 0.000000
4645.389905 4095.828019 0.000000
4095.828019 1645.431860 0.000000
0.000000 0.000000 0.000000
5546.833434 -2220.661609 0.000000
-2220.661609 489.515986 0.000000
0.000000 0.000000 0.000000
108726.670382 18421.330174 0.000000
18421.330174 2046.548411 0.000000
0.000000 0.000000 0.000000
-7462.753322 -24889.696990 0.000000
-24889.696990 14756.930679 0.000000
0.000000 0.000000 0.000000
-1208.760871 218.309707 0.000000
218.309707 67.051800 0.000000
0.000000 0.000000 0.000000
-230545.808521 73002.942172 0.000000
73002.942172 31481.066181 0.000000
0.000000 0.000000 0.000000
23176.609847 -7746.778881 0.000000
-7746.778881 1607.989009 0.000000
0.000000 0.000000 0.000000
26268.765511 -21664.469676 0.000000
-21664.469676 8412.142261 0.000000
0.000000 0.000000 0.000000
60037.070657 976.112537 0.000000
976.112537 10.752725 0.000000
0.000000 0.000000 0.000000
29095.856144 -28365.031928 0.000000
-28365.031928 11843.938981 0.000000
0.000000 0.000000 0.000000
4968.231249 24113.259232 0.000000
24113.259232 13001.683345 0.000000
0.000000 0.000000 0.000000
-61348.586752 30933.807146 0.000000
30933.807146 15824.563137 0.000000
0.000000 0.000000 0.000000
1236.495326 10572.252008 0.000000
10572.252008 5771.378548 0.000000
0.000000 0.000000 0.000000
12607.909433 -1409.371465 0.000000
-1409.371465 106.115307 0.000000
0.000000 0.000000 0.000000
-46.684661 74.597281 0.000000
74.597281 43.049550 0.000000
0.000000 0.000000 0.000000
67034.985076 32551.724131 0.000000
32551.724131 9133.743465 0.000000
0.000000 0.000000 0.000000
42353.494509 9041.921399 0.000000
9041.921399 1341.455909 0.000000
0.000000 0.000000 0.000000
-136588.919930 76579.870994 0.000000
76579.870994 40261.043533 0.000000
0.000000 0.000000 0.000000
76667.892936 57468.980013 0.000000
57468.980013 21260.079794 0.000000
0.000000 0.000000 0.000000
4515.724551 -3295.564920 0.000000
-3295.564920 1202.173601 0.000000
0.000000 0.000000 0.000000
-95855.394237 -47357.647067 0.000000
-47357.647067 24162.050481 0.000000
0.000000 0.000000 0.000000
-22998.378989 6239.627821 0.000000
6239.627821 2489.383273 0.000000
0.000000 0.000000 0.000000
-21139.778428 53136.672008 0.000000
53136.672008 30315.390517 0.000000
0.000000 0.000000 0.000000
51376.965481 15635.850777 0.000000
15635.850777 2988.072371 0.000000
0.000000 0.000000 0.000000
-8809.425997 -28362.134201 0.000000
-28362.134201 13036.802380 0.000000
0.000000 0.000000 0.000000
95.453793 42.348349 0.000000
42.348349 11.087406 0.000000
0.000000 0.000000 0.000000
19062.136439 -109076.739555 0.000000
-109076.739555 58633.249088 0.000000
0.000000 0.000000 0.000000
78558.727181 -51308.765484 0.000000
-51308.765484 17984.511260 0.000000
0.000000 0.000000 0.000000
6387.984986 -1831.235098 0.000000
-1831.235098 332.040607 0.000000
0.000000 0.000000 0.000000
13643.180489 -13027.843816 0.000000
-13027.843816 5395.211658 0.000000
0.000000 0.000000 0.000000
-2143.005622 -3457.528288 0.000000
-3457.528288 2029.611029 0.000000
0.000000 0.000000 0.000000
-43149.880899 -18018.075503 0.000000
-18018.075503 8722.000072 0.000000
0.000000 0.000000 0.000000
1429.941091 875.681659 0.000000
875.681659 288.306831 0.000000
0.000000 0.000000 0.000000
25030.576773 -19004.874105 0.000000
-19004.874105 7079.542792 0.000000
0.000000 0.000000 0.000000
-88216.959443 -202870.551194 0.000000
-202870.551194 116862.115274 0.000000
0.000000 0.000000 0.000000
-46422.588107 -78347.730752 0.000000
-78347.730752 45471.994286 0.000000
0.000000 0.000000 0.000000
192.306316 190.616308 0.000000
190.616308 80.108557 0.000000
0.000000 0.000000 0.000000
2980.160245 20949.976969 0.000000
20949.976969 11388.683038 0.000000
0.000000 0.000000 0.000000
92976.834573 23672.247950 0.000000
23672.247950 11517.059750 0.000000
0.000000 0.000000 0.000000
10271.746415 2220.127039 0.000000
2220.127039 320.090149 0.000000
0.000000 0.000000 0.000000
415028.601756 -148593.064689 0.000000
-148593.064689 32687.802236 0.000000
0.000000 0.000000 0.000000
-205340.167231 -213420.518896 0.000000
-213420.518896 121843.847221 0.000000
0.000000 0.000000 0.000000
-20413.268197 -5737.349016 0.000000
-5737.349016 2322.949584 0.000000
0.000000 0.000000 0.000000
4420.660509 -2045.432920 0.000000
-2045.432920 580.418341 0.000000
0.000000 0.000000 0.000000
3530.101132 26036.478127 0.000000
26036.478127 14133.930794 0.000000
0.000000 0.000000 0.000000
121822.413408 92294.552414 0.000000
92294.552414 34105.988581 0.000000
0.000000 0.000000 0.000000
-6042.032747 -8900.741840 0.000000
-8900.741840 5121.865090 0.000000
0.000000 0.000000 0.000000
680.802009 -44.811540 0.000000
-44.811540 1.960493 0.000000
0.000000 0.000000 0.000000
-525.013837 2254.763259 0.000000
2254.763259 1344.863098 0.000000
0.000000 0.000000 0.000000
114386.565894 -167662.024852 0.000000
-167662.024852 80051.358468 0.000000
0.000000 0.000000 0.000000
26269.615257 70314.122965 0.000000
70314.122965 36362.095142 0.000000
0.000000 0.000000 0.000000
15519.690035 -41141.348325 0.000000
-41141.348325 21481.069749 0.000000
0.000000 0.000000 0.000000
8530.806320 103425.201836 0.000000
103425.201836 56652.943235 0.000000
0.000000 0.000000 0.000000
-15807.472109 6366.952247 0.000000
6366.952247 3103.716675 0.000000
0.000000 0.000000 0.000000
61823.453993 51445.520961 0.000000
51445.520961 20058.821491 0.000000
0.000000 0.000000 0.000000
-24082.986776 -9048.342446 0.000000
-9048.342446 4234.910940 0.000000
0.000000 0.000000 0.000000
40.176727 -19562.617335 0.000000
-19562.617335 12041.367236 0.000000
0.000000 0.000000 0.000000
840.923369 -1134.370230 0.000000
-1134.370230 496.213968 0.000000
0.000000 0.000000 0.000000
26333.997050 7699.901653 0.000000
7699.901653 1422.400561 0.000000
0.000000 0.000000 0.000000
31174.805681 -86781.856354 0.000000
-86781.856354 45038.095035 0.000000
0.000000 0.000000 0.000000
29796.675787 -19229.288057 0.000000
-19229.288057 6645.896892 0.000000
0.000000 0.000000 0.000000
10466.570072 48207.897452 0.000000
48207.897452 15859.022259 0.000000
0.000000 0.000000 0.000000
-52.983496 181.900136 0.000000
181.900136 104.118311 0.000000
0.000000 0.000000 0.000000
40347.219769 -6209.722016 0.000000
-6209.722016 627.170171 0.000000
0.000000 0.000000 0.000000
-44602.936858 22792.879007 0.000000
22792.879007 11803.023821 0.000000
0.000000 0.000000 0.000000
46827.607817 394200.143564 0.000000
394200.143564 215185.466080 0.000000
0.000000 0.000000 0.000000
-27796.176513 -24633.927334 0.000000
-24633.927334 14256.344471 0.000000
0.000000 0.000000 0.000000
-2410.575887 -57799.793242 0.000000
-57799.793242 32322.211532 0.000000
0.000000 0.000000 0.000000
-269486.589401 1934.888047 0.000000
1934.888047 94.399101 0.000000
0.000000 0.000000 0.000000
-386.726565 1427.032389 0.000000
1427.032389 890.749048 0.000000
0.000000 0.000000 0.000000
18382.530772 -4676.134598 0.000000
-4676.134598 761.789615 0.000000
0.000000 0.000000 0.000000
-5965.430402 196729.034246 0.000000
196729.034246 110810.329427 0.000000
0.000000 0.000000 0.000000
12496.004215 -5702.190542 0.000000
-5702.190542 1888.594928 0.000000
0.000000 0.000000 0.000000
1025034.040884 -950419.189232 0.000000
-950419.189232 388867.664085 0.000000
0.000000 0.000000 0.000000
7413.604614 -32.921509 0.000000
-32.921509 3.134421 0.000000
0.000000 0.000000 0.000000
5028.376142 20269.817435 0.000000
20269.817435 10791.623833 0.000000
0.000000 0.000000 0.000000
3.796814 -1.559767 0.000000
-1.559767 0.384308 0.000000
0.000000 0.000000 0.000000
93030.920707 87132.053231 0.000000
87132.053231 37437.378853 0.000000
0.000000 0.000000 0.000000
724267.676295 575261.324814 0.000000
575261.324814 220760.542520 0.000000
0.000000 0.000000 0.000000
8508.037721 1044.854042 0.000000
1044.854042 88.718143 0.000000
0.000000 0.000000 0.000000
8.525840 -4.697061 0.000000
-4.697061 1.440978 0.000000
0.000000 0.000000 0.000000
-25244804.644324 1005498.971733 0.000000
1005498.971733 79485.340708 0.000000
0.000000 0.000000 0.000000
8.463178 -4.463153 0.000000
-4.463153 1.328263 0.000000
0.000000 0.000000 0.000000
-22834.888747 14848.008699 0.000000
14848.008699 8189.430100 0.000000
0.000000 0.000000 0.000000
4153.094334 -2809.104178 0.000000
-2809.104178 981.732795 0.000000
0.000000 0.000000 0.000000
-4740.969683 19277.246863 0.000000
19277.246863 11023.308075 0.000000
0.000000 0.000000 0.000000
37804.741282 24150.652815 0.000000
24150.652815 8569.867240 0.000000
0.000000 0.000000 0.000000
8439.821813 -7786.158225 0.000000
-7786.158225 3179.272697 0.000000
0.000000 0.000000 0.000000
10.851772 -5.450450 0.000000
-5.450450 1.566471 0.000000
0.000000 0.000000 0.000000
73.939643 -41.067982 0.000000
-41.067982 12.669224 0.000000
0.000000 0.000000 0.000000
-1805488.886807 -186283.373480 0.000000
-186283.373480 37000.275052 0.000000
0.000000 0.000000 0.000000
-109025.510169 -5231.322021 0.000000
-5231.322021 964.773741 0.000000
0.000000 0.000000 0.000000
-641019.271300 96829.708351 0.000000
96829.708351 26050.013107 0.000000
0.000000 0.000000 0.000000
15812.982677 7128.365100 0.000000
7128.365100 1889.472920 0.000000
0.000000 0.000000 0.000000
5730.377224 -2487.845668 0.000000
-2487.845668 640.466412 0.000000
0.000000 0.000000 0.000000
89532.475800 49407.230518 0.000000
49407.230518 15289.602844 0.000000
0.000000 0.000000 0.000000
-2278500.212711 491994.403479 0.000000
491994.403479 191165.581433 0.000000
0.000000 0.000000 0.000000
3735.407300 285.538887 0.000000
285.538887 15.579093 0.000000
0.000000 0.000000 0.000000
82243.193430 215983.671119 0.000000
215983.671119 110145.735282 0.000000
0.000000 0.000000 0.000000
-48586.859939 59127.622385 0.000000
59127.622385 34187.317407 0.000000
0.000000 0.000000 0.000000
0.026783 0.027813 0.000000
0.027813 0.011894 0.000000
0.000000 0.000000 0.000000
1458.505041 13165.643989 0.000000
13165.643989 7196.843315 0.000000
0.000000 0.000000 0.000000
23617.812473 -8643.844458 0.000000
-8643.844458 2065.625342 0.000000
0.000000 0.000000 0.000000
31551.850952 62593.190904 0.000000
62593.190904 31149.487318 0.000000
0.000000 0.000000 0.000000
-1469.378916 3081.358152 0.000000
3081.358152 1781.617254 0.000000
0.000000 0.000000 0.000000
-2635971.072699 102660.888300 0.000000
102660.888300 7922.104347 0.000000
0.000000 0.000000 0.000000
-871376.971411 -176045.866469 0.000000
-176045.866469 58525.820783 0.000000
0.000000 0.000000 0.000000
-394115.478504 47094.562300 0.000000
47094.562300 10522.512183 0.000000
0.000000 0.000000 0.000000
113262.583889 -16230.114833 0.000000
-16230.114833 1532.313094 0.000000
0.000000 0.000000 0.000000
111091.405715 145775.664010 0.000000
145775.664010 66400.677887 0.000000
0.000000 0.000000 0.000000
-265.389046 145.725953 0.000000
145.725953 76.296273 0.000000
0.000000 0.000000 0.000000
-1352.781632 9698.477715 0.000000
9698.477715 5559.994565 0.000000
0.000000 0.000000 0.000000
1347.246180 1096.411301 0.000000
1096.411301 463.517273 0.000000
0.000000 0.000000 0.000000
-73350.398035 -158728.370452 0.000000
-158728.370452 92681.568422 0.000000
0.000000 0.000000 0.000000
78767.412137 36472.162770 0.000000
36472.162770 9867.772415 0.000000
0.000000 0.000000 0.000000
120424.171989 644346.842458 0.000000
644346.842458 347324.733371 0.000000
0.000000 0.000000 0.000000
-185351.654813 143599.886051 0.000000
143599.886051 105673.708461 0.000000
0.000000 0.000000 0.000000
-41917.543562 -30038.371634 0.000000
-30038.371634 18224.024135 0.000000
0.000000 0.000000 0.000000
44079.427391 26755.012501 0.000000
26755.012501 8751.582034 0.000000
0.000000 0.000000 0.000000
51110.879607 40649.912487 0.000000
40649.912487 15504.693012 0.000000
0.000000 0.000000 0.000000
184893.287673 -2029.069596 0.000000
-2029.069596 233.203712 0.000000
0.000000 0.000000 0.000000
20601.507808 52621.695396 0.000000
52621.695396 27087.691490 0.000000
0.000000 0.000000 0.000000
89752.549462 23887.926196 0.000000
23887.926196 4266.540739 0.000000
0.000000 0.000000 0.000000
40762.895400 23169.840901 0.000000
23169.840901 7260.844469 0.000000
0.000000 0.000000 0.000000
-42.342940 -39.558785 0.000000
-39.558785 22.395134 0.000000
0.000000 0.000000 0.000000
15953.004947 -52408.952766 0.000000
-52408.952766 27556.633274 0.000000
0.000000 0.000000 0.000000
-4474.360342 -388.020976 0.000000
-388.020976 64.450547 0.000000
0.000000 0.000000 0.000000
48371.221945 18421.547687 0.000000
18421.547687 4277.346528 0.000000
0.000000 0.000000 0.000000
-21214.501138 -25497.504672 0.000000
-25497.504672 14771.955591 0.000000
0.000000 0.000000 0.000000
-977989.149545 378886.464840 0.000000
378886.464840 178231.225683 0.000000
0.000000 0.000000 0.000000
58672.339510 -30402.779237 0.000000
-30402.779237 8927.441015 0.000000
0.000000 0.000000 0.000000
21720.983935 -28692.290462 0.000000
-28692.290462 13220.726386 0.000000
0.000000 0.000000 0.000000
30056.992936 21856.604361 0.000000
21856.604361 7979.486951 0.000000
0.000000 0.000000 0.000000
230715.155685 141914.396738 0.000000
141914.396738 46829.509914 0.000000
0.000000 0.000000 0.000000
7956.703650 1473.708385 0.000000
1473.708385 189.082161 0.000000
0.000000 0.000000 0.000000
-834133.703836 -211238.716139 0.000000
-211238.716139 81189.371439 0.000000
0.000000 0.000000 0.000000
-603614.474230 134662.461686 0.000000
134662.461686 47855.404073 0.000000
0.000000 0.000000 0.000000
25265.511113 -5500.587909 0.000000
-5500.587909 773.834174 0.000000
0.000000 0.000000 0.000000
11040.244253 -1832.698070 0.000000
-1832.698070 230.359850 0.000000
0.000000 0.000000 0.000000
4767.736257 -4591.835421 0.000000
-4591.835421 1908.306443 0.000000
0.000000 0.000000 0.000000
20545.934882 41521.063980 0.000000
41521.063980 20787.067376 0.000000
0.000000 0.000000 0.000000
8342.948141 2973.122751 0.000000
2973.122751 642.377843 0.000000
0.000000 0.000000 0.000000
-30350104.675169 -695870.044599 0.000000
-695870.044599 31810.081018 0.000000
0.000000 0.000000 0.000000
-4112.080919 -6808.665643 0.000000
-6808.665643 3928.927456 0.000000
0.000000 0.000000 0.000000
-342072.706439 71340.607906 0.000000
71340.607906 24232.496238 0.000000
0.000000 0.000000 0.000000
-24214.964009 -3075.794513 0.000000
-3075.794513 764.953104 0.000000
0.000000 0.000000 0.000000
-2142.109066 4953.902822 0.000000
4953.902822 2849.395646 0.000000
0.000000 0.000000 0.000000
-21101.960544 34070.699915 0.000000
34070.699915 19458.827373 0.000000
0.000000 0.000000 0.000000
224653.891447 -50678.425265 0.000000
-50678.425265 8636.086634 0.000000
0.000000 0.000000 0.000000
-7335.932662 771.345618 0.000000
771.345618 152.449789 0.000000
0.000000 0.000000 0.000000
32925.202338 11869.937860 0.000000
11869.937860 2628.758235 0.000000
0.000000 0.000000 0.000000
-809850.095924 87238.755073 0.000000
87238.755073 19077.311875 0.000000
0.000000 0.000000 0.000000
-2080673.070647 -193217.699768 0.000000
-193217.699768 34548.179128 0.000000
0.000000 0.000000 0.000000
-360767.589558 67866.146055 0.000000
67866.146055 21378.997552 0.000000
0.000000 0.000000 0.000000
-394854.887267 -53607.122902 0.000000
-53607.122902 13186.010073 0.000000
0.000000 0.000000 0.000000
3379.285183 -3938.194282 0.000000
-3938.194282 1707.867557 0.000000
0.000000 0.000000 0.000000
-179406.383022 406446.197488 0.000000
406446.197488 242068.732623 0.000000
0.000000 0.000000 0.000000
-15029.865729 -12785.333638 0.000000
-12785.333638 6531.797673 0.000000
0.000000 0.000000 0.000000
37487.431543 54767.731053 0.000000
54767.731053 25861.620751 0.000000
0.000000 0.000000 0.000000
6341.850852 1597.255218 0.000000
1597.255218 311.501049 0.000000
0.000000 0.000000 0.000000
148235.906435 -75765.580535 0.000000
-75765.580535 22060.864506 0.000000
0.000000 0.000000 0.000000
-37083.406815 94588.966762 0.000000
94588.966762 54412.549327 0.000000
0.000000 0.000000 0.000000
-3215.719331 -2325.705155 0.000000
-2325.705155 1269.873022 0.000000
0.000000 0.000000 0.000000
-1246.849243 -1784.843504 0.000000
-1784.843504 1053.509775 0.000000
0.000000 0.000000 0.000000
-14645.773040 26223.480658 0.000000
26223.480658 15136.179781 0.000000
0.000000 0.000000 0.000000
-357185.418133 -58376.052587 0.000000
-58376.052587 17319.812855 0.000000
0.000000 0.000000 0.000000
-39995.662250 -13101.965069 0.000000
-13101.965069 5771.066455 0.000000
0.000000 0.000000 0.000000
-28658.948896 288.266654 0.000000
288.266654 986.872257 0.000000
0.000000 0.000000 0.000000
-2839.203188 -594.122545 0.000000
-594.122545 205.980100 0.000000
0.000000 0.000000 0.000000
-4003152.707177 -425642.348532 0.000000
-425642.348532 85005.310162 0.000000
0.000000 0.000000 0.000000
177601.951731 -33917.412610 0.000000
-33917.412610 4214.825090 0.000000
0.000000 0.000000 0.000000
450.328246 -344.215401 0.000000
-344.215401 128.137721 0.000000
0.000000 0.000000 0.000000
9078.268746 -46740.036348 0.000000
-46740.036348 28586.082873 0.000000
0.000000 0.000000 0.000000
-9673.651498 -10387.103511 0.000000
-10387.103511 5954.646281 0.000000
0.000000 0.000000 0.000000
-117071.395999 -203554.073464 0.000000
-203554.073464 115932.547372 0.000000
0.000000 0.000000 0.000000
-17921.408645 -1828.772372 0.000000
-1828.772372 352.001819 0.000000
0.000000 0.000000 0.000000
-6246.005290 1110.664290 0.000000
1110.664290 124.204866 0.000000
0.000000 0.000000 0.000000
-556.193207 37.320097 0.000000
37.320097 4.877141 0.000000
0.000000 0.000000 0.000000
340.233963 -5.664019 0.000000
-5.664019 0.062842 0.000000
0.000000 0.000000 0.000000
11732.845213 -7593.952346 0.000000
-7593.952346 2513.413260 0.000000
0.000000 0.000000 0.000000
-3977.871186 -5899.622454 0.000000
-5899.622454 3401.597543 0.000000
0.000000 0.000000 0.000000
-82.680507 -75.829919 0.000000
-75.829919 42.866107 0.000000
0.000000 0.000000 0.000000
49833.184524 -13676.964664 0.000000
-13676.964664 3185.158531 0.000000
0.000000 0.000000 0.000000
6.585117 197.094851 0.000000
197.094851 109.082761 0.000000
0.000000 0.000000 0.000000
234433.077398 39976.256164 0.000000
39976.256164 4604.197763 0.000000
0.000000 0.000000 0.000000
-227397.463358 89726.428527 0.000000
89726.428527 42925.273544 0.000000
0.000000 0.000000 0.000000
27928.013066 -6810.299703 0.000000
-6810.299703 1075.451367 0.000000
0.000000 0.000000 0.000000
-835.991327 -237.914820 0.000000
-237.914820 32.580487 0.000000
0.000000 0.000000 0.000000
6631.831324 6708.706971 0.000000
6708.706971 2852.714107 0.000000
0.000000 0.000000 0.000000
-266111.818545 -68626.269477 0.000000
-68626.269477 29503.876670 0.000000
0.000000 0.000000 0.000000
-31894.262371 229.616355 0.000000
229.616355 251.567539 0.000000
0.000000 0.000000 0.000000
10115.455606 1529.039736 0.000000
1529.039736 151.755944 0.000000
0.000000 0.000000 0.000000
-46533.931016 429.241587 0.000000
429.241587 26.252193 0.000000
0.000000 0.000000 0.000000
95.198804 82.072408 0.000000
82.072408 32.530196 0.000000
0.000000 0.000000 0.000000
96969.041460 6188.054283 0.000000
6188.054283 338.913091 0.000000
0.000000 0.000000 0.000000
-111695.341331 133207.838532 0.000000
133207.838532 88732.376401 0.000000
0.000000 0.000000 0.000000
0.000000 0.000000 0.000000
0.000000 0.000000 0.000000
0.000000 0.000000 0.000000
-313208433.106564 801233.992098 0.000000
801233.992098 4250.347202 0.000000
0.000000 0.000000 0.000000
-5354.609773 48173.214486 0.000000
48173.214486 27921.190085 0.000000
0.000000 0.000000 0.000000
-916537.446230 -271442.174681 0.000000
-271442.174681 113483.837034 0.000000
0.000000 0.000000 0.000000
-30271.976301 21908.095611 0.000000
21908.095611 12142.323479 0.000000
0.000000 0.000000 0.000000
-70295.140547 -98310.914654 0.000000
-98310.914654 58015.091385 0.000000
0.000000 0.000000 0.000000
-173.271288 -25253.690564 0.000000
-25253.690564 14091.159657 0.000000
0.000000 0.000000 0.000000
1514.796062 -2433.606345 0.000000
-2433.606345 1137.077030 0.000000
0.000000 0.000000 0.000000
2317.266515 2645.460990 0.000000
2645.460990 1230.482309 0.000000
0.000000 0.000000 0.000000
7037.483909 543.603593 0.000000
543.603593 27.879306 0.000000
0.000000 0.000000 0.000000
-11839.180528 1755.034884 0.000000
1755.034884 345.944727 0.000000
0.000000 0.000000 0.000000
-750.745474 -9569.098907 0.000000
-9569.098907 5375.191282 0.000000
0.000000 0.000000 0.000000
366.953002 -1087.727081 0.000000
-1087.727081 588.566043 0.000000
0.000000 0.000000 0.000000
1687.145424 -1764.183915 0.000000
-1764.183915 757.129967 0.000000
0.000000 0.000000 0.000000
875.321740 -3353.075481 0.000000
-3353.075481 1780.426773 0.000000
0.000000 0.000000 0.000000
-594.457865 526.809109 0.000000
526.809109 573.430039 0.000000
0.000000 0.000000 0.000000
274591.886883 141846.150733 0.000000
141846.150733 41668.531626 0.000000
0.000000 0.000000 0.000000
-2303795.533364 313635.193660 0.000000
313635.193660 77376.663747 0.000000
0.000000 0.000000 0.000000
-1508629.868665 -305027.771678 0.000000
-305027.771678 101714.516189 0.000000
0.000000 0.000000 0.000000
62970.260748 -22530.324431 0.000000
-22530.324431 5510.492955 0.000000
0.000000 0.000000 0.000000
240025.475993 230511.032691 0.000000
230511.032691 103935.649865 0.000000
0.000000 0.000000 0.000000
-3504.048265 9871.497205 0.000000
9871.497205 5735.412328 0.000000
0.000000 0.000000 0.000000
-10846.419189 7644.753894 0.000000
7644.753894 4208.248310 0.000000
0.000000 0.000000 0.000000
37.842340 -12.687567 0.000000
-12.687567 5.928912 0.000000
0.000000 0.000000 0.000000
952.576742 2452.650683 0.000000
2452.650683 1263.635951 0.000000
0.000000 0.000000 0.000000
-28.517307 -151.327608 0.000000
-151.327608 85.961660 0.000000
0.000000 0.000000 0.000000
31831.234210 -46046.598320 0.000000
-46046.598320 21754.002062 0.000000
0.000000 0.000000 0.000000
28.249150 -44.136335 0.000000
-44.136335 21.145331 0.000000
0.000000 0.000000 0.000000
-703298.829575 -329793.368585 0.000000
-329793.368585 179951.880458 0.000000
0.000000 0.000000 0.000000
-1409.878683 3070.429065 0.000000
3070.429065 1805.016266 0.000000
0.000000 0.000000 0.000000
-316777.271994 -33189.093007 0.000000
-33189.093007 6543.028286 0.000000
0.000000 0.000000 0.000000
-6132.928418 5815.250070 0.000000
5815.250070 3341.454478 0.000000
0.000000 0.000000 0.000000
5761.664264 1378.003546 0.000000
1378.003546 216.839357 0.000000
0.000000 0.000000 0.000000
19213.585513 -28534.190770 0.000000
-28534.190770 14819.807137 0.000000
0.000000 0.000000 0.000000
-6127131.226852 145068.657582 0.000000
145068.657582 6843.898469 0.000000
0.000000 0.000000 0.000000
-2153935.460050 447265.145929 0.000000
447265.145929 151481.862400 0.000000
0.000000 0.000000 0.000000
1721.493601 2856.547509 0.000000
2856.547509 1388.450850 0.000000
0.000000 0.000000 0.000000
89378.148593 -98082.278471 0.000000
-98082.278471 42760.074325 0.000000
0.000000 0.000000 0.000000
2102.724800 -2051.279801 0.000000
-2051.279801 817.067309 0.000000
0.000000 0.000000 0.000000
-63069.879670 18835.254327 0.000000
18835.254327 7939.167646 0.000000
0.000000 0.000000 0.000000
10192.132969 750.576214 0.000000
750.576214 36.712674 0.000000
0.000000 0.000000 0.000000
17810.546401 -5352.395937 0.000000
-5352.395937 1019.902847 0.000000
0.000000 0.000000 0.000000
29538.802672 14401.058502 0.000000
14401.058502 11829.446115 0.000000
0.000000 0.000000 0.000000
8435.930111 1045.584723 0.000000
1045.584723 91.038511 0.000000
0.000000 0.000000 0.000000
4698.191885 1205.746327 0.000000
1205.746327 228.359715 0.000000
0.000000 0.000000 0.000000
-63002.145290 -72906.179485 0.000000
-72906.179485 41787.173921 0.000000
0.000000 0.000000 0.000000
-12157.141504 -7843.355088 0.000000
-7843.355088 4245.482865 0.000000
0.000000 0.000000 0.000000
21076.671289 1912.210239 0.000000
1912.210239 127.978234 0.000000
0.000000 0.000000 0.000000
15330.206809 44653.511666 0.000000
44653.511666 23416.390471 0.000000
0.000000 0.000000 0.000000
-15659924.336274 767613.107000 0.000000
767613.107000 74168.539837 0.000000
0.000000 0.000000 0.000000
-3306.424108 -8711.760940 0.000000
-8711.760940 5008.993006 0.000000
0.000000 0.000000 0.000000
77189.096375 169875.661675 0.000000
169875.661675 86009.614058 0.000000
0.000000 0.000000 0.000000
27032.573694 4474.148364 0.000000
4474.148364 489.338253 0.000000
0.000000 0.000000 0.000000
-121.220409 -47.619553 0.000000
-47.619553 22.541932 0.000000
0.000000 0.000000 0.000000
-150609.028280 -17339.002916 0.000000
-17339.002916 2813.688235 0.000000
0.000000 0.000000 0.000000
-103269201.257042 -3177847.917042 0.000000
-3177847.917042 198849.740117 0.000000
0.000000 0.000000 0.000000
67093.889045 31875.880088 0.000000
31875.880088 8827.397495 0.000000
0.000000 0.000000 0.000000
-9944.690863 -831.765546 0.000000
-831.765546 109.182291 0.000000
0.000000 0.000000 0.000000
-329584.026331 45395.490404 0.000000
45395.490404 11299.889291 0.000000
0.000000 0.000000 0.000000
34066.139396 -67049.359781 0.000000
-67049.359781 33314.123124 0.000000
0.000000 0.000000 0.000000
7386.882779 -5894.112844 0.000000
-5894.112844 2252.064411 0.000000
0.000000 0.000000 0.000000
184129.948304 -2124.462715 0.000000
-2124.462715 51.117075 0.000000
0.000000 0.000000 0.000000
-16049.807571 -323476.824880 0.000000
-323476.824880 182139.282698 0.000000
0.000000 0.000000 0.000000
26588.300682 6192.175893 0.000000
6192.175893 948.218781 0.000000
0.000000 0.000000 0.000000
637754.594016 164399.554380 0.000000
164399.554380 27566.202970 0.000000
0.000000 0.000000 0.000000
3741.366955 1824.642030 0.000000
1824.642030 461.611633 0.000000
0.000000 0.000000 0.000000
-1555528.852781 278275.440055 0.000000
278275.440055 84877.921939 0.000000
0.000000 0.000000 0.000000
-1.217870 -0.420373 0.000000
-0.420373 0.188850 0.000000
0.000000 0.000000 0.000000
3442.981316 -4595.517971 0.000000
-4595.517971 2139.191115 0.000000
0.000000 0.000000 0.000000
-17845.765358 -43886.578637 0.000000
-43886.578637 25167.566551 0.000000
0.000000 0.000000 0.000000
-226980.177581 412297.487171 0.000000
412297.487171 237621.477291 0.000000
0.000000 0.000000 0.000000
2942.413229 220.146616 0.000000
220.146616 10.982129 0.000000
0.000000 0.000000 0.000000
2098.532896 13803.289781 0.000000
13803.289781 7490.267239 0.000000
0.000000 0.000000 0.000000
-118708.015641 -53720.082793 0.000000
-53720.082793 26689.903495 0.000000
0.000000 0.000000 0.000000
88744.842411 -1128.305420 0.000000
-1128.305420 111.823151 0.000000
0.000000 0.000000 0.000000
10936.842383 9241.381839 0.000000
9241.381839 3637.869843 0.000000
0.000000 0.000000 0.000000
60661.698234 53114.706992 0.000000
53114.706992 21177.566322 0.000000
0.000000 0.000000 0.000000
11632.074931 -43971.835436 0.000000
-43971.835436 23314.016942 0.000000
0.000000 0.000000 0.000000
37022.656090 -179753.567668 0.000000
-179753.567668 96536.881192 0.000000
0.000000 0.000000 0.000000
2226.500708 1142.887459 0.000000
1142.887459 340.306696 0.000000
0.000000 0.000000 0.000000
5974.301853 2581.810717 0.000000
2581.810717 700.655704 0.000000
0.000000 0.000000 0.000000
-589.131064 8050.602747 0.000000
8050.602747 4554.781346 0.000000
0.000000 0.000000 0.000000
-32901.591405 10342.959931 0.000000
10342.959931 4450.268979 0.000000
0.000000 0.000000 0.000000
-3.846649 72.218765 0.000000
72.218765 40.444374 0.000000
0.000000 0.000000 0.000000
21677.353788 -37584.330238 0.000000
-37584.330238 18366.626136 0.000000
0.000000 0.000000 0.000000
95205.548206 23771.658587 0.000000
23771.658587 3798.865756 0.000000
0.000000 0.000000 0.000000
-17922.719185 53473.023435 0.000000
53473.023435 30684.519855 0.000000
0.000000 0.000000 0.000000
-24876.378611 -14647.320813 0.000000
-14647.320813 7789.079593 0.000000
0.000000 0.000000 0.000000
-486.969187 -136.444479 0.000000
-136.444479 41.261054 0.000000
0.000000 0.000000 0.000000
278337.020338 362513.113210 0.000000
362513.113210 166410.722446 0.000000
0.000000 0.000000 0.000000
1807.050206 2085.515125 0.000000
2085.515125 964.999427 0.000000
0.000000 0.000000 0.000000
50685.866685 -897.215118 0.000000
-897.215118 10.584607 0.000000
0.000000 0.000000 0.000000
157536.589215 -118216.466806 0.000000
-118216.466806 43736.637874 0.000000
0.000000 0.000000 0.000000
13225.973274 640.926710 0.000000
640.926710 21.681977 0.000000
0.000000 0.000000 0.000000
1328.564968 -948.764137 0.000000
-948.764137 342.622629 0.000000
0.000000 0.000000 0.000000
1345.463723 -1525.568964 0.000000
-1525.568964 673.108520 0.000000
0.000000 0.000000 0.000000
-45473.299659 9074.399624 0.000000
9074.399624 3035.123577 0.000000
0.000000 0.000000 0.000000
-26333.041918 -9949.279225 0.000000
-9949.279225 4639.992723 0.000000
0.000000 0.000000 0.000000
5934.218738 3356.616811 0.000000
3356.616811 1061.603727 0.000000
0.000000 0.000000 0.000000
195272.479328 53653.983873 0.000000
53653.983873 9374.342620 0.000000
0.000000 0.000000 0.000000
218583.775567 -1374.141488 0.000000
-1374.141488 2276.417032 0.000000
0.000000 0.000000 0.000000
2475.265274 -776.299081 0.000000
-776.299081 152.356672 0.000000
0.000000 0.000000 0.000000
30628.271208 12298.556060 0.000000
12298.556060 2986.302814 0.000000
0.000000 0.000000 0.000000
-416317296.555730 -4002044.664805 0.000000
-4002044.664805 84255.122355 0.000000
0.000000 0.000000 0.000000
-9924.934552 8772.697012 0.000000
8772.697012 4947.012038 0.000000
0.000000 0.000000 0.000000
-504260.758743 -146461.974425 0.000000
-146461.974425 60601.846192 0.000000
0.000000 0.000000 0.000000
950.709158 458.215032 0.000000
458.215032 215.883075 0.000000
0.000000 0.000000 0.000000
2322.154908 1761.987563 0.000000
1761.987563 674.081132 0.000000
0.000000 0.000000 0.000000
38928.194195 47808.239682 0.000000
47808.239682 21590.931446 0.000000
0.000000 0.000000 0.000000
1.361644 0.961276 0.000000
0.961276 0.344805 0.000000
0.000000 0.000000 0.000000
-1877.935835 -2582.923902 0.000000
-2582.923902 1483.548766 0.000000
0.000000 0.000000 0.000000
-206.356934 -109.660487 0.000000
-109.660487 56.967235 0.000000
0.000000 0.000000 0.000000
506337.988103 327488.430972 0.000000
327488.430972 111443.445517 0.000000
0.000000 0.000000 0.000000
26386.731002 17817.484152 0.000000
17817.484152 6220.413522 0.000000
0.000000 0.000000 0.000000
33365.499174 -5622.099893 0.000000
-5622.099893 793.308469 0.000000
0.000000 0.000000 0.000000
-3664283.328624 -559273.991693 0.000000
-559273.991693 150748.150718 0.000000
0.000000 0.000000 0.000000
-2473212.891233 253868.573009 0.000000
253868.573009 49229.239595 0.000000
0.000000 0.000000 0.000000
193169.591312 9014.868842 0.000000
9014.868842 280.032868 0.000000
0.000000 0.000000 0.000000
49383.751030 3478.740055 0.000000
3478.740055 471.114581 0.000000
0.000000 0.000000 0.000000
-1323001.294979 -115257.179846 0.000000
-115257.179846 19390.815964 0.000000
0.000000 0.000000 0.000000
38099.642213 -52170.192259 0.000000
-52170.192259 24282.683917 0.000000
0.000000 0.000000 0.000000
-20670.007265 22767.974552 0.000000
22767.974552 13101.731672 0.000000
0.000000 0.000000 0.000000
-1824.180716 -17046.433576 0.000000
-17046.433576 9864.388140 0.000000
0.000000 0.000000 0.000000
-1.916437 -7.442142 0.000000
-7.442142 4.250427 0.000000
0.000000 0.000000 0.000000
-1362433.391892 48876.264246 0.000000
48876.264246 11283.427046 0.000000
0.000000 0.000000 0.000000
7088.761635 -125411.490157 0.000000
-125411.490157 69165.176708 0.000000
0.000000 0.000000 0.000000
791923.864195 -568745.571833 0.000000
-568745.571833 202837.191711 0.000000
0.000000 0.000000 0.000000
6291.813390 476.480955 0.000000
476.480955 23.964503 0.000000
0.000000 0.000000 0.000000
-76.159563 -206.855448 0.000000
-206.855448 118.878867 0.000000
0.000000 0.000000 0.000000
7366.518659 591.151090 0.000000
591.151090 31.356653 0.000000
0.000000 0.000000 0.000000
98381.589195 -77849.331989 0.000000
-77849.331989 29618.793610 0.000000
0.000000 0.000000 0.000000
-12516903.271238 -6082.202324 0.000000
-6082.202324 23.484277 0.000000
0.000000 0.000000 0.000000
-1.847877 -7.610028 0.000000
-7.610028 4.341756 0.000000
0.000000 0.000000 0.000000
27536.155756 33290.670078 0.000000
33290.670078 14965.583538 0.000000
0.000000 0.000000 0.000000
104796.858741 -18970.724785 0.000000
-18970.724785 44155.692246 0.000000
0.000000 0.000000 0.000000
-11733226.012557 -424956.215458 0.000000
-424956.215458 30533.680841 0.000000
0.000000 0.000000 0.000000
2568.960959 -16490.122031 0.000000
-16490.122031 9125.267948 0.000000
0.000000 0.000000 0.000000
207.032273 -120258.451998 0.000000
-120258.451998 66832.066376 0.000000
0.000000 0.000000 0.000000
295462.646773 285908.986268 0.000000
285908.986268 118488.105163 0.000000
0.000000 0.000000 0.000000
-320160.454486 9181.660458 0.000000
9181.660458 591.293147 0.000000
0.000000 0.000000 0.000000
868218.734892 -334057.643687 0.000000
-334057.643687 78031.747891 0.000000
0.000000 0.000000 0.000000
-1186.687430 1294.500072 0.000000
1294.500072 746.608451 0.000000
0.000000 0.000000 0.000000
-177634.598591 40479.919335 0.000000
40479.919335 14608.646490 0.000000
0.000000 0.000000 0.000000
-36494.890288 -41123.380619 0.000000
-41123.380619 10191.214145 0.000000
0.000000 0.000000 0.000000
82581.262367 57300.768325 0.000000
57300.768325 20321.193678 0.000000
0.000000 0.000000 0.000000
-4167.605590 213.517489 0.000000
213.517489 21.535055 0.000000
0.000000 0.000000 0.000000
5191.029354 -4932.906667 0.000000
-4932.906667 2004.865858 0.000000
0.000000 0.000000 0.000000
-949.660091 158035.365577 0.000000
158035.365577 87942.562432 0.000000
0.000000 0.000000 0.000000
-8052.857683 32761.295518 0.000000
32761.295518 18628.233643 0.000000
0.000000 0.000000 0.000000
-87621.541244 -22361.717980 0.000000
-22361.717980 8615.637614 0.000000
0.000000 0.000000 0.000000
-47079.701306 50805.472713 0.000000
50805.472713 29030.734958 0.000000
0.000000 0.000000 0.000000
528944.807295 740940.119647 0.000000
740940.119647 346852.318947 0.000000
0.000000 0.000000 0.000000
7841.190504 -2108.164687 0.000000
-2108.164687 360.726150 0.000000
0.000000 0.000000 0.000000
-35325.447473 13398.546710 0.000000
13398.546710 6258.009240 0.000000
0.000000 0.000000 0.000000
61.556971 -45.111111 0.000000
-45.111111 16.490972 0.000000
0.000000 0.000000 0.000000
0.000000 0.000000 0.000000
0.000000 0.000000 0.000000
0.000000 0.000000 0.000000
162260.498380 90469.551482 0.000000
90469.551482 27982.561666 0.000000
0.000000 0.000000 0.000000
-10373.970745 -34284.133348 0.000000
-34284.133348 19662.903430 0.000000
0.000000 0.000000 0.000000
357198.912517 -262093.126050 0.000000
-262093.126050 95828.903232 0.000000
0.000000 0.000000 0.000000
-108299.109562 87026.464864 0.000000
87026.464864 48574.064227 0.000000
0.000000 0.000000 0.000000
10919.881486 17406.888004 0.000000
17406.888004 8475.720781 0.000000
0.000000 0.000000 0.000000
-123905672.900913 2091451.421985 0.000000
2091451.421985 70460.380703 0.000000
0.000000 0.000000 0.000000
59593.025100 21300.601930 0.000000
21300.601930 4665.247305 0.000000
0.000000 0.000000 0.000000
11865.304733 -13608.677556 0.000000
-13608.677556 6201.300456 0.000000
0.000000 0.000000 0.000000
433773.334931 447237.315824 0.000000
447237.315824 190263.352866 0.000000
0.000000 0.000000 0.000000
-350.361323 -144.323114 0.000000
-144.323114 69.507312 0.000000
0.000000 0.000000 0.000000
166.274468 -181.467016 0.000000
-181.467016 60.251300 0.000000
0.000000 0.000000 0.000000
7821.792998 -3071.149446 0.000000
-3071.149446 729.489745 0.000000
0.000000 0.000000 0.000000
6977.371883 -30220.639060 0.000000
-30220.639060 16242.587172 0.000000
0.000000 0.000000 0.000000
2800.173322 -285.498442 0.000000
-285.498442 20.250003 0.000000
0.000000 0.000000 0.000000
17618.785376 2072.880777 0.000000
2072.880777 161.627476 0.000000
0.000000 0.000000 0.000000
16.947708 3.002856 0.000000
3.002856 0.347395 0.000000
0.000000 0.000000 0.000000
-1150.330332 3582.441402 0.000000
3582.441402 2080.505053 0.000000
0.000000 0.000000 0.000000
39249.634593 -49687.501303 0.000000
-49687.501303 25148.844724 0.000000
0.000000 0.000000 0.000000
-936497.517751 -318203.370468 0.000000
-318203.370468 162067.658697 0.000000
0.000000 0.000000 0.000000
45055.101288 -29096.272414 0.000000
-29096.272414 9671.612599 0.000000
0.000000 0.000000 0.000000
-302556.980026 -52248.827430 0.000000
-52248.827430 15543.564290 0.000000
0.000000 0.000000 0.000000
7825.077032 -3256.133533 0.000000
-3256.133533 810.558565 0.000000
0.000000 0.000000 0.000000
28922.072826 -10276.354275 0.000000
-10276.354275 2276.281341 0.000000
0.000000 0.000000 0.000000
-17910911.899957 542045.449772 0.000000
542045.449772 32655.072398 0.000000
0.000000 0.000000 0.000000
9814.377749 -4869.633254 0.000000
-4869.633254 1387.156411 0.000000
0.000000 0.000000 0.000000
-19380.680910 7103.437417 0.000000
7103.437417 3279.360531 0.000000
0.000000 0.000000 0.000000
11858.246012 -17131.089514 0.000000
-17131.089514 8068.805327 0.000000
0.000000 0.000000 0.000000
10094.137494 75812.488055 0.000000
75812.488055 41280.146272 0.000000
0.000000 0.000000 0.000000
20378.525121 -11257.470025 0.000000
-11257.470025 3460.912579 0.000000
0.000000 0.000000 0.000000
-79.190847 -88.253413 0.000000
-88.253413 50.502669 0.000000
0.000000 0.000000 0.000000
7552.753330 7994.009010 0.000000
7994.009010 3444.879170 0.000000
0.000000 0.000000 0.000000
-67257.481647 -20424.665002 0.000000
-20424.665002 8698.608665 0.000000
0.000000 0.000000 0.000000
6271.823025 -1438.640713 0.000000
-1438.640713 220.259463 0.000000
0.000000 0.000000 0.000000
7951.321796 -35338.171522 0.000000
-35338.171522 18824.012051 0.000000
0.000000 0.000000 0.000000
19462.957508 9222.243353 0.000000
9222.243353 2552.374795 0.000000
0.000000 0.000000 0.000000
25316.322309 17074.350031 0.000000
17074.350031 6084.306328 0.000000
0.000000 0.000000 0.000000
16506.342579 -24166.934054 0.000000
-24166.934054 11569.303935 0.000000
0.000000 0.000000 0.000000
27.377289 -6.920358 0.000000
-6.920358 1.118496 0.000000
0.000000 0.000000 0.000000
-69324.982879 -38495.982331 0.000000
-38495.982331 20205.113251 0.000000
0.000000 0.000000 0.000000
243.127315 -310.777417 0.000000
-310.777417 62.071855 0.000000
0.000000 0.000000 0.000000
-424.494640 -97.002998 0.000000
-97.002998 40.204761 0.000000
0.000000 0.000000 0.000000
-538325.558523 -151528.456178 0.000000
-151528.456178 62970.750156 0.000000
0.000000 0.000000 0.000000
22365.808041 11953.461155 0.000000
11953.461155 3591.800496 0.000000
0.000000 0.000000 0.000000
9088.342565 -5356.195887 0.000000
-5356.195887 1718.995389 0.000000
0.000000 0.000000 0.000000
-11025.512117 170280.952890 0.000000
170280.952890 95490.916830 0.000000
0.000000 0.000000 0.000000
24.349113 -8.164767 0.000000
-8.164767 1.698277 0.000000
0.000000 0.000000 0.000000
81547.041919 200059.282515 0.000000
200059.282515 122156.141899 0.000000
0.000000 0.000000 0.000000
-699545.850198 -61069.133597 0.000000
-61069.133597 10207.904840 0.000000
0.000000 0.000000 0.000000
700.057674 775.050432 0.000000
775.050432 355.314606 0.000000
0.000000 0.000000 0.000000
21868.026790 6466.831211 0.000000
6466.831211 1214.095942 0.000000
0.000000 0.000000 0.000000
19336.470464 -47279.980263 0.000000
-47279.980263 24501.937030 0.000000
0.000000 0.000000 0.000000
3874.156089 -999.344002 0.000000
-999.344002 164.647039 0.000000
0.000000 0.000000 0.000000
446.885569 380.614352 0.000000
380.614352 157.608475 0.000000
0.000000 0.000000 0.000000
27067.602770 6329.432939 0.000000
6329.432939 968.202861 0.000000
0.000000 0.000000 0.000000
-8754.225752 -28318.766615 0.000000
-28318.766615 16790.258647 0.000000
0.000000 0.000000 0.000000
7651.211309 -6698.903977 0.000000
-6698.903977 2673.755815 0.000000
0.000000 0.000000 0.000000
16580.761919 101.683450 0.000000
101.683450 0.415666 0.000000
0.000000 0.000000 0.000000
-485.458807 295.863842 0.000000
295.863842 158.382136 0.000000
0.000000 0.000000 0.000000
-72904.408336 30155.438516 0.000000
30155.438516 14636.602781 0.000000
0.000000 0.000000 0.000000
3635.853948 -5109.139430 0.000000
-5109.139430 2655.029293 0.000000
0.000000 0.000000 0.000000
-439630.169859 33088.803940 0.000000
33088.803940 4819.614248 0.000000
0.000000 0.000000 0.000000
151502.940603 -31441.884208 0.000000
-31441.884208 4286.070700 0.000000
0.000000 0.000000 0.000000
-82000.090954 102997.706727 0.000000
102997.706727 59203.685801 0.000000
0.000000 0.000000 0.000000
51339.721519 -27669.981317 0.000000
-27669.981317 8044.773574 0.000000
0.000000 0.000000 0.000000
5997.268664 -3175.555010 0.000000
-3175.555010 950.036696 0.000000
0.000000 0.000000 0.000000
-2142.930749 4052.384520 0.000000
4052.384520 2341.195691 0.000000
0.000000 0.000000 0.000000
619.609298 -205.225858 0.000000
-205.225858 44.905476 0.000000
0.000000 0.000000 0.000000
31796.324675 17002.869837 0.000000
17002.869837 5296.145255 0.000000
0.000000 0.000000 0.000000
-3216707.641222 712117.802289 0.000000
712117.802289 245955.161463 0.000000
0.000000 0.000000 0.000000
26.052389 1.242801 0.000000
1.242801 0.039460 0.000000
0.000000 0.000000 0.000000
1730.959735 -1927.677204 0.000000
-1927.677204 404.415612 0.000000
0.000000 0.000000 0.000000
42477.218135 -49446.648427 0.000000
-49446.648427 22199.167969 0.000000
0.000000 0.000000 0.000000
-4694.010878 3247.114390 0.000000
3247.114390 1891.106270 0.000000
0.000000 0.000000 0.000000
7785.045046 -6365.574663 0.000000
-6365.574663 2460.232109 0.000000
0.000000 0.000000 0.000000
-308248.660895 136918.965650 0.000000
136918.965650 67324.636595 0.000000
0.000000 0.000000 0.000000
61.007856 -5428.383824 0.000000
-5428.383824 3013.495606 0.000000
0.000000 0.000000 0.000000
-3587.905284 2108.457415 0.000000
2108.457415 1122.950704 0.000000
0.000000 0.000000 0.000000
2926.319312 -3223.793590 0.000000
-3223.793590 1407.545215 0.000000
0.000000 0.000000 0.000000
712470.619028 279012.286987 0.000000
279012.286987 66676.484075 0.000000
0.000000 0.000000 0.000000
107559.542643 -47007.451887 0.000000
-47007.451887 12254.075952 0.000000
0.000000 0.000000 0.000000
23731.477999 7783.538455 0.000000
7783.538455 1598.551483 0.000000
0.000000 0.000000 0.000000
-1460.379959 -5241.937728 0.000000
-5241.937728 2997.629948 0.000000
0.000000 0.000000 0.000000
54048.225838 -5886.764595 0.000000
-5886.764595 581.857161 0.000000
0.000000 0.000000 0.000000
7.549372 -8.679526 0.000000
-8.679526 3.842184 0.000000
0.000000 0.000000 0.000000
1054.190660 -1016.652570 0.000000
-1016.652570 422.694315 0.000000
0.000000 0.000000 0.000000
1192.657049 -1856.463002 0.000000
-1856.463002 888.738576 0.000000
0.000000 0.000000 0.000000
-1268386.697170 -192393.042893 0.000000
-192393.042893 51757.248113 0.000000
0.000000 0.000000 0.000000
582.064134 564.699434 0.000000
564.699434 235.342434 0.000000
0.000000 0.000000 0.000000
12920.097084 11597.276266 0.000000
11597.276266 4679.927313 0.000000
0.000000 0.000000 0.000000
4673.718276 -854.675566 0.000000
-854.675566 113.498731 0.000000
0.000000 0.000000 0.000000
3249.915515 -3311.329815 0.000000
-3311.329815 1399.596805 0.000000
0.000000 0.000000 0.000000
-3719.807008 1303.756343 0.000000
1303.756343 591.795114 0.000000
0.000000 0.000000 0.000000
9771.245532 -4186.579648 0.000000
-4186.579648 1066.645656 0.000000
0.000000 0.000000 0.000000
10596.026062 -12504.172375 0.000000
-12504.172375 5580.389380 0.000000
0.000000 0.000000 0.000000
1196.199009 14233.736672 0.000000
14233.736672 7819.108546 0.000000
0.000000 0.000000 0.000000
-67249.564559 -7815.030698 0.000000
-7815.030698 1692.507347 0.000000
0.000000 0.000000 0.000000
931.529438 625.446609 0.000000
625.446609 217.630158 0.000000
0.000000 0.000000 0.000000
12339.697983 -14300.625141 0.000000
-14300.625141 6346.602134 0.000000
0.000000 0.000000 0.000000
7448.585776 -3744.074187 0.000000
-3744.074187 1076.734330 0.000000
0.000000 0.000000 0.000000
107213.201307 -105317.512942 0.000000
-105317.512942 44105.848712 0.000000
0.000000 0.000000 0.000000
184.254713 -4873.151462 0.000000
-4873.151462 2755.501802 0.000000
0.000000 0.000000 0.000000
269.313160 219.197648 0.000000
219.197648 84.562386 0.000000
0.000000 0.000000 0.000000
543.093046 -83.770822 0.000000
-83.770822 8.556983 0.000000
0.000000 0.000000 0.000000
10.178364 -6.322930 0.000000
-6.322930 2.098775 0.000000
0.000000 0.000000 0.000000
17883.211400 -36248.237962 0.000000
-36248.237962 18154.026891 0.000000
0.000000 0.000000 0.000000
3337.389579 10713.038056 0.000000
10713.038056 5623.657858 0.000000
0.000000 0.000000 0.000000
31955.015253 -57766.845831 0.000000
-57766.845831 28421.429276 0.000000
0.000000 0.000000 0.000000
21010.977753 4161.747694 0.000000
4161.747694 535.495469 0.000000
0.000000 0.000000 0.000000
265202.052688 -106247.895454 0.000000
-106247.895454 38720.007891 0.000000
0.000000 0.000000 0.000000
23435.494144 -6561.249799 0.000000
-6561.249799 1166.064785 0.000000
0.000000 0.000000 0.000000
17040.458492 -8783.959576 0.000000
-8783.959576 2574.198082 0.000000
0.000000 0.000000 0.000000
-7296034.223471 -187942.528614 0.000000
-187942.528614 9662.144165 0.000000
0.000000 0.000000 0.000000
53702.104474 -52049.620624 0.000000
-52049.620624 21683.348243 0.000000
0.000000 0.000000 0.000000
15969.721272 -17962.508010 0.000000
-17962.508010 7878.312590 0.000000
0.000000 0.000000 0.000000
43982.338569 -39.233680 0.000000
-39.233680 7.365133 0.000000
0.000000 0.000000 0.000000
-290.812968 -71.309181 0.000000
-71.309181 26.843035 0.000000
0.000000 0.000000 0.000000
-2669512.700040 1347701.842432 0.000000
1347701.842432 690845.912895 0.000000
0.000000 0.000000 0.000000
13439.127671 -4954.290842 0.000000
-4954.290842 1117.179270 0.000000
0.000000 0.000000 0.000000
-413503.284157 100351.438784 0.000000
100351.438784 37572.704904 0.000000
0.000000 0.000000 0.000000
57613.120913 246169.407938 0.000000
246169.407938 131445.615048 0.000000
0.000000 0.000000 0.000000
-1153276.238981 191709.195022 0.000000
191709.195022 55358.916771 0.000000
0.000000 0.000000 0.000000
-3795.811441 1426.918222 0.000000
1426.918222 671.124543 0.000000
0.000000 0.000000 0.000000
78532.117374 30371.754110 0.000000
30371.754110 7417.899591 0.000000
0.000000 0.000000 0.000000
5698.588996 1154.672509 0.000000
1154.672509 157.422515 0.000000
0.000000 0.000000 0.000000
5116.908558 -1195.675076 0.000000
-1195.675076 179.733329 0.000000
0.000000 0.000000 0.000000
-1265780.119686 -4277.177966 0.000000
-4277.177966 114.791514 0.000000
0.000000 0.000000 0.000000
-218854.296039 -106137.135512 0.000000
-106137.135512 53944.269052 0.000000
0.000000 0.000000 0.000000
44.784817 16.214892 0.000000
16.214892 3.600657 0.000000
0.000000 0.000000 0.000000
-9386.775863 -25392.091049 0.000000
-25392.091049 14584.756800 0.000000
0.000000 0.000000 0.000000
1466.551527 -1272.306002 0.000000
-1272.306002 507.623957 0.000000
0.000000 0.000000 0.000000
813.679200 -710.729178 0.000000
-710.729178 285.413023 0.000000
0.000000 0.000000 0.000000
-1336.956073 142.743155 0.000000
142.743155 28.595827 0.000000
0.000000 0.000000 0.000000
43654.992458 -125868.493892 0.000000
-125868.493892 65933.254865 0.000000
0.000000 0.000000 0.000000
14274.706531 7290.091998 0.000000
7290.091998 2055.975049 0.000000
0.000000 0.000000 0.000000
-45242.682956 -9519.475288 0.000000
-9519.475288 3245.946039 0.000000
0.000000 0.000000 0.000000
791.044309 -187.520271 0.000000
-187.520271 91.267216 0.000000
0.000000 0.000000 0.000000
-808019.028204 97959.388311 0.000000
97959.388311 22427.951077 0.000000
0.000000 0.000000 0.000000
3265.332850 -917.285120 0.000000
-917.285120 168.175807 0.000000
0.000000 0.000000 0.000000
608.055147 3971.556894 0.000000
3971.556894 2154.714991 0.000000
0.000000 0.000000 0.000000
-6382.029505 -47393.798185 0.000000
-47393.798185 27051.108519 0.000000
0.000000 0.000000 0.000000
19607.383448 3702.048864 0.000000
3702.048864 1172.765120 0.000000
0.000000 0.000000 0.000000
-62646.902084 -56475.627521 0.000000
-56475.627521 31877.227430 0.000000
0.000000 0.000000 0.000000
5975.047112 3341.723315 0.000000
3341.723315 1179.617168 0.000000
0.000000 0.000000 0.000000
14298.443686 -31538.705152 0.000000
-31538.705152 15972.880683 0.000000
0.000000 0.000000 0.000000
-13888.164120 15257.814783 0.000000
15257.814783 8725.349811 0.000000
0.000000 0.000000 0.000000
-414226.423359 59035.342642 0.000000
59035.342642 15107.939842 0.000000
0.000000 0.000000 0.000000
-2892.147060 1204.699539 0.000000
1204.699539 114.459221 0.000000
0.000000 0.000000 0.000000
1503.952350 1446.196245 0.000000
1446.196245 604.125047 0.000000
0.000000 0.000000 0.000000
6042.238170 -701.831685 0.000000
-701.831685 54.269413 0.000000
0.000000 0.000000 0.000000
-84.113734 -33.596885 0.000000
-33.596885 16.002217 0.000000
0.000000 0.000000 0.000000
3274.288068 -55759.368569 0.000000
-55759.368569 30997.522536 0.000000
0.000000 0.000000 0.000000
-4924.601820 506.356555 0.000000
506.356555 98.111899 0.000000
0.000000 0.000000 0.000000
64742.790274 46076.263785 0.000000
46076.263785 16577.577693 0.000000
0.000000 0.000000 0.000000
10610.078868 11304.045195 0.000000
11304.045195 4891.582889 0.000000
0.000000 0.000000 0.000000
-453392.095289 -246607.159280 0.000000
-246607.159280 130232.120543 0.000000
0.000000 0.000000 0.000000
-49705.279770 -40649.849797 0.000000
-40649.849797 22736.300517 0.000000
0.000000 0.000000 0.000000
17148.545000 7981.538373 0.000000
7981.538373 2178.166658 0.000000
0.000000 0.000000 0.000000
662527.678364 -940015.187249 0.000000
-940015.187249 440890.452858 0.000000
0.000000 0.000000 0.000000
-272714.923130 142654.850321 0.000000
142654.850321 73887.849066 0.000000
0.000000 0.000000 0.000000
77384.869643 64244.382390 0.000000
64244.382390 25396.696759 0.000000
0.000000 0.000000 0.000000
-3759.084384 1089.198002 0.000000
1089.198002 451.511065 0.000000
0.000000 0.000000 0.000000
6885.495988 -3609.237790 0.000000
-3609.237790 1057.613520 0.000000
0.000000 0.000000 0.000000
1764.499553 -44.140111 0.000000
-44.140111 10.472410 0.000000
0.000000 0.000000 0.000000
1444.572837 -4.133243 0.000000
-4.133243 0.734236 0.000000
0.000000 0.000000 0.000000
11117.271678 -9223.173864 0.000000
-9223.173864 3660.631382 0.000000
0.000000 0.000000 0.000000
21.040111 -6.373663 0.000000
-6.373663 1.213047 0.000000
0.000000 0.000000 0.000000
13857.736585 -10865.480828 0.000000
-10865.480828 4114.907916 0.000000
0.000000 0.000000 0.000000
-1927.421226 2261.282838 0.000000
2261.282838 1298.306702 0.000000
0.000000 0.000000 0.000000
-497575.536531 -107721.676390 0.000000
-107721.676390 37506.957358 0.000000
0.000000 0.000000 0.000000
-15975600.667085 -1069861.650232 0.000000
-1069861.650232 141839.929242 0.000000
0.000000 0.000000 0.000000
50703.732978 16554.398121 0.000000
16554.398121 3371.696723 0.000000
0.000000 0.000000 0.000000
136.229368 -504.341083 0.000000
-504.341083 282.321969 0.000000
0.000000 0.000000 0.000000
-50793.260307 15038.635572 0.000000
15038.635572 6279.942539 0.000000
0.000000 0.000000 0.000000
8989.785900 -6830.904804 0.000000
-6830.904804 2516.081217 0.000000
0.000000 0.000000 0.000000
-332.419524 -58.051538 0.000000
-58.051538 17.394863 0.000000
0.000000 0.000000 0.000000
-3783.681248 5588.201372 0.000000
5588.201372 2300.943472 0.000000
0.000000 0.000000 0.000000
13420.787900 -4886.665799 0.000000
-4886.665799 1090.418543 0.000000
0.000000 0.000000 0.000000
17529.452327 -10075.158366 0.000000
-10075.158366 3172.251212 0.000000
0.000000 0.000000 0.000000
-1331993.845848 95670.062255 0.000000
95670.062255 13376.493711 0.000000
0.000000 0.000000 0.000000
118630.799878 66075.308971 0.000000
66075.308971 20422.967115 0.000000
0.000000 0.000000 0.000000
-100819.110675 98260.721134 0.000000
98260.721134 56254.751125 0.000000
0.000000 0.000000 0.000000
24882.648003 -8519.230456 0.000000
-8519.230456 1806.164921 0.000000
0.000000 0.000000 0.000000
-140.287549 1275.382502 0.000000
1275.382502 729.356170 0.000000
0.000000 0.000000 0.000000
28621.055723 -12104.265895 0.000000
-12104.265895 3054.832923 0.000000
0.000000 0.000000 0.000000
396.883801 630.843712 0.000000
630.843712 315.177655 0.000000
0.000000 0.000000 0.000000
17319.793968 -25569.952901 0.000000
-25569.952901 12102.790447 0.000000
0.000000 0.000000 0.000000
-14095.261579 -15153.156586 0.000000
-15153.156586 8655.514285 0.000000
0.000000 0.000000 0.000000
18.494235 -6.729770 0.000000
-6.729770 1.500729 0.000000
0.000000 0.000000 0.000000
-4.669551 1.700522 0.000000
1.700522 0.692756 0.000000
0.000000 0.000000 0.000000
-1314.750406 340.552636 0.000000
340.552636 132.376154 0.000000
0.000000 0.000000 0.000000
-44637.902944 38320.501053 0.000000
38320.501053 21682.536033 0.000000
0.000000 0.000000 0.000000
19095.278828 -10477.583473 0.000000
-10477.583473 3205.469608 0.000000
0.000000 0.000000 0.000000
44941.294278 48910.465152 0.000000
48910.465152 21259.617449 0.000000
0.000000 0.000000 0.000000
-113995.044432 41112.905510 0.000000
41112.905510 19031.864358 0.000000
0.000000 0.000000 0.000000
208289.369130 545547.117113 0.000000
545547.117113 285629.152501 0.000000
0.000000 0.000000 0.000000
474.564185 171.130815 0.000000
171.130815 37.872282 0.000000
0.000000 0.000000 0.000000
-4368088.854990 922078.287801 0.000000
922078.287801 328451.761409 0.000000
0.000000 0.000000 0.000000
19331.178852 -13419.559245 0.000000
-13419.559245 4761.009596 0.000000
0.000000 0.000000 0.000000
14006.780604 -11062.679202 0.000000
-11062.679202 4204.932011 0.000000
0.000000 0.000000 0.000000
-13.307925 -9.151995 0.000000
-9.151995 5.003601 0.000000
0.000000 0.000000 0.000000
14351.498311 9995.511695 0.000000
9995.511695 3552.384577 0.000000
0.000000 0.000000 0.000000
-1264.799824 -292.082951 0.000000
-292.082951 139.157417 0.000000
0.000000 0.000000 0.000000
7776.218936 -28093.411228 0.000000
-28093.411228 14841.959232 0.000000
0.000000 0.000000 0.000000
144619.156471 526671.166292 0.000000
526671.166292 282423.919860 0.000000
0.000000 0.000000 0.000000
594109.122060 483954.745392 0.000000
483954.745392 186714.064644 0.000000
0.000000 0.000000 0.000000
-1272.928450 -2835.069333 0.000000
-2835.069333 1632.527121 0.000000
0.000000 0.000000 0.000000
138545.746143 132510.126870 0.000000
132510.126870 54912.448263 0.000000
0.000000 0.000000 0.000000
28.884616 -9.341654 0.000000
-9.341654 1.883117 0.000000
0.000000 0.000000 0.000000
5192.638970 522.358038 0.000000
522.358038 36.874273 0.000000
0.000000 0.000000 0.000000
-19333.028503 49756.421104 0.000000
49756.421104 28631.836799 0.000000
0.000000 0.000000 0.000000
-13268.331047 2994.503921 0.000000
2994.503921 1071.051647 0.000000
0.000000 0.000000 0.000000
-77.287901 -44.008957 0.000000
-44.008957 23.230752 0.000000
0.000000 0.000000 0.000000
-2541.441506 -548.024260 0.000000
-548.024260 188.578585 0.000000
0.000000 0.000000 0.000000
7758.130355 88.204670 0.000000
88.204670 1.961120 0.000000
0.000000 0.000000 0.000000
-4.749856 -16.283185 0.000000
-16.283185 9.320619 0.000000
0.000000 0.000000 0.000000
534.756675 129.843061 0.000000
129.843061 20.221696 0.000000
0.000000 0.000000 0.000000
-1905.631002 -3045.980347 0.000000
-3045.980347 1756.603716 0.000000
0.000000 0.000000 0.000000
392.142147 -2548.721971 0.000000
-2548.721971 1382.479131 0.000000
0.000000 0.000000 0.000000
93525.908547 81506.201744 0.000000
81506.201744 36055.068477 0.000000
0.000000 0.000000 0.000000
-889.098416 -181.900026 0.000000
-181.900026 59.088255 0.000000
0.000000 0.000000 0.000000
6.608406 -8.472292 0.000000
-8.472292 3.872702 0.000000
0.000000 0.000000 0.000000
-432.527245 -2540.430916 0.000000
-2540.430916 1440.335495 0.000000
0.000000 0.000000 0.000000
17929.878603 2806.597439 0.000000
2806.597439 288.520228 0.000000
0.000000 0.000000 0.000000
-261849.055982 -186410.728319 0.000000
-186410.728319 103153.304516 0.000000
0.000000 0.000000 0.000000
-112.803350 -46.821971 0.000000
-46.821971 22.610218 0.000000
0.000000 0.000000 0.000000
211.260366 2.631079 0.000000
2.631079 0.021841 0.000000
0.000000 0.000000 0.000000
-10.284051 -39.578259 0.000000
-39.578259 22.607962 0.000000
0.000000 0.000000 0.000000
-2230.786109 1669.978905 0.000000
1669.978905 930.926719 0.000000
0.000000 0.000000 0.000000
-2110.767547 6470.739193 0.000000
6470.739193 3750.799462 0.000000
0.000000 0.000000 0.000000
1246.569354 382.319464 0.000000
382.319464 83.617298 0.000000
0.000000 0.000000 0.000000
14.290711 -5.964921 0.000000
-5.964921 1.488518 0.000000
0.000000 0.000000 0.000000
33299.741385 39072.146831 0.000000
39072.146831 17301.913603 0.000000
0.000000 0.000000 0.000000
3088.299957 -1085.178570 0.000000
-1085.178570 235.381780 0.000000
0.000000 0.000000 0.000000
2871.082757 -916.698397 0.000000
-916.698397 183.031157 0.000000
0.000000 0.000000 0.000000
420541.430186 -594463.663197 0.000000
-594463.663197 278570.093306 0.000000
0.000000 0.000000 0.000000
5088.451721 123.901151 0.000000
123.901151 20.293035 0.000000
0.000000 0.000000 0.000000
-13672415.756626 368378.122396 0.000000
368378.122396 19855.556033 0.000000
0.000000 0.000000 0.000000
-526298.608302 38279.917672 0.000000
38279.917672 5400.568974 0.000000
0.000000 0.000000 0.000000
3661.309887 2213.583688 0.000000
2213.583688 733.480266 0.000000
0.000000 0.000000 0.000000
16560.387070 -6768.892252 0.000000
-6768.892252 1667.875662 0.000000
0.000000 0.000000 0.000000
67.488184 -253.195682 0.000000
-253.195682 61.718755 0.000000
0.000000 0.000000 0.000000
16315.045981 -16984.430507 0.000000
-16984.430507 7269.705851 0.000000
0.000000 0.000000 0.000000
13007.682364 -9073.614629 0.000000
-9073.614629 3227.603125 0.000000
0.000000 0.000000 0.000000
3491.245378 -2372.747769 0.000000
-2372.747769 742.731565 0.000000
0.000000 0.000000 0.000000
-14424.626096 8566.048910 0.000000
8566.048910 4555.046668 0.000000
0.000000 0.000000 0.000000
307.967095 1239.494511 0.000000
1239.494511 667.158784 0.000000
0.000000 0.000000 0.000000
-7759.338055 -199.355056 0.000000
-199.355056 114.985199 0.000000
0.000000 0.000000 0.000000
6849.560843 -3520.459653 0.000000
-3520.459653 1028.739044 0.000000
0.000000 0.000000 0.000000
11514.239574 -1910.428569 0.000000
-1910.428569 208.144274 0.000000
0.000000 0.000000 0.000000
26633.330007 -13765.055144 0.000000
-13765.055144 4038.224233 0.000000
0.000000 0.000000 0.000000
-9665.517827 -8726.919169 0.000000
-8726.919169 4925.904951 0.000000
0.000000 0.000000 0.000000
175.940446 -113.487651 0.000000
-113.487651 38.781897 0.000000
0.000000 0.000000 0.000000
2649.578961 -306.671706 0.000000
-306.671706 23.733357 0.000000
0.000000 0.000000 0.000000
-434.602708 -67.108499 0.000000
-67.108499 52.587256 0.000000
0.000000 0.000000 0.000000
4157.318828 -2628.970660 0.000000
-2628.970660 891.070696 0.000000
0.000000 0.000000 0.000000
16979.589510 -9061.614651 0.000000
-9061.614651 2719.710101 0.000000
0.000000 0.000000 0.000000
-4283.152822 5715.530097 0.000000
5715.530097 3306.897841 0.000000
0.000000 0.000000 0.000000
62197.238644 -158780.015192 0.000000
-158780.015192 81870.380589 0.000000
0.000000 0.000000 0.000000
-474254.876402 59858.741766 0.000000
59858.741766 13884.768346 0.000000
0.000000 0.000000 0.000000
21596.311726 -15564.973581 0.000000
-15564.973581 5638.534675 0.000000
0.000000 0.000000 0.000000
-21700.626492 -246.679327 0.000000
-246.679327 328.043768 0.000000
0.000000 0.000000 0.000000
265.782379 159.015892 0.000000
159.015892 85.658865 0.000000
0.000000 0.000000 0.000000
-75.850306 -30.921043 0.000000
-30.921043 14.836914 0.000000
0.000000 0.000000 0.000000
-2082.011303 6417.280700 0.000000
6417.280700 3679.110959 0.000000
0.000000 0.000000 0.000000
-68335.469209 13509.570632 0.000000
13509.570632 4425.878840 0.000000
0.000000 0.000000 0.000000
-1315.598561 2871.298051 0.000000
2871.298051 1672.128725 0.000000
0.000000 0.000000 0.000000
-35811.693609 -14637.388681 0.000000
-14637.388681 7148.166675 0.000000
0.000000 0.000000 0.000000
-35.575728 -26.451260 0.000000
-26.451260 14.624560 0.000000
0.000000 0.000000 0.000000
-2366.695399 917.755471 0.000000
917.755471 435.428289 0.000000
0.000000 0.000000 0.000000
-49022820.016209 -371043.209262 0.000000
-371043.209262 5619.653524 0.000000
0.000000 0.000000 0.000000
22097.396489 -1362.357865 0.000000
-1362.357865 60.832145 0.000000
0.000000 0.000000 0.000000
-111476.313924 -13120.753871 0.000000
-13120.753871 2957.976577 0.000000
0.000000 0.000000 0.000000
-2684.250335 1542.462139 0.000000
1542.462139 870.616432 0.000000
0.000000 0.000000 0.000000
-2919.839729 2154.766250 0.000000
2154.766250 1195.461352 0.000000
0.000000 0.000000 0.000000
-352494.016001 -47308.669887 0.000000
-47308.669887 11526.529977 0.000000
0.000000 0.000000 0.000000
11764.261624 18777.001925 0.000000
18777.001925 9049.917753 0.000000
0.000000 0.000000 0.000000
45518.242702 -132296.492126 0.000000
-132296.492126 68914.219874 0.000000
0.000000 0.000000 0.000000
43267.500973 -42846.982601 0.000000
-42846.982601 18000.392251 0.000000
0.000000 0.000000 0.000000
-53268.453516 -57734.986710 0.000000
-57734.986710 32815.759695 0.000000
0.000000 0.000000 0.000000
-15387.613334 -9118.334608 0.000000
-9118.334608 4853.986931 0.000000
0.000000 0.000000 0.000000
-7656681.606834 167352.901158 0.000000
167352.901158 7319.634789 0.000000
0.000000 0.000000 0.000000
344.992520 2072.569418 0.000000
2072.569418 1143.871577 0.000000
0.000000 0.000000 0.000000
15975.454731 16994.722794 0.000000
16994.722794 7375.683595 0.000000
0.000000 0.000000 0.000000
-15080975.429645 -438495.446047 0.000000
-438495.446047 25375.791298 0.000000
0.000000 0.000000 0.000000
-26.408599 -21.324993 0.000000
-21.324993 11.909063 0.000000
0.000000 0.000000 0.000000
-131.318455 -418.676497 0.000000
-418.676497 239.961907 0.000000
0.000000 0.000000 0.000000
49442.083501 22308.641958 0.000000
22308.641958 5918.636678 0.000000
0.000000 0.000000 0.000000
-248087.476009 -29612.285085 0.000000
-29612.285085 6535.692460 0.000000
0.000000 0.000000 0.000000
-159.788872 -808.964433 0.000000
-808.964433 188.274107 0.000000
0.000000 0.000000 0.000000
1909.051631 -1128.518976 0.000000
-1128.518976 363.027227 0.000000
0.000000 0.000000 0.000000
-2489.943728 -3659.900969 0.000000
-3659.900969 2110.197912 0.000000
0.000000 0.000000 0.000000
-30131.445464 -63652.181209 0.000000
-63652.181209 36702.427715 0.000000
0.000000 0.000000 0.000000
6297.746829 -45575.951772 0.000000
-45575.951772 24792.336694 0.000000
0.000000 0.000000 0.000000
36705.182245 -46383.072885 0.000000
-46383.072885 21114.029180 0.000000
0.000000 0.000000 0.000000
1134.461403 -430.345320 0.000000
-430.345320 100.196229 0.000000
0.000000 0.000000 0.000000
-7701.020435 7074.305653 0.000000
7074.305653 4009.113668 0.000000
0.000000 0.000000 0.000000
-5747.458316 -10727.059209 0.000000
-10727.059209 6189.375293 0.000000
0.000000 0.000000 0.000000
4846.423096 -5011.951406 0.000000
-5011.951406 2140.202089 0.000000
0.000000 0.000000 0.000000
26.498769 -1.203287 0.000000
-1.203287 0.036373 0.000000
0.000000 0.000000 0.000000
-10133.883283 -29185.767212 0.000000
-29185.767212 16755.621746 0.000000
0.000000 0.000000 0.000000
73355.985564 -65604.248119 0.000000
-65604.248119 26431.473829 0.000000
0.000000 0.000000 0.000000
-4883.774045 4914.849033 0.000000
4914.849033 2800.271998 0.000000
0.000000 0.000000 0.000000
-120880.509284 -29011.403973 0.000000
-29011.403973 10780.590900 0.000000
0.000000 0.000000 0.000000
6.769043 -70.803159 0.000000
-70.803159 38.803321 0.000000
0.000000 0.000000 0.000000
53661.877721 -37953.444583 0.000000
-37953.444583 13605.977345 0.000000
0.000000 0.000000 0.000000
7.882644 -6.179806 0.000000
-6.179806 2.340225 0.000000
0.000000 0.000000 0.000000
-480.947113 616.696481 0.000000
616.696481 359.256959 0.000000
0.000000 0.000000 0.000000
72.838027 74.452192 0.000000
74.452192 39.460845 0.000000
0.000000 0.000000 0.000000
5.589473 -6.794832 0.000000
-6.794832 3.059525 0.000000
0.000000 0.000000 0.000000
-7633265.333785 -626488.407031 0.000000
-626488.407031 98990.952573 0.000000
0.000000 0.000000 0.000000
-9.471730 -18.495775 0.000000
-18.495775 10.671771 0.000000
0.000000 0.000000 0.000000
18.032267 -6.415526 0.000000
-6.415526 1.403723 0.000000
0.000000 0.000000 0.000000
2531.399275 996.839304 0.000000
996.839304 238.969244 0.000000
0.000000 0.000000 0.000000
49241.931364 15777.001738 0.000000
15777.001738 3852.790548 0.000000
0.000000 0.000000 0.000000
5313.353403 1020.620213 0.000000
1020.620213 130.139667 0.000000
0.000000 0.000000 0.000000
-5119.703154 -2470.730455 0.000000
-2470.730455 1248.958804 0.000000
0.000000 0.000000 0.000000
42378.088104 -3170.029746 0.000000
-3170.029746 162.107116 0.000000
0.000000 0.000000 0.000000
1032.024327 -4431.640402 0.000000
-4431.640402 2576.000409 0.000000
0.000000 0.000000 0.000000
285.037506 169.839539 0.000000
169.839539 59.855384 0.000000
0.000000 0.000000 0.000000
6006.886774 4924.375734 0.000000
4924.375734 1911.224641 0.000000
0.000000 0.000000 0.000000
16371.322647 12085.425585 0.000000
12085.425585 4458.504667 0.000000
0.000000 0.000000 0.000000
-54447.501995 37223.626470 0.000000
37223.626470 20400.487741 0.000000
0.000000 0.000000 0.000000
119.684681 -2.247724 0.000000
-2.247724 4.213433 0.000000
0.000000 0.000000 0.000000
4290.201766 -3678.799511 0.000000
-3678.799511 1454.722635 0.000000
0.000000 0.000000 0.000000
12350.812209 5523.767487 0.000000
5523.767487 1469.730818 0.000000
0.000000 0.000000 0.000000
16296.605478 -18185.564793 0.000000
-18185.564793 7973.037385 0.000000
0.000000 0.000000 0.000000
-5083.364753 -6400.313168 0.000000
-6400.313168 3678.510720 0.000000
0.000000 0.000000 0.000000
-11527.839130 -9976.976472 0.000000
-9976.976472 5840.795896 0.000000
0.000000 0.000000 0.000000
-49174.127815 39994.892948 0.000000
39994.892948 22487.711172 0.000000
0.000000 0.000000 0.000000
-18463.909338 -4102.001871 0.000000
-4102.001871 1450.240514 0.000000
0.000000 0.000000 0.000000
20581.387053 -1265.787097 0.000000
-1265.787097 65.887734 0.000000
0.000000 0.000000 0.000000
-773.578790 -633.724357 0.000000
-633.724357 354.171787 0.000000
0.000000 0.000000 0.000000
82508.166291 -78157.286113 0.000000
-78157.286113 32261.882528 0.000000
0.000000 0.000000 0.000000
8456.782319 17159.307812 0.000000
17159.307812 8264.294537 0.000000
0.000000 0.000000 0.000000
22180.418651 -9936.764860 0.000000
-9936.764860 2621.325028 0.000000
0.000000 0.000000 0.000000
477.912196 268.939274 0.000000
268.939274 92.294538 0.000000
0.000000 0.000000 0.000000
2272.639762 118.313981 0.000000
118.313981 6.249499 0.000000
0.000000 0.000000 0.000000
-426.920837 1465.625412 0.000000
1465.625412 844.200377 0.000000
0.000000 0.000000 0.000000
65626.604143 -43652.661858 0.000000
-43652.661858 16219.430987 0.000000
0.000000 0.000000 0.000000
15.934252 -6.640015 0.000000
-6.640015 1.654814 0.000000
0.000000 0.000000 0.000000
-10.785714 -14.066858 0.000000
-14.066858 8.093987 0.000000
0.000000 0.000000 0.000000
26.294912 -5.232041 0.000000
-5.232041 0.676115 0.000000
0.000000 0.000000 0.000000
92994.802025 75821.824982 0.000000
75821.824982 29275.462454 0.000000
0.000000 0.000000 0.000000
4351.329648 -3075.435008 0.000000
-3075.435008 1031.815523 0.000000
0.000000 0.000000 0.000000
-841.787121 -193.510450 0.000000
-193.510450 37.903444 0.000000
0.000000 0.000000 0.000000
39982.349042 -13777.712189 0.000000
-13777.712189 2925.852716 0.000000
0.000000 0.000000 0.000000
-8576.481899 6112.314275 0.000000
6112.314275 3507.193599 0.000000
0.000000 0.000000 0.000000
-113504.941754 20819.030808 0.000000
20819.030808 6520.122300 0.000000
0.000000 0.000000 0.000000
-464.249782 711.613118 0.000000
711.613118 483.274599 0.000000
0.000000 0.000000 0.000000
4923.933565 -81.918011 0.000000
-81.918011 17.340377 0.000000
0.000000 0.000000 0.000000
-5837.467370 2483.413284 0.000000
2483.413284 1213.819749 0.000000
0.000000 0.000000 0.000000
18795.590261 -16123.678032 0.000000
-16123.678032 6436.288513 0.000000
0.000000 0.000000 0.000000
16200.397713 -20526.381206 0.000000
-20526.381206 9352.314230 0.000000
0.000000 0.000000 0.000000
431.418565 -1065.515529 0.000000
-1065.515529 321.234532 0.000000
0.000000 0.000000 0.000000
-29859.417045 -45382.374814 0.000000
-45382.374814 26179.567715 0.000000
0.000000 0.000000 0.000000
-742.310137 -248.470584 0.000000
-248.470584 107.757298 0.000000
0.000000 0.000000 0.000000
-735.542156 -1880.663309 0.000000
-1880.663309 1081.243082 0.000000
0.000000 0.000000 0.000000
15.697762 -6.862780 0.000000
-6.862780 1.776341 0.000000
0.000000 0.000000 0.000000
3059.812064 -1134.711504 0.000000
-1134.711504 257.986674 0.000000
0.000000 0.000000 0.000000
3087.093161 -1607.775046 0.000000
-1607.775046 475.865752 0.000000
0.000000 0.000000 0.000000
11486.068566 -8530.361772 0.000000
-8530.361772 3140.804852 0.000000
0.000000 0.000000 0.000000
5204.934089 -3439.133108 0.000000
-3439.133108 1185.535779 0.000000
0.000000 0.000000 0.000000
9160.842848 37412.569168 0.000000
37412.569168 19937.385374 0.000000
0.000000 0.000000 0.000000
-1280.036817 -5206.524011 0.000000
-5206.524011 2970.704902 0.000000
0.000000 0.000000 0.000000
2.228748 -8.154469 0.000000
-8.154469 4.317741 0.000000
0.000000 0.000000 0.000000
3233.427138 -1549.880799 0.000000
-1549.880799 430.559851 0.000000
0.000000 0.000000 0.000000
-571.810280 -18.741006 0.000000
-18.741006 56.338149 0.000000
0.000000 0.000000 0.000000
131837.094636 127790.555289 0.000000
127790.555289 53239.319119 0.000000
0.000000 0.000000 0.000000
18715.663146 -1363.846879 0.000000
-1363.846879 83.003674 0.000000
0.000000 0.000000 0.000000
-7916033.392725 -254517.092908 0.000000
-254517.092908 16270.991631 0.000000
0.000000 0.000000 0.000000
-1172.518494 2125.052644 0.000000
2125.052644 1232.087384 0.000000
0.000000 0.000000 0.000000
2159.922562 -3045.891091 0.000000
-3045.891091 1426.538775 0.000000
0.000000 0.000000 0.000000
1687.053067 631.146916 0.000000
631.146916 147.640165 0.000000
0.000000 0.000000 0.000000
9184.411041 -63809.395397 0.000000
-63809.395397 34677.013297 0.000000
0.000000 0.000000 0.000000
-41150.040922 -31804.744077 0.000000
-31804.744077 18226.909455 0.000000
0.000000 0.000000 0.000000
-347.087597 -84.686692 0.000000
-84.686692 31.784064 0.000000
0.000000 0.000000 0.000000
11052.082825 947.254083 0.000000
947.254083 123.207825 0.000000
0.000000 0.000000 0.000000
-4004.828951 525.727327 0.000000
525.727327 137.752427 0.000000
0.000000 0.000000 0.000000
109075.984397 71685.347214 0.000000
71685.347214 24631.649848 0.000000
0.000000 0.000000 0.000000
1464.178350 396.114033 0.000000
396.114033 68.081676 0.000000
0.000000 0.000000 0.000000
703173.365690 -852446.609650 0.000000
-852446.609650 383466.740479 0.000000
0.000000 0.000000 0.000000
-525.775435 30.963024 0.000000
30.963024 59.258754 0.000000
0.000000 0.000000 0.000000
19.299040 -7.317045 0.000000
-7.317045 1.688591 0.000000
0.000000 0.000000 0.000000
26903.238602 -39064.655095 0.000000
-39064.655095 18420.954671 0.000000
0.000000 0.000000 0.000000
6.529657 -7.010325 0.000000
-7.010325 3.033526 0.000000
0.000000 0.000000 0.000000
8710.336396 6191.348022 0.000000
6191.348022 3239.161061 0.000000
0.000000 0.000000 0.000000
-852.461922 1003.462976 0.000000
1003.462976 584.533853 0.000000
0.000000 0.000000 0.000000
12066.713614 10754.062976 0.000000
10754.062976 4326.331776 0.000000
0.000000 0.000000 0.000000
14869.862920 -1715.781795 0.000000
-1715.781795 131.203964 0.000000
0.000000 0.000000 0.000000
17.003475 -6.798284 0.000000
-6.798284 1.638729 0.000000
0.000000 0.000000 0.000000
401.443236 765.249585 0.000000
765.249585 395.618543 0.000000
0.000000 0.000000 0.000000
278.904268 -6053.592379 0.000000
-6053.592379 3354.367624 0.000000
0.000000 0.000000 0.000000
-51711.580579 -13961.535036 0.000000
-13961.535036 5554.940877 0.000000
0.000000 0.000000 0.000000
-2869617.786788 -783196.307938 0.000000
-783196.307938 313489.867374 0.000000
0.000000 0.000000 0.000000
-15.853478 -17.146893 0.000000
-17.146893 9.798066 0.000000
0.000000 0.000000 0.000000
-78.802987 -33.708810 0.000000
-33.708810 16.446502 0.000000
0.000000 0.000000 0.000000
-757199.664027 -116518.518685 0.000000
-116518.518685 31709.773321 0.000000
0.000000 0.000000 0.000000
-4524.825018 2567.941332 0.000000
2567.941332 1346.503871 0.000000
0.000000 0.000000 0.000000
7662.896736 -6865.583895 0.000000
-6865.583895 2767.705901 0.000000
0.000000 0.000000 0.000000
19.922995 -68.492134 0.000000
-68.492134 36.124298 0.000000
0.000000 0.000000 0.000000
34.618269 -6.596689 0.000000
-6.596689 0.818128 0.000000
0.000000 0.000000 0.000000
-15062721.948471 -1038333.446601 0.000000
-1038333.446601 139230.835223 0.000000
0.000000 0.000000 0.000000
-10192.833710 1854.724403 0.000000
1854.724403 578.307680 0.000000
0.000000 0.000000 0.000000
-4508.622749 1885.470703 0.000000
1885.470703 918.491036 0.000000
0.000000 0.000000 0.000000
1829.997368 1368.303496 0.000000
1368.303496 509.045863 0.000000
0.000000 0.000000 0.000000
-990.309293 917.781827 0.000000
917.781827 524.721836 0.000000
0.000000 0.000000 0.000000
386245.401516 -229728.811547 0.000000
-229728.811547 74386.963109 0.000000
0.000000 0.000000 0.000000
-128.512040 -49.191817 0.000000
-49.191817 23.057747 0.000000
0.000000 0.000000 0.000000
-1560.730909 -454.986173 0.000000
-454.986173 186.783398 0.000000
0.000000 0.000000 0.000000
-146469.666736 -20488.113714 0.000000
-20488.113714 5163.998097 0.000000
0.000000 0.000000 0.000000
129239.342121 -191819.194738 0.000000
-191819.194738 90898.856218 0.000000
0.000000 0.000000 0.000000
-2277.932529 -2368.629505 0.000000
-2368.629505 1349.236459 0.000000
0.000000 0.000000 0.000000
-37775.300789 25333.827037 0.000000
25333.827037 13865.197068 0.000000
0.000000 0.000000 0.000000
1867.785097 -1025.768627 0.000000
-1025.768627 292.272829 0.000000
0.000000 0.000000 0.000000
13170.846414 163.465111 0.000000
163.465111 1.352232 0.000000
0.000000 0.000000 0.000000
3863.534812 -3490.576094 0.000000
-3490.576094 1412.764093 0.000000
0.000000 0.000000 0.000000
-9188.591370 -6681.056405 0.000000
-6681.056405 3680.982705 0.000000
0.000000 0.000000 0.000000
4781.510655 51.808145 0.000000
51.808145 0.699555 0.000000
0.000000 0.000000 0.000000
8766.688040 4651.479115 0.000000
4651.479115 1404.322849 0.000000
0.000000 0.000000 0.000000
-85562.412910 -12040.673449 0.000000
-12040.673449 3046.458283 0.000000
0.000000 0.000000 0.000000
-1416897.026054 -123324.348925 0.000000
-123324.348925 20553.097291 0.000000
0.000000 0.000000 0.000000
1418.896259 541.163750 0.000000
541.163750 127.985096 0.000000
0.000000 0.000000 0.000000
-69.121923 -3179.891981 0.000000
-3179.891981 1773.223983 0.000000
0.000000 0.000000 0.000000
-68858.170946 -192490.952965 0.000000
-192490.952965 110365.196950 0.000000
0.000000 0.000000 0.000000
1744.753656 615.722745 0.000000
615.722745 140.211835 0.000000
0.000000 0.000000 0.000000
-1327.735794 627.777960 0.000000
627.777960 318.008582 0.000000
0.000000 0.000000 0.000000
10.886656 -4.315881 0.000000
-4.315881 1.033187 0.000000
0.000000 0.000000 0.000000
57353.757879 -92116.299693 0.000000
-92116.299693 44377.703913 0.000000
0.000000 0.000000 0.000000
17364.608568 -9190.281359 0.000000
-9190.281359 2742.649071 0.000000
0.000000 0.000000 0.000000
-42291.904719 -19416.030968 0.000000
-19416.030968 9688.080742 0.000000
0.000000 0.000000 0.000000
31904.040166 -7889.093434 0.000000
-7889.093434 1253.210223 0.000000
0.000000 0.000000 0.000000
61533.800552 9081.172493 0.000000
9081.172493 880.579833 0.000000
0.000000 0.000000 0.000000
24277.594793 4540.034674 0.000000
4540.034674 570.046281 0.000000
0.000000 0.000000 0.000000
52444.939191 -41635.572985 0.000000
-41635.572985 15866.666562 0.000000
0.000000 0.000000 0.000000
-6409.902872 2555.056250 0.000000
2555.056250 1219.227431 0.000000
0.000000 0.000000 0.000000
855.835806 -2821.889465 0.000000
-2821.889465 1484.472935 0.000000
0.000000 0.000000 0.000000
12206.872184 -16266.775994 0.000000
-16266.775994 7507.351054 0.000000
0.000000 0.000000 0.000000
3459.518994 -2573.293644 0.000000
-2573.293644 948.472695 0.000000
0.000000 0.000000 0.000000
-22346.713300 23245.363743 0.000000
23245.363743 13254.937978 0.000000
0.000000 0.000000 0.000000
-12145.958926 -6607.697278 0.000000
-6607.697278 3450.618626 0.000000
0.000000 0.000000 0.000000
-4264.726478 1772.554615 0.000000
1772.554615 861.450889 0.000000
0.000000 0.000000 0.000000
18639.214825 -14552.136699 0.000000
-14552.136699 5499.199884 0.000000
0.000000 0.000000 0.000000
7161.087868 1410.616766 0.000000
1410.616766 181.146148 0.000000
0.000000 0.000000 0.000000
-3142.407904 7905.587302 0.000000
7905.587302 4578.946103 0.000000
0.000000 0.000000 0.000000
-10710.625976 -3922.695800 0.000000
-3922.695800 1804.996391 0.000000
0.000000 0.000000 0.000000
-18361.055998 -17230.310891 0.000000
-17230.310891 9752.583282 0.000000
0.000000 0.000000 0.000000
2230.197983 2135.609357 0.000000
2135.609357 888.052558 0.000000
0.000000 0.000000 0.000000
-87.118919 -29.999861 0.000000
-29.999861 13.463360 0.000000
0.000000 0.000000 0.000000
-80749.230393 21079.613921 0.000000
21079.613921 8251.623689 0.000000
0.000000 0.000000 0.000000
-9708.632282 -26740.672630 0.000000
-26740.672630 15397.413256 0.000000
0.000000 0.000000 0.000000
8711.160320 6734.884871 0.000000
6734.884871 2546.033861 0.000000
0.000000 0.000000 0.000000
1007.651648 -583.701141 0.000000
-583.701141 185.263446 0.000000
0.000000 0.000000 0.000000
19782.429457 6505.603866 0.000000
6505.603866 1330.595095 0.000000
0.000000 0.000000 0.000000
6082.025691 81.643922 0.000000
81.643922 0.808755 0.000000
0.000000 0.000000 0.000000
731.030010 1629.874823 0.000000
1629.874823 832.487404 0.000000
0.000000 0.000000 0.000000
27610.288352 -58057.885212 0.000000
-58057.885212 29224.206846 0.000000
0.000000 0.000000 0.000000
-93167.519937 -45154.908614 0.000000
-45154.908614 22896.018269 0.000000
0.000000 0.000000 0.000000
-44419.789500 6804.791690 0.000000
6804.791690 1847.820190 0.000000
0.000000 0.000000 0.000000
124.212989 -106.518414 0.000000
-106.518414 33.876288 0.000000
0.000000 0.000000 0.000000
-9.261319 -19.620720 0.000000
-19.620720 11.313292 0.000000
0.000000 0.000000 0.000000
-17243179.074367 776376.317801 0.000000
776376.317801 69597.841153 0.000000
0.000000 0.000000 0.000000
-687.993529 563.142436 0.000000
563.142436 317.183630 0.000000
0.000000 0.000000 0.000000
8513.739060 -19558.742462 0.000000
-19558.742462 9954.191419 0.000000
0.000000 0.000000 0.000000
4223.515458 3202.998050 0.000000
3202.998050 1193.359387 0.000000
0.000000 0.000000 0.000000
-7548.705642 1651.814702 0.000000
1651.814702 584.418175 0.000000
0.000000 0.000000 0.000000
-8161.302758 -5950.162777 0.000000
-5950.162777 3280.483663 0.000000
0.000000 0.000000 0.000000
25779.647302 -8668.241032 0.000000
-8668.241032 1955.067431 0.000000
0.000000 0.000000 0.000000
4111.946711 1501.967919 0.000000
1501.967919 346.782602 0.000000
0.000000 0.000000 0.000000
-7064.723444 7612.903140 0.000000
7612.903140 4367.355553 0.000000
0.000000 0.000000 0.000000
-55376.217455 -34365.290131 0.000000
-34365.290131 18460.399078 0.000000
0.000000 0.000000 0.000000
-382.449960 -54.041803 0.000000
-54.041803 13.734484 0.000000
0.000000 0.000000 0.000000
-61406.433034 24515.577886 0.000000
24515.577886 11697.188109 0.000000
0.000000 0.000000 0.000000
-26263702.830808 2566475.702189 0.000000
2566475.702189 475484.201699 0.000000
0.000000 0.000000 0.000000
26476.159918 -9714.661999 0.000000
-9714.661999 2175.558385 0.000000
0.000000 0.000000 0.000000
1611302.869313 -287947.651081 0.000000
-287947.651081 33616.429041 0.000000
0.000000 0.000000 0.000000
-119381.498605 77815.501414 0.000000
77815.501414 45000.572745 0.000000
0.000000 0.000000 0.000000
19436.538364 -4056.106335 0.000000
-4056.106335 552.433443 0.000000
0.000000 0.000000 0.000000
19267.567734 -41390.298251 0.000000
-41390.298251 20885.421706 0.000000
0.000000 0.000000 0.000000
19.585861 -7.665402 0.000000
-7.665402 1.815869 0.000000
0.000000 0.000000 0.000000
2727.093324 15584.619667 0.000000
15584.619667 11057.743519 0.000000
0.000000 0.000000 0.000000
190.410054 207.796424 0.000000
207.796424 90.424760 0.000000
0.000000 0.000000 0.000000
4131.923537 -165.423103 0.000000
-165.423103 4.750223 0.000000
0.000000 0.000000 0.000000
-44.336035 -17.440422 0.000000
-17.440422 8.260069 0.000000
0.000000 0.000000 0.000000
-8633.097515 -522.746707 0.000000
-522.746707 989.144804 0.000000
0.000000 0.000000 0.000000
6869.358545 6474.359638 0.000000
6474.359638 2689.476247 0.000000
0.000000 0.000000 0.000000
-32.620268 -15.683768 0.000000
-15.683768 7.934505 0.000000
0.000000 0.000000 0.000000
8728.729571 8312.134471 0.000000
8312.134471 3522.807684 0.000000
0.000000 0.000000 0.000000
-55243.216107 -48356.532060 0.000000
-48356.532060 27225.247741 0.000000
0.000000 0.000000 0.000000
-11235.553136 -6995.213715 0.000000
-6995.213715 3759.334430 0.000000
0.000000 0.000000 0.000000
-29458.693188 -46879.536759 0.000000
-46879.536759 27053.120727 0.000000
0.000000 0.000000 0.000000
24607.072076 -32909.674542 0.000000
-32909.674542 15190.856428 0.000000
0.000000 0.000000 0.000000
19.581677 -4.675988 0.000000
-4.675988 0.717084 0.000000
0.000000 0.000000 0.000000
18.773614 -14.924102 0.000000
-14.924102 5.691122 0.000000
0.000000 0.000000 0.000000
17.258948 -3.769339 0.000000
-3.769339 0.531851 0.000000
0.000000 0.000000 0.000000
-16.492182 -15.638578 0.000000
-15.638578 8.863367 0.000000
0.000000 0.000000 0.000000
767.767454 2013.030031 0.000000
2013.030031 1066.957398 0.000000
0.000000 0.000000 0.000000
14.430688 -5.749247 0.000000
-5.749247 1.381877 0.000000
0.000000 0.000000 0.000000
9396.082945 -13321.313794 0.000000
-13321.313794 6246.791181 0.000000
0.000000 0.000000 0.000000
-2651.813367 5740.621014 0.000000
5740.621014 3315.666227 0.000000
0.000000 0.000000 0.000000
-15878.054631 14432.055930 0.000000
14432.055930 8142.958239 0.000000
0.000000 0.000000 0.000000
10390.366558 10196.316768 0.000000
10196.316768 4258.051365 0.000000
0.000000 0.000000 0.000000
3570.989901 205.910251 0.000000
205.910251 8.915778 0.000000
0.000000 0.000000 0.000000
4630.900177 -1610.700340 0.000000
-1610.700340 337.285414 0.000000
0.000000 0.000000 0.000000
51358.738030 -35487.808038 0.000000
-35487.808038 12555.469871 0.000000
0.000000 0.000000 0.000000
-159832.468834 30129.781315 0.000000
30129.781315 9608.304308 0.000000
0.000000 0.000000 0.000000
20499.252724 -34430.318688 0.000000
-34430.318688 16729.290634 0.000000
0.000000 0.000000 0.000000
5759.752366 -30549.703993 0.000000
-30549.703993 16463.314955 0.000000
0.000000 0.000000 0.000000
109.628526 375.361217 0.000000
375.361217 204.588472 0.000000
0.000000 0.000000 0.000000
4576.588079 333.767841 0.000000
333.767841 16.174508 0.000000
0.000000 0.000000 0.000000
-160730.364978 72902.222531 0.000000
72902.222531 36294.818353 0.000000
0.000000 0.000000 0.000000
-58.571851 -34.656738 0.000000
-34.656738 18.443303 0.000000
0.000000 0.000000 0.000000
19281.037843 19975.856050 0.000000
19975.856050 8535.483531 0.000000
0.000000 0.000000 0.000000
7558.028260 -12710.502215 0.000000
-12710.502215 6177.328845 0.000000
0.000000 0.000000 0.000000
18.749849 -5.098082 0.000000
-5.098082 0.880685 0.000000
0.000000 0.000000 0.000000
2879.407371 -795.529143 0.000000
-795.529143 139.478931 0.000000
0.000000 0.000000 0.000000
2561.483376 -134.141814 0.000000
-134.141814 4.956957 0.000000
0.000000 0.000000 0.000000
-7364.929027 -34007.521736 0.000000
-34007.521736 19363.069901 0.000000
0.000000 0.000000 0.000000
928.942395 -1210.121125 0.000000
-1210.121125 555.535975 0.000000
0.000000 0.000000 0.000000
928.942395 -1210.121125 0.000000
-1210.121125 555.535975 0.000000
0.000000 0.000000 0.000000
13755.633917 -3317.479290 0.000000
-3317.479290 520.190510 0.000000
0.000000 0.000000 0.000000
496.869434 -2614.566123 0.000000
-2614.566123 1408.584376 0.000000
0.000000 0.000000 0.000000
496.869434 -2614.566123 0.000000
-2614.566123 1408.584376 0.000000
0.000000 0.000000 0.000000
-39675.555405 -12752.507304 0.000000
-12752.507304 5545.677914 0.000000
0.000000 0.000000 0.000000
10855.133581 -2870.991682 0.000000
-2870.991682 483.653428 0.000000
0.000000 0.000000 0.000000
-4082.157979 2699.432088 0.000000
2699.432088 1470.132120 0.000000
0.000000 0.000000 0.000000
0.000000 0.000000 0.000000
0.000000 0.000000 0.000000
0.000000 0.000000 0.000000
-106.091632 -53.785665 0.000000
-53.785665 27.608835 0.000000
0.000000 0.000000 0.000000
-420.703763 2084.105319 0.000000
2084.105319 1210.972554 0.000000
0.000000 0.000000 0.000000
-18784.868701 -1198.531947 0.000000
-1198.531947 95.210899 0.000000
0.000000 0.000000 0.000000
-1901.554679 -4956.223428 0.000000
-4956.223428 2849.535502 0.000000
0.000000 0.000000 0.000000
20.676535 -5.954478 0.000000
-5.954478 1.083312 0.000000
0.000000 0.000000 0.000000
31175.774274 4976.879165 0.000000
4976.879165 521.269915 0.000000
0.000000 0.000000 0.000000
1946.732120 139.218425 0.000000
139.218425 6.955803 0.000000
0.000000 0.000000 0.000000
-99020.507266 -2247.604161 0.000000
-2247.604161 101.836058 0.000000
0.000000 0.000000 0.000000
6397.607380 -38063.394735 0.000000
-38063.394735 20593.020412 0.000000
0.000000 0.000000 0.000000
-3527.917659 -3576.112856 0.000000
-3576.112856 2036.030444 0.000000
0.000000 0.000000 0.000000
-45480.977711 4077.826469 0.000000
4077.826469 701.365214 0.000000
0.000000 0.000000 0.000000
-29919.072541 -3833.076513 0.000000
-3833.076513 901.137911 0.000000
0.000000 0.000000 0.000000
1431.982843 4202.800254 0.000000
4202.800254 2192.777029 0.000000
0.000000 0.000000 0.000000
-467156.373112 58703.202865 0.000000
58703.202865 13577.528205 0.000000
0.000000 0.000000 0.000000
-66.517840 -37.406416 0.000000
-37.406416 19.691116 0.000000
0.000000 0.000000 0.000000
-35.778609 -29.875198 0.000000
-29.875198 16.743601 0.000000
0.000000 0.000000 0.000000
-2132.460185 6093.421793 0.000000
6093.421793 3502.187303 0.000000
0.000000 0.000000 0.000000
-2889.059892 3748.268735 0.000000
3748.268735 2170.511312 0.000000
0.000000 0.000000 0.000000
16587.062305 -48341.318746 0.000000
-48341.318746 25186.893870 0.000000
0.000000 0.000000 0.000000
-8434.273610 2369.682438 0.000000
2369.682438 967.594309 0.000000
0.000000 0.000000 0.000000
-99.879860 -40.878178 0.000000
-40.878178 19.642320 0.000000
0.000000 0.000000 0.000000
52285.919424 -13572.675580 0.000000
-13572.675580 2251.410831 0.000000
0.000000 0.000000 0.000000
-100182501.380369 -695535.966361 0.000000
-695535.966361 9653.842095 0.000000
0.000000 0.000000 0.000000
-19719.163442 -36012.869276 0.000000
-36012.869276 20785.113082 0.000000
0.000000 0.000000 0.000000
-114392.918611 10969.793530 0.000000
10969.793530 2000.031552 0.000000
0.000000 0.000000 0.000000
172015.024085 327086.727224 0.000000
327086.727224 161882.946305 0.000000
0.000000 0.000000 0.000000
10.307076 -8.890977 0.000000
-8.890977 3.524942 0.000000
0.000000 0.000000 0.000000
546.139795 6021.059022 0.000000
6021.059022 3312.355477 0.000000
0.000000 0.000000 0.000000
-17895.391586 10769.346500 0.000000
10769.346500 5800.934746 0.000000
0.000000 0.000000 0.000000
-1761.228850 2292.257483 0.000000
2292.257483 1321.498352 0.000000
0.000000 0.000000 0.000000
5093.924188 -4999.868469 0.000000
-4999.868469 2047.194708 0.000000
0.000000 0.000000 0.000000
-43.983235 -22.575858 0.000000
-22.575858 11.625917 0.000000
0.000000 0.000000 0.000000
5580.160388 2160.864096 0.000000
2160.864096 513.373504 0.000000
0.000000 0.000000 0.000000
-7420820434.273890 7254863.357958 0.000000
7254863.357958 14220.377684 0.000000
0.000000 0.000000 0.000000
11988.664830 -12404.042778 0.000000
-12404.042778 5297.363558 0.000000
0.000000 0.000000 0.000000
-158.232661 -37.654908 0.000000
-37.654908 13.919965 0.000000
0.000000 0.000000 0.000000
13025.505186 -16489.973293 0.000000
-16489.973293 7511.485682 0.000000
0.000000 0.000000 0.000000
-1081609737.309134 1178392.908341 0.000000
1178392.908341 2569.069517 0.000000
0.000000 0.000000 0.000000
960681.352161 -833747.418743 0.000000
-833747.418743 321427.101653 0.000000
0.000000 0.000000 0.000000
-3308.170315 1288.531535 0.000000
1288.531535 608.867472 0.000000
0.000000 0.000000 0.000000
289.392907 -1332.364340 0.000000
-1332.364340 713.924562 0.000000
0.000000 0.000000 0.000000
980.654053 3360.465838 0.000000
3360.465838 1796.283729 0.000000
0.000000 0.000000 0.000000
28683.311550 -65482.279698 0.000000
-65482.279698 33294.420810 0.000000
0.000000 0.000000 0.000000
-1028.226507 -4011.553790 0.000000
-4011.553790 2290.926030 0.000000
0.000000 0.000000 0.000000
507.603184 -1187.900451 0.000000
-1187.900451 601.212035 0.000000
0.000000 0.000000 0.000000
-332.663362 -68.119011 0.000000
-68.119011 22.854293 0.000000
0.000000 0.000000 0.000000
11.441708 -8.231430 0.000000
-8.231430 2.978932 0.000000
0.000000 0.000000 0.000000
46603.449096 -49704.630573 0.000000
-49704.630573 21458.861888 0.000000
0.000000 0.000000 0.000000
43488.869927 -26541.714334 0.000000
-26541.714334 8712.124523 0.000000
0.000000 0.000000 0.000000
16191.993577 -7945.800562 0.000000
-7945.800562 2245.601520 0.000000
0.000000 0.000000 0.000000
7.947728 -10.070899 0.000000
-10.070899 4.588651 0.000000
0.000000 0.000000 0.000000
15593.739325 448.187049 0.000000
448.187049 8.897453 0.000000
0.000000 0.000000 0.000000
4328.171272 100.601848 0.000000
100.601848 5.196938 0.000000
0.000000 0.000000 0.000000
-98128.330011 -63709.088364 0.000000
-63709.088364 34503.332200 0.000000
0.000000 0.000000 0.000000
-24966.116918 586.305719 0.000000
586.305719 28.233773 0.000000
0.000000 0.000000 0.000000
-5881.352114 15382.435861 0.000000
15382.435861 8841.267191 0.000000
0.000000 0.000000 0.000000
-1174.461198 7359.742837 0.000000
7359.742837 4172.621688 0.000000
0.000000 0.000000 0.000000
5322.132934 1118.270489 0.000000
1118.270489 152.394202 0.000000
0.000000 0.000000 0.000000
32.878434 9.145073 0.000000
9.145073 6.365016 0.000000
0.000000 0.000000 0.000000
-5664.491899 8850.747988 0.000000
8850.747988 5113.077598 0.000000
0.000000 0.000000 0.000000
-20.325998 -23.125612 0.000000
-23.125612 13.245699 0.000000
0.000000 0.000000 0.000000
-86.376059 -35.096584 0.000000
-35.096584 16.820698 0.000000
0.000000 0.000000 0.000000
5838.461513 -21304.857878 0.000000
-21304.857878 11274.896202 0.000000
0.000000 0.000000 0.000000
-10.861252 -20.163432 0.000000
-20.163432 11.637065 0.000000
0.000000 0.000000 0.000000
-24424.371204 -8539.595349 0.000000
-8539.595349 3858.542218 0.000000
0.000000 0.000000 0.000000
6680.946679 6241.190413 0.000000
6241.190413 2561.568855 0.000000
0.000000 0.000000 0.000000
9402.868536 -3706.861290 0.000000
-3706.861290 882.956635 0.000000
0.000000 0.000000 0.000000
3960.038931 2147.257519 0.000000
2147.257519 671.416257 0.000000
0.000000 0.000000 0.000000
17337.424782 9452.483399 0.000000
9452.483399 2879.157445 0.000000
0.000000 0.000000 0.000000
74331.685935 -80980.629985 0.000000
-80980.629985 35219.107832 0.000000
0.000000 0.000000 0.000000
1521.085406 654.056018 0.000000
654.056018 181.725237 0.000000
0.000000 0.000000 0.000000
29940.225800 -21812.555930 0.000000
-21812.555930 7948.481626 0.000000
0.000000 0.000000 0.000000
-108762.635467 5467.409998 0.000000
5467.409998 544.349209 0.000000
0.000000 0.000000 0.000000
1458.383955 -1732.919837 0.000000
-1732.919837 731.513274 0.000000
0.000000 0.000000 0.000000
-10.259472 -14.768518 0.000000
-14.768518 8.514055 0.000000
0.000000 0.000000 0.000000
-37777069019.928383 -3744628.651085 0.000000
-3744628.651085 742.987199 0.000000
0.000000 0.000000 0.000000
12.336259 -7.059372 0.000000
-7.059372 2.222007 0.000000
0.000000 0.000000 0.000000
-47363.984623 12777.067255 0.000000
12777.067255 5119.281449 0.000000
0.000000 0.000000 0.000000
-72.108414 -33.340061 0.000000
-33.340061 16.674564 0.000000
0.000000 0.000000 0.000000
504.630577 3441.662367 0.000000
3441.662367 1876.686944 0.000000
0.000000 0.000000 0.000000
-7569.072608 5104.765036 0.000000
5104.765036 2792.291901 0.000000
0.000000 0.000000 0.000000
-1768.600743 -2871.071837 0.000000
-2871.071837 1655.862752 0.000000
0.000000 0.000000 0.000000
-10145304.399875 104565.038666 0.000000
104565.038666 2155.311505 0.000000
0.000000 0.000000 0.000000
-67073.719478 17306.821294 0.000000
17306.821294 6772.437853 0.000000
0.000000 0.000000 0.000000
182534.867547 -34607.539913 0.000000
-34607.539913 4271.440401 0.000000
0.000000 0.000000 0.000000
29001.627818 -55551.217977 0.000000
-55551.217977 30519.275079 0.000000
0.000000 0.000000 0.000000
-166308.519688 -4051.359709 0.000000
-4051.359709 196.566328 0.000000
0.000000 0.000000 0.000000
-50.022458 93.412032 0.000000
93.412032 56.743099 0.000000
0.000000 0.000000 0.000000
13.498141 -8.093396 0.000000
-8.093396 2.626654 0.000000
0.000000 0.000000 0.000000
-1441.757733 743.620482 0.000000
743.620482 385.924919 0.000000
0.000000 0.000000 0.000000
-62.303820 124.667049 0.000000
124.667049 74.230098 0.000000
0.000000 0.000000 0.000000
-3559.016449 5488.361617 0.000000
5488.361617 3174.919372 0.000000
0.000000 0.000000 0.000000
-20371.803299 5190.347854 0.000000
5190.347854 1998.416459 0.000000
0.000000 0.000000 0.000000
-4548.604645 -5908.973322 0.000000
-5908.973322 3399.652258 0.000000
0.000000 0.000000 0.000000
5151.381019 24996.562220 0.000000
24996.562220 13432.030115 0.000000
0.000000 0.000000 0.000000
-12712.057502 13062.267088 0.000000
13062.267088 7494.850517 0.000000
0.000000 0.000000 0.000000
-743427.968752 24436.214907 0.000000
24436.214907 1596.358226 0.000000
0.000000 0.000000 0.000000
231.649079 231.520164 0.000000
231.520164 109.132543 0.000000
0.000000 0.000000 0.000000
-424.911513 2328.840791 0.000000
2328.840791 1330.112920 0.000000
0.000000 0.000000 0.000000
-65.568038 118.125515 0.000000
118.125515 71.994136 0.000000
0.000000 0.000000 0.000000
-7331.656053 234.658400 0.000000
234.658400 34.465407 0.000000
0.000000 0.000000 0.000000
-2981.534359 8898.819498 0.000000
8898.819498 5106.221406 0.000000
0.000000 0.000000 0.000000
-57402.365901 7474.287610 0.000000
7474.287610 1778.067644 0.000000
0.000000 0.000000 0.000000
-11818539.049221 -258700.080094 0.000000
-258700.080094 11377.530145 0.000000
0.000000 0.000000 0.000000
-522.567612 -2482.755032 0.000000
-2482.755032 1412.451544 0.000000
0.000000 0.000000 0.000000
-15998.091286 -10447.817294 0.000000
-10447.817294 5663.851219 0.000000
0.000000 0.000000 0.000000
-353.728319 389.427684 0.000000
389.427684 225.844991 0.000000
0.000000 0.000000 0.000000
-8855.794285 7673.259750 0.000000
7673.259750 4386.352931 0.000000
0.000000 0.000000 0.000000
-143501.381015 -3442.153999 0.000000
-3442.153999 164.494091 0.000000
0.000000 0.000000 0.000000
2048.273674 217.365707 0.000000
217.365707 15.710908 0.000000
0.000000 0.000000 0.000000
-1074741.600964 148089.149822 0.000000
148089.149822 36911.700765 0.000000
0.000000 0.000000 0.000000
7.290990 -7.501763 0.000000
-7.501763 3.197248 0.000000
0.000000 0.000000 0.000000
-277.093757 16614.485068 0.000000
16614.485068 9261.605766 0.000000
0.000000 0.000000 0.000000
2.544008 3.298949 0.000000
3.298949 1.512615 0.000000
0.000000 0.000000 0.000000
1177.071739 -233.749572 0.000000
-233.749572 31.582251 0.000000
0.000000 0.000000 0.000000
5446.505517 336.013445 0.000000
336.013445 15.206419 0.000000
0.000000 0.000000 0.000000
3892.619248 716.916249 0.000000
716.916249 86.472304 0.000000
0.000000 0.000000 0.000000
12407.383738 -2074.220424 0.000000
-2074.220424 227.150380 0.000000
0.000000 0.000000 0.000000
-27522.162492 5757.810586 0.000000
5757.810586 1962.449118 0.000000
0.000000 0.000000 0.000000
-39495.124704 26231.505259 0.000000
26231.505259 14278.830695 0.000000
0.000000 0.000000 0.000000
472.328003 414.012871 0.000000
414.012871 166.934398 0.000000
0.000000 0.000000 0.000000
-110636.367205 9812.595967 0.000000
9812.595967 1666.117291 0.000000
0.000000 0.000000 0.000000
-34196.515523 -32090.713392 0.000000
-32090.713392 18173.436106 0.000000
0.000000 0.000000 0.000000
10229.375636 7263.513602 0.000000
7263.513602 2612.766464 0.000000
0.000000 0.000000 0.000000
-1794.719181 581.356955 0.000000
581.356955 253.923727 0.000000
0.000000 0.000000 0.000000
-1066.418460 1100.729703 0.000000
1100.729703 630.332908 0.000000
0.000000 0.000000 0.000000
5982.041944 -2494.039606 0.000000
-2494.039606 622.003055 0.000000
0.000000 0.000000 0.000000
7.146179 -9.101511 0.000000
-9.101511 4.152809 0.000000
0.000000 0.000000 0.000000
-38058.681180 6382.613096 0.000000
6382.613096 1857.706153 0.000000
0.000000 0.000000 0.000000
-22424.166542 1734.940078 0.000000
1734.940078 260.032187 0.000000
0.000000 0.000000 0.000000
11323.843489 234.643277 0.000000
234.643277 24.138602 0.000000
0.000000 0.000000 0.000000
-4735.954918 -18290.211556 0.000000
-18290.211556 10445.859138 0.000000
0.000000 0.000000 0.000000
-216739.793616 -125192.155836 0.000000
-125192.155836 66288.117389 0.000000
0.000000 0.000000 0.000000
-1647.487384 3189.195526 0.000000
3189.195526 1842.948840 0.000000
0.000000 0.000000 0.000000
170.464546 -188.622096 0.000000
-188.622096 64.425717 0.000000
0.000000 0.000000 0.000000
26754.264977 25110.710136 0.000000
25110.710136 10169.784819 0.000000
0.000000 0.000000 0.000000
-130185.964060 11358.870674 0.000000
11358.870674 1898.687115 0.000000
0.000000 0.000000 0.000000
3666.208289 -1952.099196 0.000000
-1952.099196 582.603930 0.000000
0.000000 0.000000 0.000000
7290.864461 -2741.820672 0.000000
-2741.820672 634.583980 0.000000
0.000000 0.000000 0.000000
-8788.536757 4931.934183 0.000000
4931.934183 2599.920987 0.000000
0.000000 0.000000 0.000000
-28.188174 -22.685147 0.000000
-22.685147 12.663889 0.000000
0.000000 0.000000 0.000000
12067.298997 4018.945864 0.000000
4018.945864 856.870648 0.000000
0.000000 0.000000 0.000000
9272.227311 -5639.370253 0.000000
-5639.370253 1838.827639 0.000000
0.000000 0.000000 0.000000
-13749.360182 -3666.174809 0.000000
-3666.174809 1446.614676 0.000000
0.000000 0.000000 0.000000
720.545907 -3.176638 0.000000
-3.176638 0.060814 0.000000
0.000000 0.000000 0.000000
525.778777 -543.078486 0.000000
-543.078486 233.995919 0.000000
0.000000 0.000000 0.000000
1344.249746 -1478.214381 0.000000
-1478.214381 646.980739 0.000000
0.000000 0.000000 0.000000
10849.296231 -4002.724003 0.000000
-4002.724003 888.465144 0.000000
0.000000 0.000000 0.000000
-174664.141900 13470.923316 0.000000
13470.923316 2007.813447 0.000000
0.000000 0.000000 0.000000
951.357114 -304.947312 0.000000
-304.947312 61.331857 0.000000
0.000000 0.000000 0.000000
-11342.420161 5205.366919 0.000000
5205.366919 2603.163772 0.000000
0.000000 0.000000 0.000000
-16871.259167 39100.029974 0.000000
39100.029974 22540.515772 0.000000
0.000000 0.000000 0.000000
8362.165952 4063.957321 0.000000
4063.957321 1212.863225 0.000000
0.000000 0.000000 0.000000
-2018.996494 4486.259747 0.000000
4486.259747 2599.186623 0.000000
0.000000 0.000000 0.000000
-310.057690 1445.747313 0.000000
1445.747313 828.188339 0.000000
0.000000 0.000000 0.000000
326.413506 -44.114283 0.000000
-44.114283 3.937588 0.000000
0.000000 0.000000 0.000000
81.931506 -193.786695 0.000000
-193.786695 35.282040 0.000000
0.000000 0.000000 0.000000
19246.907846 -24381.159893 0.000000
-24381.159893 11107.818023 0.000000
0.000000 0.000000 0.000000
-2655.877275 2227.882586 0.000000
2227.882586 276.973664 0.000000
0.000000 0.000000 0.000000
15263.667691 557.208787 0.000000
557.208787 13.551062 0.000000
0.000000 0.000000 0.000000
2084.769398 717.603322 0.000000
717.603322 174.071904 0.000000
0.000000 0.000000 0.000000
-1248022.160056 72159.001440 0.000000
72159.001440 8219.701403 0.000000
0.000000 0.000000 0.000000
4247.882411 20960.244503 0.000000
20960.244503 11271.904630 0.000000
0.000000 0.000000 0.000000
-164.403202 -47.361748 0.000000
-47.361748 19.513408 0.000000
0.000000 0.000000 0.000000
7054.992129 -16671.845761 0.000000
-16671.845761 8507.278794 0.000000
0.000000 0.000000 0.000000
-22.482022 -16.940582 0.000000
-16.940582 9.382588 0.000000
0.000000 0.000000 0.000000
-15791.243899 8989.811073 0.000000
8989.811073 4822.556033 0.000000
0.000000 0.000000 0.000000
-54710.306728 -15821.046351 0.000000
-15821.046351 6531.494958 0.000000
0.000000 0.000000 0.000000
-5997.331572 988.182448 0.000000
988.182448 284.999679 0.000000
0.000000 0.000000 0.000000
-4595.210382 3790.487953 0.000000
3790.487953 2128.051787 0.000000
0.000000 0.000000 0.000000
-13645.163145 5272.179399 0.000000
5272.179399 2483.398465 0.000000
0.000000 0.000000 0.000000
-19185.069095 5463.516383 0.000000
5463.516383 2241.166431 0.000000
0.000000 0.000000 0.000000
1494.113866 195.103156 0.000000
195.103156 18.369992 0.000000
0.000000 0.000000 0.000000
-43382.895496 46077.787137 0.000000
46077.787137 26322.237995 0.000000
0.000000 0.000000 0.000000
-137294.487357 12761.676015 0.000000
12761.676015 2259.156831 0.000000
0.000000 0.000000 0.000000
-6913.378422 6130.105076 0.000000
6130.105076 3457.750144 0.000000
0.000000 0.000000 0.000000
-13318.262318 5665.007293 0.000000
5665.007293 2764.215135 0.000000
0.000000 0.000000 0.000000
19122.864122 1524.578732 0.000000
1524.578732 353.379535 0.000000
0.000000 0.000000 0.000000
8597.994426 -8382.781068 0.000000
-8382.781068 3495.510949 0.000000
0.000000 0.000000 0.000000
-9643.110757 13707.603916 0.000000
13707.603916 7935.021885 0.000000
0.000000 0.000000 0.000000
-42.021542 -26.807403 0.000000
-26.807403 14.473512 0.000000
0.000000 0.000000 0.000000
4.083161 28.031928 0.000000
28.031928 19.282870 0.000000
0.000000 0.000000 0.000000
7521.769671 774.854509 0.000000
774.854509 55.677417 0.000000
0.000000 0.000000 0.000000
26456.282264 -21894.126791 0.000000
-21894.126791 8514.190824 0.000000
0.000000 0.000000 0.000000
-3404.479467 12854.370729 0.000000
12854.370729 7379.966725 0.000000
0.000000 0.000000 0.000000
-59332.064372 7952.968431 0.000000
7952.968431 1936.949995 0.000000
0.000000 0.000000 0.000000
41.372027 67.463874 0.000000
67.463874 36.460185 0.000000
0.000000 0.000000 0.000000
265.571696 161.365709 0.000000
161.365709 56.950607 0.000000
0.000000 0.000000 0.000000
701.212579 -3601.838496 0.000000
-3601.838496 1869.715127 0.000000
0.000000 0.000000 0.000000
49325.628031 -19728.342487 0.000000
-19728.342487 4756.988151 0.000000
0.000000 0.000000 0.000000
19622.245750 -21102.823171 0.000000
-21102.823171 9137.109564 0.000000
0.000000 0.000000 0.000000
-29667.733130 -132872.523015 0.000000
-132872.523015 75695.220074 0.000000
0.000000 0.000000 0.000000
-120065.347632 -56615.806655 0.000000
-56615.806655 28481.666600 0.000000
0.000000 0.000000 0.000000
-6781.823038 3707.800433 0.000000
3707.800433 1942.421941 0.000000
0.000000 0.000000 0.000000
4753.345830 4953.712393 0.000000
4953.712393 2146.120857 0.000000
0.000000 0.000000 0.000000
1140.906875 1679.803194 0.000000
1679.803194 793.121603 0.000000
0.000000 0.000000 0.000000
-39505.054130 39474.860686 0.000000
39474.860686 22481.947345 0.000000
0.000000 0.000000 0.000000
-2650.649694 -2650.448076 0.000000
-2650.448076 1258.707386 0.000000
0.000000 0.000000 0.000000
2128.608083 -2491.512912 0.000000
-2491.512912 1109.168505 0.000000
0.000000 0.000000 0.000000
326.994412 169.785110 0.000000
169.785110 53.750113 0.000000
0.000000 0.000000 0.000000
-16129.391726 5419.653352 0.000000
5419.653352 2409.847573 0.000000
0.000000 0.000000 0.000000
6951.328607 2004.851096 0.000000
2004.851096 368.422195 0.000000
0.000000 0.000000 0.000000
2.992161 -16.004601 0.000000
-16.004601 8.627583 0.000000
0.000000 0.000000 0.000000
-116956.213598 -113207.876034 0.000000
-113207.876034 64257.747426 0.000000
0.000000 0.000000 0.000000
-5091.331940 1507.855143 0.000000
1507.855143 630.593843 0.000000
0.000000 0.000000 0.000000
18192.328464 155764.142311 0.000000
155764.142311 85247.915065 0.000000
0.000000 0.000000 0.000000
-1898532.738916 -44824.078917 0.000000
-44824.078917 2108.745880 0.000000
0.000000 0.000000 0.000000
-10326.516963 878.744642 0.000000
878.744642 143.559996 0.000000
0.000000 0.000000 0.000000
81514.280336 -40087.218350 0.000000
-40087.218350 11345.100364 0.000000
0.000000 0.000000 0.000000
0.312257 -11.520872 0.000000
-11.520872 6.382210 0.000000
0.000000 0.000000 0.000000
-1620.883281 -430.842699 0.000000
-430.842699 52.712964 0.000000
0.000000 0.000000 0.000000
50101.713554 -49484.406440 0.000000
-49484.406440 20767.784827 0.000000
0.000000 0.000000 0.000000
67906.144258 -111758.618726 0.000000
-111758.618726 54095.667383 0.000000
0.000000 0.000000 0.000000
-5617330.670093 -398857.286885 0.000000
-398857.286885 54994.308049 0.000000
0.000000 0.000000 0.000000
1256.277466 628.512973 0.000000
628.512973 186.135048 0.000000
0.000000 0.000000 0.000000
-80830.840737 -12590.218277 0.000000
-12590.218277 3459.363725 0.000000
0.000000 0.000000 0.000000
14.396714 -5.852424 0.000000
-5.852424 1.429811 0.000000
0.000000 0.000000 0.000000
-49230.907323 7458.098684 0.000000
7458.098684 2005.843705 0.000000
0.000000 0.000000 0.000000
753.098880 -166.214332 0.000000
-166.214332 23.784481 0.000000
0.000000 0.000000 0.000000
849.487093 18710.465722 0.000000
18710.465722 10342.594497 0.000000
0.000000 0.000000 0.000000
13055.473801 -21451.408007 0.000000
-21451.408007 10368.836070 0.000000
0.000000 0.000000 0.000000
14493.742493 6700.263034 0.000000
6700.263034 1832.879938 0.000000
0.000000 0.000000 0.000000
-35854.777683 39508.632420 0.000000
39508.632420 22621.496845 0.000000
0.000000 0.000000 0.000000
-24574.831063 6015.197700 0.000000
6015.197700 2263.749048 0.000000
0.000000 0.000000 0.000000
-424.115519 196.206383 0.000000
196.206383 99.647150 0.000000
0.000000 0.000000 0.000000
275021.698899 -79296.329162 0.000000
-79296.329162 18842.113049 0.000000
0.000000 0.000000 0.000000
-119.345157 214.002301 0.000000
214.002301 126.526108 0.000000
0.000000 0.000000 0.000000
11504.372297 -1184.629734 0.000000
-1184.629734 86.150402 0.000000
0.000000 0.000000 0.000000
435.902391 -2945.748313 0.000000
-2945.748313 1599.699310 0.000000
0.000000 0.000000 0.000000
-2193635.369899 -191602.209340 0.000000
-191602.209340 32042.665546 0.000000
0.000000 0.000000 0.000000
-51.182555 -34.392046 0.000000
-34.392046 18.733800 0.000000
0.000000 0.000000 0.000000
13976.363311 -170.166133 0.000000
-170.166133 21.224848 0.000000
0.000000 0.000000 0.000000
5039.549047 9684.289461 0.000000
9684.289461 4834.411008 0.000000
0.000000 0.000000 0.000000
-2407.304251 1806.224304 0.000000
1806.224304 1001.479010 0.000000
0.000000 0.000000 0.000000
1.579509 -8.241805 0.000000
-8.241805 4.438835 0.000000
0.000000 0.000000 0.000000
-132.948567 -45.010849 0.000000
-45.010849 20.049557 0.000000
0.000000 0.000000 0.000000
1407.536420 -103.601111 0.000000
-103.601111 5.066147 0.000000
0.000000 0.000000 0.000000
122.633339 91.466359 0.000000
91.466359 38.744036 0.000000
0.000000 0.000000 0.000000
-1190776.472201 152292.328999 0.000000
152292.328999 35674.935995 0.000000
0.000000 0.000000 0.000000
-2859.982504 -2665.392055 0.000000
-2665.392055 1506.731075 0.000000
0.000000 0.000000 0.000000
-9133.113096 6708.083113 0.000000
6708.083113 3816.033140 0.000000
0.000000 0.000000 0.000000
-374.935118 -70.571066 0.000000
-70.571066 22.329817 0.000000
0.000000 0.000000 0.000000
-430144.416326 98718.739736 0.000000
98718.739736 35688.116366 0.000000
0.000000 0.000000 0.000000
-33.976220 136.549494 0.000000
136.549494 80.645387 0.000000
0.000000 0.000000 0.000000
-125.485411 -39.309052 0.000000
-39.309052 16.891155 0.000000
0.000000 0.000000 0.000000
-104.768167 -36.045351 0.000000
-36.045351 16.170171 0.000000
0.000000 0.000000 0.000000
7602.116476 -1550.398931 0.000000
-1550.398931 213.270678 0.000000
0.000000 0.000000 0.000000
-54.722557 125.276336 0.000000
125.276336 74.796909 0.000000
0.000000 0.000000 0.000000
-70535.047584 63400.157620 0.000000
63400.157620 35823.285381 0.000000
0.000000 0.000000 0.000000
-56.783170 -35.283182 0.000000
-35.283182 18.957864 0.000000
0.000000 0.000000 0.000000
-75.137965 -36.480999 0.000000
-36.480999 18.507067 0.000000
0.000000 0.000000 0.000000
-18054.567992 15114.525876 0.000000
15114.525876 8521.871184 0.000000
0.000000 0.000000 0.000000
-4037.826845 1920.928946 0.000000
1920.928946 971.174462 0.000000
0.000000 0.000000 0.000000
-13140.241813 18996.085150 0.000000
18996.085150 10991.614236 0.000000
0.000000 0.000000 0.000000
-35914.018633 -60879.172569 0.000000
-60879.172569 35132.151296 0.000000
0.000000 0.000000 0.000000
9505.541275 2581.583917 0.000000
2581.583917 468.126164 0.000000
0.000000 0.000000 0.000000
2017.118644 527.124462 0.000000
527.124462 117.599232 0.000000
0.000000 0.000000 0.000000
-2496.363985 1138.636055 0.000000
1138.636055 566.591612 0.000000
0.000000 0.000000 0.000000
881.401953 -8.217507 0.000000
-8.217507 2.230117 0.000000
0.000000 0.000000 0.000000
52353.793992 -30163.036035 0.000000
-30163.036035 9526.642301 0.000000
0.000000 0.000000 0.000000
1366.112870 -2688.251160 0.000000
-2688.251160 1341.204615 0.000000
0.000000 0.000000 0.000000
4049.982091 2080.719832 0.000000
2080.719832 631.313867 0.000000
0.000000 0.000000 0.000000
2399.695548 2262.400697 0.000000
2262.400697 955.962184 0.000000
0.000000 0.000000 0.000000
16718.951585 -5780.208649 0.000000
-5780.208649 1231.646653 0.000000
0.000000 0.000000 0.000000
-1184619.368684 11992.345334 0.000000
11992.345334 242.715968 0.000000
0.000000 0.000000 0.000000
5391.374111 -3247.769845 0.000000
-3247.769845 1038.529381 0.000000
0.000000 0.000000 0.000000
4936.717378 3355.662826 0.000000
3355.662826 1200.244476 0.000000
0.000000 0.000000 0.000000
-4229875.335841 176582.547770 0.000000
176582.547770 14613.110383 0.000000
0.000000 0.000000 0.000000
-1446330.250103 -105445.285806 0.000000
-105445.285806 14905.225887 0.000000
0.000000 0.000000 0.000000
-5355.027385 2456.445671 0.000000
2456.445671 1227.268529 0.000000
0.000000 0.000000 0.000000
1537.107494 -272.169131 0.000000
-272.169131 31.551205 0.000000
0.000000 0.000000 0.000000
-0.173796 -13.579282 0.000000
-13.579282 7.564981 0.000000
0.000000 0.000000 0.000000
2624.564643 -1015.696030 0.000000
-1015.696030 238.492242 0.000000
0.000000 0.000000 0.000000
-13082.849700 -82.647636 0.000000
-82.647636 34.313791 0.000000
0.000000 0.000000 0.000000
-2905.309229 -145.027424 0.000000
-145.027424 27.028788 0.000000
0.000000 0.000000 0.000000
-12347.698033 -406.243056 0.000000
-406.243056 22.060156 0.000000
0.000000 0.000000 0.000000
-27.699939 -17.487862 0.000000
-17.487862 9.424057 0.000000
0.000000 0.000000 0.000000
-2508.218086 -1320.789948 0.000000
-1320.789948 682.592858 0.000000
0.000000 0.000000 0.000000
-304748.333413 20869.947353 0.000000
20869.947353 2781.272823 0.000000
0.000000 0.000000 0.000000
-10334530.208391 -129385.976202 0.000000
-129385.976202 3235.605109 0.000000
0.000000 0.000000 0.000000
2545.863455 -1432.438791 0.000000
-1432.438791 446.536991 0.000000
0.000000 0.000000 0.000000
1545.589439 -140.581416 0.000000
-140.581416 8.519676 0.000000
0.000000 0.000000 0.000000
-1540.930557 -733.459837 0.000000
-733.459837 368.538202 0.000000
0.000000 0.000000 0.000000
-22212.051952 -812.107815 0.000000
-812.107815 28.628280 0.000000
0.000000 0.000000 0.000000
10.450550 -14.813806 0.000000
-14.813806 6.946513 0.000000
0.000000 0.000000 0.000000
-495004577.834011 -862709.055357 0.000000
-862709.055357 3006.433867 0.000000
0.000000 0.000000 0.000000
-39579.592997 9299.973549 0.000000
9299.973549 3526.556531 0.000000
0.000000 0.000000 0.000000
-42913.873441 8337.089921 0.000000
8337.089921 2700.555585 0.000000
0.000000 0.000000 0.000000
-1254.475725 -19140.746810 0.000000
-19140.746810 10734.930416 0.000000
0.000000 0.000000 0.000000
7223.830270 3274.806304 0.000000
3274.806304 875.587962 0.000000
0.000000 0.000000 0.000000
-73427.342116 8760.544092 0.000000
8760.544092 1933.522117 0.000000
0.000000 0.000000 0.000000
-313667.474855 37569.612580 0.000000
37569.612580 8661.210324 0.000000
0.000000 0.000000 0.000000
-787.921213 398.753688 0.000000
398.753688 148.266856 0.000000
0.000000 0.000000 0.000000
150.006140 -72.009733 0.000000
-72.009733 21.268674 0.000000
0.000000 0.000000 0.000000
-2465.217773 29.620473 0.000000
29.620473 32.651469 0.000000
0.000000 0.000000 0.000000
-660.601503 4.449587 0.000000
4.449587 34.991378 0.000000
0.000000 0.000000 0.000000
-157.898323 -40.088713 0.000000
-40.088713 15.403763 0.000000
0.000000 0.000000 0.000000
-4702.175714 -252.567917 0.000000
-252.567917 26.666755 0.000000
0.000000 0.000000 0.000000
-5604182.184976 187994.510216 0.000000
187994.510216 12560.619982 0.000000
0.000000 0.000000 0.000000
-2675245.921808 65858.841071 0.000000
65858.841071 3229.955329 0.000000
0.000000 0.000000 0.000000
-2295.927066 2930.427050 0.000000
2930.427050 1716.148781 0.000000
0.000000 0.000000 0.000000
5461.159420 453.459006 0.000000
453.459006 32.466159 0.000000
0.000000 0.000000 0.000000
13931.922719 -11444.364298 0.000000
-11444.364298 4422.961278 0.000000
0.000000 0.000000 0.000000
-2588.958250 -466.161060 0.000000
-466.161060 34.798735 0.000000
0.000000 0.000000 0.000000
200.157540 -351.468082 0.000000
-351.468082 79.481129 0.000000
0.000000 0.000000 0.000000
-15279.381034 12885.309356 0.000000
12885.309356 7291.641684 0.000000
0.000000 0.000000 0.000000
-33209.588190 5316.813368 0.000000
5316.813368 1492.779210 0.000000
0.000000 0.000000 0.000000
-4572.336295 -317.309729 0.000000
-317.309729 28.478390 0.000000
0.000000 0.000000 0.000000
-942.257254 -110.332682 0.000000
-110.332682 23.955934 0.000000
0.000000 0.000000 0.000000
-248.947557 -49.714017 0.000000
-49.714017 16.395983 0.000000
0.000000 0.000000 0.000000
56833.949579 -37816.588262 0.000000
-37816.588262 13088.534455 0.000000
0.000000 0.000000 0.000000
-23455.225680 15114.332142 0.000000
15114.332142 8222.607770 0.000000
0.000000 0.000000 0.000000
49003.864640 -80078.492980 0.000000
-80078.492980 38708.563068 0.000000
0.000000 0.000000 0.000000
7585.947514 -3047.995392 0.000000
-3047.995392 738.265349 0.000000
0.000000 0.000000 0.000000
-9717.151313 -377.143253 0.000000
-377.143253 28.984872 0.000000
0.000000 0.000000 0.000000
-135.898665 -36.027701 0.000000
-36.027701 14.189908 0.000000
0.000000 0.000000 0.000000
7208.659006 -3280.867023 0.000000
-3280.867023 876.305340 0.000000
0.000000 0.000000 0.000000
-5636021.732601 -96754.887138 0.000000
-96754.887138 3315.010476 0.000000
0.000000 0.000000 0.000000
-2406685.446704 -63103.632096 0.000000
-63103.632096 3294.453444 0.000000
0.000000 0.000000 0.000000
-186249.870434 14786.582229 0.000000
14786.582229 2263.915003 0.000000
0.000000 0.000000 0.000000
3640.552285 -3268.762542 0.000000
-3268.762542 1319.802750 0.000000
0.000000 0.000000 0.000000
-183.645824 -383.611667 0.000000
-383.611667 221.324208 0.000000
0.000000 0.000000 0.000000
-206.884918 -294.075848 0.000000
-294.075848 169.253811 0.000000
0.000000 0.000000 0.000000
122.591091 -18.546139 0.000000
-18.546139 1.945237 0.000000
0.000000 0.000000 0.000000
-53852.345013 8234.352358 0.000000
8234.352358 2229.939891 0.000000
0.000000 0.000000 0.000000
-17640.490861 4965.452914 0.000000
4965.452914 2022.802597 0.000000
0.000000 0.000000 0.000000
-319.467089 -58.146572 0.000000
-58.146572 17.960049 0.000000
0.000000 0.000000 0.000000
-1042.287697 -110.702360 0.000000
-110.702360 22.075080 0.000000
0.000000 0.000000 0.000000
3309.624485 -5351.927539 0.000000
-5351.927539 2507.915010 0.000000
0.000000 0.000000 0.000000
-709.770529 -85.776423 0.000000
-85.776423 19.135627 0.000000
0.000000 0.000000 0.000000
-178200.575299 32625.454789 0.000000
32625.454789 10316.871822 0.000000
0.000000 0.000000 0.000000
-889.283220 -106.991794 0.000000
-106.991794 23.777580 0.000000
0.000000 0.000000 0.000000
-7324.052730 -11598.914207 0.000000
-11598.914207 6686.134437 0.000000
0.000000 0.000000 0.000000
-5329.371137 1981.429432 0.000000
1981.429432 919.322495 0.000000
0.000000 0.000000 0.000000
2093.644911 3304.611663 0.000000
3304.611663 1615.611612 0.000000
0.000000 0.000000 0.000000
209.472299 -655.804718 0.000000
-655.804718 345.071915 0.000000
0.000000 0.000000 0.000000
-897.888317 -2370.312560 0.000000
-2370.312560 1362.299219 0.000000
0.000000 0.000000 0.000000
-79.715525 -36.710062 0.000000
-36.710062 18.337810 0.000000
0.000000 0.000000 0.000000
319.466269 114.922742 0.000000
114.922742 27.002618 0.000000
0.000000 0.000000 0.000000
-145.610671 -164.131742 0.000000
-164.131742 36.950228 0.000000
0.000000 0.000000 0.000000
-6359.226684 -2821.384012 0.000000
-2821.384012 1391.272408 0.000000
0.000000 0.000000 0.000000
-21728.118619 -4828.457660 0.000000
-4828.457660 1708.128308 0.000000
0.000000 0.000000 0.000000
-1142891.905727 91167.067741 0.000000
91167.067741 14029.759894 0.000000
0.000000 0.000000 0.000000
-343488.553556 78581.061349 0.000000
78581.061349 28392.965342 0.000000
0.000000 0.000000 0.000000
25262.719353 -6004.008339 0.000000
-6004.008339 921.063745 0.000000
0.000000 0.000000 0.000000
1344.757319 -1774.537772 0.000000
-1774.537772 761.200663 0.000000
0.000000 0.000000 0.000000
-2163.879372 3380.188634 0.000000
3380.188634 1955.715996 0.000000
0.000000 0.000000 0.000000
-15131.084252 -17444.396386 0.000000
-17444.396386 9987.490024 0.000000
0.000000 0.000000 0.000000
-727.461807 -7516.875949 0.000000
-7516.875949 4211.182689 0.000000
0.000000 0.000000 0.000000
1740.871700 -937.234280 0.000000
-937.234280 232.030055 0.000000
0.000000 0.000000 0.000000
-19795.971992 12207.120332 0.000000
12207.120332 6619.036601 0.000000
0.000000 0.000000 0.000000
-11547.422413 6195.051258 0.000000
6195.051258 3232.699412 0.000000
0.000000 0.000000 0.000000
25.903177 8.618969 0.000000
8.618969 1.780823 0.000000
0.000000 0.000000 0.000000
12101.231027 -7205.250540 0.000000
-7205.250540 2320.324377 0.000000
0.000000 0.000000 0.000000
343.088090 294.654886 0.000000
294.654886 119.845070 0.000000
0.000000 0.000000 0.000000
17817.830618 -20411.354279 0.000000
-20411.354279 9024.519084 0.000000
0.000000 0.000000 0.000000
1487.310736 -163.332951 0.000000
-163.332951 25.752166 0.000000
0.000000 0.000000 0.000000
-51272079950.443275 13437067.490241 0.000000
13437067.490241 7061.404270 0.000000
0.000000 0.000000 0.000000
1475.867193 -417.909019 0.000000
-417.909019 75.049548 0.000000
0.000000 0.000000 0.000000
2625.601263 -285.490808 0.000000
-285.490808 20.535263 0.000000
0.000000 0.000000 0.000000
-151.252107 -46.288915 0.000000
-46.288915 19.665714 0.000000
0.000000 0.000000 0.000000
-68344.056018 60198.768915 0.000000
60198.768915 33948.098861 0.000000
0.000000 0.000000 0.000000
-732.437751 -127.320684 0.000000
-127.320684 32.870004 0.000000
0.000000 0.000000 0.000000
-113570.110505 21607.393941 0.000000
21607.393941 6952.180533 0.000000
0.000000 0.000000 0.000000
17512.918755 -2549.619616 0.000000
-2549.619616 259.229134 0.000000
0.000000 0.000000 0.000000
17743.021999 18673.203584 0.000000
18673.203584 8048.780238 0.000000
0.000000 0.000000 0.000000
-1403.316509 1248.163169 0.000000
1248.163169 725.543220 0.000000
0.000000 0.000000 0.000000
13957.597665 -3566.088166 0.000000
-3566.088166 632.648761 0.000000
0.000000 0.000000 0.000000
-10835782.542294 -101187.382609 0.000000
-101187.382609 1888.256011 0.000000
0.000000 0.000000 0.000000
-460.071062 -70.433168 0.000000
-70.433168 31.086980 0.000000
0.000000 0.000000 0.000000
-157.825758 -1.839816 0.000000
-1.839816 35.741590 0.000000
0.000000 0.000000 0.000000
209079.557992 -167818.002075 0.000000
-167818.002075 64301.517873 0.000000
0.000000 0.000000 0.000000
225.615666 172.173035 0.000000
172.173035 67.937053 0.000000
0.000000 0.000000 0.000000
9.873127 -4.827523 0.000000
-4.827523 1.360443 0.000000
0.000000 0.000000 0.000000
2617.931075 4008.375688 0.000000
4008.375688 1929.242657 0.000000
0.000000 0.000000 0.000000
19762.647370 -61522.217488 0.000000
-61522.217488 32210.199751 0.000000
0.000000 0.000000 0.000000
-3331.348752 -2436.364205 0.000000
-2436.364205 1342.055925 0.000000
0.000000 0.000000 0.000000
-715.982457 -325.406529 0.000000
-325.406529 159.933811 0.000000
0.000000 0.000000 0.000000
-15.392244 80.630093 0.000000
80.630093 47.909642 0.000000
0.000000 0.000000 0.000000
-2435.704918 -1711.842007 0.000000
-1711.842007 937.322869 0.000000
0.000000 0.000000 0.000000
38119.139033 -2635.660171 0.000000
-2635.660171 126.140010 0.000000
0.000000 0.000000 0.000000
-49.071609 -215.845022 0.000000
-215.845022 122.763207 0.000000
0.000000 0.000000 0.000000
-25463.401439 -1744.056130 0.000000
-1744.056130 231.935775 0.000000
0.000000 0.000000 0.000000
-764.779140 1075.833667 0.000000
1075.833667 621.656137 0.000000
0.000000 0.000000 0.000000
-13.003514 -16.816803 0.000000
-16.816803 9.674222 0.000000
0.000000 0.000000 0.000000
-89.554013 -1715.346437 0.000000
-1715.346437 960.766684 0.000000
0.000000 0.000000 0.000000
-34614.568384 -368.288922 0.000000
-368.288922 33.029225 0.000000
0.000000 0.000000 0.000000
-1867.109830 185.094161 0.000000
185.094161 67.539628 0.000000
0.000000 0.000000 0.000000
-3359687.536026 61044.297507 0.000000
61044.297507 2213.503984 0.000000
0.000000 0.000000 0.000000
14.302976 -4.190790 0.000000
-4.190790 0.774313 0.000000
0.000000 0.000000 0.000000
3883.211213 5853.036282 0.000000
5853.036282 2791.736972 0.000000
0.000000 0.000000 0.000000
6069.893616 317.852735 0.000000
317.852735 11.126998 0.000000
0.000000 0.000000 0.000000
-633.860257 -489.574863 0.000000
-489.574863 269.903879 0.000000
0.000000 0.000000 0.000000
-5354.567465 -3779.467820 0.000000
-3779.467820 2072.195711 0.000000
0.000000 0.000000 0.000000
-1215.630013 -384.132332 0.000000
-384.132332 164.690787 0.000000
0.000000 0.000000 0.000000
-26806.243924 -342.593356 0.000000
-342.593356 46.240566 0.000000
0.000000 0.000000 0.000000
-273.823012 110.694492 0.000000
110.694492 52.368004 0.000000
0.000000 0.000000 0.000000
-5663.944244 745.749847 0.000000
745.749847 97.168047 0.000000
0.000000 0.000000 0.000000
-1000082.228860 -67679.185139 0.000000
-67679.185139 8921.714173 0.000000
0.000000 0.000000 0.000000
-1234660.480346 -44099.021362 0.000000
-44099.021362 3125.297259 0.000000
0.000000 0.000000 0.000000
-820270.945496 30545.466857 0.000000
30545.466857 2255.700153 0.000000
0.000000 0.000000 0.000000
-2835.895120 868.036049 0.000000
868.036049 367.548465 0.000000
0.000000 0.000000 0.000000
-22430.786004 -4676.122469 0.000000
-4676.122469 1587.116580 0.000000
0.000000 0.000000 0.000000
-806.941257 -1388.830850 0.000000
-1388.830850 424.327964 0.000000
0.000000 0.000000 0.000000
-13380.726529 3419.427208 0.000000
3419.427208 1508.067577 0.000000
0.000000 0.000000 0.000000
-8736.795430 -2321.192385 0.000000
-2321.192385 299.673576 0.000000
0.000000 0.000000 0.000000
-1201.679919 305.883304 0.000000
305.883304 117.743031 0.000000
0.000000 0.000000 0.000000
-65588.075128 19416.956090 0.000000
19416.956090 8330.188072 0.000000
0.000000 0.000000 0.000000
-31.994658 -20.926054 0.000000
-20.926054 11.347524 0.000000
0.000000 0.000000 0.000000
-165.527506 -285.008219 0.000000
-285.008219 163.761647 0.000000
0.000000 0.000000 0.000000
-497.349660 404.822047 0.000000
404.822047 228.218913 0.000000
0.000000 0.000000 0.000000
-1658.905412 -2264.396324 0.000000
-2264.396324 1303.162571 0.000000
0.000000 0.000000 0.000000
-26998.753792 37238.310675 0.000000
37238.310675 21480.607407 0.000000
0.000000 0.000000 0.000000
47553.606412 -100828.501745 0.000000
-100828.501745 50809.062030 0.000000
0.000000 0.000000 0.000000
-14518.825749 346.872557 0.000000
346.872557 64.557913 0.000000
0.000000 0.000000 0.000000
-87912.285202 18695.669142 0.000000
18695.669142 7368.755462 0.000000
0.000000 0.000000 0.000000
-3543886.859017 -146231.118402 0.000000
-146231.118402 11944.595742 0.000000
0.000000 0.000000 0.000000
-258.839032 463.921211 0.000000
463.921211 269.693846 0.000000
0.000000 0.000000 0.000000
-44037.780201 -71767.572753 0.000000
-71767.572753 41416.557756 0.000000
0.000000 0.000000 0.000000
-12005.025586 4467.986877 0.000000
4467.986877 2073.835441 0.000000
0.000000 0.000000 0.000000
-43403.891759 10982.758654 0.000000
10982.758654 4308.471437 0.000000
0.000000 0.000000 0.000000
-2346.979472 1378.238752 0.000000
1378.238752 737.034638 0.000000
0.000000 0.000000 0.000000
-276467.746117 36260.511183 0.000000
36260.511183 8885.003783 0.000000
0.000000 0.000000 0.000000
-4980.947877 -2623.021111 0.000000
-2623.021111 1356.430155 0.000000
0.000000 0.000000 0.000000
878.847397 -1930.979772 0.000000
-1930.979772 893.802786 0.000000
0.000000 0.000000 0.000000
-43447.732127 -140.123604 0.000000
-140.123604 53.918783 0.000000
0.000000 0.000000 0.000000
-7524.620468 -814.189867 0.000000
-814.189867 164.631309 0.000000
0.000000 0.000000 0.000000
-621940.709254 -68107.153989 0.000000
-68107.153989 13971.898271 0.000000
0.000000 0.000000 0.000000
-1238704.555781 -42387.372474 0.000000
-42387.372474 2879.721482 0.000000
0.000000 0.000000 0.000000
-16951324.861394 54335.333226 0.000000
54335.333226 348.224732 0.000000
0.000000 0.000000 0.000000
-3206.850207 -2439.235072 0.000000
-2439.235072 1351.068508 0.000000
0.000000 0.000000 0.000000
-437.320055 -53.368574 0.000000
-53.368574 34.148065 0.000000
0.000000 0.000000 0.000000
25682.662874 -11184.580920 0.000000
-11184.580920 2951.621557 0.000000
0.000000 0.000000 0.000000
-46583.385516 -351.699882 0.000000
-351.699882 36.599423 0.000000
0.000000 0.000000 0.000000
-2829.955613 -2605.384827 0.000000
-2605.384827 1471.136669 0.000000
0.000000 0.000000 0.000000
-1797754.799033 103930.411019 0.000000
103930.411019 11905.234069 0.000000
0.000000 0.000000 0.000000
-165619.416808 38064.209899 0.000000
38064.209899 14135.812535 0.000000
0.000000 0.000000 0.000000
70.309240 -179.054081 0.000000
-179.054081 94.562399 0.000000
0.000000 0.000000 0.000000
-1456.926445 -1201.392627 0.000000
-1201.392627 671.317253 0.000000
0.000000 0.000000 0.000000
-424299.532902 -47102.756639 0.000000
-47102.756639 9765.627739 0.000000
0.000000 0.000000 0.000000
-619.331148 -120.237308 0.000000
-120.237308 38.759332 0.000000
0.000000 0.000000 0.000000
-184064.651516 -13806.994909 0.000000
-13806.994909 2003.976619 0.000000
0.000000 0.000000 0.000000
-3124.706591 3589.181203 0.000000
3589.181203 2058.809156 0.000000
0.000000 0.000000 0.000000
-5508.922750 -7024.620040 0.000000
-7024.620040 4016.726400 0.000000
0.000000 0.000000 0.000000
-2616.410737 -402.984154 0.000000
-402.984154 40.597113 0.000000
0.000000 0.000000 0.000000
-6108.247200 610.963704 0.000000
610.963704 115.478993 0.000000
0.000000 0.000000 0.000000
-26368833.678374 172794.584766 0.000000
172794.584766 2263.344695 0.000000
0.000000 0.000000 0.000000
-3896635.011792 126481.333462 0.000000
126481.333462 8192.354368 0.000000
0.000000 0.000000 0.000000
35.187132 288.502711 0.000000
288.502711 166.283962 0.000000
0.000000 0.000000 0.000000
-324.943730 827.707104 0.000000
827.707104 478.705304 0.000000
0.000000 0.000000 0.000000
-16907.158367 20.718762 0.000000
20.718762 58.431327 0.000000
0.000000 0.000000 0.000000
-5396.339472 -249.763194 0.000000
-249.763194 43.702461 0.000000
0.000000 0.000000 0.000000
-25338.635304 -221.130025 0.000000
-221.130025 41.979923 0.000000
0.000000 0.000000 0.000000
-480353.350512 -49671.518034 0.000000
-49671.518034 9679.980303 0.000000
0.000000 0.000000 0.000000
-15.514350 -22.703596 0.000000
-22.703596 13.091576 0.000000
0.000000 0.000000 0.000000
-88671524.141957 1419978.375985 0.000000
1419978.375985 60712.879806 0.000000
0.000000 0.000000 0.000000
-2002.918286 441.444459 0.000000
441.444459 155.168466 0.000000
0.000000 0.000000 0.000000
6169.912526 -1068.916672 0.000000
-1068.916672 121.022183 0.000000
0.000000 0.000000 0.000000
-2032.354363 -345.467183 0.000000
-345.467183 43.055486 0.000000
0.000000 0.000000 0.000000
4.311790 -12.426250 0.000000
-12.426250 6.468350 0.000000
0.000000 0.000000 0.000000
307.098563 118.716833 0.000000
118.716833 27.839711 0.000000
0.000000 0.000000 0.000000
18013.573827 319.456846 0.000000
319.456846 4.174845 0.000000
0.000000 0.000000 0.000000
-173752187.497098 -542367.438442 0.000000
-542367.438442 3410.126697 0.000000
0.000000 0.000000 0.000000
-408.188187 -181.159835 0.000000
-181.159835 108.187379 0.000000
0.000000 0.000000 0.000000
-473449.088352 -54575.676079 0.000000
-54575.676079 11690.608841 0.000000
0.000000 0.000000 0.000000
497.426653 -468.112765 0.000000
-468.112765 109.531972 0.000000
0.000000 0.000000 0.000000
-365353.643882 7184.347732 0.000000
7184.347732 281.811450 0.000000
0.000000 0.000000 0.000000
-6944.933142 -408.114136 0.000000
-408.114136 44.927916 0.000000
0.000000 0.000000 0.000000
-13694.454409 -289.966337 0.000000
-289.966337 54.691100 0.000000
0.000000 0.000000 0.000000
-273860.563327 -6173.442246 0.000000
-6173.442246 277.357421 0.000000
0.000000 0.000000 0.000000
-22554.937118 -256.393571 0.000000
-256.393571 45.822658 0.000000
0.000000 0.000000 0.000000
-24536.466988 -322.213374 0.000000
-322.213374 52.705682 0.000000
0.000000 0.000000 0.000000
-160126.632405 -13320.363650 0.000000
-13320.363650 2128.895719 0.000000
0.000000 0.000000 0.000000
-94156.636768 -8914.081225 0.000000
-8914.081225 1603.503014 0.000000
0.000000 0.000000 0.000000
201780.545125 243124.172510 0.000000
243124.172510 109185.350082 0.000000
0.000000 0.000000 0.000000
-1194.671237 560.301892 0.000000
560.301892 281.398120 0.000000
0.000000 0.000000 0.000000
3590.571203 703.915517 0.000000
703.915517 91.550814 0.000000
0.000000 0.000000 0.000000
-2237.396472 532.759113 0.000000
532.759113 199.463859 0.000000
0.000000 0.000000 0.000000
-2.444301 986.351371 0.000000
986.351371 563.695465 0.000000
0.000000 0.000000 0.000000
15501.807227 -909.042872 0.000000
-909.042872 49.497292 0.000000
0.000000 0.000000 0.000000
-243.271090 -127.515807 0.000000
-127.515807 63.930711 0.000000
0.000000 0.000000 0.000000
10518.873683 15358.608671 0.000000
15358.608671 30172.298720 0.000000
0.000000 0.000000 0.000000
31501.536053 26113.224060 0.000000
26113.224060 10876.089274 0.000000
0.000000 0.000000 0.000000
-11430.496297 -4342.799211 0.000000
-4342.799211 2027.451850 0.000000
0.000000 0.000000 0.000000
-5617.255312 2806.137407 0.000000
2806.137407 1444.439745 0.000000
0.000000 0.000000 0.000000
-10542.698163 -1145.062017 0.000000
-1145.062017 232.422911 0.000000
0.000000 0.000000 0.000000
-10030.061160 -2304.282361 0.000000
-2304.282361 832.291731 0.000000
0.000000 0.000000 0.000000
-714.674722 -104.507440 0.000000
-104.507440 30.863942 0.000000
0.000000 0.000000 0.000000
1944.728165 -2033.551091 0.000000
-2033.551091 831.503395 0.000000
0.000000 0.000000 0.000000
77229.635938 -144007.288345 0.000000
-144007.288345 71234.600053 0.000000
0.000000 0.000000 0.000000
17646.861776 6113.112710 0.000000
6113.112710 1308.043543 0.000000
0.000000 0.000000 0.000000
-26236.032434 -65086.563823 0.000000
-65086.563823 37447.778176 0.000000
0.000000 0.000000 0.000000
16918.714257 -53942.500089 0.000000
-53942.500089 28298.707295 0.000000
0.000000 0.000000 0.000000
54.459347 -2816.798611 0.000000
-2816.798611 1562.135398 0.000000
0.000000 0.000000 0.000000
1307.216886 -1677.157665 0.000000
-1677.157665 642.645963 0.000000
0.000000 0.000000 0.000000
-1864.190439 -41.840872 0.000000
-41.840872 53.143585 0.000000
0.000000 0.000000 0.000000
-2102.314310 -341.804367 0.000000
-341.804367 36.238602 0.000000
0.000000 0.000000 0.000000
162466.108746 -220083.489245 0.000000
-220083.489245 102064.775518 0.000000
0.000000 0.000000 0.000000
83660.554930 -64506.069084 0.000000
-64506.069084 24217.285814 0.000000
0.000000 0.000000 0.000000
915.250311 15192.240808 0.000000
15192.240808 9558.779768 0.000000
0.000000 0.000000 0.000000
-670890.469209 -275520.352556 0.000000
-275520.352556 133707.598995 0.000000
0.000000 0.000000 0.000000
-53311.078006 11715.673031 0.000000
11715.673031 4579.128647 0.000000
0.000000 0.000000 0.000000
15.110865 -2.469115 0.000000
-2.469115 0.264235 0.000000
0.000000 0.000000 0.000000
5711.957599 -297.634024 0.000000
-297.634024 11.651479 0.000000
0.000000 0.000000 0.000000
-106.888424 47.773604 0.000000
47.773604 23.644390 0.000000
0.000000 0.000000 0.000000
-1026.499935 7038.679610 0.000000
7038.679610 4027.009363 0.000000
0.000000 0.000000 0.000000
354.457676 -166.626003 0.000000
-166.626003 47.867629 0.000000
0.000000 0.000000 0.000000
373.507865 -153.803745 0.000000
-153.803745 39.869238 0.000000
0.000000 0.000000 0.000000
1113.497594 -446.324602 0.000000
-446.324602 109.464149 0.000000
0.000000 0.000000 0.000000
1058.006362 -289.953135 0.000000
-289.953135 51.323241 0.000000
0.000000 0.000000 0.000000
-54057.355342 44873.172065 0.000000
44873.172065 25133.921348 0.000000
0.000000 0.000000 0.000000
36111.915730 -16368.576910 0.000000
-16368.576910 4352.322787 0.000000
0.000000 0.000000 0.000000
-32671.885270 -10463.220500 0.000000
-10463.220500 4688.899615 0.000000
0.000000 0.000000 0.000000
88047.833159 25050.194893 0.000000
25050.194893 12991.969740 0.000000
0.000000 0.000000 0.000000
-237602.242447 44928.522345 0.000000
44928.522345 14269.180896 0.000000
0.000000 0.000000 0.000000
-5.013556 -14.200129 0.000000
-14.200129 8.155198 0.000000
0.000000 0.000000 0.000000
-29295.106584 12240.188804 0.000000
12240.188804 4991.830220 0.000000
0.000000 0.000000 0.000000
-186518.984293 -310635.032258 0.000000
-310635.032258 179280.277069 0.000000
0.000000 0.000000 0.000000
30323.007565 -56123.970115 0.000000
-56123.970115 23913.464214 0.000000
0.000000 0.000000 0.000000
-26542.244908 -38333.017938 0.000000
-38333.017938 15600.968689 0.000000
0.000000 0.000000 0.000000
60991.786622 58633.286028 0.000000
58633.286028 24185.360188 0.000000
0.000000 0.000000 0.000000
-2099.083269 338.768292 0.000000
338.768292 95.640074 0.000000
0.000000 0.000000 0.000000
-571524.017267 9585.156475 0.000000
9585.156475 320.924234 0.000000
0.000000 0.000000 0.000000
-451.274960 -79.750394 0.000000
-79.750394 24.107675 0.000000
0.000000 0.000000 0.000000
85810.565139 -79181.559224 0.000000
-79181.559224 32331.963338 0.000000
0.000000 0.000000 0.000000
-7758.173150 -2737.019161 0.000000
-2737.019161 1239.170254 0.000000
0.000000 0.000000 0.000000
-36109.675736 12990.732510 0.000000
12990.732510 6232.851331 0.000000
0.000000 0.000000 0.000000
-732296.399321 -1229728.240855 0.000000
-1229728.240855 709778.345100 0.000000
0.000000 0.000000 0.000000
-251.366005 -2916.456144 0.000000
-2916.456144 1541.696045 0.000000
0.000000 0.000000 0.000000
-166.781807 -86.599076 0.000000
-86.599076 30.911410 0.000000
0.000000 0.000000 0.000000
-463974.882823 -118222.320011 0.000000
-118222.320011 72899.354673 0.000000
0.000000 0.000000 0.000000
44534.217201 63219.374185 0.000000
63219.374185 29537.893469 0.000000
0.000000 0.000000 0.000000
1467.112594 -386.356854 0.000000
-386.356854 65.429688 0.000000
0.000000 0.000000 0.000000
1553.318773 -331.477598 0.000000
-331.477598 46.105504 0.000000
0.000000 0.000000 0.000000
99912.673042 73124.995472 0.000000
73124.995472 26713.166170 0.000000
0.000000 0.000000 0.000000
-802.780899 -117.318151 0.000000
-117.318151 42.301059 0.000000
0.000000 0.000000 0.000000
-8233183.476300 -789322.336022 0.000000
-789322.336022 143345.959581 0.000000
0.000000 0.000000 0.000000
-513835.055354 10948.285294 0.000000
10948.285294 1760.435190 0.000000
0.000000 0.000000 0.000000
-761.311342 -2473.401188 0.000000
-2473.401188 1416.490016 0.000000
0.000000 0.000000 0.000000
19229.069581 15303.414483 0.000000
15303.414483 5839.041987 0.000000
0.000000 0.000000 0.000000
-94.700053 -366.039847 0.000000
-366.039847 208.575012 0.000000
0.000000 0.000000 0.000000
-370204.213064 -17134.047217 0.000000
-17134.047217 5672.195767 0.000000
0.000000 0.000000 0.000000
-1835178.910735 38730.883160 0.000000
38730.883160 5248.052468 0.000000
0.000000 0.000000 0.000000
-13871929.203141 355889.399146 0.000000
355889.399146 18245.855863 0.000000
0.000000 0.000000 0.000000
-877764.184743 84348.162766 0.000000
84348.162766 15605.377645 0.000000
0.000000 0.000000 0.000000
-3616.705933 -17.622016 0.000000
-17.622016 69.246535 0.000000
0.000000 0.000000 0.000000
-1145.547894 -115.404128 0.000000
-115.404128 62.666632 0.000000
0.000000 0.000000 0.000000
-3799.369791 -221.725177 0.000000
-221.725177 53.291351 0.000000
0.000000 0.000000 0.000000
-216.643932 -234.344346 0.000000
-234.344346 131.825491 0.000000
0.000000 0.000000 0.000000
-1090.186756 -2630.197215 0.000000
-2630.197215 1513.134422 0.000000
0.000000 0.000000 0.000000
-70371.162384 -24794.945027 0.000000
-24794.945027 11530.795845 0.000000
0.000000 0.000000 0.000000
2947.587576 3147.011338 0.000000
3147.011338 1359.750131 0.000000
0.000000 0.000000 0.000000
54352.180076 78653.907701 0.000000
78653.907701 37058.842862 0.000000
0.000000 0.000000 0.000000
10.881509 -5.622033 0.000000
-5.622033 1.648997 0.000000
0.000000 0.000000 0.000000
-9624.470918 -261.183607 0.000000
-261.183607 47.989912 0.000000
0.000000 0.000000 0.000000
-11201.169381 -242.241864 0.000000
-242.241864 51.912184 0.000000
0.000000 0.000000 0.000000
129853.597402 -379.972202 0.000000
-379.972202 223.462283 0.000000
0.000000 0.000000 0.000000
2029.397122 -2015.289169 0.000000
-2015.289169 815.466451 0.000000
0.000000 0.000000 0.000000
-2396676.490833 463542.879191 0.000000
463542.879191 149548.436703 0.000000
0.000000 0.000000 0.000000
-3173.377602 4599.554500 0.000000
4599.554500 2708.947274 0.000000
0.000000 0.000000 0.000000
43530.085076 45415.071757 0.000000
45415.071757 19471.323165 0.000000
0.000000 0.000000 0.000000
271701.455110 -56433.351898 0.000000
-56433.351898 35216.495913 0.000000
0.000000 0.000000 0.000000
-240642852.026920 3119451.990453 0.000000
3119451.990453 80768.761627 0.000000
0.000000 0.000000 0.000000
1583.318667 -576.559343 0.000000
-576.559343 129.889610 0.000000
0.000000 0.000000 0.000000
1803.713655 -1073.971735 0.000000
-1073.971735 349.348260 0.000000
0.000000 0.000000 0.000000
-5073.680232 -40822.660173 0.000000
-40822.660173 23034.930961 0.000000
0.000000 0.000000 0.000000
558.773234 13730.174563 0.000000
13730.174563 7590.718700 0.000000
0.000000 0.000000 0.000000
-386496.672659 -156431.344562 0.000000
-156431.344562 74865.590077 0.000000
0.000000 0.000000 0.000000
92.955984 59.466267 0.000000
59.466267 20.100844 0.000000
0.000000 0.000000 0.000000
170.314282 142.635630 0.000000
142.635630 55.191063 0.000000
0.000000 0.000000 0.000000
56135.406535 -2419.541481 0.000000
-2419.541481 595.175899 0.000000
0.000000 0.000000 0.000000
-52406995.450733 -1264342.572572 0.000000
-1264342.572572 61289.255901 0.000000
0.000000 0.000000 0.000000
-138653.686649 5339.928139 0.000000
5339.928139 1239.490976 0.000000
0.000000 0.000000 0.000000
-18488.502724 57908.220085 0.000000
57908.220085 33182.815773 0.000000
0.000000 0.000000 0.000000
126452.975920 38113.936225 0.000000
38113.936225 16244.524326 0.000000
0.000000 0.000000 0.000000
-3777.788903 -548.388930 0.000000
-548.388930 142.444155 0.000000
0.000000 0.000000 0.000000
-22.921861 -14.820117 0.000000
-14.820117 38.789879 0.000000
0.000000 0.000000 0.000000
51987.324832 23660.500146 0.000000
23660.500146 6317.827831 0.000000
0.000000 0.000000 0.000000
-27176.230127 28729.887341 0.000000
28729.887341 16535.021302 0.000000
0.000000 0.000000 0.000000
-31153.072946 -47882.607042 0.000000
-47882.607042 27625.094163 0.000000
0.000000 0.000000 0.000000
6703.950083 -23054.819329 0.000000
-23054.819329 12156.381911 0.000000
0.000000 0.000000 0.000000
-8622.031872 6409.145771 0.000000
6409.145771 3545.611518 0.000000
0.000000 0.000000 0.000000
40994.101881 -45322.571374 0.000000
-45322.571374 19918.332335 0.000000
0.000000 0.000000 0.000000
310855.053890 -99605.229369 0.000000
-99605.229369 19916.778688 0.000000
0.000000 0.000000 0.000000
-1280.933906 -1351.781915 0.000000
-1351.781915 1238.023007 0.000000
0.000000 0.000000 0.000000
-110693.063740 -23493.853399 0.000000
-23493.853399 8518.786105 0.000000
0.000000 0.000000 0.000000
-442006.191667 -59410.118816 0.000000
-59410.118816 14524.785917 0.000000
0.000000 0.000000 0.000000
-59841048.475455 682809.509786 0.000000
682809.509786 15756.716810 0.000000
0.000000 0.000000 0.000000
-137951.029845 -90502.573610 0.000000
-90502.573610 49758.527008 0.000000
0.000000 0.000000 0.000000
378451.255309 -259770.027276 0.000000
-259770.027276 91668.297470 0.000000
0.000000 0.000000 0.000000
-1890.130073 3463.836574 0.000000
3463.836574 2003.031877 0.000000
0.000000 0.000000 0.000000
1.544498 0.722724 0.000000
0.722724 0.197099 0.000000
0.000000 0.000000 0.000000
208884.421697 -212781.392115 0.000000
-212781.392115 100414.490028 0.000000
0.000000 0.000000 0.000000
85232.859605 25071.097539 0.000000
25071.097539 4703.970512 0.000000
0.000000 0.000000 0.000000
854.007659 -7117.111751 0.000000
-7117.111751 3849.813102 0.000000
0.000000 0.000000 0.000000
-46.127032 3390.935489 0.000000
3390.935489 1930.934539 0.000000
0.000000 0.000000 0.000000
-3550626.389947 -528153.559769 0.000000
-528153.559769 145461.192059 0.000000
0.000000 0.000000 0.000000
10886.451749 -14812.578369 0.000000
-14812.578369 7516.022670 0.000000
0.000000 0.000000 0.000000
28213.311166 -37750.336354 0.000000
-37750.336354 17725.443159 0.000000
0.000000 0.000000 0.000000
136696.290130 24057.771214 0.000000
24057.771214 3133.333040 0.000000
0.000000 0.000000 0.000000
11254.636818 -989.460352 0.000000
-989.460352 93.838505 0.000000
0.000000 0.000000 0.000000
43917.807488 70275.194637 0.000000
70275.194637 33830.832029 0.000000
0.000000 0.000000 0.000000
-6422898.276689 1406278.833294 0.000000
1406278.833294 493250.053883 0.000000
0.000000 0.000000 0.000000
-5640074.706430 397719.466620 0.000000
397719.466620 54790.888003 0.000000
0.000000 0.000000 0.000000
-58915684.436823 -3101278.738887 0.000000
-3101278.738887 323701.967826 0.000000
0.000000 0.000000 0.000000
-142777.185791 3941.980230 0.000000
3941.980230 692.723625 0.000000
0.000000 0.000000 0.000000
3603.379572 -3518.873692 0.000000
-3518.873692 1783.304590 0.000000
0.000000 0.000000 0.000000
66658.427169 32491.760751 0.000000
32491.760751 9135.518847 0.000000
0.000000 0.000000 0.000000
5289.316848 10341.568049 0.000000
10341.568049 5163.166845 0.000000
0.000000 0.000000 0.000000
-211741.140808 24462.950823 0.000000
24462.950823 7486.767408 0.000000
0.000000 0.000000 0.000000
-11776.807285 11393.420027 0.000000
11393.420027 6550.711324 0.000000
0.000000 0.000000 0.000000
21845.462849 2726.732025 0.000000
2726.732025 320.898158 0.000000
0.000000 0.000000 0.000000
360381.111163 238344.122294 0.000000
238344.122294 88581.557025 0.000000
0.000000 0.000000 0.000000
-1424310.848077 826220.921076 0.000000
826220.921076 439311.209525 0.000000
0.000000 0.000000 0.000000
-709929.932175 -32515.478985 0.000000
-32515.478985 2940.730791 0.000000
0.000000 0.000000 0.000000
9750.516481 10839.125647 0.000000
10839.125647 4747.819291 0.000000
0.000000 0.000000 0.000000
-834.949482 -698.382084 0.000000
-698.382084 389.101358 0.000000
0.000000 0.000000 0.000000
82888.272485 53775.162979 0.000000
53775.162979 18334.038161 0.000000
0.000000 0.000000 0.000000
-821.182867 21373.599273 0.000000
21373.599273 11947.414539 0.000000
0.000000 0.000000 0.000000
166617.873778 299314.217617 0.000000
299314.217617 147119.526529 0.000000
0.000000 0.000000 0.000000
0.069541 0.028153 0.000000
0.028153 0.006855 0.000000
0.000000 0.000000 0.000000
-8401.369891 -31657.763966 0.000000
-31657.763966 18818.848933 0.000000
0.000000 0.000000 0.000000
1858.717920 1842.445353 0.000000
1842.445353 774.331852 0.000000
0.000000 0.000000 0.000000
-230.941132 -60.733861 0.000000
-60.733861 23.812551 0.000000
0.000000 0.000000 0.000000
-1562101.313569 -344866.492001 0.000000
-344866.492001 118238.296676 0.000000
0.000000 0.000000 0.000000
52388.029408 -33136.813209 0.000000
-33136.813209 60391.296466 0.000000
0.000000 0.000000 0.000000
-10506.148972 29820.204642 0.000000
29820.204642 17122.260799 0.000000
0.000000 0.000000 0.000000
24389.985061 44669.083386 0.000000
44669.083386 23296.972821 0.000000
0.000000 0.000000 0.000000
21728.967004 -43526.127843 0.000000
-43526.127843 29186.159370 0.000000
0.000000 0.000000 0.000000
-119449.947617 -726075.318065 0.000000
-726075.318065 411557.248671 0.000000
0.000000 0.000000 0.000000
-387635.185655 -98893.838688 0.000000
-98893.838688 38722.745177 0.000000
0.000000 0.000000 0.000000
88866.158438 -214834.524302 0.000000
-214834.524302 110821.934781 0.000000
0.000000 0.000000 0.000000
100187.611678 39132.820896 0.000000
39132.820896 9311.456481 0.000000
0.000000 0.000000 0.000000
12645.474221 2274.356097 0.000000
2274.356097 266.921628 0.000000
0.000000 0.000000 0.000000
869760.654837 -270562.394220 0.000000
-270562.394220 58049.613059 0.000000
0.000000 0.000000 0.000000
19158.938396 -79039.848993 0.000000
-79039.848993 88889.533911 0.000000
0.000000 0.000000 0.000000
-8474767.574211 -851619.493142 0.000000
-851619.493142 161757.913903 0.000000
0.000000 0.000000 0.000000
54576.548659 91821.488808 0.000000
91821.488808 44786.745532 0.000000
0.000000 0.000000 0.000000
-22.123402 494.212225 0.000000
494.212225 276.477664 0.000000
0.000000 0.000000 0.000000
-1400218.140489 -188315.881571 0.000000
-188315.881571 45962.258982 0.000000
0.000000 0.000000 0.000000
576465.384507 -48246.582182 0.000000
-48246.582182 2679.436060 0.000000
0.000000 0.000000 0.000000
-35437.492525 -29506.732068 0.000000
-29506.732068 16529.885627 0.000000
0.000000 0.000000 0.000000
62906.720715 82232.628263 0.000000
82232.628263 37783.748746 0.000000
0.000000 0.000000 0.000000
9957.304219 1066.250339 0.000000
1066.250339 80.684042 0.000000
0.000000 0.000000 0.000000
3637.765305 -27206.901028 0.000000
-27206.901028 13525.391046 0.000000
0.000000 0.000000 0.000000
106478.101061 345112.213064 0.000000
345112.213064 182431.999249 0.000000
0.000000 0.000000 0.000000
16933.453748 11970.277961 0.000000
11970.277961 4289.985038 0.000000
0.000000 0.000000 0.000000
287.659483 -251.879428 0.000000
-251.879428 450.225935 0.000000
0.000000 0.000000 0.000000
2925.887082 352.811137 0.000000
352.811137 45.043942 0.000000
0.000000 0.000000 0.000000
158153.165620 236945.210010 0.000000
236945.210010 112487.213166 0.000000
0.000000 0.000000 0.000000
-37919.859893 -31511.934970 0.000000
-31511.934970 17658.305550 0.000000
0.000000 0.000000 0.000000
-34688.178711 -7572.917729 0.000000
-7572.917729 1726.310579 0.000000
0.000000 0.000000 0.000000
13844.925238 7024.069815 0.000000
7024.069815 2041.601969 0.000000
0.000000 0.000000 0.000000
1449.420385 6448.899515 0.000000
6448.899515 3453.728927 0.000000
0.000000 0.000000 0.000000
47337.916724 -28719.983668 0.000000
-28719.983668 9392.168099 0.000000
0.000000 0.000000 0.000000
-17934189.713318 -56721.931795 0.000000
-56721.931795 1508.796002 0.000000
0.000000 0.000000 0.000000
315495.905702 -1154453.776385 0.000000
-1154453.776385 618477.903635 0.000000
0.000000 0.000000 0.000000
31355.117480 -68678.844342 0.000000
-68678.844342 34751.888051 0.000000
0.000000 0.000000 0.000000
-187616.467984 -53754.931937 0.000000
-53754.931937 106239.332534 0.000000
0.000000 0.000000 0.000000
-973341.792716 227138.214672 0.000000
227138.214672 87543.587554 0.000000
0.000000 0.000000 0.000000
-49967.513429 -146305.424758 0.000000
-146305.424758 83977.300795 0.000000
0.000000 0.000000 0.000000
-16048.204371 -8180.661563 0.000000
-8180.661563 8200.824845 0.000000
0.000000 0.000000 0.000000
314573.437948 157019.762164 0.000000
157019.762164 46924.654085 0.000000
0.000000 0.000000 0.000000
12330.566445 1586.472140 0.000000
1586.472140 135.063798 0.000000
0.000000 0.000000 0.000000
-90652.169625 -81779.186575 0.000000
-81779.186575 46838.999575 0.000000
0.000000 0.000000 0.000000
-11865805.810354 -1157253.395197 0.000000
-1157253.395197 214272.563552 0.000000
0.000000 0.000000 0.000000
44180.103849 44879.216438 0.000000
44879.216438 21017.009625 0.000000
0.000000 0.000000 0.000000
1862.372403 1657.852927 0.000000
1657.852927 269.460489 0.000000
0.000000 0.000000 0.000000
917.047926 -114.786111 0.000000
-114.786111 9.667650 0.000000
0.000000 0.000000 0.000000
129212.160806 32571.772179 0.000000
32571.772179 5646.358181 0.000000
0.000000 0.000000 0.000000
1345.875031 -1333.526692 0.000000
-1333.526692 560.344742 0.000000
0.000000 0.000000 0.000000
191401.063054 211584.353438 0.000000
211584.353438 253929.779454 0.000000
0.000000 0.000000 0.000000
55529.234094 -244.878208 0.000000
-244.878208 12.331353 0.000000
0.000000 0.000000 0.000000
-10823032.760912 -2455502.508689 0.000000
-2455502.508689 890137.028181 0.000000
0.000000 0.000000 0.000000
-966918.093568 253077.544521 0.000000
253077.544521 117813.238648 0.000000
0.000000 0.000000 0.000000
0.050536 -0.058295 0.000000
-0.058295 0.025833 0.000000
0.000000 0.000000 0.000000
796.696458 481.369733 0.000000
481.369733 156.996229 0.000000
0.000000 0.000000 0.000000
-1718445.785716 -560041.431607 0.000000
-560041.431607 245165.521489 0.000000
0.000000 0.000000 0.000000
-903451.175940 278396.759095 0.000000
278396.759095 118669.963755 0.000000
0.000000 0.000000 0.000000
660266.962246 -941574.435342 0.000000
-941574.435342 442148.182083 0.000000
0.000000 0.000000 0.000000
-1909232.078144 165963.867094 0.000000
165963.867094 27685.213605 0.000000
0.000000 0.000000 0.000000
11085.714786 2368.126197 0.000000
2368.126197 334.234978 0.000000
0.000000 0.000000 0.000000
529.838660 169.889424 0.000000
169.889424 33.990924 0.000000
0.000000 0.000000 0.000000
-2496732.894291 -820030.575061 0.000000
-820030.575061 365429.896409 0.000000
0.000000 0.000000 0.000000
6738.193744 4458.182731 0.000000
4458.182731 1732.887989 0.000000
0.000000 0.000000 0.000000
93712.338757 66978.593719 0.000000
66978.593719 24324.713262 0.000000
0.000000 0.000000 0.000000
-71178.109289 10577.276804 0.000000
10577.276804 2785.917919 0.000000
0.000000 0.000000 0.000000
-85365.611271 -25683.304545 0.000000
-25683.304545 10816.280551 0.000000
0.000000 0.000000 0.000000
367406.212653 -59871.752865 0.000000
-59871.752865 6415.538864 0.000000
0.000000 0.000000 0.000000
7053.537505 31244.281872 0.000000
31244.281872 16712.398289 0.000000
0.000000 0.000000 0.000000
-333520.164690 -226488.969849 0.000000
-226488.969849 126937.048340 0.000000
0.000000 0.000000 0.000000
-11351.347745 1505.025345 0.000000
1505.025345 235.500869 0.000000
0.000000 0.000000 0.000000
140941.317024 -283646.778121 0.000000
-283646.778121 144874.678760 0.000000
0.000000 0.000000 0.000000
-475093.420700 1368464.857512 0.000000
1368464.857512 785089.380369 0.000000
0.000000 0.000000 0.000000
-55761.192309 342909.014709 0.000000
342909.014709 194334.791927 0.000000
0.000000 0.000000 0.000000
3339.270292 -354.538728 0.000000
-354.538728 24.950589 0.000000
0.000000 0.000000 0.000000
169344.638090 288345.812790 0.000000
288345.812790 140667.886502 0.000000
0.000000 0.000000 0.000000
-1728715.178945 -679448.475810 0.000000
-679448.475810 325493.227498 0.000000
0.000000 0.000000 0.000000
-14391189.437989 481062.094409 0.000000
481062.094409 31951.168933 0.000000
0.000000 0.000000 0.000000
-30325.874085 49668.436532 0.000000
49668.436532 28625.627867 0.000000
0.000000 0.000000 0.000000
-61440.504904 -10326.191975 0.000000
-10326.191975 2981.792611 0.000000
0.000000 0.000000 0.000000
289.746528 204.343068 0.000000
204.343068 99.308770 0.000000
0.000000 0.000000 0.000000
62.573063 1.470717 0.000000
1.470717 0.023034 0.000000
0.000000 0.000000 0.000000
-75813.388102 35237.515896 0.000000
35237.515896 17663.350885 0.000000
0.000000 0.000000 0.000000
-222190.661585 117111.352638 0.000000
117111.352638 58388.866309 0.000000
0.000000 0.000000 0.000000
484965.524257 -402345.916010 0.000000
-402345.916010 156654.555257 0.000000
0.000000 0.000000 0.000000
70623.216738 -158971.909360 0.000000
-158971.909360 79721.256795 0.000000
0.000000 0.000000 0.000000
-4981192.340443 -753202.813251 0.000000
-753202.813251 200611.264120 0.000000
0.000000 0.000000 0.000000
114388.307446 -290245.281354 0.000000
-290245.281354 149259.119911 0.000000
0.000000 0.000000 0.000000
10008.846334 -5400.227457 0.000000
-5400.227457 1645.737981 0.000000
0.000000 0.000000 0.000000
41480.915867 30361.674937 0.000000
30361.674937 11069.771213 0.000000
0.000000 0.000000 0.000000
1465.256845 65775.992788 0.000000
65775.992788 36463.472187 0.000000
0.000000 0.000000 0.000000
21402.470503 5505.458900 0.000000
5505.458900 912.728382 0.000000
0.000000 0.000000 0.000000
-2852144.479178 1073001.069046 0.000000
1073001.069046 499900.160557 0.000000
0.000000 0.000000 0.000000
374217.078363 982471.193933 0.000000
982471.193933 506923.796064 0.000000
0.000000 0.000000 0.000000
881845.297473 -609126.023532 0.000000
-609126.023532 218872.002058 0.000000
0.000000 0.000000 0.000000
-627.438130 406.681543 0.000000
406.681543 220.186828 0.000000
0.000000 0.000000 0.000000
-59764.575484 70978.543577 0.000000
70978.543577 40857.351628 0.000000
0.000000 0.000000 0.000000
339557.955928 18165.390353 0.000000
18165.390353 1528.562312 0.000000
0.000000 0.000000 0.000000
-47151.478360 990.969906 0.000000
990.969906 2099.167560 0.000000
0.000000 0.000000 0.000000
-3426787.463843 118139.108758 0.000000
118139.108758 29213.223513 0.000000
0.000000 0.000000 0.000000
-24883.970339 11326.903000 0.000000
11326.903000 14096.623387 0.000000
0.000000 0.000000 0.000000
676773.890954 846469.455114 0.000000
846469.455114 384339.436526 0.000000
0.000000 0.000000 0.000000
250843.129179 99841.900939 0.000000
99841.900939 23629.316790 0.000000
0.000000 0.000000 0.000000
364.233750 157.316351 0.000000
157.316351 40.334149 0.000000
0.000000 0.000000 0.000000
129818.547843 42484.970536 0.000000
42484.970536 8634.247766 0.000000
0.000000 0.000000 0.000000
128739.840167 -200270.746602 0.000000
-200270.746602 96212.756075 0.000000
0.000000 0.000000 0.000000
501241.554624 76619.788486 0.000000
76619.788486 8048.972015 0.000000
0.000000 0.000000 0.000000
177225.945264 107489.009790 0.000000
107489.009790 35198.095723 0.000000
0.000000 0.000000 0.000000
1076285.284517 154503.894178 0.000000
154503.894178 15226.933214 0.000000
0.000000 0.000000 0.000000
597499.286343 -637903.602104 0.000000
-637903.602104 275521.502877 0.000000
0.000000 0.000000 0.000000
3540.062645 1307.274847 0.000000
1307.274847 295.552257 0.000000
0.000000 0.000000 0.000000
343936.314836 249253.948452 0.000000
249253.948452 90568.534303 0.000000
0.000000 0.000000 0.000000
-209553.095155 144562.317673 0.000000
144562.317673 79064.768622 0.000000
0.000000 0.000000 0.000000
-672.403349 -744.803880 0.000000
-744.803880 425.293146 0.000000
0.000000 0.000000 0.000000
34977.821837 8313.924367 0.000000
8313.924367 1269.520244 0.000000
0.000000 0.000000 0.000000
-6489377.325341 2761267.430700 0.000000
2761267.430700 1344348.888775 0.000000
0.000000 0.000000 0.000000
-13662.685072 53483.416904 0.000000
53483.416904 31674.704033 0.000000
0.000000 0.000000 0.000000
-894963.246259 -308138.103862 0.000000
-308138.103862 138277.204326 0.000000
0.000000 0.000000 0.000000
212433.056876 170108.463381 0.000000
170108.463381 96822.461747 0.000000
0.000000 0.000000 0.000000
-321554237.214686 5378609.165478 0.000000
5378609.165478 182680.882885 0.000000
0.000000 0.000000 0.000000
-22443.286738 -46984.430450 0.000000
-46984.430450 27449.044515 0.000000
0.000000 0.000000 0.000000
-1326855414.383691 33734929.964427 0.000000
33734929.964427 1715634.789071 0.000000
0.000000 0.000000 0.000000
116664.627561 -45445.490653 0.000000
-45445.490653 10829.199790 0.000000
0.000000 0.000000 0.000000
-579923550.247940 -7925097.352273 0.000000
-7925097.352273 216289.022474 0.000000
0.000000 0.000000 0.000000
108341.702877 -163113.534742 0.000000
-163113.534742 77543.108834 0.000000
0.000000 0.000000 0.000000
8174.758937 -2149.673101 0.000000
-2149.673101 365.644169 0.000000
0.000000 0.000000 0.000000
-9094989.322441 -408891.008958 0.000000
-408891.008958 37751.079556 0.000000
0.000000 0.000000 0.000000
374911.485743 -122285.249003 0.000000
-122285.249003 25810.990850 0.000000
0.000000 0.000000 0.000000
21359.780016 -7612.616442 0.000000
-7612.616442 1668.113986 0.000000
0.000000 0.000000 0.000000
992551.190875 -801288.179754 0.000000
-801288.179754 326189.805667 0.000000
0.000000 0.000000 0.000000
65115.766327 -9664.145010 0.000000
-9664.145010 973.774449 0.000000
0.000000 0.000000 0.000000
-1297067.961438 183877.583407 0.000000
183877.583407 47233.721772 0.000000
0.000000 0.000000 0.000000
-1234261.063607 -307345.372172 0.000000
-307345.372172 115813.921980 0.000000
0.000000 0.000000 0.000000
703362.185049 -381285.802563 0.000000
-381285.802563 115678.163125 0.000000
0.000000 0.000000 0.000000
-406105.148963 -712481.246988 0.000000
-712481.246988 411255.381431 0.000000
0.000000 0.000000 0.000000
-1115153.107133 1410981.388345 0.000000
1410981.388345 812199.824676 0.000000
0.000000 0.000000 0.000000
-362408.083961 -218234.811317 0.000000
-218234.811317 116550.384208 0.000000
0.000000 0.000000 0.000000
-1938569.410807 -646705.914101 0.000000
-646705.914101 286961.520843 0.000000
0.000000 0.000000 0.000000
213971.656795 42938.320837 0.000000
42938.320837 5593.617136 0.000000
0.000000 0.000000 0.000000
339485.127602 -488409.809418 0.000000
-488409.809418 231246.866697 0.000000
0.000000 0.000000 0.000000
-137160.050774 12265.891816 0.000000
12265.891816 2095.541507 0.000000
0.000000 0.000000 0.000000
152642.618847 -104704.500572 0.000000
-104704.500572 37233.978566 0.000000
0.000000 0.000000 0.000000
597387.664324 497779.936090 0.000000
497779.936090 194221.229850 0.000000
0.000000 0.000000 0.000000
2943.326734 4145.525061 0.000000
4145.525061 1956.644764 0.000000
0.000000 0.000000 0.000000
-181735.446594 -401731.967739 0.000000
-401731.967739 233442.032707 0.000000
0.000000 0.000000 0.000000
4575.808461 -55511.233910 0.000000
-55511.233910 33693.454205 0.000000
0.000000 0.000000 0.000000
39906.170598 27354.294574 0.000000
27354.294574 9564.550512 0.000000
0.000000 0.000000 0.000000
686737.133235 -475021.415465 0.000000
-475021.415465 168148.463145 0.000000
0.000000 0.000000 0.000000
325743.183174 48429.482558 0.000000
48429.482558 4845.569550 0.000000
0.000000 0.000000 0.000000
2857.964236 -127854.961966 0.000000
-127854.961966 70345.939062 0.000000
0.000000 0.000000 0.000000
934182.465219 600014.614618 0.000000
600014.614618 203317.663070 0.000000
0.000000 0.000000 0.000000
0.362784 -0.122131 0.000000
-0.122131 0.025490 0.000000
0.000000 0.000000 0.000000
3605.281296 4605.441884 0.000000
4605.441884 2126.360314 0.000000
0.000000 0.000000 0.000000
-1043276.616201 326179.048070 0.000000
326179.048070 139297.201941 0.000000
0.000000 0.000000 0.000000
-16.440071 -9.609254 0.000000
-9.609254 5.100832 0.000000
0.000000 0.000000 0.000000
110125.570927 100133.911784 0.000000
100133.911784 40633.651575 0.000000
0.000000 0.000000 0.000000
-79329.509938 138728.427308 0.000000
138728.427308 81753.355997 0.000000
0.000000 0.000000 0.000000
-3439878.435716 -248797.977217 0.000000
-248797.977217 34942.640940 0.000000
0.000000 0.000000 0.000000
10644.359010 262078.255888 0.000000
262078.255888 149040.929725 0.000000
0.000000 0.000000 0.000000
-1057521.364623 1054439.691900 0.000000
1054439.691900 599706.455513 0.000000
0.000000 0.000000 0.000000
-380365.988175 144680.843220 0.000000
144680.843220 66718.854834 0.000000
0.000000 0.000000 0.000000
156548.246723 24958.132347 0.000000
24958.132347 2612.005911 0.000000
0.000000 0.000000 0.000000
-19632.117900 -25388.922363 0.000000
-25388.922363 16346.708314 0.000000
0.000000 0.000000 0.000000
88038.174645 -8251.558469 0.000000
-8251.558469 2093.472812 0.000000
0.000000 0.000000 0.000000
8095.408104 -124391.392611 0.000000
-124391.392611 78154.252789 0.000000
0.000000 0.000000 0.000000
744222.425403 -74269.111074 0.000000
-74269.111074 4908.076046 0.000000
0.000000 0.000000 0.000000
949517.668231 -464417.672001 0.000000
-464417.672001 131408.843508 0.000000
0.000000 0.000000 0.000000
-2248645.782054 -45182.803141 0.000000
-45182.803141 7123.919493 0.000000
0.000000 0.000000 0.000000
33715.096339 -44963.611785 0.000000
-44963.611785 20670.277120 0.000000
0.000000 0.000000 0.000000
1924754.048156 150268.060239 0.000000
150268.060239 7974.936437 0.000000
0.000000 0.000000 0.000000
-385635.177878 291939.273427 0.000000
291939.273427 161996.253548 0.000000
0.000000 0.000000 0.000000
-142765.902559 -117203.082394 0.000000
-117203.082394 71254.107288 0.000000
0.000000 0.000000 0.000000
649856.296976 661793.647483 0.000000
661793.647483 282529.660063 0.000000
0.000000 0.000000 0.000000
1368273.571455 480357.997883 0.000000
480357.997883 103934.758156 0.000000
0.000000 0.000000 0.000000
-406929.986408 -649039.481506 0.000000
-649039.481506 374554.326905 0.000000
0.000000 0.000000 0.000000
-6790857.657263 -1040758.167966 0.000000
-1040758.167966 282243.967587 0.000000
0.000000 0.000000 0.000000
-1176.483867 16100.975768 0.000000
16100.975768 9041.387953 0.000000
0.000000 0.000000 0.000000
10420.372239 -37201.287936 0.000000
-37201.287936 19881.003975 0.000000
0.000000 0.000000 0.000000
-2269.921367 -358.127445 0.000000
-358.127445 99.348934 0.000000
0.000000 0.000000 0.000000
-75560.116416 -9286.508487 0.000000
-9286.508487 2102.416529 0.000000
0.000000 0.000000 0.000000
-3181324.121724 1310549.109317 0.000000
1310549.109317 631185.388042 0.000000
0.000000 0.000000 0.000000
528.738895 -28033.231055 0.000000
-28033.231055 15819.035825 0.000000
0.000000 0.000000 0.000000
5343.220208 165859.790732 0.000000
165859.790732 91811.934557 0.000000
0.000000 0.000000 0.000000
7108.984867 123822.292215 0.000000
123822.292215 73944.795345 0.000000
0.000000 0.000000 0.000000
1501.397986 -168266.828054 0.000000
-168266.828054 158269.371041 0.000000
0.000000 0.000000 0.000000
-4219806.803018 -765778.675051 0.000000
-765778.675051 236652.663388 0.000000
0.000000 0.000000 0.000000
123606.856096 -163256.479241 0.000000
-163256.479241 75319.017454 0.000000
0.000000 0.000000 0.000000
281431.283271 -81909.008421 0.000000
-81909.008421 17922.722346 0.000000
0.000000 0.000000 0.000000
-179981.446765 -540690.259596 0.000000
-540690.259596 309586.532710 0.000000
0.000000 0.000000 0.000000
-29641733.489048 -2093443.107475 0.000000
-2093443.107475 287171.304232 0.000000
0.000000 0.000000 0.000000
-1546993.459688 200535.027423 0.000000
200535.027423 47596.600471 0.000000
0.000000 0.000000 0.000000
-323545.339082 132367.346017 0.000000
132367.346017 63643.350040 0.000000
0.000000 0.000000 0.000000
-79896.538785 -251994.233682 0.000000
-251994.233682 144455.895820 0.000000
0.000000 0.000000 0.000000
-3896539.214660 -583776.405490 0.000000
-583776.405490 155500.799440 0.000000
0.000000 0.000000 0.000000
-13538990.382756 287995.861589 0.000000
287995.861589 13885.115768 0.000000
0.000000 0.000000 0.000000
-20037.709388 -43875.127869 0.000000
-43875.127869 24432.504421 0.000000
0.000000 0.000000 0.000000
-98850.443879 -152017.893131 0.000000
-152017.893131 87263.828252 0.000000
0.000000 0.000000 0.000000
31312.470181 688056.715270 0.000000
688056.715270 390864.115638 0.000000
0.000000 0.000000 0.000000
27156.525386 15975.034947 0.000000
15975.034947 5120.763801 0.000000
0.000000 0.000000 0.000000
666271.466329 2866410.914727 0.000000
2866410.914727 1531102.499952 0.000000
0.000000 0.000000 0.000000
38022.283280 -94782.424795 0.000000
-94782.424795 68662.326363 0.000000
0.000000 0.000000 0.000000
-7013716.781819 1167493.312446 0.000000
1167493.312446 339206.889252 0.000000
0.000000 0.000000 0.000000
440023.600338 31189.115066 0.000000
31189.115066 4162.898979 0.000000
0.000000 0.000000 0.000000
-56266.330244 -107645.131625 0.000000
-107645.131625 78235.954546 0.000000
0.000000 0.000000 0.000000
-825447.489910 -153044.681150 0.000000
-153044.681150 48425.711435 0.000000
0.000000 0.000000 0.000000
266044.239389 278929.096959 0.000000
278929.096959 119877.254491 0.000000
0.000000 0.000000 0.000000
-499847.808566 -326847.453588 0.000000
-326847.453588 177231.682329 0.000000
0.000000 0.000000 0.000000
-89787272.696178 3862540.701617 0.000000
3862540.701617 328713.776793 0.000000
0.000000 0.000000 0.000000
-210255.746367 -100376.712220 0.000000
-100376.712220 58430.440026 0.000000
0.000000 0.000000 0.000000
-168846.696654 84466.551945 0.000000
84466.551945 57134.281619 0.000000
0.000000 0.000000 0.000000
748565.328687 672489.735487 0.000000
672489.735487 274019.921069 0.000000
0.000000 0.000000 0.000000
-9036881.644002 -913239.506982 0.000000
-913239.506982 174241.053543 0.000000
0.000000 0.000000 0.000000
82823.267956 824414.399149 0.000000
824414.399149 452126.881795 0.000000
0.000000 0.000000 0.000000
796511.511086 1084014.306717 0.000000
1084014.306717 503123.294618 0.000000
0.000000 0.000000 0.000000
0.323384 -0.079901 0.000000
-0.079901 0.012646 0.000000
0.000000 0.000000 0.000000
741230.959339 -444855.265241 0.000000
-444855.265241 145414.965742 0.000000
0.000000 0.000000 0.000000
-170.391996 5.558961 0.000000
5.558961 1.317007 0.000000
0.000000 0.000000 0.000000
-141975.915201 156644.315815 0.000000
156644.315815 104738.043163 0.000000
0.000000 0.000000 0.000000
-7552724.004600 2931798.913155 0.000000
2931798.913155 1381370.938672 0.000000
0.000000 0.000000 0.000000
323681.105804 -284380.444801 0.000000
-284380.444801 192676.898065 0.000000
0.000000 0.000000 0.000000
-43908.856835 -184321.164728 0.000000
-184321.164728 105070.377574 0.000000
0.000000 0.000000 0.000000
-525477.580012 -99572.574677 0.000000
-99572.574677 31661.980001 0.000000
0.000000 0.000000 0.000000
-82959.799269 164860.089155 0.000000
164860.089155 95110.266169 0.000000
0.000000 0.000000 0.000000
-52696742547.314095 100694024.606212 0.000000
100694024.606212 384677.568787 0.000000
0.000000 0.000000 0.000000
-513585.554688 -243540.740955 0.000000
-243540.740955 122529.448280 0.000000
0.000000 0.000000 0.000000
-2961849.367698 -553957.611844 0.000000
-553957.611844 174383.226528 0.000000
0.000000 0.000000 0.000000
-40288.132492 -141589.723315 0.000000
-141589.723315 81010.722406 0.000000
0.000000 0.000000 0.000000
1297116.979291 1709464.478024 0.000000
1709464.478024 787171.637587 0.000000
0.000000 0.000000 0.000000
1050.183343 174.457760 0.000000
174.457760 19.030104 0.000000
0.000000 0.000000 0.000000
12030.696725 5156.970054 0.000000
5156.970054 1323.196427 0.000000
0.000000 0.000000 0.000000
1191578.479663 637316.495449 0.000000
637316.495449 191558.645351 0.000000
0.000000 0.000000 0.000000
-100532.976473 -179091.120253 0.000000
-179091.120253 104366.374931 0.000000
0.000000 0.000000 0.000000
89180.182924 82524.819395 0.000000
82524.819395 33777.557510 0.000000
0.000000 0.000000 0.000000
-5108.807869 3707.159168 0.000000
3707.159168 2042.870534 0.000000
0.000000 0.000000 0.000000
563764.377387 -435810.213437 0.000000
-435810.213437 163778.856702 0.000000
0.000000 0.000000 0.000000
-96175.529250 -208720.374234 0.000000
-208720.374234 120318.458143 0.000000
0.000000 0.000000 0.000000
125570.498253 155109.259255 0.000000
155109.259255 70169.223103 0.000000
0.000000 0.000000 0.000000
205101.512270 525736.580750 0.000000
525736.580750 270759.548307 0.000000
0.000000 0.000000 0.000000
41268.699192 -221624.711796 0.000000
-221624.711796 119467.917276 0.000000
0.000000 0.000000 0.000000
-3824.548984 260853.186120 0.000000
260853.186120 137774.105753 0.000000
0.000000 0.000000 0.000000
-13550786.752553 2413144.397411 0.000000
2413144.397411 734234.435348 0.000000
0.000000 0.000000 0.000000
-198584.066607 -36479.669869 0.000000
-36479.669869 10551.221297 0.000000
0.000000 0.000000 0.000000
3906.109054 -2655.995103 0.000000
-2655.995103 978.423141 0.000000
0.000000 0.000000 0.000000
-9220888.021259 1172731.258754 0.000000
1172731.258754 273194.296639 0.000000
0.000000 0.000000 0.000000
543429.746511 709445.920691 0.000000
709445.920691 340184.649133 0.000000
0.000000 0.000000 0.000000
97813.141300 -136813.571485 0.000000
-136813.571485 63950.851891 0.000000
0.000000 0.000000 0.000000
-24841732.191872 -1477762.715301 0.000000
-1477762.715301 172151.313870 0.000000
0.000000 0.000000 0.000000
171895.046131 -210965.206232 0.000000
-210965.206232 95256.317810 0.000000
0.000000 0.000000 0.000000
-376909.997049 -180683.603171 0.000000
-180683.603171 92186.869567 0.000000
0.000000 0.000000 0.000000
-479184.117528 209022.833548 0.000000
209022.833548 101852.966251 0.000000
0.000000 0.000000 0.000000
-5120.626459 21346.692456 0.000000
21346.692456 12190.097882 0.000000
0.000000 0.000000 0.000000
-39387.990976 33086.014294 0.000000
33086.014294 18565.281485 0.000000
0.000000 0.000000 0.000000
-782525.107596 -1078959.519874 0.000000
-1078959.519874 621520.911284 0.000000
0.000000 0.000000 0.000000
539488.906265 337714.726609 0.000000
337714.726609 114140.461962 0.000000
0.000000 0.000000 0.000000
-281774.099700 458237.543898 0.000000
458237.543898 266433.910161 0.000000
0.000000 0.000000 0.000000
42989.308325 56116.323460 0.000000
56116.323460 25769.807116 0.000000
0.000000 0.000000 0.000000
-5939.178081 141194.960121 0.000000
141194.960121 78430.925011 0.000000
0.000000 0.000000 0.000000
397396.699241 -772462.196782 0.000000
-772462.196782 384553.647866 0.000000
0.000000 0.000000 0.000000
-73760340.616509 4289968.245278 0.000000
4289968.245278 488908.325357 0.000000
0.000000 0.000000 0.000000
13441.514880 126260.583269 0.000000
126260.583269 72906.348432 0.000000
0.000000 0.000000 0.000000
16950.909069 -28069.112369 0.000000
-28069.112369 13602.366873 0.000000
0.000000 0.000000 0.000000
53347.393584 -35413.356463 0.000000
-35413.356463 12240.823519 0.000000
0.000000 0.000000 0.000000
-465855.439650 -2240.589524 0.000000
-2240.589524 10239.517962 0.000000
0.000000 0.000000 0.000000
-2.560895 131.100845 0.000000
131.100845 92.816058 0.000000
0.000000 0.000000 0.000000
-167828.872574 -199130.388619 0.000000
-199130.388619 112206.160484 0.000000
0.000000 0.000000 0.000000
-63628.854323 12446.847156 0.000000
12446.847156 4049.106361 0.000000
0.000000 0.000000 0.000000
106080.373548 108524.790251 0.000000
108524.790251 46155.909554 0.000000
0.000000 0.000000 0.000000
19637.551354 3451.784261 0.000000
3451.784261 396.283598 0.000000
0.000000 0.000000 0.000000
15138.018345 4696.631485 0.000000
4696.631485 925.260928 0.000000
0.000000 0.000000 0.000000
254.403630 -80.374323 0.000000
-80.374323 15.874131 0.000000
0.000000 0.000000 0.000000
-117378.672693 -20431.715535 0.000000
-20431.715535 6110.598140 0.000000
0.000000 0.000000 0.000000
-85067.690623 88076.930007 0.000000
88076.930007 50208.950686 0.000000
0.000000 0.000000 0.000000
-299457.612745 -3058.237153 0.000000
-3058.237153 280.821065 0.000000
0.000000 0.000000 0.000000
-218354.739828 84901.764775 0.000000
84901.764775 39973.710661 0.000000
0.000000 0.000000 0.000000
31505.687377 79893.740819 0.000000
79893.740819 41099.372649 0.000000
0.000000 0.000000 0.000000
-774304.081846 -193142.418341 0.000000
-193142.418341 73392.472639 0.000000
0.000000 0.000000 0.000000
-18602.023773 48091.002493 0.000000
48091.002493 27647.723599 0.000000
0.000000 0.000000 0.000000
61210.710420 -56037.789198 0.000000
-56037.789198 22979.843564 0.000000
0.000000 0.000000 0.000000
-26060.536986 -295262.171298 0.000000
-295262.171298 170155.098227 0.000000
0.000000 0.000000 0.000000
35928.398339 57529.446320 0.000000
57529.446320 27698.690460 0.000000
0.000000 0.000000 0.000000
-137996.816236 118414.140656 0.000000
118414.140656 71374.180798 0.000000
0.000000 0.000000 0.000000
-25322.457632 57809.883645 0.000000
57809.883645 33306.359607 0.000000
0.000000 0.000000 0.000000
1256074.203512 1083494.494804 0.000000
1083494.494804 429596.985732 0.000000
0.000000 0.000000 0.000000
62.888139 25.158554 0.000000
25.158554 6.177773 0.000000
0.000000 0.000000 0.000000
16.384977 -2.981889 0.000000
-2.981889 0.369139 0.000000
0.000000 0.000000 0.000000
23157.427058 -222714.025886 0.000000
-222714.025886 124737.478257 0.000000
0.000000 0.000000 0.000000
-990.544071 4416.767868 0.000000
4416.767868 2516.561549 0.000000
0.000000 0.000000 0.000000
8822.800323 4281.995325 0.000000
4281.995325 1223.059118 0.000000
0.000000 0.000000 0.000000
-150373.404128 -149393.421104 0.000000
-149393.421104 84939.614217 0.000000
0.000000 0.000000 0.000000
-63511.546610 -182576.494522 0.000000
-182576.494522 115042.434974 0.000000
0.000000 0.000000 0.000000
