# vtk DataFile Version 2.0
Test
ASCII
DATASET POLYDATA
POINTS 1437 float
0.000000 0.000000 0.000000
30.000000 0.000000 0.000000
30.000000 100.000000 0.000000
0.000000 100.000000 0.000000
16.400000 50.000000 0.000000
2.142857 0.000000 0.000000
4.285714 0.000000 0.000000
6.428571 0.000000 0.000000
8.571429 0.000000 0.000000
10.714286 0.000000 0.000000
12.857143 0.000000 0.000000
15.000000 0.000000 0.000000
17.142857 0.000000 0.000000
19.285714 0.000000 0.000000
21.428571 0.000000 0.000000
23.571429 0.000000 0.000000
25.714286 0.000000 0.000000
27.857143 0.000000 0.000000
30.000000 2.040816 0.000000
30.000000 4.081633 0.000000
30.000000 6.122449 0.000000
30.000000 8.163265 0.000000
30.000000 10.204082 0.000000
30.000000 12.244898 0.000000
30.000000 14.285714 0.000000
30.000000 16.326531 0.000000
30.000000 18.367347 0.000000
30.000000 20.408163 0.000000
30.000000 22.448980 0.000000
30.000000 24.489796 0.000000
30.000000 26.530612 0.000000
30.000000 28.571429 0.000000
30.000000 30.612245 0.000000
30.000000 32.653061 0.000000
30.000000 34.693878 0.000000
30.000000 36.734694 0.000000
30.000000 38.775510 0.000000
30.000000 40.816327 0.000000
30.000000 42.857143 0.000000
30.000000 44.897959 0.000000
30.000000 46.938776 0.000000
30.000000 48.979592 0.000000
30.000000 51.020408 0.000000
30.000000 53.061224 0.000000
30.000000 55.102041 0.000000
30.000000 57.142857 0.000000
30.000000 59.183673 0.000000
30.000000 61.224490 0.000000
30.000000 63.265306 0.000000
30.000000 65.306122 0.000000
30.000000 67.346939 0.000000
30.000000 69.387755 0.000000
30.000000 71.428571 0.000000
30.000000 73.469388 0.000000
30.000000 75.510204 0.000000
30.000000 77.551020 0.000000
30.000000 79.591837 0.000000
30.000000 81.632653 0.000000
30.000000 83.673469 0.000000
30.000000 85.714286 0.000000
30.000000 87.755102 0.000000
30.000000 89.795918 0.000000
30.000000 91.836735 0.000000
30.000000 93.877551 0.000000
30.000000 95.918367 0.000000
30.000000 97.959184 0.000000
27.857143 100.000000 0.000000
25.714286 100.000000 0.000000
23.571429 100.000000 0.000000
21.428571 100.000000 0.000000
19.285714 100.000000 0.000000
17.142857 100.000000 0.000000
15.000000 100.000000 0.000000
12.857143 100.000000 0.000000
10.714286 100.000000 0.000000
8.571429 100.000000 0.000000
6.428571 100.000000 0.000000
4.285714 100.000000 0.000000
2.142857 100.000000 0.000000
0.000000 97.959184 0.000000
0.000000 95.918367 0.000000
0.000000 93.877551 0.000000
0.000000 91.836735 0.000000
0.000000 89.795918 0.000000
0.000000 87.755102 0.000000
0.000000 85.714286 0.000000
0.000000 83.673469 0.000000
0.000000 81.632653 0.000000
0.000000 79.591837 0.000000
0.000000 77.551020 0.000000
0.000000 75.510204 0.000000
0.000000 73.469388 0.000000
0.000000 71.428571 0.000000
0.000000 69.387755 0.000000
0.000000 67.346939 0.000000
0.000000 65.306122 0.000000
0.000000 63.265306 0.000000
0.000000 61.224490 0.000000
0.000000 59.183673 0.000000
0.000000 57.142857 0.000000
0.000000 55.102041 0.000000
0.000000 53.061224 0.000000
0.000000 51.020408 0.000000
0.000000 48.979592 0.000000
0.000000 46.938776 0.000000
0.000000 44.897959 0.000000
0.000000 42.857143 0.000000
0.000000 40.816327 0.000000
0.000000 38.775510 0.000000
0.000000 36.734694 0.000000
0.000000 34.693878 0.000000
0.000000 32.653061 0.000000
0.000000 30.612245 0.000000
0.000000 28.571429 0.000000
0.000000 26.530612 0.000000
0.000000 24.489796 0.000000
0.000000 22.448980 0.000000
0.000000 20.408163 0.000000
0.000000 18.367347 0.000000
0.000000 16.326531 0.000000
0.000000 14.285714 0.000000
0.000000 12.244898 0.000000
0.000000 10.204082 0.000000
0.000000 8.163265 0.000000
0.000000 6.122449 0.000000
0.000000 4.081633 0.000000
0.000000 2.040816 0.000000
16.388506 50.179028 0.000000
16.354213 50.355116 0.000000
16.297683 50.525374 0.000000
16.219846 50.687005 0.000000
16.121979 50.837355 0.000000
16.005689 50.973956 0.000000
15.872886 51.094564 0.000000
15.725750 51.197200 0.000000
15.566697 51.280178 0.000000
15.398339 51.342135 0.000000
15.223440 51.382054 0.000000
15.044872 51.399281 0.000000
14.865568 51.393531 0.000000
14.688471 51.364899 0.000000
14.516489 51.313856 0.000000
14.352446 51.241239 0.000000
14.199037 51.148241 0.000000
14.058779 51.036389 0.000000
13.933976 50.907520 0.000000
13.826677 50.763749 0.000000
13.738644 50.607437 0.000000
13.671322 50.441152 0.000000
13.625817 50.267622 0.000000
13.602876 50.089698 0.000000
13.602876 49.910302 0.000000
13.625817 49.732378 0.000000
13.671322 49.558848 0.000000
13.738644 49.392563 0.000000
13.826677 49.236251 0.000000
13.933976 49.092480 0.000000
14.058779 48.963611 0.000000
14.199037 48.851759 0.000000
14.352446 48.758761 0.000000
14.516489 48.686144 0.000000
14.688471 48.635101 0.000000
14.865568 48.606469 0.000000
15.044872 48.600719 0.000000
15.223440 48.617946 0.000000
15.398339 48.657865 0.000000
15.566697 48.719822 0.000000
15.725750 48.802800 0.000000
15.872886 48.905436 0.000000
16.005689 49.026044 0.000000
16.121979 49.162645 0.000000
16.219846 49.312995 0.000000
16.297683 49.474626 0.000000
16.354213 49.644884 0.000000
16.388506 49.820972 0.000000
16.142290 51.090246 0.000000
16.381031 49.246029 0.000000
16.476220 50.570036 0.000000
16.567534 49.809478 0.000000
13.432060 49.919357 0.000000
27.959184 67.346939 0.000000
15.062546 51.587060 0.000000
27.959184 79.591837 0.000000
2.040816 20.408163 0.000000
2.040816 30.612245 0.000000
2.040816 81.632653 0.000000
2.040816 69.387755 0.000000
27.959184 16.326531 0.000000
27.959184 24.489796 0.000000
27.959184 32.653061 0.000000
2.000226 63.022103 0.000000
2.040816 38.775510 0.000000
27.959184 38.775510 0.000000
2.063520 56.953992 0.000000
27.959184 59.183673 0.000000
15.000000 97.857143 0.000000
15.000000 2.142857 0.000000
27.959184 44.897959 0.000000
27.959184 51.020408 0.000000
2.058026 48.891267 0.000000
2.040816 12.244898 0.000000
27.959184 8.163265 0.000000
2.119286 91.907213 0.000000
27.959184 87.755102 0.000000
8.571429 2.142857 0.000000
21.428571 97.857143 0.000000
2.040816 6.122449 0.000000
27.959184 93.877551 0.000000
23.571429 2.142857 0.000000
6.428571 97.857143 0.000000
2.040816 44.897959 0.000000
15.808727 51.356253 0.000000
2.040816 77.551020 0.000000
27.959184 71.428571 0.000000
2.040816 26.530612 0.000000
4.285714 2.142857 0.000000
25.714286 97.857143 0.000000
2.021897 52.958989 0.000000
27.959184 53.061224 0.000000
27.914278 55.273576 0.000000
27.959184 61.224490 0.000000
27.879705 47.169173 0.000000
2.040816 36.734694 0.000000
1.985319 42.671502 0.000000
2.040816 4.081633 0.000000
27.959184 95.918367 0.000000
27.842785 41.012410 0.000000
27.904213 63.341606 0.000000
1.981595 60.897410 0.000000
2.040816 34.693878 0.000000
2.142857 97.857143 0.000000
27.857143 2.142857 0.000000
21.428571 2.142857 0.000000
8.571429 97.857143 0.000000
19.285714 2.142857 0.000000
10.714286 97.857143 0.000000
12.857143 2.142857 0.000000
17.142857 97.857143 0.000000
2.040816 73.469388 0.000000
2.040816 85.714286 0.000000
27.959184 28.571429 0.000000
27.957036 12.244796 0.000000
27.959184 20.408163 0.000000
27.959184 75.510204 0.000000
27.959184 81.632653 0.000000
2.040816 24.489796 0.000000
2.040816 18.367347 0.000000
2.101567 67.270721 0.000000
27.990742 34.718564 0.000000
2.040816 16.326531 0.000000
2.040816 10.204082 0.000000
2.040816 89.795918 0.000000
27.959184 83.673469 0.000000
27.959184 89.795918 0.000000
2.098379 2.081372 0.000000
27.901617 97.918624 0.000000
28.130079 4.091715 0.000000
1.869924 95.908287 0.000000
16.576970 50.167357 0.000000
25.954712 32.689406 0.000000
4.048051 69.354174 0.000000
4.081633 24.489796 0.000000
25.916213 79.588913 0.000000
4.086221 18.371935 0.000000
3.897904 34.877606 0.000000
3.923124 61.572806 0.000000
26.128612 39.133691 0.000000
26.214823 61.491956 0.000000
3.871989 43.375621 0.000000
26.265426 45.355943 0.000000
26.372982 51.593494 0.000000
15.011971 95.726257 0.000000
14.987483 4.273197 0.000000
4.095212 12.258477 0.000000
25.904714 87.741449 0.000000
8.590547 95.733404 0.000000
4.124327 91.817489 0.000000
23.644909 4.177846 0.000000
1.898679 46.664421 0.000000
1.887660 50.867252 0.000000
28.104743 49.216969 0.000000
28.091622 57.507646 0.000000
1.793213 54.763850 0.000000
1.898425 40.673936 0.000000
28.092220 43.114891 0.000000
1.898792 59.041649 0.000000
26.349643 53.492500 0.000000
3.788008 38.504633 0.000000
26.348185 4.174096 0.000000
28.073402 36.848913 0.000000
3.770644 95.809804 0.000000
1.947709 64.759841 0.000000
27.961478 65.481833 0.000000
2.032166 32.492602 0.000000
21.409200 4.266343 0.000000
6.436167 2.135262 0.000000
23.563887 97.864684 0.000000
17.151762 2.133952 0.000000
12.848401 97.865884 0.000000
10.720797 2.136346 0.000000
19.279431 97.863426 0.000000
25.741048 2.116095 0.000000
4.208553 97.884202 0.000000
2.040816 71.428571 0.000000
27.959184 73.469388 0.000000
2.040044 28.570656 0.000000
2.040816 79.591837 0.000000
2.040816 75.510204 0.000000
27.959184 30.612245 0.000000
27.959184 69.387755 0.000000
27.959184 77.551020 0.000000
2.040816 22.448980 0.000000
27.959184 22.448980 0.000000
27.959252 26.530681 0.000000
27.959184 18.367347 0.000000
2.040816 83.673469 0.000000
27.959184 14.285714 0.000000
25.913747 81.628033 0.000000
2.043283 87.757569 0.000000
2.046930 14.291828 0.000000
27.956122 10.201020 0.000000
27.953028 85.708130 0.000000
2.051111 8.173560 0.000000
27.948877 91.826428 0.000000
27.877535 6.025956 0.000000
2.132881 93.976795 0.000000
4.000357 6.267740 0.000000
4.120886 4.222927 0.000000
25.999609 93.732219 0.000000
25.879089 95.777048 0.000000
15.649674 48.560769 0.000000
26.010158 67.277614 0.000000
25.918367 24.489796 0.000000
4.081633 79.591837 0.000000
25.916050 16.328010 0.000000
23.873553 79.584761 0.000000
3.481175 55.433151 0.000000
24.733850 51.947925 0.000000
3.652422 50.744354 0.000000
25.910700 12.249504 0.000000
23.509255 6.363423 0.000000
26.366938 49.758281 0.000000
26.399277 43.548901 0.000000
3.661711 59.758281 0.000000
25.957156 34.691433 0.000000
10.699495 4.264413 0.000000
19.300303 95.735157 0.000000
17.109994 4.256463 0.000000
12.860039 95.741544 0.000000
25.918367 71.428571 0.000000
4.081633 75.510204 0.000000
4.081051 71.394408 0.000000
4.082695 22.452337 0.000000
4.101940 14.313488 0.000000
25.897715 85.686136 0.000000
4.098775 10.200519 0.000000
25.900922 89.799710 0.000000
3.484993 40.079859 0.000000
26.104841 46.997441 0.000000
26.094660 40.880576 0.000000
26.217182 37.055706 0.000000
26.283778 59.646794 0.000000
3.394990 47.531927 0.000000
3.704894 44.917521 0.000000
26.589189 56.610962 0.000000
3.896163 33.117193 0.000000
4.081633 30.612245 0.000000
4.081633 26.530612 0.000000
25.925339 8.209651 0.000000
6.124956 95.705249 0.000000
26.056738 64.934647 0.000000
3.837443 65.195708 0.000000
3.643332 63.322448 0.000000
26.181899 63.192966 0.000000
19.294998 4.257059 0.000000
10.706283 95.741406 0.000000
26.301437 55.150246 0.000000
12.863256 4.267083 0.000000
17.136818 95.732295 0.000000
25.918367 28.571429 0.000000
25.922292 30.652514 0.000000
6.508559 4.176475 0.000000
23.491534 95.823372 0.000000
4.048622 67.346368 0.000000
25.918367 73.469388 0.000000
25.918367 77.551020 0.000000
25.918367 20.408163 0.000000
4.082867 81.631419 0.000000
4.087811 85.710574 0.000000
4.083002 20.414121 0.000000
4.090228 89.806980 0.000000
4.086073 16.326679 0.000000
25.912810 83.674407 0.000000
3.917278 36.754068 0.000000
14.878780 48.427563 0.000000
4.121149 8.218141 0.000000
25.878782 91.781783 0.000000
25.877030 6.294134 0.000000
4.191064 93.660458 0.000000
3.706610 41.587650 0.000000
24.360874 63.474693 0.000000
5.368991 63.172792 0.000000
5.674069 34.909097 0.000000
6.109733 24.502512 0.000000
6.088864 69.353595 0.000000
6.132398 16.325610 0.000000
23.981312 34.665250 0.000000
5.376427 43.319631 0.000000
23.882585 71.433605 0.000000
6.124736 79.588316 0.000000
24.776210 45.416620 0.000000
24.946431 56.614079 0.000000
10.752083 6.375586 0.000000
12.894743 93.625460 0.000000
23.836000 87.699130 0.000000
6.155926 89.782091 0.000000
19.248565 93.623411 0.000000
6.164366 12.302233 0.000000
23.886460 30.607260 0.000000
23.877559 77.543952 0.000000
15.993494 48.772633 0.000000
5.251211 40.260448 0.000000
6.178688 93.732220 0.000000
3.877467 52.261786 0.000000
23.990247 8.280891 0.000000
17.186835 6.364626 0.000000
21.413206 6.362392 0.000000
3.711363 57.087486 0.000000
24.548632 37.413315 0.000000
5.712568 65.433508 0.000000
5.793943 32.523932 0.000000
24.589986 59.837123 0.000000
24.813004 53.682843 0.000000
5.250488 60.030776 0.000000
3.697518 48.909379 0.000000
24.119046 65.396539 0.000000
24.581314 40.691301 0.000000
10.603714 93.717869 0.000000
4.068917 28.558713 0.000000
4.081027 73.434619 0.000000
8.607507 4.236797 0.000000
21.392703 95.762913 0.000000
5.512345 38.522043 0.000000
17.126865 93.618251 0.000000
12.870913 6.383653 0.000000
25.921385 69.390773 0.000000
6.123796 22.456285 0.000000
25.918367 75.510204 0.000000
25.919947 26.532192 0.000000
4.081633 77.551021 0.000000
25.918367 22.448980 0.000000
25.918055 18.367035 0.000000
6.126108 20.415041 0.000000
23.865516 81.626176 0.000000
4.094668 87.761959 0.000000
25.903092 10.196473 0.000000
4.085158 83.675760 0.000000
25.916212 14.283559 0.000000
23.851875 83.638664 0.000000
6.166237 10.285603 0.000000
23.833198 89.714059 0.000000
6.100145 6.368968 0.000000
23.899708 93.630706 0.000000
3.849996 53.640692 0.000000
26.304700 57.958096 0.000000
26.390976 48.299874 0.000000
26.662179 42.156926 0.000000
24.928849 50.372815 0.000000
13.812511 49.014983 0.000000
6.961847 40.150704 0.000000
7.220966 63.583340 0.000000
8.149957 24.495948 0.000000
23.871440 16.336385 0.000000
22.546365 63.639938 0.000000
7.533761 34.314286 0.000000
23.539398 53.218806 0.000000
4.879497 50.090533 0.000000
23.877395 24.489952 0.000000
21.837403 77.544605 0.000000
4.942273 54.893282 0.000000
14.042009 51.239805 0.000000
21.957799 8.394841 0.000000
10.796003 91.534377 0.000000
6.137275 83.658457 0.000000
19.389985 91.656620 0.000000
10.642977 8.412362 0.000000
24.862291 43.842084 0.000000
23.887457 69.399677 0.000000
23.901485 28.589395 0.000000
23.882196 73.469776 0.000000
21.816253 81.579636 0.000000
5.179307 44.681010 0.000000
14.210175 48.650784 0.000000
21.781554 87.648985 0.000000
8.115148 12.462592 0.000000
8.650546 6.363441 0.000000
21.350405 93.635979 0.000000
24.663411 55.112128 0.000000
24.480994 61.756706 0.000000
8.023152 93.717055 0.000000
23.611367 50.645005 0.000000
24.922753 46.689466 0.000000
24.939931 48.967472 0.000000
5.138432 47.437222 0.000000
25.210225 42.253593 0.000000
15.083357 6.376675 0.000000
23.974703 32.674592 0.000000
24.018641 67.390173 0.000000
6.071740 28.533435 0.000000
6.032696 30.572869 0.000000
5.838095 36.820875 0.000000
19.313303 6.356962 0.000000
24.567791 39.067474 0.000000
5.934916 67.348646 0.000000
15.007592 93.613408 0.000000
6.109735 26.530614 0.000000
6.121468 71.394012 0.000000
6.121217 73.470014 0.000000
23.877083 22.449448 0.000000
23.876771 20.408631 0.000000
6.132219 18.371608 0.000000
8.164746 22.457893 0.000000
23.879217 75.504801 0.000000
6.122447 77.547502 0.000000
23.842069 85.655271 0.000000
23.863821 14.301895 0.000000
6.125976 81.631425 0.000000
24.747281 58.245451 0.000000
6.161833 14.324055 0.000000
6.156358 87.744384 0.000000
5.495841 61.447891 0.000000
14.375028 51.419444 0.000000
5.313717 41.826386 0.000000
6.202877 8.383179 0.000000
23.796848 91.616228 0.000000
23.850972 12.298467 0.000000
23.897727 10.313937 0.000000
6.162642 91.852046 0.000000
5.223624 58.441069 0.000000
13.628586 49.241874 0.000000
2.786570 54.199171 0.000000
5.093535 51.130499 0.000000
5.387914 52.233716 0.000000
3.358323 58.372731 0.000000
24.678812 35.893973 0.000000
13.607142 50.739267 0.000000
22.941442 41.026261 0.000000
23.223788 58.324579 0.000000
23.506071 46.765140 0.000000
6.482216 44.584016 0.000000
8.099406 69.355946 0.000000
6.357803 51.489803 0.000000
22.132765 34.570382 0.000000
21.884366 69.430514 0.000000
10.192943 24.500200 0.000000
8.163184 77.547578 0.000000
21.829594 16.348760 0.000000
21.836354 24.490489 0.000000
17.181425 8.462694 0.000000
7.654894 36.253489 0.000000
22.760177 61.916415 0.000000
6.728181 59.905241 0.000000
6.727014 41.596743 0.000000
12.864459 8.477611 0.000000
23.654334 49.356826 0.000000
8.007345 30.508084 0.000000
21.902053 28.606170 0.000000
8.137542 26.525713 0.000000
8.177006 81.607427 0.000000
21.794374 83.590324 0.000000
7.186926 38.525330 0.000000
7.015107 61.839380 0.000000
5.338531 56.651487 0.000000
19.872151 8.442610 0.000000
8.073424 89.599073 0.000000
8.271438 10.346690 0.000000
21.677622 89.640501 0.000000
23.449478 42.463540 0.000000
23.325650 51.972959 0.000000
23.330042 44.183491 0.000000
23.482458 55.740324 0.000000
5.148041 48.818759 0.000000
22.916720 37.715653 0.000000
22.015822 32.583921 0.000000
5.370442 53.547470 0.000000
7.507431 65.450312 0.000000
23.896408 26.568497 0.000000
8.160817 73.433612 0.000000
17.111241 91.511375 0.000000
22.292825 65.495872 0.000000
12.895571 91.525891 0.000000
21.867085 71.444405 0.000000
21.840385 75.505773 0.000000
23.876297 18.366873 0.000000
21.835560 22.450155 0.000000
8.248460 20.346607 0.000000
7.751615 32.465326 0.000000
8.179687 18.373078 0.000000
6.122212 75.510593 0.000000
21.807868 14.311537 0.000000
21.825204 79.544809 0.000000
6.150539 85.692882 0.000000
5.134328 46.040850 0.000000
21.779006 85.615406 0.000000
8.199717 16.395014 0.000000
8.224250 14.413504 0.000000
21.795834 12.397585 0.000000
21.699169 10.521320 0.000000
8.336322 91.561994 0.000000
8.133293 8.293858 0.000000
21.867399 91.706531 0.000000
23.516586 54.541985 0.000000
14.453896 48.556442 0.000000
25.238225 47.787622 0.000000
14.195523 51.302253 0.000000
22.958862 36.215682 0.000000
8.144178 41.549260 0.000000
8.421890 60.301761 0.000000
22.353255 54.162532 0.000000
22.464967 50.846703 0.000000
6.554031 48.817472 0.000000
21.044218 61.921272 0.000000
9.470408 34.412306 0.000000
19.896736 69.445945 0.000000
19.808323 75.512543 0.000000
10.221840 20.423287 0.000000
19.779021 79.496142 0.000000
19.775124 16.420730 0.000000
20.236331 34.461634 0.000000
19.795086 24.491422 0.000000
10.240021 16.469720 0.000000
6.413503 45.848624 0.000000
9.056013 63.626981 0.000000
10.165013 26.527671 0.000000
21.835011 20.408395 0.000000
19.674844 83.449691 0.000000
14.297504 48.455887 0.000000
22.349999 43.088950 0.000000
22.951502 60.196152 0.000000
9.021800 38.116547 0.000000
13.488444 50.412650 0.000000
6.365724 50.317585 0.000000
6.104654 55.080214 0.000000
18.986056 89.489607 0.000000
6.699509 57.246979 0.000000
10.044108 89.521230 0.000000
6.601349 43.002505 0.000000
10.776634 10.563823 0.000000
19.201430 10.542748 0.000000
23.606551 57.055676 0.000000
23.283637 45.471428 0.000000
23.009116 39.542705 0.000000
23.832626 47.983859 0.000000
22.107680 67.447639 0.000000
15.057387 8.467088 0.000000
21.878659 26.546718 0.000000
7.788147 67.381749 0.000000
20.781556 63.691942 0.000000
6.822586 58.427025 0.000000
8.162715 75.507075 0.000000
21.851491 73.475068 0.000000
9.702112 32.457152 0.000000
15.011124 91.520063 0.000000
21.917862 30.606984 0.000000
8.157559 71.390001 0.000000
8.072002 28.525975 0.000000
8.189608 83.659761 0.000000
10.208953 22.458613 0.000000
21.830076 18.393231 0.000000
8.165398 79.588241 0.000000
8.204106 85.655068 0.000000
8.212602 87.685542 0.000000
22.247762 52.043814 0.000000
10.281506 14.600909 0.000000
19.858600 87.627281 0.000000
19.768295 14.405443 0.000000
21.235482 35.786207 0.000000
22.055492 42.090022 0.000000
3.552023 46.248317 0.000000
6.477218 52.631238 0.000000
14.074613 51.468753 0.000000
21.267521 43.206749 0.000000
7.623500 49.895400 0.000000
7.454519 45.456673 0.000000
21.425923 51.623124 0.000000
19.361609 61.974414 0.000000
9.742125 67.387394 0.000000
19.951424 30.585322 0.000000
10.178004 71.399416 0.000000
10.202151 75.508143 0.000000
10.215226 79.565717 0.000000
10.248198 83.596478 0.000000
11.433770 34.358749 0.000000
19.659779 36.124614 0.000000
12.179625 26.525518 0.000000
12.330199 22.397486 0.000000
12.379252 16.414770 0.000000
17.653408 16.572879 0.000000
22.785660 47.586351 0.000000
7.869402 42.860172 0.000000
22.191123 56.893194 0.000000
21.406815 60.365026 0.000000
20.149475 67.520403 0.000000
19.845856 26.522525 0.000000
19.833442 73.494494 0.000000
10.069707 28.525376 0.000000
22.416736 49.749231 0.000000
7.460504 51.703671 0.000000
8.504576 39.859453 0.000000
8.319729 58.828183 0.000000
6.142505 46.759018 0.000000
22.247990 55.335280 0.000000
12.138980 89.165857 0.000000
17.914119 87.426583 0.000000
20.501555 65.594878 0.000000
9.496715 36.254127 0.000000
21.453194 39.077570 0.000000
21.596484 40.733754 0.000000
14.940569 10.545587 0.000000
16.964368 10.537124 0.000000
9.347761 65.498670 0.000000
8.621300 61.895188 0.000000
19.866367 71.473464 0.000000
22.239990 45.093362 0.000000
20.085298 32.542839 0.000000
19.792146 20.435077 0.000000
9.960094 30.507728 0.000000
12.859253 10.560230 0.000000
19.755888 85.526995 0.000000
19.783344 18.420410 0.000000
19.794302 22.450164 0.000000
17.066556 89.326025 0.000000
19.795951 77.496775 0.000000
22.136729 44.061282 0.000000
19.763883 81.477675 0.000000
10.233900 18.523933 0.000000
21.140825 37.504092 0.000000
19.893126 12.404498 0.000000
10.186732 12.619033 0.000000
10.207936 87.508327 0.000000
22.312564 53.030694 0.000000
6.717193 53.961431 0.000000
6.742458 56.121620 0.000000
21.677005 58.660720 0.000000
13.589769 50.546941 0.000000
7.741061 44.214374 0.000000
13.464216 50.616384 0.000000
9.731885 41.136364 0.000000
20.771535 57.274625 0.000000
8.490613 45.067810 0.000000
9.770659 59.143020 0.000000
10.909450 63.350601 0.000000
18.269947 67.566536 0.000000
17.861750 71.474869 0.000000
17.779913 75.435925 0.000000
18.286676 34.422817 0.000000
17.740798 79.435896 0.000000
17.931061 26.036097 0.000000
17.751471 22.477908 0.000000
11.993406 86.711078 0.000000
19.799139 60.341528 0.000000
21.244001 54.730634 0.000000
21.388285 52.675732 0.000000
12.183673 18.409634 0.000000
17.904275 14.697684 0.000000
14.937172 12.623506 0.000000
20.195854 40.358456 0.000000
19.156221 37.692705 0.000000
15.971062 87.354230 0.000000
7.670109 47.668472 0.000000
22.283335 46.855371 0.000000
12.497769 12.516127 0.000000
10.099674 39.603104 0.000000
11.326083 36.218072 0.000000
7.587670 52.882251 0.000000
7.602988 55.066063 0.000000
8.205827 57.600085 0.000000
21.520459 50.660827 0.000000
11.200897 65.480608 0.000000
21.158313 44.526039 0.000000
19.917008 28.573413 0.000000
10.188569 73.446985 0.000000
10.107031 69.353833 0.000000
19.055881 63.775158 0.000000
9.979963 60.454699 0.000000
15.030091 89.429578 0.000000
12.063477 28.521896 0.000000
11.642173 32.450128 0.000000
17.710887 81.477091 0.000000
12.233194 24.486911 0.000000
12.348198 14.417529 0.000000
10.207948 77.534361 0.000000
20.813159 41.775923 0.000000
18.135238 32.534665 0.000000
10.231889 81.583041 0.000000
17.790086 18.857560 0.000000
12.268043 20.263178 0.000000
17.754728 12.524423 0.000000
17.695072 83.522785 0.000000
17.763346 85.427074 0.000000
10.264455 85.656827 0.000000
8.820647 43.882350 0.000000
21.139207 55.958668 0.000000
7.329007 46.709657 0.000000
7.262855 50.785023 0.000000
21.362822 53.706851 0.000000
9.152980 42.529334 0.000000
22.666549 48.546495 0.000000
19.997708 42.720216 0.000000
9.935453 43.443779 0.000000
20.298905 55.292628 0.000000
20.557708 52.296448 0.000000
8.413521 51.971256 0.000000
11.253178 59.742807 0.000000
18.344843 60.443324 0.000000
12.510949 63.822848 0.000000
13.376062 50.795308 0.000000
12.194346 69.609129 0.000000
12.137227 73.802319 0.000000
13.266774 35.914998 0.000000
12.354395 77.371553 0.000000
15.570282 81.157153 0.000000
9.276905 56.768396 0.000000
17.926610 28.516085 0.000000
14.066417 28.531066 0.000000
15.487165 85.063526 0.000000
10.915829 40.435770 0.000000
14.205293 26.529933 0.000000
16.356414 34.470521 0.000000
14.348169 24.430784 0.000000
14.300444 22.468969 0.000000
14.214024 20.463572 0.000000
14.338414 18.528045 0.000000
12.275711 79.523779 0.000000
12.276331 81.544532 0.000000
14.357292 16.475358 0.000000
13.104567 34.145465 0.000000
12.309176 83.595850 0.000000
21.259966 45.407997 0.000000
10.839131 38.035403 0.000000
18.688418 65.626666 0.000000
9.591784 44.777881 0.000000
21.296096 49.784683 0.000000
21.398977 46.874424 0.000000
10.083488 61.990333 0.000000
17.983654 30.585260 0.000000
11.650226 67.428015 0.000000
20.594933 51.387278 0.000000
17.935745 69.502373 0.000000
17.678127 61.994429 0.000000
17.793213 36.330390 0.000000
11.928024 30.489825 0.000000
17.714892 24.320786 0.000000
17.638297 73.445268 0.000000
17.756835 77.396780 0.000000
18.028161 20.703249 0.000000
20.255031 43.935113 0.000000
20.379419 54.313924 0.000000
7.933531 56.400666 0.000000
20.422535 58.893288 0.000000
15.815976 14.836234 0.000000
8.280065 50.838455 0.000000
13.284558 50.557202 0.000000
11.663219 84.968960 0.000000
9.078122 45.887169 0.000000
7.826578 53.942857 0.000000
16.006397 18.582932 0.000000
19.701456 41.632086 0.000000
20.094516 38.804836 0.000000
21.717299 47.786848 0.000000
14.020261 87.168140 0.000000
14.146818 14.622322 0.000000
20.499408 53.327593 0.000000
10.397307 42.274427 0.000000
22.646028 46.030523 0.000000
19.272818 43.494399 0.000000
10.673454 44.193049 0.000000
13.122384 50.744545 0.000000
19.519165 54.741257 0.000000
19.804380 51.985680 0.000000
9.137345 51.239811 0.000000
17.776570 37.947859 0.000000
16.704981 60.634159 0.000000
19.687352 57.729439 0.000000
13.368895 67.503124 0.000000
12.801308 38.087834 0.000000
13.971901 30.512311 0.000000
13.267924 50.331371 0.000000
15.989487 69.502298 0.000000
15.857555 71.451203 0.000000
8.792296 54.371752 0.000000
15.789840 73.443897 0.000000
15.750812 75.369138 0.000000
11.265259 61.323052 0.000000
16.003038 77.408426 0.000000
16.823206 65.659908 0.000000
16.322296 36.223027 0.000000
20.826485 48.485949 0.000000
13.529375 50.962152 0.000000
10.982401 58.231536 0.000000
9.990519 45.794936 0.000000
18.636350 40.995957 0.000000
16.003580 32.382339 0.000000
17.344079 63.825391 0.000000
8.645174 53.039147 0.000000
12.947977 65.530577 0.000000
12.049109 72.173263 0.000000
13.543201 32.471576 0.000000
20.374875 45.164146 0.000000
15.936278 79.415766 0.000000
19.614641 53.830879 0.000000
12.200779 75.516685 0.000000
16.007785 30.322203 0.000000
9.073497 55.600853 0.000000
20.676059 50.545301 0.000000
15.970465 28.419413 0.000000
20.208040 56.401263 0.000000
8.677880 49.988306 0.000000
15.853522 82.673711 0.000000
8.162433 46.155518 0.000000
16.115013 26.406294 0.000000
16.308481 24.505451 0.000000
18.912542 42.317302 0.000000
21.631832 48.931676 0.000000
14.286139 77.517569 0.000000
16.188761 22.980853 0.000000
19.181537 59.006020 0.000000
16.333669 20.834067 0.000000
14.306527 79.498459 0.000000
15.649829 16.853705 0.000000
14.968672 36.207508 0.000000
14.166993 81.354495 0.000000
11.558615 39.494344 0.000000
14.125777 83.266107 0.000000
13.333460 85.173408 0.000000
12.664947 62.258933 0.000000
19.791833 52.867707 0.000000
21.742244 46.088515 0.000000
18.526488 39.391355 0.000000
11.200639 43.178038 0.000000
18.266160 43.118423 0.000000
11.764165 44.063257 0.000000
18.695660 54.139700 0.000000
9.324854 50.532839 0.000000
9.480077 53.661749 0.000000
13.161463 39.922661 0.000000
9.621993 46.659925 0.000000
16.889712 39.283543 0.000000
12.324608 59.001106 0.000000
20.527255 47.512687 0.000000
19.162557 52.492828 0.000000
14.217585 63.483201 0.000000
14.557630 37.801643 0.000000
18.414413 58.011042 0.000000
8.578613 49.035985 0.000000
20.504533 49.751157 0.000000
9.340541 52.113240 0.000000
10.399435 55.952810 0.000000
15.896601 62.369781 0.000000
20.646526 46.265566 0.000000
8.565534 47.040842 0.000000
19.174252 56.754469 0.000000
14.857041 65.893928 0.000000
10.014697 54.758370 0.000000
13.392193 50.140757 0.000000
16.412445 67.592022 0.000000
19.870929 51.195965 0.000000
14.038380 69.407389 0.000000
19.528164 44.619035 0.000000
11.738238 42.135677 0.000000
12.812193 60.382387 0.000000
17.871425 41.886648 0.000000
13.827574 71.433500 0.000000
13.046316 50.463260 0.000000
13.243285 51.041841 0.000000
19.413704 55.740076 0.000000
13.809389 73.446906 0.000000
16.237600 37.670984 0.000000
13.725099 75.491856 0.000000
14.547260 34.291607 0.000000
17.703442 59.219529 0.000000
13.713818 50.903029 0.000000
15.827702 64.246442 0.000000
10.243336 57.146715 0.000000
10.495991 45.079863 0.000000
19.053152 53.276450 0.000000
20.873765 49.185248 0.000000
12.844168 50.664110 0.000000
10.962866 55.153057 0.000000
18.212182 53.494494 0.000000
17.258246 42.774937 0.000000
10.022217 52.847173 0.000000
17.062435 57.933784 0.000000
13.438753 51.197620 0.000000
12.212752 57.735694 0.000000
19.910058 46.859393 0.000000
9.916938 51.244622 0.000000
14.344550 39.419241 0.000000
14.246505 60.238021 0.000000
18.442936 56.041372 0.000000
20.028294 48.476540 0.000000
13.887098 51.109272 0.000000
13.275027 49.914017 0.000000
11.322732 44.937686 0.000000
12.118402 40.937426 0.000000
11.311346 56.895935 0.000000
13.079606 50.158378 0.000000
14.434107 61.763730 0.000000
19.715898 45.838173 0.000000
19.148732 51.732031 0.000000
9.238974 47.714924 0.000000
19.911209 50.446426 0.000000
18.510577 52.903174 0.000000
7.618889 49.023274 0.000000
10.323769 53.967598 0.000000
18.647693 44.261756 0.000000
16.480658 59.238527 0.000000
18.716561 55.144341 0.000000
13.678611 51.138782 0.000000
17.489815 40.503110 0.000000
15.572420 38.968663 0.000000
12.938615 50.968535 0.000000
10.305235 46.433776 0.000000
17.909105 56.974746 0.000000
10.980332 41.383933 0.000000
14.837819 67.821848 0.000000
9.511106 49.736871 0.000000
9.525661 58.002296 0.000000
20.243897 49.101525 0.000000
15.268937 60.893569 0.000000
19.103649 46.410052 0.000000
12.154971 45.109861 0.000000
17.748362 53.044060 0.000000
19.369476 48.351635 0.000000
12.622029 50.896359 0.000000
10.801278 53.241784 0.000000
13.009685 42.171929 0.000000
15.677880 58.131868 0.000000
17.790902 55.408661 0.000000
13.578172 58.771972 0.000000
12.368106 56.526923 0.000000
15.826242 40.323323 0.000000
13.587155 51.371096 0.000000
9.465277 49.091021 0.000000
13.509920 49.563275 0.000000
14.453948 40.783165 0.000000
18.590754 52.181825 0.000000
19.230336 51.021474 0.000000
16.861091 56.679505 0.000000
10.996953 45.809594 0.000000
18.941145 45.337040 0.000000
17.808798 54.014866 0.000000
17.899828 54.648482 0.000000
19.829731 49.695700 0.000000
8.326209 48.277906 0.000000
16.741858 41.573916 0.000000
19.707306 47.765502 0.000000
10.143244 47.322548 0.000000
12.789977 50.341969 0.000000
10.316569 52.014259 0.000000
17.735915 43.956858 0.000000
12.988057 51.205543 0.000000
10.202002 50.529327 0.000000
15.101175 59.457749 0.000000
13.855186 51.332704 0.000000
13.448983 49.765429 0.000000
17.527738 56.155788 0.000000
11.674613 55.813718 0.000000
10.893710 54.465072 0.000000
13.412345 41.170763 0.000000
13.783480 51.598883 0.000000
17.364463 53.590269 0.000000
11.417666 53.842825 0.000000
16.789897 43.677434 0.000000
10.934300 52.490514 0.000000
15.863126 56.988568 0.000000
18.405798 45.962865 0.000000
14.266807 42.004752 0.000000
12.545424 55.323075 0.000000
19.000435 47.808167 0.000000
13.279411 49.642049 0.000000
16.789912 55.565239 0.000000
10.684743 51.358554 0.000000
10.939788 46.827363 0.000000
18.010538 52.515859 0.000000
18.581720 51.494915 0.000000
13.252448 57.321256 0.000000
10.400573 49.775356 0.000000
19.255637 50.376173 0.000000
16.196094 42.645957 0.000000
17.103222 54.284424 0.000000
18.160125 45.044728 0.000000
12.516129 43.299718 0.000000
19.370757 49.027802 0.000000
13.230231 51.381316 0.000000
19.242868 47.171163 0.000000
12.531130 50.557141 0.000000
12.760049 50.035242 0.000000
14.416377 57.929494 0.000000
13.594321 49.422503 0.000000
11.704126 45.563787 0.000000
7.358242 48.350751 0.000000
12.744480 51.136130 0.000000
15.431684 41.700210 0.000000
17.218213 54.948704 0.000000
9.411523 48.545541 0.000000
17.627515 45.666183 0.000000
16.720551 53.797118 0.000000
12.236497 45.951709 0.000000
17.061597 53.149969 0.000000
15.945287 55.996968 0.000000
10.869592 50.329786 0.000000
12.278247 50.816121 0.000000
11.214068 51.824935 0.000000
11.124919 47.697222 0.000000
15.775635 43.530892 0.000000
18.463252 47.067482 0.000000
14.247820 51.629657 0.000000
10.331421 48.223372 0.000000
14.924007 57.145400 0.000000
11.749549 54.603508 0.000000
16.507201 54.836714 0.000000
11.566734 46.359522 0.000000
18.094408 51.903036 0.000000
13.212055 56.071862 0.000000
13.432456 49.395577 0.000000
18.603428 50.851526 0.000000
17.378473 52.665556 0.000000
19.155431 49.698865 0.000000
13.586278 51.855089 0.000000
18.790824 48.518385 0.000000
12.987785 49.637177 0.000000
17.331645 44.813550 0.000000
11.480348 52.973378 0.000000
10.138169 49.073321 0.000000
13.011411 49.853488 0.000000
12.761810 51.417312 0.000000
6.698721 47.623765 0.000000
12.464125 50.202942 0.000000
15.098166 42.826410 0.000000
12.439877 51.161335 0.000000
13.884212 43.176417 0.000000
16.909466 45.458920 0.000000
16.152438 54.258540 0.000000
12.026602 53.308837 0.000000
16.728017 52.668177 0.000000
13.345067 55.034917 0.000000
12.748632 45.430150 0.000000
11.749160 52.237773 0.000000
12.125708 46.728242 0.000000
12.278560 51.513442 0.000000
13.310444 44.113248 0.000000
11.918673 51.102765 0.000000
15.010870 56.101293 0.000000
13.041562 51.679354 0.000000
13.346791 49.144657 0.000000
14.464575 51.653830 0.000000
14.050930 51.763086 0.000000
18.377781 48.004476 0.000000
18.094125 51.300169 0.000000
17.932659 46.530935 0.000000
18.693762 50.266879 0.000000
16.512697 53.326079 0.000000
15.776577 55.169175 0.000000
11.262599 48.385158 0.000000
11.009583 49.870436 0.000000
17.625437 52.173070 0.000000
18.699994 49.145398 0.000000
15.574398 44.403797 0.000000
16.473062 44.560621 0.000000
11.305146 51.238932 0.000000
10.956304 48.899646 0.000000
14.825931 43.785207 0.000000
13.194079 49.382044 0.000000
12.253532 50.446858 0.000000
12.396571 49.848143 0.000000
12.686589 49.734069 0.000000
12.728755 54.431669 0.000000
17.900212 47.627262 0.000000
14.147460 56.774954 0.000000
17.646504 47.070508 0.000000
16.013232 53.678466 0.000000
13.822163 51.957059 0.000000
18.166385 48.680963 0.000000
13.378236 54.315805 0.000000
12.294005 49.495908 0.000000
13.032789 49.112684 0.000000
14.705914 44.638234 0.000000
14.874754 51.569335 0.000000
14.806793 55.132499 0.000000
11.458053 50.306864 0.000000
13.552161 48.977396 0.000000
12.814457 46.283695 0.000000
18.087277 50.799141 0.000000
17.071286 52.297088 0.000000
11.680167 47.125964 0.000000
17.197945 46.304635 0.000000
12.551339 44.462572 0.000000
18.590162 49.706531 0.000000
16.268439 52.878384 0.000000
17.681472 51.610382 0.000000
14.304831 51.851575 0.000000
15.371731 54.414388 0.000000
16.224565 45.375958 0.000000
17.904872 48.247927 0.000000
14.108973 55.649661 0.000000
11.669673 48.919442 0.000000
11.776850 51.646053 0.000000
11.896565 50.588524 0.000000
12.592082 51.787847 0.000000
12.631174 49.412195 0.000000
10.864279 50.791753 0.000000
12.944466 49.378276 0.000000
14.100465 44.121762 0.000000
13.444759 51.623175 0.000000
12.203348 52.729729 0.000000
10.892635 49.447408 0.000000
12.050339 50.060778 0.000000
14.541902 51.490016 0.000000
17.028005 46.911888 0.000000
12.708745 46.982619 0.000000
15.433608 53.769110 0.000000
17.710332 48.980041 0.000000
16.513923 52.258656 0.000000
14.874035 51.771525 0.000000
17.525276 47.940597 0.000000
12.844724 52.034340 0.000000
12.574891 53.124499 0.000000
13.438207 45.703477 0.000000
11.907433 48.324342 0.000000
12.604665 49.027900 0.000000
13.941357 44.959417 0.000000
11.917195 49.573962 0.000000
13.551008 52.162845 0.000000
14.603445 51.889151 0.000000
18.169011 50.291339 0.000000
12.380941 52.208700 0.000000
15.396497 45.260873 0.000000
13.275085 51.940076 0.000000
17.290909 51.864795 0.000000
15.860724 53.186992 0.000000
17.681259 51.082684 0.000000
18.167847 49.231634 0.000000
13.047289 53.626200 0.000000
11.448875 49.758112 0.000000
14.561679 54.288151 0.000000
14.044970 54.738967 0.000000
16.507255 46.065095 0.000000
12.155519 51.878763 0.000000
13.246532 48.846138 0.000000
14.674530 51.623126 0.000000
14.089140 52.065167 0.000000
11.916613 47.768262 0.000000
13.205180 44.893102 0.000000
11.383234 50.777262 0.000000
16.464244 46.696696 0.000000
15.106482 51.802148 0.000000
14.876494 53.769563 0.000000
14.105969 48.363905 0.000000
16.154864 52.484590 0.000000
17.757726 49.425269 0.000000
14.692530 45.454761 0.000000
13.868247 53.902712 0.000000
13.097596 52.884579 0.000000
13.410067 46.555587 0.000000
17.536568 48.543069 0.000000
12.878342 48.864047 0.000000
12.196635 49.176258 0.000000
16.810417 51.977126 0.000000
15.305813 53.230941 0.000000
14.877127 52.008157 0.000000
17.286803 47.444950 0.000000
17.323167 51.361254 0.000000
12.700940 52.515882 0.000000
13.181035 52.351204 0.000000
17.664933 50.566507 0.000000
18.011940 49.786671 0.000000
15.745309 45.934567 0.000000
14.351155 52.137451 0.000000
12.368087 47.429353 0.000000
12.118052 48.798846 0.000000
12.257459 53.822923 0.000000
13.496616 48.730532 0.000000
14.143649 45.676366 0.000000
11.552393 48.074286 0.000000
13.837969 52.227717 0.000000
11.376936 49.319714 0.000000
15.886542 46.576126 0.000000
17.192280 48.221247 0.000000
13.298056 47.154955 0.000000
17.314509 49.148025 0.000000
15.156291 52.061888 0.000000
16.329272 51.938985 0.000000
14.769223 53.188065 0.000000
14.422382 48.274796 0.000000
12.715137 47.841940 0.000000
13.346390 48.494870 0.000000
13.975922 48.602089 0.000000
17.602806 49.857908 0.000000
14.662310 46.179140 0.000000
13.607820 52.606658 0.000000
13.614280 53.184309 0.000000
12.552001 48.572004 0.000000
15.691634 52.716604 0.000000
16.700212 47.320474 0.000000
15.438258 51.517034 0.000000
16.987112 51.588757 0.000000
17.329139 50.894668 0.000000
15.248434 51.590077 0.000000
13.032816 48.554527 0.000000
12.385823 48.034651 0.000000
14.617674 52.157741 0.000000
15.164729 45.858584 0.000000
17.738220 50.162003 0.000000
13.710849 48.844009 0.000000
14.025666 52.403050 0.000000
13.968603 46.241007 0.000000
14.201818 48.109284 0.000000
17.439152 50.192118 0.000000
16.035921 52.147935 0.000000
14.893862 52.371179 0.000000
13.871172 46.880107 0.000000
13.274157 48.159952 0.000000
14.668344 48.456935 0.000000
17.328525 49.526278 0.000000
15.108970 52.774353 0.000000
17.195115 48.757354 0.000000
16.206577 47.154176 0.000000
13.787074 48.447824 0.000000
16.966761 47.792036 0.000000
17.006906 51.146006 0.000000
16.564802 51.680225 0.000000
15.381789 51.761942 0.000000
15.661912 51.466398 0.000000
14.220847 53.185255 0.000000
12.823239 48.168034 0.000000
15.325879 46.496563 0.000000
13.969955 52.771266 0.000000
14.065250 48.747264 0.000000
17.238427 50.520784 0.000000
12.908160 47.499900 0.000000
14.417241 52.554495 0.000000
14.410159 46.801051 0.000000
14.497148 48.030964 0.000000
16.903309 48.485442 0.000000
15.920353 51.534959 0.000000
16.864555 48.953486 0.000000
16.990874 50.779758 0.000000
13.749497 47.406380 0.000000
15.449726 52.063606 0.000000
16.984572 50.526896 0.000000
13.365190 47.696155 0.000000
16.992973 49.274964 0.000000
16.388557 47.701615 0.000000
16.722997 51.353379 0.000000
17.256195 49.877252 0.000000
15.720577 52.301053 0.000000
15.695226 47.048012 0.000000
15.923498 51.840754 0.000000
14.766513 52.740023 0.000000
15.336844 52.381447 0.000000
13.892488 48.189924 0.000000
16.375343 51.446869 0.000000
13.587189 48.303006 0.000000
14.701290 48.232690 0.000000
13.897011 48.808103 0.000000
14.418554 53.722592 0.000000
14.270013 47.287641 0.000000
14.574928 52.917371 0.000000
13.017177 47.873196 0.000000
14.955430 48.214385 0.000000
16.654235 48.701001 0.000000
14.721915 47.314417 0.000000
16.724137 51.019428 0.000000
14.260915 47.887609 0.000000
16.475276 51.151926 0.000000
16.673675 48.128505 0.000000
16.609672 49.151505 0.000000
17.045143 50.224592 0.000000
16.679978 50.715073 0.000000
15.973902 47.503850 0.000000
13.616110 47.998614 0.000000
16.007779 51.236724 0.000000
17.014948 49.585468 0.000000
16.191866 51.661293 0.000000
15.260325 47.015649 0.000000
15.708220 51.682475 0.000000
14.066882 47.655500 0.000000
13.730393 48.667975 0.000000
13.939524 47.926605 0.000000
14.787803 47.979958 0.000000
15.066909 47.960110 0.000000
16.259041 48.051144 0.000000
16.288085 49.068679 0.000000
16.550269 49.610521 0.000000
15.526778 47.488809 0.000000
16.510149 50.919751 0.000000
16.477445 48.413044 0.000000
16.487894 49.417810 0.000000
14.499076 47.691606 0.000000
16.734498 49.379297 0.000000
16.952568 49.882061 0.000000
16.470272 48.905752 0.000000
16.722273 50.429575 0.000000
15.080084 48.422415 0.000000
16.275162 51.232461 0.000000
16.274404 50.952374 0.000000
15.703288 51.966294 0.000000
16.154101 51.422461 0.000000
14.916264 46.867381 0.000000
16.400274 50.751706 0.000000
13.747441 47.736651 0.000000
13.589532 48.528841 0.000000
15.880965 47.849220 0.000000
15.476312 48.485495 0.000000
16.151726 48.347633 0.000000
16.274977 48.659445 0.000000
16.159239 48.902712 0.000000
15.282036 48.434241 0.000000
16.762170 49.673109 0.000000
15.096318 47.354117 0.000000
16.800250 50.127075 0.000000
16.521160 50.371535 0.000000
15.197776 48.217866 0.000000
14.895168 47.665933 0.000000
15.668606 48.354214 0.000000
15.347989 48.000647 0.000000
16.543975 49.959043 0.000000
15.871188 48.245665 0.000000
15.996603 48.543670 0.000000
16.704298 49.931790 0.000000
15.240735 47.726583 0.000000
15.526145 47.844476 0.000000
15.439461 48.259796 0.000000
15.827628 48.654662 0.000000
15.785793 48.500682 0.000000
15.642796 48.079589 0.000000
POLYGONS 2699 10796
3 638 743 547
3 887 1006 964
3 1300 1301 1263
3 1072 1281 1120
3 1387 1399 1374
3 1206 1267 1232
3 1315 1341 1337
3 902 907 886
3 286 337 270
3 996 1059 956
3 1048 1110 1081
3 1316 1342 1321
3 809 939 876
3 559 570 510
3 1264 1289 1220
3 1300 1337 1301
3 887 964 640
3 1001 1018 981
3 1212 1230 1186
3 941 1003 876
3 549 745 683
3 1188 1250 140
3 797 860 765
3 1299 1316 1283
3 743 748 700
3 885 997 945
3 699 806 801
3 699 801 745
3 719 797 765
3 858 913 822
3 822 1027 776
3 561 617 571
3 969 1092 939
3 1082 1113 1059
3 1022 1083 1057
3 531 680 614
3 469 708 616
3 1079 1116 1095
3 431 638 547
3 1207 1248 1148
3 1151 1197 1092
3 747 806 616
3 1120 1281 1177
3 646 745 549
3 1141 1151 1092
3 1228 1253 1231
3 140 1250 1218
3 1041 1103 1045
3 893 935 751
3 1375 1396 1373
3 432 475 337
3 561 571 530
3 949 959 843
3 642 742 572
3 1048 1081 1066
3 1114 1118 1057
3 1004 1036 969
3 1108 1122 1100
3 1261 1283 1231
3 766 938 868
3 776 858 822
3 1087 1111 1062
3 401 470 429
3 1405 1406 1375
3 1192 1220 1149
3 1419 1430 178
3 1294 1364 1323
3 372 401 371
3 1299 1409 1342
3 547 743 700
3 843 959 937
3 1320 1359 1341
3 1190 1217 1208
3 636 1294 612
3 1337 1341 1334
3 1415 1428 1392
3 880 996 956
3 1180 1219 1196
3 1429 1435 1428
3 1136 1140 1102
3 531 1117 680
3 1351 1381 1322
3 1316 1321 1264
3 1152 1254 1208
3 479 642 572
3 279 423 217
3 712 870 785
3 401 429 371
3 577 677 546
3 1415 1429 1428
3 620 1013 682
3 573 648 558
3 1232 1286 1206
3 1356 1360 1349
3 890 913 775
3 1164 1171 1118
3 712 785 590
3 1285 1315 1300
3 578 619 500
3 511 573 558
3 1184 1262 1246
3 1380 1413 1395
3 278 362 199
3 139 1188 140
3 1386 1407 1332
3 1090 1143 1107
3 620 641 581
3 904 991 944
3 969 1024 1004
3 765 871 771
3 280 465 221
3 1092 1197 941
3 772 826 747
3 1375 1406 1396
3 765 771 727
3 707 774 679
3 941 1197 1031
3 282 336 193
3 951 982 962
3 1348 1411 1351
3 970 1007 935
3 942 989 985
3 1192 1264 1220
3 1413 1432 1395
3 1367 1399 1387
3 1255 1287 1247
3 700 711 580
3 1246 1262 1245
3 281 364 219
3 1010 1105 1054
3 1336 1409 1299
3 1120 1177 1078
3 1274 1300 1263
3 1190 1244 1217
3 701 859 743
3 575 609 485
3 1219 1255 1196
3 576 610 484
3 885 932 839
3 954 1105 1043
3 485 609 495
3 283 399 223
3 484 610 496
3 1113 1207 1148
3 963 988 957
3 572 644 538
3 218 286 270
3 1416 1417 420
3 841 900 864
3 951 962 905
3 1217 1244 1232
3 1054 1105 954
3 717 792 766
3 619 777 706
3 578 740 672
3 1019 1055 1041
3 285 343 228
3 407 646 549
3 1303 1356 1259
3 1433 1436 1425
3 284 466 226
3 952 997 885
3 681 792 677
3 463 479 336
3 1263 1301 1243
3 1114 1284 1164
3 649 700 580
3 366 430 365
3 1036 1141 1092
3 1041 1045 997
3 809 876 841
3 1100 1122 1049
3 434 476 338
3 497 611 432
3 743 859 748
3 338 541 423
3 498 638 431
3 937 959 838
3 293 366 365
3 1401 1430 1419
3 672 684 619
3 652 807 698
3 270 467 341
3 717 766 716
3 1187 1261 1231
3 1427 1430 258
3 643 674 576
3 1108 1192 1149
3 1005 1040 994
3 484 643 576
3 291 372 371
3 430 474 402
3 951 1007 958
3 861 943 880
3 149 964 150
3 155 468 156
3 942 985 910
3 1118 1171 1134
3 365 430 402
3 775 913 858
3 338 423 279
3 647 738 575
3 1081 1163 1121
3 701 743 638
3 343 433 265
3 812 956 904
3 1086 1179 1098
3 1098 1179 1119
3 485 647 575
3 608 645 482
3 538 543 427
3 1170 1254 1152
3 998 1007 970
3 639 708 570
3 1147 1253 1228
3 1035 1133 1072
3 437 608 482
3 1082 1170 1113
3 935 1007 951
3 1158 1178 1116
3 1283 1316 1228
3 1051 1071 989
3 343 543 538
3 1302 1309 1266
3 1031 1100 1003
3 420 1429 1416
3 865 904 890
3 286 432 337
3 436 577 546
3 1178 1180 1116
3 1180 1196 1160
3 910 985 936
3 792 867 766
3 1045 1103 1077
3 1136 1150 1140
3 1026 1087 1062
3 1397 1415 1392
3 773 885 839
3 579 637 577
3 639 839 772
3 1149 1279 1195
3 1210 1230 1212
3 218 270 198
3 1059 1113 1074
3 883 961 916
3 1413 1436 1432
3 219 286 218
3 267 498 431
3 1196 1255 1247
3 411 649 580
3 685 814 760
3 221 269 197
3 1087 1216 1165
3 223 268 210
3 1352 1377 1346
3 1019 1041 947
3 1354 1375 1373
3 886 912 902
3 998 1029 1007
3 839 932 772
3 1113 1148 1074
3 495 609 461
3 989 1071 1032
3 1144 1281 1072
3 650 723 579
3 496 610 462
3 1121 1143 1090
3 708 772 747
3 564 807 652
3 733 779 681
3 1097 1176 1135
3 1177 1184 1146
3 953 1023 961
3 958 982 951
3 1348 1351 1289
3 381 495 461
3 607 737 648
3 841 864 749
3 382 496 462
3 427 572 538
3 881 977 850
3 1315 1337 1300
3 607 648 573
3 1191 1314 468
3 1376 1392 1353
3 503 1137 620
3 917 943 861
3 840 903 783
3 581 641 476
3 770 874 548
3 269 486 342
3 1083 1195 1114
3 479 572 336
3 1402 1417 1416
3 504 577 436
3 618 740 475
3 1362 1375 1354
3 873 939 809
3 651 717 716
3 774 904 865
3 160 612 161
3 1252 1284 1114
3 1206 1286 1171
3 1381 1411 1389
3 337 578 500
3 1377 1398 176
3 913 957 822
3 1392 1413 1353
3 499 608 437
3 102 279 217
3 104 278 199
3 41 280 221
3 777 842 706
3 710 1137 503
3 996 1082 1059
3 819 952 885
3 619 706 500
3 1331 1362 1354
3 992 1048 1023
3 885 945 932
3 45 281 219
3 275 499 437
3 685 849 814
3 1230 1302 1266
3 1242 1276 1260
3 1379 1410 177
3 1129 1238 1214
3 1001 1064 1018
3 177 1403 1379
3 1049 1083 1022
3 883 916 748
3 100 282 193
3 913 963 957
3 1230 1266 1186
3 107 283 223
3 1067 1120 1078
3 220 361 194
3 1372 1399 1367
3 1124 1179 1086
3 706 807 564
3 806 873 809
3 895 903 840
3 1077 1141 1036
3 946 1010 960
3 699 745 646
3 1370 1423 1404
3 944 1014 963
3 1326 1344 1288
3 176 1393 1377
3 872 936 811
3 1389 1411 1387
3 336 540 463
3 1135 1176 1131
3 1377 1400 1398
3 38 284 226
3 1303 1360 1356
3 1293 1359 1325
3 228 265 190
3 682 804 641
3 1350 1403 1378
3 423 463 217
3 1219 1304 1255
3 1279 1310 1252
3 997 1045 945
3 767 881 850
3 948 1039 970
3 226 266 192
3 1177 1281 1243
3 258 1430 1421
3 1308 1332 1256
3 953 961 883
3 637 733 681
3 1376 1397 1392
3 714 840 783
3 98 285 228
3 486 577 504
3 1288 1376 1329
3 899 1005 994
3 1293 1325 1269
3 1161 1235 1198
3 1094 1214 1154
3 1179 1205 1153
3 1148 1236 1215
3 1199 1303 1259
3 1301 1337 1334
3 723 779 733
3 1344 1397 1376
3 1040 1124 1086
3 1035 1072 1014
3 1325 1360 1303
3 486 579 577
3 1353 1413 1380
3 1150 1248 1207
3 1367 1387 1348
3 1392 1428 1413
3 258 1421 1403
3 1416 1429 1415
3 1000 1093 1033
3 715 839 639
3 376 497 432
3 1217 1232 1175
3 1318 1378 1355
3 776 1027 709
3 1236 1273 1215
3 1124 1205 1179
3 1330 1373 1347
3 1255 1327 1287
3 1203 1237 1168
3 1346 1371 1344
3 1307 1347 1339
3 1378 1421 1401
3 228 343 265
3 1110 1163 1081
3 1030 1116 1076
3 285 543 343
3 369 499 275
3 762 811 684
3 1280 1302 1230
3 1233 1300 1274
3 1269 1303 1240
3 133 1382 211
3 1356 1407 1319
3 1214 1238 1154
3 502 613 465
3 956 1059 991
3 1264 1321 1289
3 578 672 619
3 173 1398 1394
3 337 467 270
3 1115 1169 1168
3 946 960 864
3 1134 1216 1087
3 209 369 275
3 819 885 773
3 1042 1214 1094
3 4 1427 258
3 1290 1346 1326
3 1172 1213 1141
3 222 287 191
3 397 424 340
3 1107 1109 1071
3 1014 1072 1068
3 723 838 779
3 1357 1395 1385
3 1118 1134 1105
3 1227 1273 1263
3 1148 1248 1236
3 1159 1193 1126
3 199 434 338
3 130 1410 1406
3 1398 1400 1394
3 1036 1092 969
3 227 267 220
3 895 965 962
3 277 397 340
3 1342 1367 1321
3 1108 1149 1122
3 741 865 775
3 336 572 427
3 910 936 872
3 994 1086 1039
3 1295 1310 1279
3 1324 1352 1290
3 270 341 198
3 702 840 714
3 970 1039 998
3 410 650 579
3 1010 1054 960
3 1265 1288 1225
3 1189 1202 1163
3 561 709 617
3 989 1032 1012
3 1078 1177 1146
3 988 1120 1067
3 1199 1259 1145
3 1346 1402 1371
3 1265 1326 1288
3 1325 1359 1320
3 977 1020 952
3 1275 1318 1313
3 812 904 774
3 1109 1162 1145
3 1147 1228 1192
3 1222 1326 1265
3 1171 1286 1216
3 709 1027 750
3 1145 1223 1194
3 291 371 247
3 1245 1257 1202
3 1298 1324 1260
3 1204 1265 1225
3 992 1023 953
3 1377 1402 1346
3 1133 1215 1144
3 1295 1335 1310
3 1223 1292 1268
3 1403 1421 1378
3 1277 1336 1312
3 1234 1250 1224
3 897 1028 1000
3 751 935 815
3 1373 1379 1347
3 1329 1376 1353
3 1198 1276 1242
3 1292 1384 1331
3 1304 1353 1327
3 748 916 802
3 651 716 582
3 1130 1183 1158
3 435 473 400
3 1272 1330 1307
3 341 465 280
3 1139 1172 1141
3 1306 1354 1330
3 1169 1203 1168
3 1123 1159 1085
3 1111 1211 1062
3 962 982 895
3 1202 1221 1143
3 859 883 748
3 943 996 880
3 760 859 701
3 612 1323 161
3 949 995 959
3 965 1025 962
3 1026 1134 1087
3 288 397 277
3 1164 1229 1206
3 1326 1346 1344
3 289 344 248
3 1371 1416 1397
3 1078 1146 1124
3 358 501 269
3 1074 1133 1035
3 1131 1173 1080
3 1121 1163 1143
3 983 1005 899
3 1074 1148 1133
3 1239 1306 1272
3 1426 1436 1433
3 1394 1419 178
3 1247 1287 1277
3 331 435 370
3 991 1014 944
3 1225 1329 1271
3 1167 1242 1183
3 1421 1430 1401
3 1241 1307 1275
3 278 678 362
3 410 579 486
3 503 620 581
3 963 1068 988
3 1149 1195 1122
3 1271 1329 1304
3 1221 1240 1181
3 1290 1352 1346
3 1045 1069 945
3 501 548 410
3 1153 1163 1110
3 1047 1126 1088
3 639 772 708
3 878 942 910
3 463 540 217
3 198 341 280
3 1327 1357 1287
3 945 1069 1004
3 702 714 653
3 1202 1257 1221
3 771 871 790
3 210 678 278
3 199 338 279
3 277 301 288
3 1347 1350 1339
3 1357 1385 1336
3 170 1417 1393
3 362 503 434
3 991 1035 1014
3 901 1019 938
3 542 679 584
3 1204 1225 1178
3 1395 1431 1420
3 1085 1159 1126
3 1126 1235 1161
3 1165 1190 1111
3 1395 1420 1385
3 467 564 502
3 653 714 589
3 1320 1360 1325
3 1327 1380 1357
3 1142 1169 1132
3 1006 1135 1002
3 381 461 327
3 1088 1161 1128
3 382 462 329
3 376 432 286
3 469 562 421
3 500 706 564
3 575 738 494
3 1084 1123 1046
3 1397 1416 1415
3 1203 1277 1237
3 1290 1326 1222
3 584 642 479
3 1260 1290 1222
3 641 804 551
3 966 1047 1011
3 1195 1279 1252
3 1393 1402 1377
3 764 860 797
3 752 965 895
3 1229 1310 1302
3 1116 1180 1160
3 165 1418 1414
3 1162 1240 1199
3 684 847 777
3 281 464 364
3 1142 1203 1169
3 642 775 742
3 1289 1351 1340
3 811 879 847
3 1237 1312 1261
3 900 1049 1022
3 1235 1276 1198
3 745 749 683
3 679 774 741
3 783 903 849
3 547 649 527
3 1363 1412 1296
3 1409 1420 1372
3 1200 1272 1241
3 1002 1065 179
3 1011 1088 1053
3 1086 1098 1039
3 491 631 602
3 215 381 327
3 1243 1262 1184
3 216 382 329
3 1229 1302 1280
3 269 342 197
3 616 699 562
3 1321 1367 1348
3 869 923 897
3 268 491 363
3 992 1075 1048
3 370 400 373
3 1122 1195 1083
3 1322 1369 1351
3 510 570 442
3 719 765 718
3 341 502 465
3 1220 1340 1279
3 611 711 618
3 1183 1204 1158
3 486 504 342
3 658 776 709
3 1004 1069 1036
3 989 1012 985
3 269 501 410
3 879 1009 966
3 897 1000 949
3 197 342 284
3 1222 1265 1183
3 762 872 811
3 1062 1211 1082
3 707 812 774
3 819 979 930
3 954 1026 917
3 370 435 400
3 809 841 801
3 475 578 337
3 1081 1104 1038
3 1262 1366 1245
3 43 218 198
3 1259 1319 1223
3 950 1009 879
3 644 858 776
3 44 219 218
3 847 966 914
3 268 532 407
3 1206 1280 1267
3 194 464 281
3 190 372 291
3 1146 1205 1124
3 559 715 639
3 1059 1074 991
3 654 719 718
3 564 652 502
3 991 1074 1035
3 1073 1169 1115
3 1289 1340 1220
3 40 221 197
3 106 223 210
3 1009 1085 1047
3 364 411 376
3 1046 1123 1085
3 1159 1241 1193
3 549 683 631
3 1235 1313 1276
3 411 580 497
3 1012 1046 950
3 549 631 491
3 1187 1213 1172
3 199 279 103
3 475 740 578
3 1032 1084 1012
3 1030 1050 1008
3 570 708 469
3 1033 1130 1079
3 198 280 42
3 512 651 582
3 1331 1384 1362
3 680 1070 1064
3 1051 1090 1071
3 210 278 105
3 1043 1134 1026
3 1098 1119 1037
3 879 966 847
3 1165 1244 1190
3 35 289 248
3 1396 1410 1379
3 194 281 46
3 1175 1232 1185
3 1288 1329 1225
3 895 982 903
3 1091 1132 1060
3 914 1011 955
3 331 370 292
3 868 938 767
3 1166 1239 1200
3 217 282 101
3 1107 1162 1109
3 1044 1099 153
3 1069 1077 1036
3 193 543 285
3 773 839 715
3 1047 1088 1011
3 1282 1388 1314
3 407 491 268
3 944 963 890
3 1106 1196 1142
3 1434 1435 1429
3 1240 1303 1199
3 1123 1200 1159
3 1193 1235 1126
3 904 944 890
3 698 770 548
3 1009 1047 966
3 191 283 108
3 1076 1160 1106
3 1362 1405 1375
3 942 1051 989
3 1186 1266 1249
3 1279 1340 1295
3 197 284 39
3 492 612 159
3 1395 1432 1431
3 1352 1400 1377
3 990 1089 1055
3 1298 1355 1324
3 1233 1274 1238
3 917 1026 943
3 1012 1084 1046
3 1157 1182 1070
3 1345 1384 1358
3 942 1052 1051
3 1342 1372 1367
3 1372 1424 1399
3 1075 1110 1048
3 952 1020 997
3 867 922 901
3 337 500 467
3 434 581 476
3 1087 1165 1111
3 193 285 99
3 411 497 376
3 95 291 247
3 980 1016 992
3 986 1028 897
3 947 1041 1020
3 888 1025 965
3 1359 1368 1341
3 897 949 869
3 1301 1334 1262
3 267 431 361
3 966 1011 914
3 1428 1436 1413
3 1319 1358 1292
3 47 220 194
3 1016 1063 1037
3 551 707 679
3 546 717 651
3 683 803 631
3 503 581 434
3 611 618 475
3 876 984 841
3 1418 1433 1414
3 1071 1109 1032
3 1044 1125 1099
3 401 571 470
3 1046 1085 1009
3 267 361 220
3 811 847 684
3 1229 1280 1206
3 1276 1298 1260
3 1223 1319 1292
3 545 744 147
3 1000 1056 949
3 1145 1259 1223
3 1093 1167 1130
3 229 264 222
3 421 562 532
3 109 222 191
3 1332 1407 1349
3 191 357 283
3 500 564 467
3 1065 1080 1044
3 1017 1052 942
3 502 652 613
3 707 861 812
3 682 1013 954
3 1350 1378 1339
3 168 1434 420
3 761 805 618
3 1132 1169 1073
3 697 929 860
3 1237 1261 1187
3 1073 1089 990
3 551 804 707
3 995 1030 1008
3 501 652 548
3 37 226 192
3 370 373 227
3 1333 1386 1305
3 950 1046 1009
3 342 466 284
3 1146 1246 1205
3 954 1043 1026
3 697 860 764
3 1060 1132 1073
3 814 980 926
3 1106 1132 1091
3 1275 1339 1318
3 824 912 886
3 767 938 881
3 838 959 908
3 1119 1153 1075
3 560 701 638
3 940 1060 990
3 878 910 857
3 1215 1273 1227
3 857 872 805
3 217 540 282
3 1324 1383 1352
3 811 936 879
3 1317 1343 1294
3 1401 1419 1383
3 882 1016 980
3 698 869 770
3 936 950 879
3 877 973 862
3 580 611 497
3 1193 1275 1235
3 930 952 819
3 1099 1125 539
3 361 527 464
3 1126 1161 1088
3 1268 1331 1306
3 1190 1254 1111
3 548 650 410
3 1344 1376 1288
3 658 709 561
3 507 653 589
3 1194 1268 1239
3 1334 1368 1293
3 97 228 190
3 967 1025 888
3 861 880 812
3 1148 1215 1133
3 1330 1347 1307
3 1205 1246 1189
3 1003 1100 1049
3 1181 1240 1162
3 1075 1153 1110
3 584 741 642
3 1037 1075 992
3 1220 1279 1149
3 880 956 812
3 637 677 577
3 1018 1064 1042
3 736 868 767
3 432 611 475
3 960 1054 769
3 1085 1126 1047
3 750 784 617
3 1304 1327 1255
3 740 805 762
3 527 649 411
3 433 561 530
3 258 1422 127
3 1393 1417 1402
3 399 532 268
3 1260 1324 1290
3 546 651 436
3 287 442 421
3 1178 1271 1180
3 1103 1139 1077
3 882 980 814
3 1243 1301 1262
3 807 923 869
3 873 969 939
3 1038 1052 1017
3 716 736 582
3 836 979 819
3 990 1055 971
3 721 844 632
3 959 1008 908
3 654 718 563
3 801 841 749
3 342 504 466
3 847 914 777
3 359 436 266
3 1008 1050 968
3 902 912 845
3 621 701 560
3 751 815 778
3 548 874 650
3 940 971 922
3 362 434 199
3 850 977 896
3 560 638 498
3 410 486 269
3 1211 1254 1170
3 1378 1401 1355
3 1109 1145 1127
3 1080 1173 1125
3 1029 1063 882
3 492 1338 1297
3 1321 1348 1289
3 1160 1196 1106
3 1168 1237 1187
3 958 1029 882
3 552 628 583
3 1354 1373 1330
3 444 654 563
3 1400 1419 1394
3 1379 1403 1350
3 1089 1103 1055
3 900 1022 946
3 1277 1312 1237
3 760 926 859
3 1387 1411 1348
3 1282 1314 1191
3 487 653 507
3 905 962 884
3 720 778 686
3 750 1027 899
3 192 289 36
3 864 960 919
3 442 469 421
3 1249 1282 1191
3 815 951 905
3 652 698 548
3 1116 1160 1076
3 292 370 227
3 930 977 952
3 882 1063 1016
3 1259 1356 1319
3 1147 1192 1108
3 995 1008 959
3 357 399 283
3 896 930 828
3 161 1323 162
3 899 994 948
3 1127 1194 1166
3 506 583 418
3 943 1062 996
3 938 1019 947
3 860 871 765
3 470 721 632
3 48 227 220
3 505 654 444
3 1229 1284 1252
3 971 1055 1019
3 531 614 142
3 473 657 621
3 672 762 684
3 976 978 818
3 133 211 134
3 1402 1416 1371
3 685 760 621
3 892 978 976
3 644 776 658
3 924 978 892
3 552 583 506
3 110 229 222
3 190 291 96
3 856 968 875
3 1385 1420 1409
3 894 924 892
3 393 510 442
3 709 750 617
3 770 869 843
3 357 421 399
3 810 857 761
3 1319 1407 1358
3 1050 1091 1015
3 1426 1433 1423
3 1180 1271 1219
3 1072 1120 1068
3 1380 1395 1357
3 984 1049 900
3 1143 1221 1181
3 875 922 808
3 632 844 751
3 1028 1093 1000
3 1143 1181 1107
3 1032 1127 1084
3 681 856 808
3 336 427 193
3 899 1027 983
3 755 850 828
3 361 464 194
3 293 365 229
3 211 1382 1345
3 680 1157 1070
3 1158 1204 1178
3 1186 1249 1155
3 908 1008 968
3 1168 1172 1115
3 1183 1242 1222
3 957 1067 1005
3 1167 1183 1130
3 1095 1116 1030
3 846 884 817
3 919 960 803
3 272 505 444
3 571 721 470
3 1227 1263 1243
3 876 1003 984
3 1287 1336 1277
3 538 561 433
3 192 360 289
3 723 733 579
3 1177 1243 1184
3 621 760 701
3 1252 1310 1229
3 371 383 247
3 580 711 611
3 845 912 823
3 440 495 381
3 1245 1366 1257
3 751 778 720
3 1003 1049 984
3 441 496 382
3 1107 1181 1162
3 779 908 856
3 104 199 103
3 1228 1264 1192
3 1358 1384 1292
3 43 198 42
3 846 905 884
3 44 218 43
3 135 1305 136
3 1049 1122 1083
3 45 219 44
3 364 376 219
3 1358 1407 1386
3 106 210 105
3 41 221 40
3 421 532 399
3 1198 1242 1167
3 1162 1199 1145
3 47 194 46
3 102 217 101
3 1109 1127 1032
3 656 720 686
3 40 197 39
3 1030 1076 1050
3 107 223 106
3 644 658 538
3 1164 1206 1171
3 437 482 413
3 1141 1213 1151
3 1045 1077 1069
3 1042 1094 993
3 1156 1250 1234
3 656 686 550
3 1355 1401 1383
3 1139 1141 1077
3 109 191 108
3 100 193 99
3 407 549 491
3 869 949 843
3 994 1039 948
3 1005 1067 1040
3 1195 1252 1114
3 849 958 882
3 780 823 703
3 542 584 423
3 105 278 104
3 803 960 769
3 864 919 749
3 780 845 823
3 103 279 102
3 42 280 41
3 1080 1125 1044
3 805 872 762
3 46 281 45
3 1306 1330 1272
3 1355 1383 1324
3 380 506 418
3 1384 1408 1362
3 692 836 819
3 566 780 655
3 431 547 527
3 1170 1207 1113
3 1015 1091 1060
3 348 437 413
3 101 282 100
3 215 327 254
3 216 329 255
3 108 283 107
3 1292 1331 1268
3 513 656 404
3 1342 1409 1372
3 1196 1247 1142
3 1131 1212 1173
3 373 498 267
3 487 507 445
3 438 509 366
3 949 1056 995
3 677 792 717
3 1115 1172 1139
3 431 527 361
3 151 1065 152
3 469 616 562
3 39 284 38
3 227 373 267
3 657 783 685
3 1318 1355 1298
3 38 226 37
3 1034 1096 987
3 999 1017 975
3 265 372 190
3 655 780 703
3 359 504 436
3 1239 1272 1200
3 692 773 622
3 1266 1309 1249
3 657 685 621
3 226 359 266
3 344 544 406
3 1329 1353 1304
3 442 570 469
3 1293 1366 1334
3 1182 1233 1129
3 375 437 348
3 1039 1063 998
3 1048 1066 1023
3 208 301 277
3 1171 1216 1134
3 1155 1249 1191
3 1073 1115 1089
3 617 721 571
3 99 285 98
3 1338 1365 1297
3 507 589 435
3 741 775 642
3 1215 1227 1144
3 463 584 479
3 1406 1410 1396
3 693 850 755
3 1067 1078 1040
3 1272 1307 1241
3 782 846 817
3 1079 1095 1056
3 1432 1436 1426
3 848 965 752
3 1052 1104 1090
3 374 425 347
3 813 970 893
3 98 228 97
3 1057 1118 1010
3 1228 1316 1264
3 1271 1304 1219
3 752 840 702
3 566 655 586
3 400 498 373
3 37 192 36
3 777 914 842
3 222 393 287
3 1010 1118 1105
3 749 919 683
3 18 256 231
3 79 257 230
3 1078 1124 1040
3 402 559 510
3 1145 1194 1127
3 1128 1167 1093
3 814 926 760
3 215 254 5
3 216 255 66
3 49 292 227
3 48 220 47
3 926 980 953
3 1183 1265 1204
3 1331 1354 1306
3 508 565 509
3 1257 1269 1221
3 1152 1208 1112
3 97 190 96
3 1225 1271 1178
3 110 222 109
3 111 293 229
3 884 1025 967
3 1056 1095 995
3 79 78 3
3 1 18 17
3 153 1099 154
3 857 910 872
3 362 678 503
3 1405 1408 1382
3 406 615 552
3 1221 1269 1240
3 875 1015 940
3 947 977 881
3 1031 1197 1147
3 429 585 513
3 899 948 813
3 297 374 347
3 1309 1335 1322
3 825 918 798
3 1224 1270 1234
3 622 773 715
3 572 742 644
3 1200 1241 1159
3 799 825 798
3 1064 1070 1042
3 298 375 348
3 1268 1306 1239
3 1391 1423 1370
3 906 976 818
3 363 678 210
3 1307 1339 1275
3 1093 1130 1033
3 1014 1068 963
3 1428 1435 1425
3 508 509 438
3 380 418 379
3 1309 1322 1296
3 967 972 817
3 985 1012 950
3 1269 1325 1303
3 1232 1267 1185
3 995 1095 1030
3 635 799 798
3 781 906 818
3 531 1218 1156
3 589 657 473
3 975 1017 878
3 562 699 646
3 1166 1200 1123
3 1257 1293 1269
3 782 817 688
3 1117 1157 680
3 1223 1268 1194
3 287 421 357
3 1233 1238 1129
3 750 899 813
3 541 542 423
3 1133 1144 1072
3 582 736 615
3 302 369 209
3 728 799 635
3 1088 1128 1053
3 305 438 366
3 783 849 685
3 889 967 888
3 445 507 331
3 132 1382 133
3 1353 1380 1327
3 808 867 792
3 1153 1189 1163
3 435 589 473
3 1194 1239 1166
3 265 401 372
3 377 412 345
3 616 806 699
3 378 416 346
3 1011 1053 955
3 226 466 359
3 364 464 411
3 999 1038 1017
3 686 846 782
3 586 655 477
3 404 656 550
3 800 863 759
3 579 733 637
3 1275 1313 1235
3 704 753 722
3 558 719 654
3 18 231 17
3 79 230 78
3 843 937 770
3 903 982 958
3 1256 1332 1291
3 914 955 842
3 704 722 660
3 1351 1369 1340
3 747 1024 873
3 553 653 487
3 999 1066 1038
3 541 641 551
3 1187 1231 1213
3 623 848 752
3 739 800 759
3 1431 1432 1426
3 184 366 293
3 711 761 618
3 503 678 602
3 406 552 506
3 476 541 338
3 36 289 35
3 221 358 269
3 817 972 906
3 159 612 160
3 344 406 259
3 604 673 630
3 1161 1198 1128
3 538 658 561
3 1097 1135 1006
3 888 965 848
3 268 363 210
3 1053 1093 1028
3 49 227 48
3 266 512 428
3 1062 1082 996
3 569 728 635
3 738 790 673
3 295 381 215
3 1328 1412 1363
3 850 896 828
3 781 818 689
3 296 382 216
3 890 963 913
3 590 785 662
3 5 254 0
3 66 255 2
3 371 429 383
3 682 954 917
3 810 878 857
3 111 229 110
3 209 275 233
3 605 673 604
3 299 377 345
3 1127 1166 1084
3 96 291 95
3 448 586 477
3 1082 1211 1170
3 300 378 346
3 603 728 569
3 1241 1275 1193
3 793 902 845
3 618 805 740
3 1128 1198 1167
3 771 790 738
3 308 380 379
3 1322 1363 1296
3 343 538 433
3 761 857 805
3 1002 1080 1065
3 282 540 336
3 889 972 967
3 16 301 208
3 648 719 558
3 277 340 294
3 659 781 689
3 77 302 209
3 167 1434 168
3 473 560 400
3 587 781 659
3 221 465 358
3 684 777 619
3 660 722 591
3 1334 1366 1262
3 714 783 657
3 853 892 891
3 736 767 693
3 682 917 861
3 851 907 787
3 393 442 287
3 255 329 225
3 254 327 224
3 1084 1166 1123
3 957 1005 983
3 936 985 950
3 408 553 487
3 935 951 815
3 585 720 656
3 383 513 260
3 900 946 864
3 1040 1086 994
3 1339 1378 1318
3 681 808 792
3 677 717 546
3 511 558 425
3 1090 1107 1071
3 1163 1202 1143
3 491 602 363
3 692 819 773
3 754 892 853
3 516 587 517
3 467 502 341
3 617 784 721
3 968 1050 1015
3 961 975 916
3 492 1258 636
3 552 676 628
3 1066 1081 1038
3 144 1001 145
3 260 513 404
3 838 908 779
3 528 605 405
3 516 517 439
3 670 800 739
3 622 715 559
3 164 1418 165
3 754 853 704
3 696 871 835
3 405 605 604
3 587 659 517
3 1033 1056 1000
3 778 905 846
3 886 907 851
3 841 984 900
3 439 517 350
3 238 439 350
3 219 376 286
3 473 621 560
3 574 645 608
3 664 782 688
3 1189 1245 1202
3 162 1323 394
3 670 739 671
3 408 591 553
3 547 700 649
3 623 702 553
3 588 643 484
3 806 809 801
3 624 754 704
3 1130 1158 1079
3 602 710 503
3 585 656 513
3 790 871 696
3 1076 1106 1091
3 470 585 429
3 169 1417 170
3 804 861 707
3 898 1018 993
3 248 344 259
3 834 837 794
3 829 925 921
3 916 975 810
3 724 793 687
3 277 294 232
3 172 1398 173
3 1383 1400 1352
3 458 603 569
3 1063 1098 1037
3 367 508 438
3 754 894 892
3 745 801 749
3 545 981 898
3 566 586 488
3 355 533 459
3 596 622 474
3 794 837 691
3 1115 1139 1089
3 356 534 460
3 524 603 458
3 1247 1277 1203
3 395 533 355
3 662 785 588
3 396 534 356
3 661 692 622
3 1210 1267 1230
3 208 277 232
3 679 741 584
3 259 506 380
3 489 660 591
3 402 510 393
3 589 714 657
3 854 894 754
3 632 751 720
3 0 254 126
3 2 255 65
3 130 1406 131
3 180 331 292
3 470 632 585
3 830 925 829
3 297 347 196
3 512 582 428
3 663 687 566
3 248 259 189
3 299 345 204
3 231 301 17
3 135 1333 1305
3 626 788 756
3 631 803 710
3 305 366 184
3 474 559 402
3 374 511 425
3 300 346 205
3 298 348 195
3 367 438 214
3 230 302 78
3 824 886 786
3 562 646 532
3 349 487 445
3 1053 1128 1093
3 232 294 234
3 443 588 484
3 867 901 766
3 247 383 260
3 670 671 601
3 828 902 793
3 35 248 34
3 34 248 189
3 550 782 664
3 233 275 235
3 485 495 412
3 837 863 691
3 945 1004 932
3 755 828 793
3 601 671 529
3 734 788 626
3 1197 1253 1147
3 697 764 627
3 928 931 833
3 796 832 831
3 1276 1313 1298
3 873 1024 969
3 50 292 49
3 180 292 50
3 418 488 379
3 824 915 912
3 627 675 556
3 706 923 807
3 1168 1187 1172
3 484 496 416
3 663 724 687
3 7 295 215
3 68 296 216
3 95 247 94
3 94 247 186
3 247 260 186
3 753 889 888
3 408 487 349
3 112 293 111
3 184 293 112
3 753 888 848
3 788 918 821
3 924 928 820
3 444 485 412
3 234 374 297
3 436 651 512
3 763 832 796
3 514 588 443
3 367 515 508
3 567 665 515
3 514 662 588
3 1371 1397 1344
3 691 863 800
3 624 854 754
3 694 786 633
3 856 875 808
3 596 661 622
3 392 524 458
3 833 931 834
3 358 613 501
3 633 705 567
3 661 787 692
3 627 764 675
3 703 823 757
3 1343 1364 1294
3 204 440 381
3 961 1023 999
3 443 484 416
3 205 441 382
3 755 793 724
3 265 530 401
3 354 524 392
3 556 675 599
3 235 375 298
3 820 928 833
3 767 850 693
3 798 918 788
3 508 665 565
3 565 596 509
3 600 734 626
3 545 746 744
3 732 854 624
3 568 794 691
3 753 848 722
3 907 979 836
3 288 301 231
3 202 398 325
3 530 571 401
3 583 724 663
3 418 566 488
3 418 663 566
3 400 560 498
3 490 734 600
3 930 979 828
3 236 377 299
3 276 398 202
3 820 833 791
3 322 395 250
3 323 396 253
3 756 854 732
3 126 254 224
3 65 255 225
3 237 378 300
3 204 381 295
3 12 297 196
3 205 382 296
3 833 834 690
3 214 438 305
3 201 397 324
3 1039 1098 1063
3 264 393 222
3 568 691 666
3 73 298 195
3 195 378 237
3 705 726 665
3 425 505 347
3 940 990 971
3 290 302 230
3 813 893 784
3 631 710 602
3 1037 1119 1075
3 1106 1142 1132
3 862 973 887
3 368 397 201
3 592 732 624
3 196 272 236
3 590 662 514
3 127 1422 128
3 591 623 553
3 9 299 204
3 694 827 824
3 626 732 478
3 791 833 690
3 827 920 915
3 70 300 205
3 775 858 742
3 691 800 666
3 574 608 415
3 223 399 268
3 828 979 902
3 690 834 794
3 287 357 191
3 722 848 623
3 1033 1079 1056
3 592 704 660
3 592 660 522
3 667 789 554
3 626 756 732
3 1349 1360 1291
3 415 608 537
3 250 395 355
3 271 378 195
3 427 543 193
3 253 396 356
3 208 232 15
3 209 233 76
3 711 802 761
3 345 495 440
3 346 496 441
3 726 851 787
3 863 934 759
3 489 591 408
3 688 906 781
3 554 789 694
3 414 576 493
3 492 636 612
3 623 752 702
3 595 735 625
3 695 789 667
3 266 360 192
3 759 870 712
3 377 444 412
3 606 607 535
3 1154 1238 1226
3 675 737 599
3 272 444 377
3 490 600 335
3 460 576 414
3 666 800 670
3 345 440 204
3 1022 1057 946
3 346 441 205
3 600 626 478
3 378 443 416
3 752 895 840
3 232 234 14
3 271 514 443
3 388 529 454
3 789 829 827
3 233 235 75
3 779 856 681
3 1007 1029 958
3 690 794 669
3 271 443 378
3 787 836 692
3 786 851 705
3 388 601 529
3 347 505 272
3 599 606 525
3 453 490 335
3 829 921 920
3 294 511 374
3 842 986 923
3 597 735 595
3 413 590 514
3 204 295 8
3 478 732 592
3 205 296 69
3 784 893 844
3 759 934 870
3 331 507 435
3 525 535 457
3 664 688 587
3 294 374 234
3 173 1394 174
3 535 607 536
3 142 614 143
3 1210 1212 1131
3 482 712 590
3 599 737 606
3 624 704 592
3 129 1410 130
3 1055 1103 1041
3 853 891 889
3 234 297 13
3 908 968 856
3 669 794 568
3 235 298 74
3 615 736 676
3 830 927 925
3 275 437 375
3 426 573 511
3 525 606 535
3 471 567 403
3 309 445 331
3 554 633 471
3 275 375 235
3 457 535 339
3 635 734 490
3 348 413 271
3 563 727 485
3 787 907 836
3 915 920 823
3 665 726 565
3 472 525 334
3 272 377 236
3 17 301 16
3 196 347 272
3 425 558 505
3 788 909 756
3 705 851 726
3 557 703 629
3 340 481 426
3 236 299 10
3 195 348 271
3 261 403 367
3 245 367 214
3 261 367 245
3 831 927 830
3 6 215 5
3 7 215 6
3 477 655 557
3 67 216 66
3 68 216 67
3 416 496 346
3 237 300 71
3 444 563 485
3 740 762 672
3 78 302 77
3 666 670 483
3 676 736 693
3 412 495 345
3 704 853 753
3 196 236 11
3 695 829 789
3 417 575 494
3 695 831 830
3 829 920 827
3 419 600 478
3 645 712 482
3 195 237 72
3 16 208 15
3 77 209 76
3 556 668 627
3 485 727 647
3 555 791 690
3 643 731 713
3 569 635 490
3 655 703 557
3 648 797 719
3 727 771 647
3 668 729 627
3 335 600 419
3 988 1067 957
3 731 785 768
3 768 870 825
3 483 670 601
3 630 735 597
3 334 525 457
3 409 669 568
3 558 654 505
3 406 506 259
3 413 514 271
3 516 664 587
3 695 830 829
3 522 660 489
3 181 1308 1256
3 353 528 405
3 8 295 7
3 15 232 14
3 481 607 573
3 69 296 68
3 76 233 75
3 535 536 339
3 821 909 788
3 768 799 713
3 796 831 695
3 718 765 727
3 825 934 933
3 891 976 972
3 696 835 832
3 725 855 795
3 459 575 417
3 947 1020 977
3 630 763 735
3 849 882 814
3 471 633 567
3 696 763 630
3 725 795 729
3 409 568 526
3 629 852 758
3 645 739 712
3 339 536 455
3 1052 1090 1051
3 556 599 525
3 555 690 669
3 802 810 761
3 820 978 924
3 14 234 13
3 588 731 643
3 478 592 419
3 398 537 422
3 75 235 74
3 453 569 490
3 635 798 788
3 379 586 448
3 340 426 294
3 689 911 820
3 384 408 349
3 274 460 414
3 419 592 522
3 387 526 483
3 877 987 973
3 147 744 148
3 273 459 417
3 446 471 403
3 756 909 894
3 604 630 597
3 261 446 403
3 349 445 213
3 9 204 8
3 70 205 69
3 13 297 12
3 550 664 516
3 317 458 453
3 515 665 508
3 74 298 73
3 403 567 515
3 687 845 780
3 10 299 9
3 335 419 385
3 628 755 724
3 356 460 274
3 71 300 70
3 403 515 367
3 387 483 456
3 355 459 273
3 554 694 633
3 703 757 629
3 785 870 768
3 11 236 10
3 827 915 824
3 694 824 786
3 565 661 596
3 726 787 661
3 891 972 889
3 335 385 262
3 729 795 697
3 72 237 71
3 458 569 453
3 627 729 697
3 12 196 11
3 353 391 319
3 625 667 595
3 509 596 430
3 870 934 825
3 317 453 335
3 273 417 353
3 472 593 556
3 309 331 180
3 689 820 791
3 73 195 72
3 757 921 852
3 922 971 901
3 392 458 317
3 634 729 668
3 464 527 411
3 304 384 349
3 725 729 634
3 426 511 294
3 593 668 556
3 354 392 321
3 263 389 183
3 224 327 206
3 225 329 207
3 404 550 516
3 182 317 262
3 853 889 753
3 447 522 384
3 688 781 587
3 436 512 266
3 213 445 309
3 763 796 735
3 246 263 183
3 920 921 757
3 482 590 413
3 686 782 550
3 789 827 694
3 449 523 409
3 456 601 388
3 835 929 832
3 333 449 409
3 448 477 332
3 758 855 730
3 483 601 456
3 313 448 332
3 494 528 417
3 304 349 213
3 243 447 384
3 419 522 447
3 567 705 665
3 855 927 795
3 244 317 182
3 673 696 630
3 384 522 489
3 1060 1073 990
3 730 855 725
3 517 659 598
3 629 758 730
3 446 521 471
3 474 622 559
3 189 380 308
3 379 448 240
3 262 385 182
3 352 452 446
3 389 452 352
3 390 537 276
3 696 832 763
3 718 727 563
3 931 933 834
3 519 668 593
3 243 384 304
3 634 668 519
3 409 526 333
3 598 659 555
3 318 454 251
3 588 785 731
3 263 520 452
3 419 447 385
3 674 728 603
3 308 379 240
3 689 791 659
3 417 528 353
3 865 890 775
3 59 321 252
3 120 319 249
3 768 825 799
3 795 927 866
3 320 455 201
3 731 768 713
3 818 978 911
3 817 906 688
3 756 894 854
3 390 454 415
3 635 788 734
3 317 335 262
3 183 389 311
3 713 799 728
3 557 594 477
3 594 730 725
3 659 791 555
3 385 447 243
3 405 604 520
3 170 1393 171
3 452 595 521
3 739 759 712
3 493 603 524
3 594 725 634
3 477 594 518
3 472 556 525
3 240 448 313
3 625 695 667
3 866 927 831
3 404 516 351
3 311 389 352
3 352 446 261
3 523 598 555
3 414 524 354
3 583 663 418
3 415 537 390
3 818 911 689
3 452 521 446
3 537 608 499
3 529 671 574
3 477 518 332
3 521 554 471
3 260 404 351
3 332 518 450
3 518 519 450
3 526 568 483
3 605 738 673
3 557 629 594
3 350 598 523
3 523 555 409
3 450 519 386
3 273 353 319
3 821 928 909
3 481 573 426
3 493 524 414
3 350 523 449
3 451 593 334
3 517 598 350
3 273 319 200
3 351 516 439
3 186 351 303
3 303 439 238
3 92 303 238
3 53 304 213
3 114 245 214
3 51 180 50
3 113 305 184
3 88 306 185
3 212 306 88
3 90 307 212
3 94 186 93
3 115 245 114
3 53 213 52
3 55 243 54
3 114 305 113
3 214 305 114
3 116 245 115
3 89 212 88
3 32 308 240
3 33 308 32
3 27 312 242
3 52 213 51
3 51 309 180
3 213 309 51
3 55 310 243
3 88 185 87
3 91 307 90
3 116 311 245
3 238 307 91
3 28 312 27
3 186 303 93
3 90 212 89
3 92 238 91
3 54 304 53
3 313 332 188
3 31 313 30
3 30 313 188
3 26 187 25
3 29 188 28
3 188 312 28
3 243 304 54
3 27 242 26
3 242 314 26
3 93 303 92
3 240 313 31
3 188 332 312
3 32 240 31
3 189 308 33
3 26 314 187
3 30 188 29
3 34 189 33
3 56 310 55
3 57 182 56
3 182 310 56
3 113 184 112
3 117 311 116
3 118 183 117
3 183 311 117
3 182 385 310
3 310 385 243
3 350 449 212
3 307 350 212
3 238 350 307
3 212 449 333
3 306 333 185
3 212 333 306
3 386 519 451
3 494 605 528
3 518 594 519
3 206 327 326
3 207 329 328
3 332 450 312
3 246 391 263
3 290 369 302
3 274 354 321
3 274 321 203
3 795 866 697
3 519 593 451
3 671 739 645
3 398 422 369
3 673 790 696
3 454 529 415
3 312 386 242
3 242 386 314
3 386 451 314
3 384 489 408
3 786 886 851
3 757 852 629
3 391 520 263
3 259 380 189
3 334 593 472
3 333 387 185
3 311 352 245
3 245 352 261
3 312 450 386
3 594 634 519
3 325 398 290
3 333 526 387
3 488 586 379
3 629 730 594
3 324 397 288
3 808 922 867
3 244 392 317
3 314 334 187
3 314 451 334
3 825 933 918
3 263 452 389
3 625 796 695
3 351 439 303
3 260 351 186
3 253 356 203
3 123 322 250
3 520 595 452
3 62 323 253
3 866 929 697
3 206 326 322
3 250 355 200
3 520 604 597
3 758 927 855
3 207 328 323
3 185 315 87
3 87 315 86
3 252 392 244
3 521 667 554
3 832 929 866
3 633 786 705
3 461 533 395
3 462 534 396
3 119 246 118
3 24 316 23
3 118 246 183
3 187 316 25
3 25 316 24
3 58 244 57
3 57 244 182
3 200 319 120
3 203 321 59
3 185 387 315
3 256 324 288
3 632 720 585
3 249 391 246
3 187 334 316
3 555 669 409
3 326 395 322
3 520 597 595
3 328 396 323
3 568 666 483
3 993 1094 974
3 85 239 84
3 86 239 85
3 239 318 84
3 405 520 391
3 266 428 360
3 576 674 493
3 387 456 315
3 713 728 674
3 315 456 239
3 493 674 603
3 334 457 316
3 23 241 22
3 120 249 119
3 241 320 22
3 59 252 58
3 200 355 273
3 203 356 274
3 241 457 339
3 423 584 463
3 86 315 239
3 274 414 354
3 239 388 318
3 241 339 320
3 206 322 123
3 207 323 62
3 388 454 318
3 257 325 290
3 321 392 252
3 735 796 625
3 339 455 320
3 23 316 241
3 119 249 246
3 58 252 244
3 239 456 388
3 591 722 623
3 595 667 521
3 83 251 82
3 84 251 83
3 84 318 251
3 529 574 415
3 675 797 737
3 1370 1404 394
3 319 391 249
3 878 1017 942
3 316 457 241
3 834 933 837
3 551 679 542
3 892 976 891
3 251 454 390
3 793 845 687
3 628 724 583
3 687 780 566
3 121 200 120
3 22 201 21
3 21 201 20
3 122 200 121
3 22 320 201
3 82 202 81
3 60 203 59
3 61 203 60
3 1373 1396 1379
3 353 405 391
3 565 726 661
3 494 738 605
3 553 702 653
3 574 671 645
3 461 609 533
3 492 1297 1258
3 179 1065 151
3 462 610 534
3 366 509 430
3 123 250 122
3 62 253 61
3 201 455 368
3 422 499 369
3 821 931 928
3 1016 1037 992
3 536 607 481
3 1385 1409 1336
3 534 576 460
3 276 537 398
3 201 324 20
3 202 325 81
3 1382 1408 1345
3 955 1053 1028
3 175 1382 132
3 1403 1422 258
3 251 390 202
3 533 575 459
3 430 596 474
3 778 846 686
3 264 402 393
3 124 206 123
3 125 206 124
3 63 207 62
3 64 207 63
3 912 915 823
3 606 737 607
3 82 251 202
3 1249 1309 1296
3 832 866 831
3 764 797 675
3 1152 1207 1170
3 898 993 974
3 955 986 842
3 1155 1191 539
3 1242 1260 1222
3 784 844 721
3 122 250 200
3 455 536 424
3 911 978 820
3 61 253 203
3 256 288 231
3 680 1064 480
3 202 390 276
3 290 398 369
3 1150 1152 1140
3 750 813 784
3 126 224 125
3 65 225 64
3 884 967 817
3 257 290 230
3 1185 1267 1210
3 138 1188 139
3 329 462 328
3 946 1057 1010
3 327 461 326
3 165 1414 166
3 1295 1369 1335
3 823 920 757
3 19 256 18
3 20 256 19
3 80 257 79
3 81 257 80
3 326 461 395
3 328 462 396
3 938 947 881
3 1391 1431 1426
3 815 905 778
3 909 924 894
3 81 325 257
3 20 324 256
3 1347 1379 1350
3 422 537 499
3 1390 1424 1391
3 424 536 481
3 1189 1246 1245
3 1112 1208 1174
3 1184 1246 1146
3 125 224 206
3 64 225 207
3 429 513 383
3 1104 1121 1090
3 1364 1390 1370
3 998 1063 1029
3 1213 1231 1151
3 875 940 922
3 957 983 822
3 1031 1147 1108
3 650 874 723
3 1351 1411 1381
3 1111 1254 1211
3 368 455 424
3 962 1025 884
3 433 530 265
3 925 927 758
3 852 925 758
3 647 771 738
3 1273 1274 1263
3 1345 1408 1384
3 1015 1060 940
3 602 678 363
3 1153 1205 1189
3 766 868 716
3 1054 1101 769
3 1317 1374 1343
3 643 713 674
3 1261 1312 1299
3 1175 1176 1097
3 968 1015 875
3 693 755 628
3 365 402 264
3 1302 1335 1309
3 1423 1433 1418
3 476 641 541
3 1142 1247 1203
3 428 544 360
3 1096 1174 1138
3 531 1156 1117
3 1364 1370 394
3 1256 1270 1224
3 1231 1253 1151
3 682 861 804
3 1314 1388 1365
3 933 934 837
3 1125 1155 539
3 428 615 544
3 582 615 428
3 1332 1349 1291
3 973 1058 1006
3 534 610 576
3 802 916 810
3 533 609 575
3 1119 1179 1153
3 810 975 878
3 420 1434 1429
3 1154 1226 1209
3 1013 1054 954
3 923 986 897
3 424 481 340
3 1258 1294 636
3 1365 1388 1297
3 620 1101 1013
3 1058 1097 1006
3 1287 1357 1336
3 987 1096 1058
3 1013 1101 1054
3 1227 1281 1144
3 1076 1091 1050
3 972 976 906
3 1425 1436 1428
3 1112 1174 1096
3 1094 1154 1136
3 1257 1366 1293
3 723 937 838
3 842 923 706
3 1305 1332 1308
3 909 928 924
3 893 970 935
3 859 926 883
3 1156 1234 1201
3 862 887 640
3 1038 1104 1052
3 971 1019 901
3 229 365 264
3 1312 1336 1299
3 1313 1318 1298
3 1070 1182 1129
3 1020 1041 997
3 961 999 975
3 1226 1274 1273
3 744 746 640
3 973 1006 887
3 532 646 407
3 1391 1426 1423
3 176 1398 172
3 1238 1274 1226
3 174 1394 178
3 1208 1254 1190
3 150 964 179
3 1101 1137 769
3 166 330 167
3 177 1410 129
3 983 1027 822
3 131 1406 175
3 1026 1062 943
3 1151 1253 1197
3 156 468 157
3 466 504 359
3 137 181 138
3 468 1365 157
3 1293 1368 1359
3 1291 1360 1320
3 330 1434 167
3 948 970 813
3 480 1001 144
3 128 1422 177
3 926 953 883
3 1089 1139 1103
3 1138 1175 1097
3 742 858 644
3 171 1393 176
3 1404 1418 164
3 420 1417 169
3 545 898 816
3 1150 1207 1152
3 166 1414 330
3 676 693 628
3 1345 1386 1333
3 181 1188 138
3 987 1058 973
3 1261 1299 1283
3 1258 1317 1294
3 1034 1112 1096
3 737 797 648
3 131 175 132
3 171 176 172
3 368 424 397
3 826 1024 747
3 1018 1042 993
3 162 394 163
3 174 1427 4
3 1399 1424 1390
3 150 179 151
3 1176 1210 1131
3 1004 1024 826
3 128 177 129
3 896 977 930
3 1023 1066 999
3 143 480 144
3 1328 1361 1258
3 137 1308 181
3 620 1137 1101
3 683 919 803
3 1249 1296 1282
3 1070 1214 1042
3 1297 1328 1258
3 181 1256 1224
3 1258 1361 1317
3 211 1333 135
3 541 551 542
3 1068 1120 988
3 1243 1281 1227
3 1388 1412 1328
3 1164 1284 1229
3 1256 1291 1270
3 1244 1286 1232
3 211 1345 1333
3 465 613 358
3 175 1406 1405
3 772 932 826
3 903 958 849
3 1270 1311 1234
3 175 1405 1382
3 1154 1209 1136
3 1361 1389 1317
3 1362 1408 1405
3 769 1137 803
3 816 877 862
3 4 258 127
3 1216 1244 1165
3 157 1338 158
3 932 1004 826
3 1297 1388 1328
3 146 545 147
3 974 1094 1061
3 168 420 169
3 637 681 677
3 163 1404 164
3 1185 1210 1176
3 145 981 146
3 1117 1201 1157
3 746 862 640
3 1136 1209 1150
3 1414 1425 330
3 1156 1201 1117
3 545 816 746
3 898 974 816
3 1226 1273 1236
3 1383 1419 1400
3 980 992 953
3 1349 1407 1356
3 177 1422 1403
3 770 937 874
3 480 1064 1001
3 134 211 135
3 1343 1390 1364
3 1291 1320 1270
3 1201 1251 1157
3 1363 1381 1361
3 1424 1431 1391
3 921 925 852
3 1234 1278 1201
3 148 640 149
3 1323 1364 394
3 1335 1369 1322
3 154 539 155
3 394 1404 163
3 1420 1424 1372
3 1031 1108 1100
3 1105 1134 1043
3 157 1365 1338
3 1358 1386 1345
3 158 492 159
3 1296 1412 1282
3 1343 1399 1390
3 136 1305 137
3 1129 1214 1070
3 1002 1135 1080
3 181 1224 1188
3 1305 1308 137
3 1175 1185 1176
3 1251 1285 1182
3 1081 1121 1104
3 613 652 501
3 716 868 736
3 140 1218 141
3 974 1021 877
3 1390 1391 1370
3 1021 1034 987
3 152 1044 153
3 1058 1138 1097
3 1080 1135 1131
3 1226 1236 1209
3 964 1002 179
3 1173 1212 1186
3 1425 1435 330
3 615 676 552
3 807 869 698
3 178 1427 174
3 877 1021 987
3 1270 1320 1311
3 955 1028 986
3 1278 1315 1251
3 141 531 142
3 1140 1152 1112
3 1234 1311 1278
3 1267 1280 1230
3 981 1018 898
3 1317 1389 1374
3 1034 1140 1112
3 803 1137 710
3 143 614 480
3 1061 1102 1021
3 148 744 640
3 1310 1335 1302
3 1173 1186 1155
3 154 1099 539
3 1094 1136 1061
3 816 974 877
3 1174 1217 1138
3 1157 1251 1182
3 146 981 545
3 1374 1399 1343
3 1314 1365 468
3 816 862 746
3 1096 1138 1058
3 1209 1248 1150
3 544 615 406
3 974 1061 1021
3 330 1435 1434
3 1285 1300 1233
3 1102 1140 1034
3 158 1338 492
3 1311 1341 1278
3 1201 1278 1251
3 835 871 860
3 1138 1217 1175
3 1236 1248 1209
3 1224 1250 1188
3 1218 1250 1156
3 1216 1286 1244
3 1021 1102 1034
3 152 1065 1044
3 1328 1363 1361
3 1381 1389 1361
3 1282 1412 1388
3 1278 1341 1315
3 1125 1173 1155
3 1404 1423 1418
3 1182 1285 1233
3 141 1218 531
3 918 931 821
3 1061 1136 1102
3 918 933 931
3 1251 1315 1285
3 1420 1431 1424
3 837 934 863
3 860 929 835
3 614 680 480
3 1374 1389 1387
3 178 1430 1427
3 874 937 723
3 1340 1369 1295
3 145 1001 981
3 640 964 149
3 155 539 468
3 289 360 344
3 360 544 344
3 539 1191 468
3 559 639 570
3 1294 1323 612
3 708 747 616
3 620 682 641
3 700 802 711
3 748 802 700
3 774 865 741
3 747 873 806
3 844 893 751
3 901 938 766
3 939 941 876
3 902 979 907
3 956 991 904
3 939 1092 941
3 941 1031 1003
3 964 1006 1002
3 1083 1114 1057
3 1079 1158 1116
3 1114 1164 1118
3 1208 1217 1174
3 1231 1283 1228
3 1299 1342 1316
3 1305 1386 1332
3 1320 1341 1311
3 1322 1381 1363
3 1341 1368 1334
3 1414 1433 1425
POINT_DATA 1437
SCALARS UX float 1
LOOKUP_TABLE default
0.000000
0.000000
0.000000
0.000000
24.151588
-0.000000
0.000000
0.000000
0.000000
0.000000
0.000000
0.000000
0.000000
0.000000
0.000000
0.000000
0.000000
-0.000000
0.841963
1.665860
2.358105
3.176536
4.000204
4.914110
5.866115
6.841127
7.854397
8.920328
9.989524
11.071423
12.155973
13.241161
14.313445
15.363334
16.382331
17.366636
18.285363
19.135553
19.871593
20.472260
20.920869
21.143963
21.134640
20.912449
20.488718
19.880036
19.133655
18.293421
17.376455
16.399227
15.374711
14.324601
13.247944
12.166901
11.076043
9.992032
8.915871
7.865677
6.845999
5.840726
4.925247
4.025655
3.168602
2.417217
1.674502
0.933417
-0.000000
0.000000
0.000000
0.000000
0.000000
0.000000
0.000000
0.000000
0.000000
0.000000
0.000000
0.000000
-0.000000
0.840819
1.669590
2.363713
3.166709
4.028599
4.900850
5.863616
6.840142
7.863141
8.915041
9.987062
11.066341
12.156462
13.242000
14.315840
15.373386
16.397439
17.366262
18.289413
19.122237
19.872851
20.482189
20.904732
21.140054
21.143959
20.917184
20.480848
19.879165
19.135824
18.288501
17.376939
16.394258
15.373433
14.322388
13.250118
12.162728
11.076015
9.993154
8.920934
7.869216
6.847347
5.838217
4.923454
4.024215
3.167474
2.416434
1.674096
0.933203
24.150708
24.145958
24.141098
24.135638
24.123438
24.111096
24.101864
24.088360
24.088328
24.078028
24.080804
24.075615
24.072116
24.078928
24.085131
24.091613
24.099925
24.108943
24.118490
24.127969
24.133427
24.139092
24.143426
24.145046
24.143771
24.142957
24.139012
24.133833
24.126568
24.114114
24.105471
24.095655
24.087904
24.078139
24.074869
24.074746
24.074330
24.075635
24.079146
24.084219
24.093491
24.103281
24.112612
24.122730
24.130990
24.139551
24.146020
24.152960
23.950375
24.013522
24.034526
24.062727
24.065642
15.461675
23.823765
8.852773
8.857240
14.383387
7.778123
14.381607
6.731083
11.058959
15.456959
17.634140
18.467158
18.470323
20.191973
19.345709
0.438862
0.447863
20.760734
21.460873
21.466238
4.746598
2.943685
2.914831
4.748522
0.458676
0.459535
2.151074
2.151879
0.505588
0.494479
20.762830
23.892487
9.947643
13.290367
12.177275
0.521777
0.521957
21.236398
21.217734
20.726174
18.470284
21.276932
17.525777
20.049205
1.400046
1.400394
19.437479
17.491504
18.611735
16.508018
0.691665
0.693705
0.466187
0.478495
0.452143
0.458274
0.449893
0.455101
12.171001
5.716478
13.282396
4.752673
8.857923
11.062656
7.776844
11.061274
7.780993
15.507376
16.513227
6.737255
3.837573
3.825790
6.735356
3.839034
0.634571
0.634757
1.388554
1.392024
24.062605
15.552363
14.454034
11.051346
8.806616
7.707960
16.690076
18.444439
18.766557
18.468126
20.487693
21.085881
21.636333
1.037791
1.042661
4.623447
4.625220
1.072503
2.807175
1.095106
21.151458
21.447509
21.459082
19.976579
20.820551
19.272141
20.197482
19.384660
21.341645
18.467450
1.252905
17.563799
1.253433
16.784055
16.426266
15.380922
1.068442
0.492535
0.492810
0.445217
0.444659
0.451684
0.453777
0.546645
0.545261
13.282423
12.179185
13.289345
8.856868
11.057524
14.380687
14.384768
9.952667
9.953102
9.951514
12.170921
7.774933
6.729235
5.716697
7.703011
4.751945
5.717854
3.830686
5.720691
2.979530
2.980744
2.088218
2.093967
2.038611
1.224712
2.039563
1.224963
23.867279
15.575265
11.047583
8.795259
6.626744
8.758815
20.827097
21.815282
21.700916
4.614977
1.905958
21.717210
20.521154
19.240744
16.595391
1.066359
1.061863
1.041774
1.042026
13.320789
11.047431
13.335865
9.921575
5.619593
5.624001
3.679483
3.680818
19.148224
21.457853
19.514365
17.774120
19.289641
21.487897
20.944279
20.442347
15.780151
14.440783
12.188910
2.821791
1.150147
16.794885
16.652800
17.583072
17.654653
1.051005
1.060821
20.933189
1.047214
1.034948
13.316963
14.458320
1.093401
1.093240
15.531352
12.188897
9.917126
8.799834
7.702421
5.600624
8.808639
3.664563
6.634297
6.630377
17.634043
23.836371
2.817059
2.818442
1.999528
2.027535
19.799852
17.598802
17.744346
16.780849
11.049798
14.494343
6.556431
16.653815
20.583207
13.340328
8.753614
21.251204
20.597207
1.790878
1.762228
4.536561
3.554060
1.794831
4.536227
14.473870
9.895250
23.921914
19.351045
1.902803
21.593304
2.715767
1.775753
1.844021
20.300419
18.030982
16.597098
15.516122
19.313718
21.481508
19.215901
21.681701
16.625406
19.545010
1.743725
13.313049
12.203484
1.095126
1.093641
18.565573
1.770790
1.762488
14.437895
9.898456
11.051364
12.184141
9.917233
9.919067
7.706283
8.758568
7.648554
4.609600
3.670628
6.629438
5.594995
6.573044
3.596834
3.598367
1.915939
1.917222
21.335141
19.978547
21.622143
19.986334
21.911765
23.996812
19.381495
17.593299
11.036334
6.565980
17.570905
16.508969
21.737077
21.879476
11.038363
9.875899
21.132847
23.931264
2.666555
2.616573
6.558376
2.561355
2.583444
20.760474
14.471761
13.346184
12.193966
7.623939
21.028156
23.903740
4.479517
4.539141
1.813799
1.815942
21.104399
18.433920
1.814997
22.093873
21.548078
21.877982
21.706357
20.143925
1.763116
15.598360
15.567672
13.321229
14.456097
17.745059
1.790739
18.811163
15.584966
1.764878
12.194130
13.360879
12.190091
9.891417
8.749649
7.641779
9.876450
11.044874
9.892604
5.541394
5.508197
7.643748
19.981718
5.539202
4.507264
18.577063
23.903835
20.014741
2.750461
2.752335
4.527439
3.598747
2.638969
19.909498
24.016807
21.078456
21.875705
21.784310
19.785483
17.263761
24.015020
19.767206
20.039361
21.737306
21.114199
14.520765
22.020232
16.650554
14.480538
11.029796
9.868196
6.501397
11.030666
2.586998
17.523608
18.421119
19.351209
20.003791
2.603836
22.086927
14.445338
13.375613
12.194541
7.601838
6.537944
18.629567
18.453533
20.598416
2.624392
3.558067
3.509093
3.512925
20.349974
21.999935
21.002761
21.015408
21.868115
18.235967
15.586161
21.536697
16.634268
12.213296
12.216121
2.599437
16.616603
2.599741
13.348458
11.034459
7.641219
9.866349
8.682598
15.521438
7.601064
11.037381
5.450346
8.748113
5.515348
21.405140
5.486290
6.532975
5.505130
4.497122
3.590358
2.659765
2.624291
2.626529
21.391046
23.901559
21.702313
23.946717
17.488709
20.044154
19.222360
21.622327
22.262797
22.078819
18.459866
16.597140
14.487630
11.024007
8.705897
8.750717
6.497043
16.620639
11.022810
6.528886
21.493389
17.607851
12.195978
8.719803
6.564197
23.751931
20.658382
19.227949
18.476098
24.054518
22.105272
21.191989
3.518634
20.471959
3.522704
20.559192
3.557015
3.532516
20.525016
21.412195
19.100541
21.926955
15.571478
2.586254
12.204489
15.604058
17.578437
19.993077
11.030797
12.194256
15.540051
2.607342
14.495849
13.376353
13.330959
6.505930
9.857905
7.604408
8.722562
5.462759
4.450012
22.145666
5.546741
4.423277
5.441484
17.299555
20.263180
21.273731
21.862557
23.746301
20.760899
22.307004
21.483814
22.349716
18.456406
15.625294
14.502035
13.381293
11.024059
8.708773
6.493565
16.582874
17.497347
12.193661
9.809815
6.464797
6.547040
21.999406
20.577602
20.679156
19.196741
15.554244
12.190635
12.183685
13.339281
22.301765
22.158492
19.297848
19.885740
21.690527
21.251995
3.643162
4.482491
16.590847
17.550269
18.931487
19.690811
3.507977
3.501601
16.638679
18.466685
13.340776
21.394287
15.586575
8.709030
14.460674
3.521335
5.476910
7.584084
9.853777
3.572890
9.887164
21.039108
7.646600
7.648543
18.175577
4.436053
4.542306
4.476426
21.934372
21.577804
20.895063
19.961090
24.071883
21.086176
23.986357
19.906157
20.581760
21.446523
19.782722
17.771921
15.540961
13.344529
11.062704
16.617297
8.768718
11.909574
9.858496
4.839420
19.236973
21.542289
22.145596
7.562262
5.563247
4.484853
19.554585
18.292167
4.497013
22.076484
21.905551
4.453019
19.206417
17.553260
21.954181
21.332563
20.406170
22.444149
16.664777
21.275762
13.365381
12.209594
14.538563
17.554541
19.180239
3.506266
13.341259
15.548463
7.615877
11.015373
5.417451
9.860762
20.173272
15.595800
7.583369
7.805321
8.595955
4.450195
6.503056
5.493487
5.408825
21.030167
21.098778
21.825626
22.222364
21.865641
20.496383
22.169066
20.600557
20.902576
21.402418
22.364632
22.266169
19.524961
19.202127
17.536965
23.876783
14.405660
12.004221
17.407323
9.943657
7.790482
20.794512
13.337126
13.347255
5.664652
19.601813
12.195162
16.652046
10.979610
9.849040
8.701025
7.610109
8.716823
7.583085
6.490250
16.474552
6.461251
21.582619
18.459446
16.588698
21.420378
22.508335
22.024063
18.441159
14.511716
15.616311
22.543507
14.464252
18.457614
17.615845
14.458963
10.919977
12.211936
9.935353
8.848525
21.096967
21.762406
20.875427
19.892199
5.607670
22.398250
23.916495
5.741998
21.780797
21.700030
7.641051
20.132823
18.823876
22.196539
4.587005
5.498840
22.082957
20.417622
21.640232
20.947618
21.237415
23.781530
21.664560
22.575303
22.510377
18.424140
19.116132
20.416432
15.580646
18.497778
14.475314
23.959323
14.467391
13.359317
21.668296
12.212237
11.098664
18.778812
9.921631
16.578387
17.560655
22.476475
23.871232
20.207789
21.829151
19.860713
15.519503
17.537621
22.057178
16.646259
12.942688
15.565926
21.568611
8.771444
22.006474
11.015817
14.366820
21.247412
22.623649
13.281839
20.963711
22.505695
6.948661
21.765771
12.123193
11.024415
20.446859
22.388965
9.857320
10.144153
19.859625
8.912747
8.724428
6.694242
17.556841
7.679774
19.167559
6.624623
5.614346
18.327338
22.320916
21.756904
19.120499
20.820947
20.803365
21.210832
21.959319
22.625967
21.968136
19.373140
22.091303
19.073158
19.869043
22.321673
22.538696
17.717864
18.358087
20.310423
22.438731
22.677006
22.390012
21.172382
18.276694
21.933208
22.068752
20.844854
16.456505
21.629393
24.044162
15.531990
22.729751
14.521346
21.405224
20.372825
19.234119
20.264641
13.369178
23.827173
23.710372
21.264612
12.209498
18.293437
11.027378
16.557551
19.770924
23.993178
17.322286
20.665357
21.590650
22.271022
22.559265
23.685024
21.522425
22.263373
20.658948
22.303941
20.349430
23.702532
20.435784
22.211933
22.671348
19.137736
19.300531
21.164839
22.632432
23.954638
23.990178
21.572261
19.839789
20.794894
23.889922
18.572707
21.871119
22.775410
22.332028
22.809061
22.481470
22.263154
21.945090
21.287711
19.762111
21.537666
23.835975
19.641579
18.923119
23.620577
22.091465
20.766966
20.032793
15.405292
22.678740
20.280700
22.686276
18.991344
22.141851
21.670134
22.506501
22.746770
23.523576
22.263211
20.393363
20.260890
21.449104
19.976259
20.964823
19.559617
23.649487
22.623632
24.059433
19.769348
22.746536
22.916024
20.900202
21.914480
21.725383
22.061517
21.779556
22.838084
22.295086
20.127161
22.526274
22.366336
23.730587
22.590844
21.172459
23.536275
22.832870
19.662778
23.774580
24.062850
21.126669
21.263594
21.797803
19.945075
23.552177
22.278604
22.087511
21.055397
22.556033
20.765337
22.015510
20.318641
21.492026
22.667427
23.962363
21.390515
22.827251
22.305583
22.711552
22.974302
20.619720
22.900684
22.988925
20.602544
21.964617
21.634618
20.887763
22.887366
23.527596
22.407159
23.578931
23.741106
20.351690
24.066114
21.851692
22.142440
23.481809
20.183006
21.661796
22.533234
21.924251
22.205434
22.045858
22.511318
21.201321
23.023863
23.419253
22.825953
22.650407
20.990864
22.475530
23.653502
22.654434
20.696764
21.784644
21.720686
22.181862
22.949691
21.167305
23.976248
23.122535
22.726642
23.022639
23.325978
22.923839
23.818110
21.551008
22.449401
22.777235
23.856786
23.367197
21.936136
23.601750
20.681450
23.369924
20.835703
21.847440
21.990574
22.365913
22.791400
21.627589
21.826292
22.787348
22.389833
23.191302
21.246610
23.224214
21.154393
23.310472
23.837413
23.682430
23.490826
22.853224
23.163082
22.296036
23.167013
22.449157
21.569250
22.896732
23.076076
22.927307
23.092879
21.375861
21.445076
23.011578
22.948567
21.102237
23.856195
23.485469
23.575108
23.693457
21.890756
22.788244
20.859235
22.569889
22.279474
23.300685
23.134834
21.957507
23.494406
23.690127
21.480759
23.842278
21.585785
23.211314
23.847041
22.225826
23.299115
22.955471
22.515691
22.236315
21.394511
23.199324
22.705388
23.162703
23.465015
21.919709
21.815677
23.049425
21.354235
23.153868
23.013032
23.331843
23.148400
23.616433
22.971201
23.740408
21.251057
23.444574
22.646230
23.013868
23.439137
23.879741
22.542362
22.559438
22.237330
23.368796
23.053042
23.610935
22.996980
23.077955
22.497553
21.965815
23.035678
23.492414
21.625079
23.364288
23.121581
23.471355
23.345949
22.908453
21.764561
23.211170
23.139272
22.544161
23.361032
23.278700
22.278963
23.214668
21.979810
21.765231
22.141480
23.011073
23.652472
23.748931
23.262187
22.813832
21.591755
23.127044
22.461350
23.578741
22.237457
23.607587
22.950207
23.462331
21.854882
22.161576
22.659133
22.383623
23.264506
23.526549
23.387596
23.175461
22.527731
23.379386
22.790247
23.367880
22.809472
22.959074
23.501160
23.410021
22.085888
23.236873
22.737980
23.251459
22.149426
23.677085
21.959529
22.861836
23.116228
23.141405
22.413362
23.203566
22.693042
23.565819
23.332550
23.287188
22.552654
23.598852
22.989586
23.486843
23.770294
23.580349
22.209725
22.855829
22.528838
23.299676
22.828991
22.785758
23.853359
23.352625
23.546765
23.802326
23.429674
23.019754
23.241378
22.050367
23.521184
23.834218
23.017777
22.236990
23.413027
23.646786
23.186521
23.084349
22.573106
23.272645
23.843730
23.658157
22.804807
23.458718
22.725288
23.586221
23.017097
23.566548
23.406621
23.597636
23.837403
22.545472
23.178134
22.376982
22.782602
23.926996
23.688791
22.842290
22.937351
22.542193
23.387009
23.413893
23.690559
23.665137
23.722644
22.873085
23.313054
23.801947
23.007434
23.739643
23.042746
23.556379
23.735441
23.107276
22.683295
23.434137
22.826460
23.070836
23.419386
23.610580
23.431865
23.599568
23.894509
22.260086
22.829982
22.715482
23.057437
23.596570
23.609916
22.859936
23.734419
23.246410
23.762053
23.262971
23.862351
23.826994
23.886764
22.954777
23.233927
23.908861
23.811580
23.512749
22.672288
23.615687
23.059672
23.725083
23.234608
23.365139
23.351874
23.290952
23.975637
24.041886
22.970017
23.876268
23.486588
24.023715
23.115311
23.890333
23.880620
23.799072
23.951342
23.832638
23.793619
23.972232
23.367599
23.701229
22.584461
24.008487
23.080198
23.581887
23.201206
23.841824
23.525884
23.718534
23.938045
23.825562
23.949829
22.888586
23.953754
24.060135
23.593856
23.110794
23.656190
23.375103
24.084624
23.512202
23.728918
24.006083
23.154425
23.230572
23.609904
23.891991
23.759971
23.413638
SCALARS UY float 1
LOOKUP_TABLE default
0.000000
-0.000000
0.000000
-0.000000
0.006848
0.000000
0.000000
0.000000
0.000000
0.000000
0.000000
0.000000
-0.000000
-0.000000
-0.000000
-0.000000
-0.000000
-0.000000
-0.886925
-1.712367
-2.397637
-2.968488
-3.480784
-3.903475
-4.267856
-4.585419
-4.839049
-5.018487
-5.136111
-5.189283
-5.192510
-5.128441
-4.997500
-4.799779
-4.534088
-4.194892
-3.769016
-3.264359
-2.675971
-1.981807
-1.229940
-0.420393
0.427274
1.234828
1.990978
2.675666
3.277498
3.782025
4.202960
4.546415
4.815262
5.015026
5.138019
5.210076
5.214380
5.153853
5.030682
4.845399
4.600314
4.296668
3.911368
3.482540
2.994234
2.409777
1.761770
1.002647
0.000000
0.000000
0.000000
0.000000
0.000000
0.000000
-0.000000
-0.000000
-0.000000
-0.000000
-0.000000
-0.000000
-0.000000
-0.889273
-1.716537
-2.403215
-2.968530
-3.464201
-3.908067
-4.271358
-4.585534
-4.833367
-5.020373
-5.134610
-5.199490
-5.198136
-5.133538
-5.003974
-4.807573
-4.541759
-4.192770
-3.770867
-3.263904
-2.667963
-1.993593
-1.216702
-0.411795
0.424982
1.233148
2.001993
2.679469
3.274123
3.781796
4.202882
4.546028
4.811700
5.011395
5.143974
5.215790
5.207649
5.149566
5.027482
4.843918
4.600601
4.297483
3.911615
3.482500
2.994039
2.409489
1.761493
1.002495
0.012698
0.016763
0.021568
0.025469
0.026385
0.025056
0.028024
0.023133
0.022251
0.017202
0.015570
0.010409
0.007896
-0.004582
-0.006340
-0.006481
-0.011289
-0.009704
-0.008293
-0.008707
-0.005979
-0.005981
-0.002167
0.005025
0.010377
0.014997
0.019391
0.019636
0.023215
0.025128
0.024250
0.021754
0.022307
0.019881
0.012696
0.010019
0.006109
0.001875
-0.000459
-0.002062
-0.007781
-0.011382
-0.012495
-0.010651
-0.008287
-0.006588
-0.000920
0.005365
0.105876
-0.076111
0.077685
-0.017172
0.016451
3.861358
0.017138
4.046536
4.043551
4.028851
-3.870002
-4.023569
-3.653943
-4.193462
-3.851302
-3.320433
3.004035
-2.995802
-2.045357
2.591947
0.003804
0.000886
-1.558365
0.332124
0.360180
3.080298
-2.249909
-2.205092
3.080004
0.208530
0.207693
1.773830
1.773941
-0.295785
-0.289627
1.575408
0.092673
-4.145333
4.148309
4.200670
0.397862
0.397841
-0.924359
0.975638
1.612344
3.005721
-0.882550
3.354880
2.174021
1.203270
1.203360
-2.506920
3.345322
-2.953958
3.636008
-0.618047
-0.615336
-0.201291
-0.204723
-0.130106
-0.131670
0.063188
0.062643
-4.191790
-3.387663
-4.133831
-3.057072
-4.028605
4.208312
3.882945
4.210260
3.881033
-3.823134
-3.634684
3.662413
2.696132
-2.687791
3.663058
2.695936
0.570695
0.570728
-1.226704
-1.228377
0.029735
-3.053606
-3.188057
3.324511
3.186075
3.051419
2.913746
-2.456143
-2.364030
2.496544
1.619535
-1.191818
0.438778
0.001053
0.001587
2.370915
2.370172
-0.409217
-1.667582
-0.591583
1.076838
-0.271101
-0.248082
2.240310
-1.506483
2.664810
-2.067447
-2.591587
0.930260
2.497827
-0.925232
-3.370194
-0.911360
-3.597935
3.661196
3.882775
-0.411943
0.292666
0.292681
-0.061649
-0.061906
0.130333
0.129190
-0.408159
-0.408804
-4.135182
4.205018
4.144183
-4.028762
-4.192448
-4.020769
4.030312
4.150921
4.152389
-4.141421
-4.191218
-3.869736
-3.656583
-3.386278
3.053801
-3.060632
3.395341
-2.677507
3.395019
2.258982
2.258953
-1.697596
-1.693431
1.329544
0.859203
1.329546
0.859307
-0.062608
3.084140
-3.321591
-3.184807
-2.865209
2.450104
-1.405011
0.459542
-0.190060
-2.355110
-0.899074
-0.058677
-1.616950
-2.241433
-2.874015
0.265281
0.265495
-0.122869
-0.128750
3.282702
-3.323413
-3.269736
3.280684
2.640099
2.638225
2.051152
2.050576
2.330406
-0.768983
-2.064791
-2.683428
2.221703
0.686137
1.301478
1.695938
3.084590
3.192612
3.327583
-1.680731
-0.630897
2.881092
-2.935106
-2.785289
2.718196
-0.262852
-0.263977
1.325299
0.126625
0.128175
-3.274017
-3.179834
0.576560
0.576619
-3.050676
3.328939
3.282804
-3.178587
-3.045726
-2.631819
3.187267
-2.034291
2.870090
2.871157
2.692075
0.021510
1.693419
1.693231
-1.294461
-1.292660
2.004261
2.203884
-2.237862
2.338871
2.564024
-2.457741
2.185308
-2.239331
1.382760
2.529943
-2.440607
-1.009757
1.425253
0.396048
-0.190870
1.781690
-1.511779
0.397326
1.781144
-2.452205
2.525480
-0.089768
1.873792
-0.937155
-0.593340
-1.268123
-0.195354
-0.628142
-1.723556
-2.149458
-2.338670
2.469540
1.848034
0.844728
-1.897629
0.309752
2.298281
-1.762644
-0.396103
3.287233
-3.319079
0.412520
0.412482
2.027254
0.193330
0.195799
3.192776
2.523554
3.325602
-3.320600
-3.273066
-3.270560
-3.040918
2.451341
2.333125
-2.352941
-2.027342
-2.860350
-2.632542
2.185549
1.527326
1.527161
0.963868
0.964064
-0.939275
1.918432
-0.453880
-1.963219
0.094891
0.089368
1.525839
-1.771700
1.889771
-2.173785
1.730931
1.837627
0.674702
-0.013476
-2.554652
1.854812
-1.100753
-0.082027
-0.914134
-0.513933
-2.177783
0.533599
0.536092
-1.316950
2.463157
-2.523108
2.561849
1.710892
1.172316
0.084420
1.284955
1.315731
0.614328
0.615097
1.113720
2.056679
-0.685103
0.148075
-0.758291
-0.239540
0.604670
-1.644790
-0.008007
-2.374600
2.403653
2.546006
2.490868
2.117670
-0.397016
-1.966052
-2.403038
0.003474
2.563791
-2.519059
-2.553503
-2.514694
-2.442754
2.335855
1.855270
2.561256
-2.512401
2.001842
-1.991546
-2.326466
1.655044
1.994461
-1.766398
-2.014819
-0.056556
1.634005
1.252502
1.252611
-1.772114
-1.534914
-1.220198
-1.681678
0.087527
-1.198196
-0.262256
-0.503965
-2.056749
-2.343113
-0.075473
-1.402712
1.396189
-0.657578
1.046966
-1.821079
-0.316591
-1.718537
1.831220
1.282191
-1.847823
-1.588189
-1.874841
-0.261516
1.687340
1.653554
-1.566761
1.414288
0.257617
-0.133780
1.865718
-1.874322
1.896394
-1.701604
1.593683
1.627791
-1.685691
-1.376694
-0.605959
-1.124008
1.085015
1.075583
-1.324519
0.421681
-1.073191
1.094143
0.283021
-1.708277
-1.784029
-0.791449
-1.817391
-2.559324
-1.877883
0.255011
1.779304
-0.252946
1.874460
1.886883
-2.325336
-1.847483
1.769401
1.869535
1.705429
-2.549969
-1.441161
1.796867
-1.989786
0.906950
1.452104
1.592668
1.451511
-1.282512
-1.086159
-0.870180
0.897338
0.896949
0.907544
0.061449
-0.526900
-0.063598
-1.834498
1.187459
-1.265441
0.767384
0.178747
0.262806
1.270139
1.320775
1.264468
1.281673
1.210247
1.216072
-1.066857
-1.231122
-1.268347
1.072265
0.844180
-1.323183
1.293876
-1.787365
1.057270
0.107884
-1.095265
1.542197
1.253922
-0.041038
-0.065375
-1.016934
0.604620
-1.268535
-0.762666
1.259541
0.648376
-0.638714
1.294443
-0.866255
-1.564213
-0.429494
1.824119
-0.009386
-1.891315
-1.838011
1.301669
-1.387831
-1.877227
1.893186
1.326523
0.003692
-1.827318
-1.852596
1.893703
-1.582816
1.254370
-1.702414
-1.787192
-1.444305
-1.275880
0.407973
0.973127
0.879598
-0.969043
-1.424274
-1.153362
1.004018
-0.547345
-0.126426
-0.952641
0.026173
0.833057
0.322562
0.915284
-1.297555
-1.267723
-1.262810
-1.269078
-1.206410
-1.063855
0.839814
-1.034607
0.741154
0.686230
0.575689
-0.578285
-0.476544
1.107237
1.091997
1.250214
1.286002
-1.286303
1.293285
1.306438
-0.044738
-0.337910
1.251413
-1.174761
0.694209
0.918476
-0.433150
0.515202
1.313687
1.237268
-1.280851
-1.191449
0.010848
-0.291450
-1.334056
-1.327187
1.288090
-0.848460
-1.254876
-1.207245
1.305092
0.316822
0.978431
-1.145947
-1.246291
0.311187
1.258714
-0.962603
1.154115
1.153150
-1.309004
-0.881377
0.882547
-0.862710
0.586701
-0.778531
-1.111138
1.174309
-0.041638
0.973137
-0.078820
0.956322
0.939020
0.811549
-0.949965
-0.886168
0.804323
0.743699
0.727842
-0.757535
0.683016
-0.759649
-0.697434
-0.552883
0.940464
0.769276
0.502420
0.665376
-0.579424
0.015080
-0.969223
-0.869094
0.171575
0.466684
-0.587985
0.434344
0.962223
0.818796
-0.550017
-0.882250
-1.088515
0.138687
-0.878842
-0.825108
-1.291187
-1.275744
-1.248529
0.905847
-0.973111
0.006664
0.764476
0.827486
0.641927
0.724487
0.525166
-1.247455
-0.992459
-0.756587
-1.144113
-0.659011
0.676803
-0.477516
0.591178
0.555270
-0.957181
0.899726
0.881673
0.644501
-0.155361
0.652034
0.963089
-0.291683
-0.822445
0.806616
0.750435
0.430875
-0.373136
-0.711485
0.665206
-0.542601
-0.129081
-0.701306
-0.741188
0.390942
-0.670805
0.137894
-0.882771
-0.750007
0.244792
0.100355
0.779443
0.210827
-0.304689
0.172624
0.181820
0.198689
0.160033
-0.669327
-0.636521
0.142461
0.449171
-0.582658
-0.739814
0.871394
0.868560
0.754360
-0.036568
-0.559383
-1.019084
-0.745874
-0.809301
0.276533
0.745930
0.563569
-0.605550
0.782478
-0.698439
0.691412
0.709523
-0.748939
-0.784002
0.673493
-1.007011
0.983567
-0.162341
-0.164674
-0.093357
-0.683605
0.684120
-0.707986
-0.231244
-0.828394
-1.021636
-0.418050
-0.173258
0.173722
0.572249
0.799401
-0.737910
-0.692051
0.684725
-0.144250
0.648670
0.379014
-0.235285
-0.571640
0.347492
0.812213
-0.387622
0.462667
0.263460
-0.051821
0.253353
0.224809
-0.710731
0.209040
0.198496
-0.752763
0.259517
0.429033
-0.282658
-0.288927
-0.138331
-0.714281
0.639481
-0.668879
-0.235967
0.523313
-0.541515
-0.467206
-0.760324
0.359482
-0.704293
0.233977
0.590634
-0.721600
-0.245900
-0.815276
0.115050
-0.241580
0.814137
0.007259
0.197245
0.693165
-0.281971
-0.331116
-0.679638
-0.205623
-0.176123
-0.296482
0.778833
-0.324746
-0.165749
-0.139210
0.015147
-0.189845
0.685214
-0.186010
-0.331753
-0.483264
0.499612
-0.682707
-0.692671
0.653265
-0.563095
0.554894
0.554952
-0.101548
-0.600450
0.367671
0.570328
-0.370472
-0.499415
-0.446043
0.446212
-0.164297
0.099987
0.623273
0.199256
-0.045396
-0.388398
-0.708606
0.195637
-0.610819
0.550142
0.702503
-0.027914
-0.671208
-0.013170
0.347647
0.243537
-0.233848
-0.670609
0.595202
-0.427349
-0.519470
-0.293244
-0.090532
-0.191286
0.691033
-0.301449
-0.252717
-0.323246
0.112056
0.521279
-0.083668
0.191312
-0.782362
0.654810
0.520962
-0.157215
-0.139838
-0.613969
0.492574
-0.405643
-0.487043
0.391881
-0.194601
-0.500444
-0.520143
-0.238889
0.137499
-0.142377
0.584399
-0.289669
-0.086639
0.022048
0.585335
0.550610
-0.626011
-0.025616
-0.111006
-0.607630
0.341503
0.433544
0.096340
0.472087
0.206343
-0.588727
-0.589836
0.292999
0.593479
-0.144554
-0.471591
-0.108858
-0.196586
0.568031
0.524189
0.737854
-0.033516
0.057742
-0.928575
-0.173871
0.061203
-0.534012
0.488213
0.441681
-0.311577
-0.191178
-0.507657
0.377013
0.136489
0.489826
-0.265396
-0.461604
-0.154767
-0.200890
0.184177
0.054413
0.112793
0.403545
0.216402
0.350106
0.576906
-0.583321
0.472293
0.493203
-0.058476
0.345381
-0.321874
-0.402017
0.476281
-0.071098
-0.369530
-0.473077
-0.235706
-0.103744
0.026431
-0.146048
0.034639
0.456440
-0.550592
-0.587018
0.309929
-0.201211
0.420748
-0.518137
-0.322961
-0.429745
0.169873
-0.514261
0.146805
-0.427626
-0.392589
0.070336
0.339050
-0.263972
0.511091
0.425162
0.307544
-0.316676
0.053584
0.085342
-0.217334
0.391031
-0.514703
0.453964
-0.193607
-0.245045
-0.467756
-0.122458
-0.000791
-0.104851
0.059953
0.529095
0.342724
-0.232108
-0.075343
0.405778
0.288996
-0.444526
0.337145
0.468297
0.382749
0.186749
-0.063819
-0.177983
-0.342310
0.419631
-0.139708
-0.458920
-0.119104
0.347483
-0.007971
-0.517216
0.294225
0.513809
0.366998
-0.321959
0.096039
0.190444
0.400480
-0.058395
-0.252183
-0.290016
0.087310
-0.409351
-0.460607
0.195134
0.039923
-0.277153
0.503357
-0.041132
-0.011368
-0.242090
0.217434
-0.346862
0.238661
-0.453244
0.338574
-0.302901
0.409445
-0.390476
0.459471
-0.299644
0.319185
-0.228803
0.008544
-0.294262
0.158795
-0.079879
-0.170398
-0.364873
0.280277
-0.456768
0.065536
0.308931
0.158990
0.322944
0.036673
0.384171
-0.176301
-0.104032
-0.270666
-0.248297
0.233610
0.040542
0.128815
-0.098929
0.041658
0.069042
-0.399541
-0.396860
-0.153917
-0.415405
0.218799
-0.224665
-0.267502
-0.301267
0.120192
0.192842
0.064734
-0.005228
-0.031115
-0.059605
0.158446
0.400075
0.184682
0.361808
0.461472
-0.388596
0.440238
-0.057380
0.272593
0.326104
-0.129855
0.083991
-0.231992
-0.332593
-0.163643
0.237442
-0.316414
-0.123666
-0.326859
0.140841
-0.155381
0.142193
0.178614
-0.250278
-0.415180
0.127756
-0.007101
-0.045209
-0.363402
0.403322
0.100709
-0.217659
0.302810
-0.014369
-0.356563
-0.337313
-0.405382
0.308104
0.335855
0.219535
0.212688
0.104157
-0.273174
-0.072209
0.073998
-0.371833
-0.073030
-0.294990
0.344739
0.195001
0.242679
-0.162113
-0.357903
0.064429
-0.083138
-0.181440
-0.289066
-0.346748
0.224326
-0.040688
-0.182580
0.399450
0.339493
-0.159964
-0.286882
0.029162
-0.018152
0.160893
0.253182
-0.126874
0.069639
-0.223701
-0.347515
0.319243
-0.288216
0.243136
0.191727
0.322529
0.076722
-0.018089
-0.375140
0.285874
-0.374863
-0.325992
0.138913
-0.043038
-0.147351
-0.133213
0.411195
0.260508
-0.449335
0.209121
0.180716
0.371772
-0.232888
0.157945
-0.182343
-0.316995
0.333557
-0.183183
0.042039
0.263830
-0.043745
0.108370
0.366671
0.260663
0.148297
-0.026013
0.079492
-0.275068
-0.273919
0.295983
0.163976
-0.319984
0.059606
0.301616
0.207406
0.042422
0.281596
0.361589
-0.077035
-0.027657
0.047523
0.152182
-0.203645
0.221146
0.166127
0.052666
0.225697
-0.015951
0.245146
0.302290
0.046228
-0.103035
0.034150
-0.249706
-0.246611
0.207542
-0.333975
0.242618
0.274909
0.076665
0.087874
-0.163246
0.335030
-0.065144
-0.214192
0.093294
0.127338
0.370745
-0.124661
0.137974
0.111101
-0.272856
0.152467
-0.202148
0.175019
0.265712
0.103991
0.121311
0.316104
-0.148913
-0.271846
0.253862
-0.021167
0.166783
-0.148549
0.188547
-0.047479
0.085385
0.216323
0.222980
0.253428
0.060167
0.122281
-0.115674
0.170178
-0.087492
0.344544
0.015420
-0.223849
0.071763
0.200014
0.164815
0.192430
-0.287076
-0.139575
0.057712
0.137241
-0.204230
0.271133
0.109188
-0.084611
0.220112
-0.053028
0.132283
0.206582
0.182222
0.222175
0.052386
-0.006349
-0.238683
-0.092097
-0.043826
-0.113617
0.152537
-0.240356
-0.066311
0.120466
-0.109465
-0.018414
-0.165416
0.086211
-0.002227
0.167907
0.109134
0.153002
0.179170
0.026449
0.096746
0.259375
0.225703
-0.181518
-0.047846
-0.194802
-0.175628
-0.097718
-0.026850
-0.054326
-0.015447
0.032993
0.053206
-0.027558
0.031159
-0.102705
-0.064921
0.003294
-0.155555
-0.138251
-0.004177
-0.046991
-0.107495
-0.070117
-0.080001
-0.102657
-0.124469
CELL_DATA 2699
TENSORS STRESS float
0.000000 0.000000 0.000000
0.000000 0.000000 0.000000
0.000000 0.000000 0.000000
0.000000 0.000000 0.000000
0.000000 0.000000 0.000000
0.000000 0.000000 0.000000
0.000000 0.000000 0.000000
0.000000 0.000000 0.000000
0.000000 0.000000 0.000000
0.000000 0.000000 0.000000
0.000000 0.000000 0.000000
0.000000 0.000000 0.000000
0.000000 0.000000 0.000000
0.000000 0.000000 0.000000
0.000000 0.000000 0.000000
0.000000 0.000000 0.000000
0.000000 0.000000 0.000000
0.000000 0.000000 0.000000
0.000000 0.000000 0.000000
0.000000 0.000000 0.000000
0.000000 0.000000 0.000000
0.000000 0.000000 0.000000
0.000000 0.000000 0.000000
0.000000 0.000000 0.000000
0.000000 0.000000 0.000000
0.000000 0.000000 0.000000
0.000000 0.000000 0.000000
0.000000 0.000000 0.000000
0.000000 0.000000 0.000000
0.000000 0.000000 0.000000
0.000000 0.000000 0.000000
0.000000 0.000000 0.000000
0.000000 0.000000 0.000000
0.000000 0.000000 0.000000
0.000000 0.000000 0.000000
0.000000 0.000000 0.000000
0.000000 0.000000 0.000000
0.000000 0.000000 0.000000
0.000000 0.000000 0.000000
0.000000 0.000000 0.000000
0.000000 0.000000 0.000000
0.000000 0.000000 0.000000
0.000000 0.000000 0.000000
0.000000 0.000000 0.000000
0.000000 0.000000 0.000000
0.000000 0.000000 0.000000
0.000000 0.000000 0.000000
0.000000 0.000000 0.000000
0.000000 0.000000 0.000000
0.000000 0.000000 0.000000
0.000000 0.000000 0.000000
0.000000 0.000000 0.000000
0.000000 0.000000 0.000000
0.000000 0.000000 0.000000
0.000000 0.000000 0.000000
0.000000 0.000000 0.000000
0.000000 0.000000 0.000000
0.000000 0.000000 0.000000
0.000000 0.000000 0.000000
0.000000 0.000000 0.000000
0.000000 0.000000 0.000000
0.000000 0.000000 0.000000
0.000000 0.000000 0.000000
0.000000 0.000000 0.000000
0.000000 0.000000 0.000000
0.000000 0.000000 0.000000
0.000000 0.000000 0.000000
0.000000 0.000000 0.000000
0.000000 0.000000 0.000000
0.000000 0.000000 0.000000
0.000000 0.000000 0.000000
0.000000 0.000000 0.000000
0.000000 0.000000 0.000000
0.000000 0.000000 0.000000
0.000000 0.000000 0.000000
0.000000 0.000000 0.000000
0.000000 0.000000 0.000000
0.000000 0.000000 0.000000
0.000000 0.000000 0.000000
0.000000 0.000000 0.000000
0.000000 0.000000 0.000000
0.000000 0.000000 0.000000
0.000000 0.000000 0.000000
0.000000 0.000000 0.000000
0.000000 0.000000 0.000000
0.000000 0.000000 0.000000
0.000000 0.000000 0.000000
0.000000 0.000000 0.000000
0.000000 0.000000 0.000000
0.000000 0.000000 0.000000
0.000000 0.000000 0.000000
0.000000 0.000000 0.000000
0.000000 0.000000 0.000000
0.000000 0.000000 0.000000
0.000000 0.000000 0.000000
0.000000 0.000000 0.000000
0.000000 0.000000 0.000000
0.000000 0.000000 0.000000
0.000000 0.000000 0.000000
0.000000 0.000000 0.000000
0.000000 0.000000 0.000000
0.000000 0.000000 0.000000
0.000000 0.000000 0.000000
0.000000 0.000000 0.000000
0.000000 0.000000 0.000000
0.000000 0.000000 0.000000
0.000000 0.000000 0.000000
0.000000 0.000000 0.000000
0.000000 0.000000 0.000000
0.000000 0.000000 0.000000
0.000000 0.000000 0.000000
0.000000 0.000000 0.000000
0.000000 0.000000 0.000000
0.000000 0.000000 0.000000
0.000000 0.000000 0.000000
0.000000 0.000000 0.000000
0.000000 0.000000 0.000000
0.000000 0.000000 0.000000
0.000000 0.000000 0.000000
0.000000 0.000000 0.000000
0.000000 0.000000 0.000000
0.000000 0.000000 0.000000
0.000000 0.000000 0.000000
0.000000 0.000000 0.000000
0.000000 0.000000 0.000000
0.000000 0.000000 0.000000
0.000000 0.000000 0.000000
0.000000 0.000000 0.000000
0.000000 0.000000 0.000000
0.000000 0.000000 0.000000
0.000000 0.000000 0.000000
0.000000 0.000000 0.000000
0.000000 0.000000 0.000000
0.000000 0.000000 0.000000
0.000000 0.000000 0.000000
0.000000 0.000000 0.000000
0.000000 0.000000 0.000000
0.000000 0.000000 0.000000
0.000000 0.000000 0.000000
0.000000 0.000000 0.000000
0.000000 0.000000 0.000000
0.000000 0.000000 0.000000
0.000000 0.000000 0.000000
0.000000 0.000000 0.000000
0.000000 0.000000 0.000000
0.000000 0.000000 0.000000
0.000000 0.000000 0.000000
0.000000 0.000000 0.000000
0.000000 0.000000 0.000000
0.000000 0.000000 0.000000
0.000000 0.000000 0.000000
0.000000 0.000000 0.000000
0.000000 0.000000 0.000000
0.000000 0.000000 0.000000
0.000000 0.000000 0.000000
0.000000 0.000000 0.000000
0.000000 0.000000 0.000000
0.000000 0.000000 0.000000
0.000000 0.000000 0.000000
0.000000 0.000000 0.000000
0.000000 0.000000 0.000000
0.000000 0.000000 0.000000
0.000000 0.000000 0.000000
0.000000 0.000000 0.000000
0.000000 0.000000 0.000000
0.000000 0.000000 0.000000
0.000000 0.000000 0.000000
0.000000 0.000000 0.000000
0.000000 0.000000 0.000000
0.000000 0.000000 0.000000
0.000000 0.000000 0.000000
0.000000 0.000000 0.000000
0.000000 0.000000 0.000000
0.000000 0.000000 0.000000
0.000000 0.000000 0.000000
0.000000 0.000000 0.000000
0.000000 0.000000 0.000000
0.000000 0.000000 0.000000
0.000000 0.000000 0.000000
0.000000 0.000000 0.000000
0.000000 0.000000 0.000000
0.000000 0.000000 0.000000
0.000000 0.000000 0.000000
0.000000 0.000000 0.000000
0.000000 0.000000 0.000000
0.000000 0.000000 0.000000
0.000000 0.000000 0.000000
0.000000 0.000000 0.000000
0.000000 0.000000 0.000000
0.000000 0.000000 0.000000
0.000000 0.000000 0.000000
0.000000 0.000000 0.000000
0.000000 0.000000 0.000000
0.000000 0.000000 0.000000
0.000000 0.000000 0.000000
0.000000 0.000000 0.000000
0.000000 0.000000 0.000000
0.000000 0.000000 0.000000
0.000000 0.000000 0.000000
0.000000 0.000000 0.000000
0.000000 0.000000 0.000000
0.000000 0.000000 0.000000
0.000000 0.000000 0.000000
0.000000 0.000000 0.000000
0.000000 0.000000 0.000000
0.000000 0.000000 0.000000
0.000000 0.000000 0.000000
0.000000 0.000000 0.000000
0.000000 0.000000 0.000000
0.000000 0.000000 0.000000
0.000000 0.000000 0.000000
0.000000 0.000000 0.000000
0.000000 0.000000 0.000000
0.000000 0.000000 0.000000
0.000000 0.000000 0.000000
0.000000 0.000000 0.000000
0.000000 0.000000 0.000000
0.000000 0.000000 0.000000
0.000000 0.000000 0.000000
0.000000 0.000000 0.000000
0.000000 0.000000 0.000000
0.000000 0.000000 0.000000
0.000000 0.000000 0.000000
0.000000 0.000000 0.000000
0.000000 0.000000 0.000000
0.000000 0.000000 0.000000
0.000000 0.000000 0.000000
0.000000 0.000000 0.000000
0.000000 0.000000 0.000000
0.000000 0.000000 0.000000
0.000000 0.000000 0.000000
0.000000 0.000000 0.000000
0.000000 0.000000 0.000000
0.000000 0.000000 0.000000
0.000000 0.000000 0.000000
0.000000 0.000000 0.000000
0.000000 0.000000 0.000000
0.000000 0.000000 0.000000
0.000000 0.000000 0.000000
0.000000 0.000000 0.000000
0.000000 0.000000 0.000000
0.000000 0.000000 0.000000
0.000000 0.000000 0.000000
0.000000 0.000000 0.000000
0.000000 0.000000 0.000000
0.000000 0.000000 0.000000
0.000000 0.000000 0.000000
0.000000 0.000000 0.000000
0.000000 0.000000 0.000000
0.000000 0.000000 0.000000
0.000000 0.000000 0.000000
0.000000 0.000000 0.000000
0.000000 0.000000 0.000000
0.000000 0.000000 0.000000
0.000000 0.000000 0.000000
0.000000 0.000000 0.000000
0.000000 0.000000 0.000000
0.000000 0.000000 0.000000
0.000000 0.000000 0.000000
0.000000 0.000000 0.000000
0.000000 0.000000 0.000000
0.000000 0.000000 0.000000
0.000000 0.000000 0.000000
0.000000 0.000000 0.000000
0.000000 0.000000 0.000000
0.000000 0.000000 0.000000
0.000000 0.000000 0.000000
0.000000 0.000000 0.000000
0.000000 0.000000 0.000000
0.000000 0.000000 0.000000
0.000000 0.000000 0.000000
0.000000 0.000000 0.000000
0.000000 0.000000 0.000000
0.000000 0.000000 0.000000
0.000000 0.000000 0.000000
0.000000 0.000000 0.000000
0.000000 0.000000 0.000000
0.000000 0.000000 0.000000
0.000000 0.000000 0.000000
0.000000 0.000000 0.000000
0.000000 0.000000 0.000000
0.000000 0.000000 0.000000
0.000000 0.000000 0.000000
0.000000 0.000000 0.000000
0.000000 0.000000 0.000000
0.000000 0.000000 0.000000
0.000000 0.000000 0.000000
0.000000 0.000000 0.000000
0.000000 0.000000 0.000000
0.000000 0.000000 0.000000
0.000000 0.000000 0.000000
0.000000 0.000000 0.000000
0.000000 0.000000 0.000000
0.000000 0.000000 0.000000
0.000000 0.000000 0.000000
0.000000 0.000000 0.000000
0.000000 0.000000 0.000000
0.000000 0.000000 0.000000
0.000000 0.000000 0.000000
0.000000 0.000000 0.000000
0.000000 0.000000 0.000000
0.000000 0.000000 0.000000
0.000000 0.000000 0.000000
0.000000 0.000000 0.000000
0.000000 0.000000 0.000000
0.000000 0.000000 0.000000
0.000000 0.000000 0.000000
0.000000 0.000000 0.000000
0.000000 0.000000 0.000000
0.000000 0.000000 0.000000
0.000000 0.000000 0.000000
0.000000 0.000000 0.000000
0.000000 0.000000 0.000000
0.000000 0.000000 0.000000
0.000000 0.000000 0.000000
0.000000 0.000000 0.000000
0.000000 0.000000 0.000000
0.000000 0.000000 0.000000
0.000000 0.000000 0.000000
0.000000 0.000000 0.000000
0.000000 0.000000 0.000000
0.000000 0.000000 0.000000
0.000000 0.000000 0.000000
0.000000 0.000000 0.000000
0.000000 0.000000 0.000000
0.000000 0.000000 0.000000
0.000000 0.000000 0.000000
0.000000 0.000000 0.000000
0.000000 0.000000 0.000000
0.000000 0.000000 0.000000
0.000000 0.000000 0.000000
0.000000 0.000000 0.000000
0.000000 0.000000 0.000000
0.000000 0.000000 0.000000
0.000000 0.000000 0.000000
0.000000 0.000000 0.000000
0.000000 0.000000 0.000000
0.000000 0.000000 0.000000
0.000000 0.000000 0.000000
0.000000 0.000000 0.000000
0.000000 0.000000 0.000000
0.000000 0.000000 0.000000
0.000000 0.000000 0.000000
0.000000 0.000000 0.000000
0.000000 0.000000 0.000000
0.000000 0.000000 0.000000
0.000000 0.000000 0.000000
0.000000 0.000000 0.000000
0.000000 0.000000 0.000000
0.000000 0.000000 0.000000
0.000000 0.000000 0.000000
0.000000 0.000000 0.000000
0.000000 0.000000 0.000000
0.000000 0.000000 0.000000
0.000000 0.000000 0.000000
0.000000 0.000000 0.000000
0.000000 0.000000 0.000000
0.000000 0.000000 0.000000
0.000000 0.000000 0.000000
0.000000 0.000000 0.000000
0.000000 0.000000 0.000000
0.000000 0.000000 0.000000
0.000000 0.000000 0.000000
0.000000 0.000000 0.000000
0.000000 0.000000 0.000000
0.000000 0.000000 0.000000
0.000000 0.000000 0.000000
0.000000 0.000000 0.000000
0.000000 0.000000 0.000000
0.000000 0.000000 0.000000
0.000000 0.000000 0.000000
0.000000 0.000000 0.000000
0.000000 0.000000 0.000000
0.000000 0.000000 0.000000
0.000000 0.000000 0.000000
0.000000 0.000000 0.000000
0.000000 0.000000 0.000000
0.000000 0.000000 0.000000
0.000000 0.000000 0.000000
0.000000 0.000000 0.000000
0.000000 0.000000 0.000000
0.000000 0.000000 0.000000
0.000000 0.000000 0.000000
0.000000 0.000000 0.000000
0.000000 0.000000 0.000000
0.000000 0.000000 0.000000
0.000000 0.000000 0.000000
0.000000 0.000000 0.000000
0.000000 0.000000 0.000000
0.000000 0.000000 0.000000
0.000000 0.000000 0.000000
0.000000 0.000000 0.000000
0.000000 0.000000 0.000000
0.000000 0.000000 0.000000
0.000000 0.000000 0.000000
0.000000 0.000000 0.000000
0.000000 0.000000 0.000000
0.000000 0.000000 0.000000
0.000000 0.000000 0.000000
0.000000 0.000000 0.000000
0.000000 0.000000 0.000000
0.000000 0.000000 0.000000
0.000000 0.000000 0.000000
0.000000 0.000000 0.000000
0.000000 0.000000 0.000000
0.000000 0.000000 0.000000
0.000000 0.000000 0.000000
0.000000 0.000000 0.000000
0.000000 0.000000 0.000000
0.000000 0.000000 0.000000
0.000000 0.000000 0.000000
0.000000 0.000000 0.000000
0.000000 0.000000 0.000000
0.000000 0.000000 0.000000
0.000000 0.000000 0.000000
0.000000 0.000000 0.000000
0.000000 0.000000 0.000000
0.000000 0.000000 0.000000
0.000000 0.000000 0.000000
0.000000 0.000000 0.000000
0.000000 0.000000 0.000000
0.000000 0.000000 0.000000
0.000000 0.000000 0.000000
0.000000 0.000000 0.000000
0.000000 0.000000 0.000000
0.000000 0.000000 0.000000
0.000000 0.000000 0.000000
0.000000 0.000000 0.000000
0.000000 0.000000 0.000000
0.000000 0.000000 0.000000
0.000000 0.000000 0.000000
0.000000 0.000000 0.000000
0.000000 0.000000 0.000000
0.000000 0.000000 0.000000
0.000000 0.000000 0.000000
0.000000 0.000000 0.000000
0.000000 0.000000 0.000000
0.000000 0.000000 0.000000
0.000000 0.000000 0.000000
0.000000 0.000000 0.000000
0.000000 0.000000 0.000000
0.000000 0.000000 0.000000
0.000000 0.000000 0.000000
0.000000 0.000000 0.000000
0.000000 0.000000 0.000000
0.000000 0.000000 0.000000
0.000000 0.000000 0.000000
0.000000 0.000000 0.000000
0.000000 0.000000 0.000000
0.000000 0.000000 0.000000
0.000000 0.000000 0.000000
0.000000 0.000000 0.000000
0.000000 0.000000 0.000000
0.000000 0.000000 0.000000
0.000000 0.000000 0.000000
0.000000 0.000000 0.000000
0.000000 0.000000 0.000000
0.000000 0.000000 0.000000
0.000000 0.000000 0.000000
0.000000 0.000000 0.000000
0.000000 0.000000 0.000000
0.000000 0.000000 0.000000
0.000000 0.000000 0.000000
0.000000 0.000000 0.000000
0.000000 0.000000 0.000000
0.000000 0.000000 0.000000
0.000000 0.000000 0.000000
0.000000 0.000000 0.000000
0.000000 0.000000 0.000000
0.000000 0.000000 0.000000
0.000000 0.000000 0.000000
0.000000 0.000000 0.000000
0.000000 0.000000 0.000000
0.000000 0.000000 0.000000
0.000000 0.000000 0.000000
0.000000 0.000000 0.000000
0.000000 0.000000 0.000000
0.000000 0.000000 0.000000
0.000000 0.000000 0.000000
0.000000 0.000000 0.000000
0.000000 0.000000 0.000000
0.000000 0.000000 0.000000
0.000000 0.000000 0.000000
0.000000 0.000000 0.000000
0.000000 0.000000 0.000000
0.000000 0.000000 0.000000
0.000000 0.000000 0.000000
0.000000 0.000000 0.000000
0.000000 0.000000 0.000000
0.000000 0.000000 0.000000
0.000000 0.000000 0.000000
0.000000 0.000000 0.000000
0.000000 0.000000 0.000000
0.000000 0.000000 0.000000
0.000000 0.000000 0.000000
0.000000 0.000000 0.000000
0.000000 0.000000 0.000000
0.000000 0.000000 0.000000
0.000000 0.000000 0.000000
0.000000 0.000000 0.000000
0.000000 0.000000 0.000000
0.000000 0.000000 0.000000
0.000000 0.000000 0.000000
0.000000 0.000000 0.000000
0.000000 0.000000 0.000000
0.000000 0.000000 0.000000
0.000000 0.000000 0.000000
0.000000 0.000000 0.000000
0.000000 0.000000 0.000000
0.000000 0.000000 0.000000
0.000000 0.000000 0.000000
0.000000 0.000000 0.000000
0.000000 0.000000 0.000000
0.000000 0.000000 0.000000
0.000000 0.000000 0.000000
0.000000 0.000000 0.000000
0.000000 0.000000 0.000000
0.000000 0.000000 0.000000
0.000000 0.000000 0.000000
0.000000 0.000000 0.000000
0.000000 0.000000 0.000000
0.000000 0.000000 0.000000
0.000000 0.000000 0.000000
0.000000 0.000000 0.000000
0.000000 0.000000 0.000000
0.000000 0.000000 0.000000
0.000000 0.000000 0.000000
0.000000 0.000000 0.000000
0.000000 0.000000 0.000000
0.000000 0.000000 0.000000
0.000000 0.000000 0.000000
0.000000 0.000000 0.000000
0.000000 0.000000 0.000000
0.000000 0.000000 0.000000
0.000000 0.000000 0.000000
0.000000 0.000000 0.000000
0.000000 0.000000 0.000000
0.000000 0.000000 0.000000
0.000000 0.000000 0.000000
0.000000 0.000000 0.000000
0.000000 0.000000 0.000000
0.000000 0.000000 0.000000
0.000000 0.000000 0.000000
0.000000 0.000000 0.000000
0.000000 0.000000 0.000000
0.000000 0.000000 0.000000
0.000000 0.000000 0.000000
0.000000 0.000000 0.000000
0.000000 0.000000 0.000000
0.000000 0.000000 0.000000
0.000000 0.000000 0.000000
0.000000 0.000000 0.000000
0.000000 0.000000 0.000000
0.000000 0.000000 0.000000
0.000000 0.000000 0.000000
0.000000 0.000000 0.000000
0.000000 0.000000 0.000000
0.000000 0.000000 0.000000
0.000000 0.000000 0.000000
0.000000 0.000000 0.000000
0.000000 0.000000 0.000000
0.000000 0.000000 0.000000
0.000000 0.000000 0.000000
0.000000 0.000000 0.000000
0.000000 0.000000 0.000000
0.000000 0.000000 0.000000
0.000000 0.000000 0.000000
0.000000 0.000000 0.000000
0.000000 0.000000 0.000000
0.000000 0.000000 0.000000
0.000000 0.000000 0.000000
0.000000 0.000000 0.000000
0.000000 0.000000 0.000000
0.000000 0.000000 0.000000
0.000000 0.000000 0.000000
0.000000 0.000000 0.000000
0.000000 0.000000 0.000000
0.000000 0.000000 0.000000
0.000000 0.000000 0.000000
0.000000 0.000000 0.000000
0.000000 0.000000 0.000000
0.000000 0.000000 0.000000
0.000000 0.000000 0.000000
0.000000 0.000000 0.000000
0.000000 0.000000 0.000000
0.000000 0.000000 0.000000
0.000000 0.000000 0.000000
0.000000 0.000000 0.000000
0.000000 0.000000 0.000000
0.000000 0.000000 0.000000
0.000000 0.000000 0.000000
0.000000 0.000000 0.000000
0.000000 0.000000 0.000000
0.000000 0.000000 0.000000
0.000000 0.000000 0.000000
0.000000 0.000000 0.000000
0.000000 0.000000 0.000000
0.000000 0.000000 0.000000
0.000000 0.000000 0.000000
0.000000 0.000000 0.000000
0.000000 0.000000 0.000000
0.000000 0.000000 0.000000
0.000000 0.000000 0.000000
0.000000 0.000000 0.000000
0.000000 0.000000 0.000000
0.000000 0.000000 0.000000
0.000000 0.000000 0.000000
0.000000 0.000000 0.000000
0.000000 0.000000 0.000000
0.000000 0.000000 0.000000
0.000000 0.000000 0.000000
0.000000 0.000000 0.000000
0.000000 0.000000 0.000000
0.000000 0.000000 0.000000
0.000000 0.000000 0.000000
0.000000 0.000000 0.000000
0.000000 0.000000 0.000000
0.000000 0.000000 0.000000
0.000000 0.000000 0.000000
0.000000 0.000000 0.000000
0.000000 0.000000 0.000000
0.000000 0.000000 0.000000
0.000000 0.000000 0.000000
0.000000 0.000000 0.000000
0.000000 0.000000 0.000000
0.000000 0.000000 0.000000
0.000000 0.000000 0.000000
0.000000 0.000000 0.000000
0.000000 0.000000 0.000000
0.000000 0.000000 0.000000
0.000000 0.000000 0.000000
0.000000 0.000000 0.000000
0.000000 0.000000 0.000000
0.000000 0.000000 0.000000
0.000000 0.000000 0.000000
0.000000 0.000000 0.000000
0.000000 0.000000 0.000000
0.000000 0.000000 0.000000
0.000000 0.000000 0.000000
0.000000 0.000000 0.000000
0.000000 0.000000 0.000000
0.000000 0.000000 0.000000
0.000000 0.000000 0.000000
0.000000 0.000000 0.000000
0.000000 0.000000 0.000000
0.000000 0.000000 0.000000
0.000000 0.000000 0.000000
0.000000 0.000000 0.000000
0.000000 0.000000 0.000000
0.000000 0.000000 0.000000
0.000000 0.000000 0.000000
0.000000 0.000000 0.000000
0.000000 0.000000 0.000000
0.000000 0.000000 0.000000
0.000000 0.000000 0.000000
0.000000 0.000000 0.000000
0.000000 0.000000 0.000000
0.000000 0.000000 0.000000
0.000000 0.000000 0.000000
0.000000 0.000000 0.000000
0.000000 0.000000 0.000000
0.000000 0.000000 0.000000
0.000000 0.000000 0.000000
0.000000 0.000000 0.000000
0.000000 0.000000 0.000000
0.000000 0.000000 0.000000
0.000000 0.000000 0.000000
0.000000 0.000000 0.000000
0.000000 0.000000 0.000000
0.000000 0.000000 0.000000
0.000000 0.000000 0.000000
0.000000 0.000000 0.000000
0.000000 0.000000 0.000000
0.000000 0.000000 0.000000
0.000000 0.000000 0.000000
0.000000 0.000000 0.000000
0.000000 0.000000 0.000000
0.000000 0.000000 0.000000
0.000000 0.000000 0.000000
0.000000 0.000000 0.000000
0.000000 0.000000 0.000000
0.000000 0.000000 0.000000
0.000000 0.000000 0.000000
0.000000 0.000000 0.000000
0.000000 0.000000 0.000000
0.000000 0.000000 0.000000
0.000000 0.000000 0.000000
0.000000 0.000000 0.000000
0.000000 0.000000 0.000000
0.000000 0.000000 0.000000
0.000000 0.000000 0.000000
0.000000 0.000000 0.000000
0.000000 0.000000 0.000000
0.000000 0.000000 0.000000
0.000000 0.000000 0.000000
0.000000 0.000000 0.000000
0.000000 0.000000 0.000000
0.000000 0.000000 0.000000
0.000000 0.000000 0.000000
0.000000 0.000000 0.000000
0.000000 0.000000 0.000000
0.000000 0.000000 0.000000
0.000000 0.000000 0.000000
0.000000 0.000000 0.000000
0.000000 0.000000 0.000000
0.000000 0.000000 0.000000
0.000000 0.000000 0.000000
0.000000 0.000000 0.000000
0.000000 0.000000 0.000000
0.000000 0.000000 0.000000
0.000000 0.000000 0.000000
0.000000 0.000000 0.000000
0.000000 0.000000 0.000000
0.000000 0.000000 0.000000
0.000000 0.000000 0.000000
0.000000 0.000000 0.000000
0.000000 0.000000 0.000000
0.000000 0.000000 0.000000
0.000000 0.000000 0.000000
0.000000 0.000000 0.000000
0.000000 0.000000 0.000000
0.000000 0.000000 0.000000
0.000000 0.000000 0.000000
0.000000 0.000000 0.000000
0.000000 0.000000 0.000000
0.000000 0.000000 0.000000
0.000000 0.000000 0.000000
0.000000 0.000000 0.000000
0.000000 0.000000 0.000000
0.000000 0.000000 0.000000
0.000000 0.000000 0.000000
0.000000 0.000000 0.000000
0.000000 0.000000 0.000000
0.000000 0.000000 0.000000
0.000000 0.000000 0.000000
0.000000 0.000000 0.000000
0.000000 0.000000 0.000000
0.000000 0.000000 0.000000
0.000000 0.000000 0.000000
0.000000 0.000000 0.000000
0.000000 0.000000 0.000000
0.000000 0.000000 0.000000
0.000000 0.000000 0.000000
0.000000 0.000000 0.000000
0.000000 0.000000 0.000000
0.000000 0.000000 0.000000
0.000000 0.000000 0.000000
0.000000 0.000000 0.000000
0.000000 0.000000 0.000000
0.000000 0.000000 0.000000
0.000000 0.000000 0.000000
0.000000 0.000000 0.000000
0.000000 0.000000 0.000000
0.000000 0.000000 0.000000
0.000000 0.000000 0.000000
0.000000 0.000000 0.000000
0.000000 0.000000 0.000000
0.000000 0.000000 0.000000
0.000000 0.000000 0.000000
0.000000 0.000000 0.000000
0.000000 0.000000 0.000000
0.000000 0.000000 0.000000
0.000000 0.000000 0.000000
0.000000 0.000000 0.000000
0.000000 0.000000 0.000000
0.000000 0.000000 0.000000
0.000000 0.000000 0.000000
0.000000 0.000000 0.000000
0.000000 0.000000 0.000000
0.000000 0.000000 0.000000
0.000000 0.000000 0.000000
0.000000 0.000000 0.000000
0.000000 0.000000 0.000000
0.000000 0.000000 0.000000
0.000000 0.000000 0.000000
0.000000 0.000000 0.000000
0.000000 0.000000 0.000000
0.000000 0.000000 0.000000
0.000000 0.000000 0.000000
0.000000 0.000000 0.000000
0.000000 0.000000 0.000000
0.000000 0.000000 0.000000
0.000000 0.000000 0.000000
0.000000 0.000000 0.000000
0.000000 0.000000 0.000000
0.000000 0.000000 0.000000
0.000000 0.000000 0.000000
0.000000 0.000000 0.000000
0.000000 0.000000 0.000000
0.000000 0.000000 0.000000
0.000000 0.000000 0.000000
0.000000 0.000000 0.000000
0.000000 0.000000 0.000000
0.000000 0.000000 0.000000
0.000000 0.000000 0.000000
0.000000 0.000000 0.000000
0.000000 0.000000 0.000000
0.000000 0.000000 0.000000
0.000000 0.000000 0.000000
0.000000 0.000000 0.000000
0.000000 0.000000 0.000000
0.000000 0.000000 0.000000
0.000000 0.000000 0.000000
0.000000 0.000000 0.000000
0.000000 0.000000 0.000000
0.000000 0.000000 0.000000
0.000000 0.000000 0.000000
0.000000 0.000000 0.000000
0.000000 0.000000 0.000000
0.000000 0.000000 0.000000
0.000000 0.000000 0.000000
0.000000 0.000000 0.000000
0.000000 0.000000 0.000000
0.000000 0.000000 0.000000
0.000000 0.000000 0.000000
0.000000 0.000000 0.000000
0.000000 0.000000 0.000000
0.000000 0.000000 0.000000
0.000000 0.000000 0.000000
0.000000 0.000000 0.000000
0.000000 0.000000 0.000000
0.000000 0.000000 0.000000
0.000000 0.000000 0.000000
0.000000 0.000000 0.000000
0.000000 0.000000 0.000000
0.000000 0.000000 0.000000
0.000000 0.000000 0.000000
0.000000 0.000000 0.000000
0.000000 0.000000 0.000000
0.000000 0.000000 0.000000
0.000000 0.000000 0.000000
0.000000 0.000000 0.000000
0.000000 0.000000 0.000000
0.000000 0.000000 0.000000
0.000000 0.000000 0.000000
0.000000 0.000000 0.000000
0.000000 0.000000 0.000000
0.000000 0.000000 0.000000
0.000000 0.000000 0.000000
0.000000 0.000000 0.000000
0.000000 0.000000 0.000000
0.000000 0.000000 0.000000
0.000000 0.000000 0.000000
0.000000 0.000000 0.000000
0.000000 0.000000 0.000000
0.000000 0.000000 0.000000
0.000000 0.000000 0.000000
0.000000 0.000000 0.000000
0.000000 0.000000 0.000000
0.000000 0.000000 0.000000
0.000000 0.000000 0.000000
0.000000 0.000000 0.000000
0.000000 0.000000 0.000000
0.000000 0.000000 0.000000
0.000000 0.000000 0.000000
0.000000 0.000000 0.000000
0.000000 0.000000 0.000000
0.000000 0.000000 0.000000
0.000000 0.000000 0.000000
0.000000 0.000000 0.000000
0.000000 0.000000 0.000000
0.000000 0.000000 0.000000
0.000000 0.000000 0.000000
0.000000 0.000000 0.000000
0.000000 0.000000 0.000000
0.000000 0.000000 0.000000
0.000000 0.000000 0.000000
0.000000 0.000000 0.000000
0.000000 0.000000 0.000000
0.000000 0.000000 0.000000
0.000000 0.000000 0.000000
0.000000 0.000000 0.000000
0.000000 0.000000 0.000000
0.000000 0.000000 0.000000
0.000000 0.000000 0.000000
0.000000 0.000000 0.000000
0.000000 0.000000 0.000000
0.000000 0.000000 0.000000
0.000000 0.000000 0.000000
0.000000 0.000000 0.000000
0.000000 0.000000 0.000000
0.000000 0.000000 0.000000
0.000000 0.000000 0.000000
0.000000 0.000000 0.000000
0.000000 0.000000 0.000000
0.000000 0.000000 0.000000
0.000000 0.000000 0.000000
0.000000 0.000000 0.000000
0.000000 0.000000 0.000000
0.000000 0.000000 0.000000
0.000000 0.000000 0.000000
0.000000 0.000000 0.000000
0.000000 0.000000 0.000000
0.000000 0.000000 0.000000
0.000000 0.000000 0.000000
0.000000 0.000000 0.000000
0.000000 0.000000 0.000000
0.000000 0.000000 0.000000
0.000000 0.000000 0.000000
0.000000 0.000000 0.000000
0.000000 0.000000 0.000000
0.000000 0.000000 0.000000
0.000000 0.000000 0.000000
0.000000 0.000000 0.000000
0.000000 0.000000 0.000000
0.000000 0.000000 0.000000
0.000000 0.000000 0.000000
0.000000 0.000000 0.000000
0.000000 0.000000 0.000000
0.000000 0.000000 0.000000
0.000000 0.000000 0.000000
0.000000 0.000000 0.000000
0.000000 0.000000 0.000000
0.000000 0.000000 0.000000
0.000000 0.000000 0.000000
0.000000 0.000000 0.000000
0.000000 0.000000 0.000000
0.000000 0.000000 0.000000
0.000000 0.000000 0.000000
0.000000 0.000000 0.000000
0.000000 0.000000 0.000000
0.000000 0.000000 0.000000
0.000000 0.000000 0.000000
0.000000 0.000000 0.000000
0.000000 0.000000 0.000000
0.000000 0.000000 0.000000
0.000000 0.000000 0.000000
0.000000 0.000000 0.000000
0.000000 0.000000 0.000000
0.000000 0.000000 0.000000
0.000000 0.000000 0.000000
0.000000 0.000000 0.000000
0.000000 0.000000 0.000000
0.000000 0.000000 0.000000
0.000000 0.000000 0.000000
0.000000 0.000000 0.000000
0.000000 0.000000 0.000000
0.000000 0.000000 0.000000
0.000000 0.000000 0.000000
0.000000 0.000000 0.000000
0.000000 0.000000 0.000000
0.000000 0.000000 0.000000
0.000000 0.000000 0.000000
0.000000 0.000000 0.000000
0.000000 0.000000 0.000000
0.000000 0.000000 0.000000
0.000000 0.000000 0.000000
0.000000 0.000000 0.000000
0.000000 0.000000 0.000000
0.000000 0.000000 0.000000
0.000000 0.000000 0.000000
0.000000 0.000000 0.000000
0.000000 0.000000 0.000000
0.000000 0.000000 0.000000
0.000000 0.000000 0.000000
0.000000 0.000000 0.000000
0.000000 0.000000 0.000000
0.000000 0.000000 0.000000
0.000000 0.000000 0.000000
0.000000 0.000000 0.000000
0.000000 0.000000 0.000000
0.000000 0.000000 0.000000
0.000000 0.000000 0.000000
0.000000 0.000000 0.000000
0.000000 0.000000 0.000000
0.000000 0.000000 0.000000
0.000000 0.000000 0.000000
0.000000 0.000000 0.000000
0.000000 0.000000 0.000000
0.000000 0.000000 0.000000
0.000000 0.000000 0.000000
0.000000 0.000000 0.000000
0.000000 0.000000 0.000000
0.000000 0.000000 0.000000
0.000000 0.000000 0.000000
0.000000 0.000000 0.000000
0.000000 0.000000 0.000000
0.000000 0.000000 0.000000
0.000000 0.000000 0.000000
0.000000 0.000000 0.000000
0.000000 0.000000 0.000000
0.000000 0.000000 0.000000
0.000000 0.000000 0.000000
0.000000 0.000000 0.000000
0.000000 0.000000 0.000000
0.000000 0.000000 0.000000
0.000000 0.000000 0.000000
0.000000 0.000000 0.000000
0.000000 0.000000 0.000000
0.000000 0.000000 0.000000
0.000000 0.000000 0.000000
0.000000 0.000000 0.000000
0.000000 0.000000 0.000000
0.000000 0.000000 0.000000
0.000000 0.000000 0.000000
0.000000 0.000000 0.000000
0.000000 0.000000 0.000000
0.000000 0.000000 0.000000
0.000000 0.000000 0.000000
0.000000 0.000000 0.000000
0.000000 0.000000 0.000000
0.000000 0.000000 0.000000
0.000000 0.000000 0.000000
0.000000 0.000000 0.000000
0.000000 0.000000 0.000000
0.000000 0.000000 0.000000
0.000000 0.000000 0.000000
0.000000 0.000000 0.000000
0.000000 0.000000 0.000000
0.000000 0.000000 0.000000
0.000000 0.000000 0.000000
0.000000 0.000000 0.000000
0.000000 0.000000 0.000000
0.000000 0.000000 0.000000
0.000000 0.000000 0.000000
0.000000 0.000000 0.000000
0.000000 0.000000 0.000000
0.000000 0.000000 0.000000
0.000000 0.000000 0.000000
0.000000 0.000000 0.000000
0.000000 0.000000 0.000000
0.000000 0.000000 0.000000
0.000000 0.000000 0.000000
0.000000 0.000000 0.000000
0.000000 0.000000 0.000000
0.000000 0.000000 0.000000
0.000000 0.000000 0.000000
0.000000 0.000000 0.000000
0.000000 0.000000 0.000000
0.000000 0.000000 0.000000
0.000000 0.000000 0.000000
0.000000 0.000000 0.000000
0.000000 0.000000 0.000000
0.000000 0.000000 0.000000
0.000000 0.000000 0.000000
0.000000 0.000000 0.000000
0.000000 0.000000 0.000000
0.000000 0.000000 0.000000
0.000000 0.000000 0.000000
0.000000 0.000000 0.000000
0.000000 0.000000 0.000000
0.000000 0.000000 0.000000
0.000000 0.000000 0.000000
0.000000 0.000000 0.000000
0.000000 0.000000 0.000000
0.000000 0.000000 0.000000
0.000000 0.000000 0.000000
0.000000 0.000000 0.000000
0.000000 0.000000 0.000000
0.000000 0.000000 0.000000
0.000000 0.000000 0.000000
0.000000 0.000000 0.000000
0.000000 0.000000 0.000000
0.000000 0.000000 0.000000
0.000000 0.000000 0.000000
0.000000 0.000000 0.000000
0.000000 0.000000 0.000000
0.000000 0.000000 0.000000
0.000000 0.000000 0.000000
0.000000 0.000000 0.000000
0.000000 0.000000 0.000000
0.000000 0.000000 0.000000
0.000000 0.000000 0.000000
0.000000 0.000000 0.000000
0.000000 0.000000 0.000000
0.000000 0.000000 0.000000
0.000000 0.000000 0.000000
0.000000 0.000000 0.000000
0.000000 0.000000 0.000000
0.000000 0.000000 0.000000
0.000000 0.000000 0.000000
0.000000 0.000000 0.000000
0.000000 0.000000 0.000000
0.000000 0.000000 0.000000
0.000000 0.000000 0.000000
0.000000 0.000000 0.000000
0.000000 0.000000 0.000000
0.000000 0.000000 0.000000
0.000000 0.000000 0.000000
0.000000 0.000000 0.000000
0.000000 0.000000 0.000000
0.000000 0.000000 0.000000
0.000000 0.000000 0.000000
0.000000 0.000000 0.000000
0.000000 0.000000 0.000000
0.000000 0.000000 0.000000
0.000000 0.000000 0.000000
0.000000 0.000000 0.000000
0.000000 0.000000 0.000000
0.000000 0.000000 0.000000
0.000000 0.000000 0.000000
0.000000 0.000000 0.000000
0.000000 0.000000 0.000000
0.000000 0.000000 0.000000
0.000000 0.000000 0.000000
0.000000 0.000000 0.000000
0.000000 0.000000 0.000000
0.000000 0.000000 0.000000
0.000000 0.000000 0.000000
0.000000 0.000000 0.000000
0.000000 0.000000 0.000000
0.000000 0.000000 0.000000
0.000000 0.000000 0.000000
0.000000 0.000000 0.000000
0.000000 0.000000 0.000000
0.000000 0.000000 0.000000
0.000000 0.000000 0.000000
0.000000 0.000000 0.000000
0.000000 0.000000 0.000000
0.000000 0.000000 0.000000
0.000000 0.000000 0.000000
0.000000 0.000000 0.000000
0.000000 0.000000 0.000000
0.000000 0.000000 0.000000
0.000000 0.000000 0.000000
0.000000 0.000000 0.000000
0.000000 0.000000 0.000000
0.000000 0.000000 0.000000
0.000000 0.000000 0.000000
0.000000 0.000000 0.000000
0.000000 0.000000 0.000000
0.000000 0.000000 0.000000
0.000000 0.000000 0.000000
0.000000 0.000000 0.000000
0.000000 0.000000 0.000000
0.000000 0.000000 0.000000
0.000000 0.000000 0.000000
0.000000 0.000000 0.000000
0.000000 0.000000 0.000000
0.000000 0.000000 0.000000
0.000000 0.000000 0.000000
0.000000 0.000000 0.000000
0.000000 0.000000 0.000000
0.000000 0.000000 0.000000
0.000000 0.000000 0.000000
0.000000 0.000000 0.000000
0.000000 0.000000 0.000000
0.000000 0.000000 0.000000
0.000000 0.000000 0.000000
0.000000 0.000000 0.000000
0.000000 0.000000 0.000000
0.000000 0.000000 0.000000
0.000000 0.000000 0.000000
0.000000 0.000000 0.000000
0.000000 0.000000 0.000000
0.000000 0.000000 0.000000
0.000000 0.000000 0.000000
0.000000 0.000000 0.000000
0.000000 0.000000 0.000000
0.000000 0.000000 0.000000
0.000000 0.000000 0.000000
0.000000 0.000000 0.000000
0.000000 0.000000 0.000000
0.000000 0.000000 0.000000
0.000000 0.000000 0.000000
0.000000 0.000000 0.000000
0.000000 0.000000 0.000000
0.000000 0.000000 0.000000
0.000000 0.000000 0.000000
0.000000 0.000000 0.000000
0.000000 0.000000 0.000000
0.000000 0.000000 0.000000
0.000000 0.000000 0.000000
0.000000 0.000000 0.000000
0.000000 0.000000 0.000000
0.000000 0.000000 0.000000
0.000000 0.000000 0.000000
0.000000 0.000000 0.000000
0.000000 0.000000 0.000000
0.000000 0.000000 0.000000
0.000000 0.000000 0.000000
0.000000 0.000000 0.000000
0.000000 0.000000 0.000000
0.000000 0.000000 0.000000
0.000000 0.000000 0.000000
0.000000 0.000000 0.000000
0.000000 0.000000 0.000000
0.000000 0.000000 0.000000
0.000000 0.000000 0.000000
0.000000 0.000000 0.000000
0.000000 0.000000 0.000000
0.000000 0.000000 0.000000
0.000000 0.000000 0.000000
0.000000 0.000000 0.000000
0.000000 0.000000 0.000000
0.000000 0.000000 0.000000
0.000000 0.000000 0.000000
0.000000 0.000000 0.000000
0.000000 0.000000 0.000000
0.000000 0.000000 0.000000
0.000000 0.000000 0.000000
0.000000 0.000000 0.000000
0.000000 0.000000 0.000000
0.000000 0.000000 0.000000
0.000000 0.000000 0.000000
0.000000 0.000000 0.000000
0.000000 0.000000 0.000000
0.000000 0.000000 0.000000
0.000000 0.000000 0.000000
0.000000 0.000000 0.000000
0.000000 0.000000 0.000000
0.000000 0.000000 0.000000
0.000000 0.000000 0.000000
0.000000 0.000000 0.000000
0.000000 0.000000 0.000000
0.000000 0.000000 0.000000
0.000000 0.000000 0.000000
0.000000 0.000000 0.000000
0.000000 0.000000 0.000000
0.000000 0.000000 0.000000
0.000000 0.000000 0.000000
0.000000 0.000000 0.000000
0.000000 0.000000 0.000000
0.000000 0.000000 0.000000
0.000000 0.000000 0.000000
0.000000 0.000000 0.000000
0.000000 0.000000 0.000000
0.000000 0.000000 0.000000
0.000000 0.000000 0.000000
0.000000 0.000000 0.000000
0.000000 0.000000 0.000000
0.000000 0.000000 0.000000
0.000000 0.000000 0.000000
0.000000 0.000000 0.000000
0.000000 0.000000 0.000000
0.000000 0.000000 0.000000
0.000000 0.000000 0.000000
0.000000 0.000000 0.000000
0.000000 0.000000 0.000000
0.000000 0.000000 0.000000
0.000000 0.000000 0.000000
0.000000 0.000000 0.000000
0.000000 0.000000 0.000000
0.000000 0.000000 0.000000
0.000000 0.000000 0.000000
0.000000 0.000000 0.000000
0.000000 0.000000 0.000000
0.000000 0.000000 0.000000
0.000000 0.000000 0.000000
0.000000 0.000000 0.000000
0.000000 0.000000 0.000000
0.000000 0.000000 0.000000
0.000000 0.000000 0.000000
0.000000 0.000000 0.000000
0.000000 0.000000 0.000000
0.000000 0.000000 0.000000
0.000000 0.000000 0.000000
0.000000 0.000000 0.000000
0.000000 0.000000 0.000000
0.000000 0.000000 0.000000
0.000000 0.000000 0.000000
0.000000 0.000000 0.000000
0.000000 0.000000 0.000000
0.000000 0.000000 0.000000
0.000000 0.000000 0.000000
0.000000 0.000000 0.000000
0.000000 0.000000 0.000000
0.000000 0.000000 0.000000
0.000000 0.000000 0.000000
0.000000 0.000000 0.000000
0.000000 0.000000 0.000000
0.000000 0.000000 0.000000
0.000000 0.000000 0.000000
0.000000 0.000000 0.000000
0.000000 0.000000 0.000000
0.000000 0.000000 0.000000
0.000000 0.000000 0.000000
0.000000 0.000000 0.000000
0.000000 0.000000 0.000000
0.000000 0.000000 0.000000
0.000000 0.000000 0.000000
0.000000 0.000000 0.000000
0.000000 0.000000 0.000000
0.000000 0.000000 0.000000
0.000000 0.000000 0.000000
0.000000 0.000000 0.000000
0.000000 0.000000 0.000000
0.000000 0.000000 0.000000
0.000000 0.000000 0.000000
0.000000 0.000000 0.000000
0.000000 0.000000 0.000000
0.000000 0.000000 0.000000
0.000000 0.000000 0.000000
0.000000 0.000000 0.000000
0.000000 0.000000 0.000000
0.000000 0.000000 0.000000
0.000000 0.000000 0.000000
0.000000 0.000000 0.000000
0.000000 0.000000 0.000000
0.000000 0.000000 0.000000
0.000000 0.000000 0.000000
0.000000 0.000000 0.000000
0.000000 0.000000 0.000000
0.000000 0.000000 0.000000
0.000000 0.000000 0.000000
0.000000 0.000000 0.000000
0.000000 0.000000 0.000000
0.000000 0.000000 0.000000
0.000000 0.000000 0.000000
0.000000 0.000000 0.000000
0.000000 0.000000 0.000000
0.000000 0.000000 0.000000
0.000000 0.000000 0.000000
0.000000 0.000000 0.000000
0.000000 0.000000 0.000000
0.000000 0.000000 0.000000
0.000000 0.000000 0.000000
0.000000 0.000000 0.000000
0.000000 0.000000 0.000000
0.000000 0.000000 0.000000
0.000000 0.000000 0.000000
0.000000 0.000000 0.000000
0.000000 0.000000 0.000000
0.000000 0.000000 0.000000
0.000000 0.000000 0.000000
0.000000 0.000000 0.000000
0.000000 0.000000 0.000000
0.000000 0.000000 0.000000
0.000000 0.000000 0.000000
0.000000 0.000000 0.000000
0.000000 0.000000 0.000000
0.000000 0.000000 0.000000
0.000000 0.000000 0.000000
0.000000 0.000000 0.000000
0.000000 0.000000 0.000000
0.000000 0.000000 0.000000
0.000000 0.000000 0.000000
0.000000 0.000000 0.000000
0.000000 0.000000 0.000000
0.000000 0.000000 0.000000
0.000000 0.000000 0.000000
0.000000 0.000000 0.000000
0.000000 0.000000 0.000000
0.000000 0.000000 0.000000
0.000000 0.000000 0.000000
0.000000 0.000000 0.000000
0.000000 0.000000 0.000000
0.000000 0.000000 0.000000
0.000000 0.000000 0.000000
0.000000 0.000000 0.000000
0.000000 0.000000 0.000000
0.000000 0.000000 0.000000
0.000000 0.000000 0.000000
0.000000 0.000000 0.000000
0.000000 0.000000 0.000000
0.000000 0.000000 0.000000
0.000000 0.000000 0.000000
0.000000 0.000000 0.000000
0.000000 0.000000 0.000000
0.000000 0.000000 0.000000
0.000000 0.000000 0.000000
0.000000 0.000000 0.000000
0.000000 0.000000 0.000000
0.000000 0.000000 0.000000
0.000000 0.000000 0.000000
0.000000 0.000000 0.000000
0.000000 0.000000 0.000000
0.000000 0.000000 0.000000
0.000000 0.000000 0.000000
0.000000 0.000000 0.000000
0.000000 0.000000 0.000000
0.000000 0.000000 0.000000
0.000000 0.000000 0.000000
0.000000 0.000000 0.000000
0.000000 0.000000 0.000000
0.000000 0.000000 0.000000
0.000000 0.000000 0.000000
0.000000 0.000000 0.000000
0.000000 0.000000 0.000000
0.000000 0.000000 0.000000
0.000000 0.000000 0.000000
0.000000 0.000000 0.000000
0.000000 0.000000 0.000000
0.000000 0.000000 0.000000
0.000000 0.000000 0.000000
0.000000 0.000000 0.000000
0.000000 0.000000 0.000000
0.000000 0.000000 0.000000
0.000000 0.000000 0.000000
0.000000 0.000000 0.000000
0.000000 0.000000 0.000000
0.000000 0.000000 0.000000
0.000000 0.000000 0.000000
0.000000 0.000000 0.000000
0.000000 0.000000 0.000000
0.000000 0.000000 0.000000
0.000000 0.000000 0.000000
0.000000 0.000000 0.000000
0.000000 0.000000 0.000000
0.000000 0.000000 0.000000
0.000000 0.000000 0.000000
0.000000 0.000000 0.000000
0.000000 0.000000 0.000000
0.000000 0.000000 0.000000
0.000000 0.000000 0.000000
0.000000 0.000000 0.000000
0.000000 0.000000 0.000000
0.000000 0.000000 0.000000
0.000000 0.000000 0.000000
0.000000 0.000000 0.000000
0.000000 0.000000 0.000000
0.000000 0.000000 0.000000
0.000000 0.000000 0.000000
0.000000 0.000000 0.000000
0.000000 0.000000 0.000000
0.000000 0.000000 0.000000
0.000000 0.000000 0.000000
0.000000 0.000000 0.000000
0.000000 0.000000 0.000000
0.000000 0.000000 0.000000
0.000000 0.000000 0.000000
0.000000 0.000000 0.000000
0.000000 0.000000 0.000000
0.000000 0.000000 0.000000
0.000000 0.000000 0.000000
0.000000 0.000000 0.000000
0.000000 0.000000 0.000000
0.000000 0.000000 0.000000
0.000000 0.000000 0.000000
0.000000 0.000000 0.000000
0.000000 0.000000 0.000000
0.000000 0.000000 0.000000
0.000000 0.000000 0.000000
0.000000 0.000000 0.000000
0.000000 0.000000 0.000000
0.000000 0.000000 0.000000
0.000000 0.000000 0.000000
0.000000 0.000000 0.000000
0.000000 0.000000 0.000000
0.000000 0.000000 0.000000
0.000000 0.000000 0.000000
0.000000 0.000000 0.000000
0.000000 0.000000 0.000000
0.000000 0.000000 0.000000
0.000000 0.000000 0.000000
0.000000 0.000000 0.000000
0.000000 0.000000 0.000000
0.000000 0.000000 0.000000
0.000000 0.000000 0.000000
0.000000 0.000000 0.000000
0.000000 0.000000 0.000000
0.000000 0.000000 0.000000
0.000000 0.000000 0.000000
0.000000 0.000000 0.000000
0.000000 0.000000 0.000000
0.000000 0.000000 0.000000
0.000000 0.000000 0.000000
0.000000 0.000000 0.000000
0.000000 0.000000 0.000000
0.000000 0.000000 0.000000
0.000000 0.000000 0.000000
0.000000 0.000000 0.000000
0.000000 0.000000 0.000000
0.000000 0.000000 0.000000
0.000000 0.000000 0.000000
0.000000 0.000000 0.000000
0.000000 0.000000 0.000000
0.000000 0.000000 0.000000
0.000000 0.000000 0.000000
0.000000 0.000000 0.000000
0.000000 0.000000 0.000000
0.000000 0.000000 0.000000
0.000000 0.000000 0.000000
0.000000 0.000000 0.000000
0.000000 0.000000 0.000000
0.000000 0.000000 0.000000
0.000000 0.000000 0.000000
0.000000 0.000000 0.000000
0.000000 0.000000 0.000000
0.000000 0.000000 0.000000
0.000000 0.000000 0.000000
0.000000 0.000000 0.000000
0.000000 0.000000 0.000000
0.000000 0.000000 0.000000
0.000000 0.000000 0.000000
0.000000 0.000000 0.000000
0.000000 0.000000 0.000000
0.000000 0.000000 0.000000
0.000000 0.000000 0.000000
0.000000 0.000000 0.000000
0.000000 0.000000 0.000000
0.000000 0.000000 0.000000
0.000000 0.000000 0.000000
0.000000 0.000000 0.000000
0.000000 0.000000 0.000000
0.000000 0.000000 0.000000
0.000000 0.000000 0.000000
0.000000 0.000000 0.000000
0.000000 0.000000 0.000000
0.000000 0.000000 0.000000
0.000000 0.000000 0.000000
0.000000 0.000000 0.000000
0.000000 0.000000 0.000000
0.000000 0.000000 0.000000
0.000000 0.000000 0.000000
0.000000 0.000000 0.000000
0.000000 0.000000 0.000000
0.000000 0.000000 0.000000
0.000000 0.000000 0.000000
0.000000 0.000000 0.000000
0.000000 0.000000 0.000000
0.000000 0.000000 0.000000
0.000000 0.000000 0.000000
0.000000 0.000000 0.000000
0.000000 0.000000 0.000000
0.000000 0.000000 0.000000
0.000000 0.000000 0.000000
0.000000 0.000000 0.000000
0.000000 0.000000 0.000000
0.000000 0.000000 0.000000
0.000000 0.000000 0.000000
0.000000 0.000000 0.000000
0.000000 0.000000 0.000000
0.000000 0.000000 0.000000
0.000000 0.000000 0.000000
0.000000 0.000000 0.000000
0.000000 0.000000 0.000000
0.000000 0.000000 0.000000
0.000000 0.000000 0.000000
0.000000 0.000000 0.000000
0.000000 0.000000 0.000000
0.000000 0.000000 0.000000
0.000000 0.000000 0.000000
0.000000 0.000000 0.000000
0.000000 0.000000 0.000000
0.000000 0.000000 0.000000
0.000000 0.000000 0.000000
0.000000 0.000000 0.000000
0.000000 0.000000 0.000000
0.000000 0.000000 0.000000
0.000000 0.000000 0.000000
0.000000 0.000000 0.000000
0.000000 0.000000 0.000000
0.000000 0.000000 0.000000
0.000000 0.000000 0.000000
0.000000 0.000000 0.000000
0.000000 0.000000 0.000000
0.000000 0.000000 0.000000
0.000000 0.000000 0.000000
0.000000 0.000000 0.000000
0.000000 0.000000 0.000000
0.000000 0.000000 0.000000
0.000000 0.000000 0.000000
0.000000 0.000000 0.000000
0.000000 0.000000 0.000000
0.000000 0.000000 0.000000
0.000000 0.000000 0.000000
0.000000 0.000000 0.000000
0.000000 0.000000 0.000000
0.000000 0.000000 0.000000
0.000000 0.000000 0.000000
0.000000 0.000000 0.000000
0.000000 0.000000 0.000000
0.000000 0.000000 0.000000
0.000000 0.000000 0.000000
0.000000 0.000000 0.000000
0.000000 0.000000 0.000000
0.000000 0.000000 0.000000
0.000000 0.000000 0.000000
0.000000 0.000000 0.000000
0.000000 0.000000 0.000000
0.000000 0.000000 0.000000
0.000000 0.000000 0.000000
0.000000 0.000000 0.000000
0.000000 0.000000 0.000000
0.000000 0.000000 0.000000
0.000000 0.000000 0.000000
0.000000 0.000000 0.000000
0.000000 0.000000 0.000000
0.000000 0.000000 0.000000
0.000000 0.000000 0.000000
0.000000 0.000000 0.000000
0.000000 0.000000 0.000000
0.000000 0.000000 0.000000
0.000000 0.000000 0.000000
0.000000 0.000000 0.000000
0.000000 0.000000 0.000000
0.000000 0.000000 0.000000
0.000000 0.000000 0.000000
0.000000 0.000000 0.000000
0.000000 0.000000 0.000000
0.000000 0.000000 0.000000
0.000000 0.000000 0.000000
0.000000 0.000000 0.000000
0.000000 0.000000 0.000000
0.000000 0.000000 0.000000
0.000000 0.000000 0.000000
0.000000 0.000000 0.000000
0.000000 0.000000 0.000000
0.000000 0.000000 0.000000
0.000000 0.000000 0.000000
0.000000 0.000000 0.000000
0.000000 0.000000 0.000000
0.000000 0.000000 0.000000
0.000000 0.000000 0.000000
0.000000 0.000000 0.000000
0.000000 0.000000 0.000000
0.000000 0.000000 0.000000
0.000000 0.000000 0.000000
0.000000 0.000000 0.000000
0.000000 0.000000 0.000000
0.000000 0.000000 0.000000
0.000000 0.000000 0.000000
0.000000 0.000000 0.000000
0.000000 0.000000 0.000000
0.000000 0.000000 0.000000
0.000000 0.000000 0.000000
0.000000 0.000000 0.000000
0.000000 0.000000 0.000000
0.000000 0.000000 0.000000
0.000000 0.000000 0.000000
0.000000 0.000000 0.000000
0.000000 0.000000 0.000000
0.000000 0.000000 0.000000
0.000000 0.000000 0.000000
0.000000 0.000000 0.000000
0.000000 0.000000 0.000000
0.000000 0.000000 0.000000
0.000000 0.000000 0.000000
0.000000 0.000000 0.000000
0.000000 0.000000 0.000000
0.000000 0.000000 0.000000
0.000000 0.000000 0.000000
0.000000 0.000000 0.000000
0.000000 0.000000 0.000000
0.000000 0.000000 0.000000
0.000000 0.000000 0.000000
0.000000 0.000000 0.000000
0.000000 0.000000 0.000000
0.000000 0.000000 0.000000
0.000000 0.000000 0.000000
0.000000 0.000000 0.000000
0.000000 0.000000 0.000000
0.000000 0.000000 0.000000
0.000000 0.000000 0.000000
0.000000 0.000000 0.000000
0.000000 0.000000 0.000000
0.000000 0.000000 0.000000
0.000000 0.000000 0.000000
0.000000 0.000000 0.000000
0.000000 0.000000 0.000000
0.000000 0.000000 0.000000
0.000000 0.000000 0.000000
0.000000 0.000000 0.000000
0.000000 0.000000 0.000000
0.000000 0.000000 0.000000
0.000000 0.000000 0.000000
0.000000 0.000000 0.000000
0.000000 0.000000 0.000000
0.000000 0.000000 0.000000
0.000000 0.000000 0.000000
0.000000 0.000000 0.000000
0.000000 0.000000 0.000000
0.000000 0.000000 0.000000
0.000000 0.000000 0.000000
0.000000 0.000000 0.000000
0.000000 0.000000 0.000000
0.000000 0.000000 0.000000
0.000000 0.000000 0.000000
0.000000 0.000000 0.000000
0.000000 0.000000 0.000000
0.000000 0.000000 0.000000
0.000000 0.000000 0.000000
0.000000 0.000000 0.000000
0.000000 0.000000 0.000000
0.000000 0.000000 0.000000
0.000000 0.000000 0.000000
0.000000 0.000000 0.000000
0.000000 0.000000 0.000000
0.000000 0.000000 0.000000
0.000000 0.000000 0.000000
0.000000 0.000000 0.000000
0.000000 0.000000 0.000000
0.000000 0.000000 0.000000
0.000000 0.000000 0.000000
0.000000 0.000000 0.000000
0.000000 0.000000 0.000000
0.000000 0.000000 0.000000
0.000000 0.000000 0.000000
0.000000 0.000000 0.000000
0.000000 0.000000 0.000000
0.000000 0.000000 0.000000
0.000000 0.000000 0.000000
0.000000 0.000000 0.000000
0.000000 0.000000 0.000000
0.000000 0.000000 0.000000
0.000000 0.000000 0.000000
0.000000 0.000000 0.000000
0.000000 0.000000 0.000000
0.000000 0.000000 0.000000
0.000000 0.000000 0.000000
0.000000 0.000000 0.000000
0.000000 0.000000 0.000000
0.000000 0.000000 0.000000
0.000000 0.000000 0.000000
0.000000 0.000000 0.000000
0.000000 0.000000 0.000000
0.000000 0.000000 0.000000
0.000000 0.000000 0.000000
0.000000 0.000000 0.000000
0.000000 0.000000 0.000000
0.000000 0.000000 0.000000
0.000000 0.000000 0.000000
0.000000 0.000000 0.000000
0.000000 0.000000 0.000000
0.000000 0.000000 0.000000
0.000000 0.000000 0.000000
0.000000 0.000000 0.000000
0.000000 0.000000 0.000000
0.000000 0.000000 0.000000
0.000000 0.000000 0.000000
0.000000 0.000000 0.000000
0.000000 0.000000 0.000000
0.000000 0.000000 0.000000
0.000000 0.000000 0.000000
0.000000 0.000000 0.000000
0.000000 0.000000 0.000000
0.000000 0.000000 0.000000
0.000000 0.000000 0.000000
0.000000 0.000000 0.000000
0.000000 0.000000 0.000000
0.000000 0.000000 0.000000
0.000000 0.000000 0.000000
0.000000 0.000000 0.000000
0.000000 0.000000 0.000000
0.000000 0.000000 0.000000
0.000000 0.000000 0.000000
0.000000 0.000000 0.000000
0.000000 0.000000 0.000000
0.000000 0.000000 0.000000
0.000000 0.000000 0.000000
0.000000 0.000000 0.000000
0.000000 0.000000 0.000000
0.000000 0.000000 0.000000
0.000000 0.000000 0.000000
0.000000 0.000000 0.000000
0.000000 0.000000 0.000000
0.000000 0.000000 0.000000
0.000000 0.000000 0.000000
0.000000 0.000000 0.000000
0.000000 0.000000 0.000000
0.000000 0.000000 0.000000
0.000000 0.000000 0.000000
0.000000 0.000000 0.000000
0.000000 0.000000 0.000000
0.000000 0.000000 0.000000
0.000000 0.000000 0.000000
0.000000 0.000000 0.000000
0.000000 0.000000 0.000000
0.000000 0.000000 0.000000
0.000000 0.000000 0.000000
0.000000 0.000000 0.000000
0.000000 0.000000 0.000000
0.000000 0.000000 0.000000
0.000000 0.000000 0.000000
0.000000 0.000000 0.000000
0.000000 0.000000 0.000000
0.000000 0.000000 0.000000
0.000000 0.000000 0.000000
0.000000 0.000000 0.000000
0.000000 0.000000 0.000000
0.000000 0.000000 0.000000
0.000000 0.000000 0.000000
0.000000 0.000000 0.000000
0.000000 0.000000 0.000000
0.000000 0.000000 0.000000
0.000000 0.000000 0.000000
0.000000 0.000000 0.000000
0.000000 0.000000 0.000000
0.000000 0.000000 0.000000
0.000000 0.000000 0.000000
0.000000 0.000000 0.000000
0.000000 0.000000 0.000000
0.000000 0.000000 0.000000
0.000000 0.000000 0.000000
0.000000 0.000000 0.000000
0.000000 0.000000 0.000000
0.000000 0.000000 0.000000
0.000000 0.000000 0.000000
0.000000 0.000000 0.000000
0.000000 0.000000 0.000000
0.000000 0.000000 0.000000
0.000000 0.000000 0.000000
0.000000 0.000000 0.000000
0.000000 0.000000 0.000000
0.000000 0.000000 0.000000
0.000000 0.000000 0.000000
0.000000 0.000000 0.000000
0.000000 0.000000 0.000000
0.000000 0.000000 0.000000
0.000000 0.000000 0.000000
0.000000 0.000000 0.000000
0.000000 0.000000 0.000000
0.000000 0.000000 0.000000
0.000000 0.000000 0.000000
0.000000 0.000000 0.000000
0.000000 0.000000 0.000000
0.000000 0.000000 0.000000
0.000000 0.000000 0.000000
0.000000 0.000000 0.000000
0.000000 0.000000 0.000000
0.000000 0.000000 0.000000
0.000000 0.000000 0.000000
0.000000 0.000000 0.000000
0.000000 0.000000 0.000000
0.000000 0.000000 0.000000
0.000000 0.000000 0.000000
0.000000 0.000000 0.000000
0.000000 0.000000 0.000000
0.000000 0.000000 0.000000
0.000000 0.000000 0.000000
0.000000 0.000000 0.000000
0.000000 0.000000 0.000000
0.000000 0.000000 0.000000
0.000000 0.000000 0.000000
0.000000 0.000000 0.000000
0.000000 0.000000 0.000000
0.000000 0.000000 0.000000
0.000000 0.000000 0.000000
0.000000 0.000000 0.000000
0.000000 0.000000 0.000000
0.000000 0.000000 0.000000
0.000000 0.000000 0.000000
0.000000 0.000000 0.000000
0.000000 0.000000 0.000000
0.000000 0.000000 0.000000
0.000000 0.000000 0.000000
0.000000 0.000000 0.000000
0.000000 0.000000 0.000000
0.000000 0.000000 0.000000
0.000000 0.000000 0.000000
0.000000 0.000000 0.000000
0.000000 0.000000 0.000000
0.000000 0.000000 0.000000
0.000000 0.000000 0.000000
0.000000 0.000000 0.000000
0.000000 0.000000 0.000000
0.000000 0.000000 0.000000
0.000000 0.000000 0.000000
0.000000 0.000000 0.000000
0.000000 0.000000 0.000000
0.000000 0.000000 0.000000
0.000000 0.000000 0.000000
0.000000 0.000000 0.000000
0.000000 0.000000 0.000000
0.000000 0.000000 0.000000
0.000000 0.000000 0.000000
0.000000 0.000000 0.000000
0.000000 0.000000 0.000000
0.000000 0.000000 0.000000
0.000000 0.000000 0.000000
0.000000 0.000000 0.000000
0.000000 0.000000 0.000000
0.000000 0.000000 0.000000
0.000000 0.000000 0.000000
0.000000 0.000000 0.000000
0.000000 0.000000 0.000000
0.000000 0.000000 0.000000
0.000000 0.000000 0.000000
0.000000 0.000000 0.000000
0.000000 0.000000 0.000000
0.000000 0.000000 0.000000
0.000000 0.000000 0.000000
0.000000 0.000000 0.000000
0.000000 0.000000 0.000000
0.000000 0.000000 0.000000
0.000000 0.000000 0.000000
0.000000 0.000000 0.000000
0.000000 0.000000 0.000000
0.000000 0.000000 0.000000
0.000000 0.000000 0.000000
0.000000 0.000000 0.000000
0.000000 0.000000 0.000000
0.000000 0.000000 0.000000
0.000000 0.000000 0.000000
0.000000 0.000000 0.000000
0.000000 0.000000 0.000000
0.000000 0.000000 0.000000
0.000000 0.000000 0.000000
0.000000 0.000000 0.000000
0.000000 0.000000 0.000000
0.000000 0.000000 0.000000
0.000000 0.000000 0.000000
0.000000 0.000000 0.000000
0.000000 0.000000 0.000000
0.000000 0.000000 0.000000
0.000000 0.000000 0.000000
0.000000 0.000000 0.000000
0.000000 0.000000 0.000000
0.000000 0.000000 0.000000
0.000000 0.000000 0.000000
0.000000 0.000000 0.000000
0.000000 0.000000 0.000000
0.000000 0.000000 0.000000
0.000000 0.000000 0.000000
0.000000 0.000000 0.000000
0.000000 0.000000 0.000000
0.000000 0.000000 0.000000
0.000000 0.000000 0.000000
0.000000 0.000000 0.000000
0.000000 0.000000 0.000000
0.000000 0.000000 0.000000
0.000000 0.000000 0.000000
0.000000 0.000000 0.000000
0.000000 0.000000 0.000000
0.000000 0.000000 0.000000
0.000000 0.000000 0.000000
0.000000 0.000000 0.000000
0.000000 0.000000 0.000000
0.000000 0.000000 0.000000
0.000000 0.000000 0.000000
0.000000 0.000000 0.000000
0.000000 0.000000 0.000000
0.000000 0.000000 0.000000
0.000000 0.000000 0.000000
0.000000 0.000000 0.000000
0.000000 0.000000 0.000000
0.000000 0.000000 0.000000
0.000000 0.000000 0.000000
0.000000 0.000000 0.000000
0.000000 0.000000 0.000000
0.000000 0.000000 0.000000
0.000000 0.000000 0.000000
0.000000 0.000000 0.000000
0.000000 0.000000 0.000000
0.000000 0.000000 0.000000
0.000000 0.000000 0.000000
0.000000 0.000000 0.000000
0.000000 0.000000 0.000000
0.000000 0.000000 0.000000
0.000000 0.000000 0.000000
0.000000 0.000000 0.000000
0.000000 0.000000 0.000000
0.000000 0.000000 0.000000
0.000000 0.000000 0.000000
0.000000 0.000000 0.000000
0.000000 0.000000 0.000000
0.000000 0.000000 0.000000
0.000000 0.000000 0.000000
0.000000 0.000000 0.000000
0.000000 0.000000 0.000000
0.000000 0.000000 0.000000
0.000000 0.000000 0.000000
0.000000 0.000000 0.000000
0.000000 0.000000 0.000000
0.000000 0.000000 0.000000
0.000000 0.000000 0.000000
0.000000 0.000000 0.000000
0.000000 0.000000 0.000000
0.000000 0.000000 0.000000
0.000000 0.000000 0.000000
0.000000 0.000000 0.000000
0.000000 0.000000 0.000000
0.000000 0.000000 0.000000
0.000000 0.000000 0.000000
0.000000 0.000000 0.000000
0.000000 0.000000 0.000000
0.000000 0.000000 0.000000
0.000000 0.000000 0.000000
0.000000 0.000000 0.000000
0.000000 0.000000 0.000000
0.000000 0.000000 0.000000
0.000000 0.000000 0.000000
0.000000 0.000000 0.000000
0.000000 0.000000 0.000000
0.000000 0.000000 0.000000
0.000000 0.000000 0.000000
0.000000 0.000000 0.000000
0.000000 0.000000 0.000000
0.000000 0.000000 0.000000
0.000000 0.000000 0.000000
0.000000 0.000000 0.000000
0.000000 0.000000 0.000000
0.000000 0.000000 0.000000
0.000000 0.000000 0.000000
0.000000 0.000000 0.000000
0.000000 0.000000 0.000000
0.000000 0.000000 0.000000
0.000000 0.000000 0.000000
0.000000 0.000000 0.000000
0.000000 0.000000 0.000000
0.000000 0.000000 0.000000
0.000000 0.000000 0.000000
0.000000 0.000000 0.000000
0.000000 0.000000 0.000000
0.000000 0.000000 0.000000
0.000000 0.000000 0.000000
0.000000 0.000000 0.000000
0.000000 0.000000 0.000000
0.000000 0.000000 0.000000
0.000000 0.000000 0.000000
0.000000 0.000000 0.000000
0.000000 0.000000 0.000000
0.000000 0.000000 0.000000
0.000000 0.000000 0.000000
0.000000 0.000000 0.000000
0.000000 0.000000 0.000000
0.000000 0.000000 0.000000
0.000000 0.000000 0.000000
0.000000 0.000000 0.000000
0.000000 0.000000 0.000000
0.000000 0.000000 0.000000
0.000000 0.000000 0.000000
0.000000 0.000000 0.000000
0.000000 0.000000 0.000000
0.000000 0.000000 0.000000
0.000000 0.000000 0.000000
0.000000 0.000000 0.000000
0.000000 0.000000 0.000000
0.000000 0.000000 0.000000
0.000000 0.000000 0.000000
0.000000 0.000000 0.000000
0.000000 0.000000 0.000000
0.000000 0.000000 0.000000
0.000000 0.000000 0.000000
0.000000 0.000000 0.000000
0.000000 0.000000 0.000000
0.000000 0.000000 0.000000
0.000000 0.000000 0.000000
0.000000 0.000000 0.000000
0.000000 0.000000 0.000000
0.000000 0.000000 0.000000
0.000000 0.000000 0.000000
0.000000 0.000000 0.000000
0.000000 0.000000 0.000000
0.000000 0.000000 0.000000
0.000000 0.000000 0.000000
0.000000 0.000000 0.000000
0.000000 0.000000 0.000000
0.000000 0.000000 0.000000
0.000000 0.000000 0.000000
0.000000 0.000000 0.000000
0.000000 0.000000 0.000000
0.000000 0.000000 0.000000
0.000000 0.000000 0.000000
0.000000 0.000000 0.000000
0.000000 0.000000 0.000000
0.000000 0.000000 0.000000
0.000000 0.000000 0.000000
0.000000 0.000000 0.000000
0.000000 0.000000 0.000000
0.000000 0.000000 0.000000
0.000000 0.000000 0.000000
0.000000 0.000000 0.000000
0.000000 0.000000 0.000000
0.000000 0.000000 0.000000
0.000000 0.000000 0.000000
0.000000 0.000000 0.000000
0.000000 0.000000 0.000000
0.000000 0.000000 0.000000
0.000000 0.000000 0.000000
0.000000 0.000000 0.000000
0.000000 0.000000 0.000000
0.000000 0.000000 0.000000
0.000000 0.000000 0.000000
0.000000 0.000000 0.000000
0.000000 0.000000 0.000000
0.000000 0.000000 0.000000
0.000000 0.000000 0.000000
0.000000 0.000000 0.000000
0.000000 0.000000 0.000000
0.000000 0.000000 0.000000
0.000000 0.000000 0.000000
0.000000 0.000000 0.000000
0.000000 0.000000 0.000000
0.000000 0.000000 0.000000
0.000000 0.000000 0.000000
0.000000 0.000000 0.000000
0.000000 0.000000 0.000000
0.000000 0.000000 0.000000
0.000000 0.000000 0.000000
0.000000 0.000000 0.000000
0.000000 0.000000 0.000000
0.000000 0.000000 0.000000
0.000000 0.000000 0.000000
0.000000 0.000000 0.000000
0.000000 0.000000 0.000000
0.000000 0.000000 0.000000
0.000000 0.000000 0.000000
0.000000 0.000000 0.000000
0.000000 0.000000 0.000000
0.000000 0.000000 0.000000
0.000000 0.000000 0.000000
0.000000 0.000000 0.000000
0.000000 0.000000 0.000000
0.000000 0.000000 0.000000
0.000000 0.000000 0.000000
0.000000 0.000000 0.000000
0.000000 0.000000 0.000000
0.000000 0.000000 0.000000
0.000000 0.000000 0.000000
0.000000 0.000000 0.000000
0.000000 0.000000 0.000000
0.000000 0.000000 0.000000
0.000000 0.000000 0.000000
0.000000 0.000000 0.000000
0.000000 0.000000 0.000000
0.000000 0.000000 0.000000
0.000000 0.000000 0.000000
0.000000 0.000000 0.000000
0.000000 0.000000 0.000000
0.000000 0.000000 0.000000
0.000000 0.000000 0.000000
0.000000 0.000000 0.000000
0.000000 0.000000 0.000000
0.000000 0.000000 0.000000
0.000000 0.000000 0.000000
0.000000 0.000000 0.000000
0.000000 0.000000 0.000000
0.000000 0.000000 0.000000
0.000000 0.000000 0.000000
0.000000 0.000000 0.000000
0.000000 0.000000 0.000000
0.000000 0.000000 0.000000
0.000000 0.000000 0.000000
0.000000 0.000000 0.000000
0.000000 0.000000 0.000000
0.000000 0.000000 0.000000
0.000000 0.000000 0.000000
0.000000 0.000000 0.000000
0.000000 0.000000 0.000000
0.000000 0.000000 0.000000
0.000000 0.000000 0.000000
0.000000 0.000000 0.000000
0.000000 0.000000 0.000000
0.000000 0.000000 0.000000
0.000000 0.000000 0.000000
0.000000 0.000000 0.000000
0.000000 0.000000 0.000000
0.000000 0.000000 0.000000
0.000000 0.000000 0.000000
0.000000 0.000000 0.000000
0.000000 0.000000 0.000000
0.000000 0.000000 0.000000
0.000000 0.000000 0.000000
0.000000 0.000000 0.000000
0.000000 0.000000 0.000000
0.000000 0.000000 0.000000
0.000000 0.000000 0.000000
0.000000 0.000000 0.000000
0.000000 0.000000 0.000000
0.000000 0.000000 0.000000
0.000000 0.000000 0.000000
0.000000 0.000000 0.000000
0.000000 0.000000 0.000000
0.000000 0.000000 0.000000
0.000000 0.000000 0.000000
0.000000 0.000000 0.000000
0.000000 0.000000 0.000000
0.000000 0.000000 0.000000
0.000000 0.000000 0.000000
0.000000 0.000000 0.000000
0.000000 0.000000 0.000000
0.000000 0.000000 0.000000
0.000000 0.000000 0.000000
0.000000 0.000000 0.000000
0.000000 0.000000 0.000000
0.000000 0.000000 0.000000
0.000000 0.000000 0.000000
0.000000 0.000000 0.000000
0.000000 0.000000 0.000000
0.000000 0.000000 0.000000
0.000000 0.000000 0.000000
0.000000 0.000000 0.000000
0.000000 0.000000 0.000000
0.000000 0.000000 0.000000
0.000000 0.000000 0.000000
0.000000 0.000000 0.000000
0.000000 0.000000 0.000000
0.000000 0.000000 0.000000
0.000000 0.000000 0.000000
0.000000 0.000000 0.000000
0.000000 0.000000 0.000000
0.000000 0.000000 0.000000
0.000000 0.000000 0.000000
0.000000 0.000000 0.000000
0.000000 0.000000 0.000000
0.000000 0.000000 0.000000
0.000000 0.000000 0.000000
0.000000 0.000000 0.000000
0.000000 0.000000 0.000000
0.000000 0.000000 0.000000
0.000000 0.000000 0.000000
0.000000 0.000000 0.000000
0.000000 0.000000 0.000000
0.000000 0.000000 0.000000
0.000000 0.000000 0.000000
0.000000 0.000000 0.000000
0.000000 0.000000 0.000000
0.000000 0.000000 0.000000
0.000000 0.000000 0.000000
0.000000 0.000000 0.000000
0.000000 0.000000 0.000000
0.000000 0.000000 0.000000
0.000000 0.000000 0.000000
0.000000 0.000000 0.000000
0.000000 0.000000 0.000000
0.000000 0.000000 0.000000
0.000000 0.000000 0.000000
0.000000 0.000000 0.000000
0.000000 0.000000 0.000000
0.000000 0.000000 0.000000
0.000000 0.000000 0.000000
0.000000 0.000000 0.000000
0.000000 0.000000 0.000000
0.000000 0.000000 0.000000
0.000000 0.000000 0.000000
0.000000 0.000000 0.000000
0.000000 0.000000 0.000000
0.000000 0.000000 0.000000
0.000000 0.000000 0.000000
0.000000 0.000000 0.000000
0.000000 0.000000 0.000000
0.000000 0.000000 0.000000
0.000000 0.000000 0.000000
0.000000 0.000000 0.000000
0.000000 0.000000 0.000000
0.000000 0.000000 0.000000
0.000000 0.000000 0.000000
0.000000 0.000000 0.000000
0.000000 0.000000 0.000000
0.000000 0.000000 0.000000
0.000000 0.000000 0.000000
0.000000 0.000000 0.000000
0.000000 0.000000 0.000000
0.000000 0.000000 0.000000
0.000000 0.000000 0.000000
0.000000 0.000000 0.000000
0.000000 0.000000 0.000000
0.000000 0.000000 0.000000
0.000000 0.000000 0.000000
0.000000 0.000000 0.000000
0.000000 0.000000 0.000000
0.000000 0.000000 0.000000
0.000000 0.000000 0.000000
0.000000 0.000000 0.000000
0.000000 0.000000 0.000000
0.000000 0.000000 0.000000
0.000000 0.000000 0.000000
0.000000 0.000000 0.000000
0.000000 0.000000 0.000000
0.000000 0.000000 0.000000
0.000000 0.000000 0.000000
0.000000 0.000000 0.000000
0.000000 0.000000 0.000000
0.000000 0.000000 0.000000
0.000000 0.000000 0.000000
0.000000 0.000000 0.000000
0.000000 0.000000 0.000000
0.000000 0.000000 0.000000
0.000000 0.000000 0.000000
0.000000 0.000000 0.000000
0.000000 0.000000 0.000000
0.000000 0.000000 0.000000
0.000000 0.000000 0.000000
0.000000 0.000000 0.000000
0.000000 0.000000 0.000000
0.000000 0.000000 0.000000
0.000000 0.000000 0.000000
0.000000 0.000000 0.000000
0.000000 0.000000 0.000000
0.000000 0.000000 0.000000
0.000000 0.000000 0.000000
0.000000 0.000000 0.000000
0.000000 0.000000 0.000000
0.000000 0.000000 0.000000
0.000000 0.000000 0.000000
0.000000 0.000000 0.000000
0.000000 0.000000 0.000000
0.000000 0.000000 0.000000
0.000000 0.000000 0.000000
0.000000 0.000000 0.000000
0.000000 0.000000 0.000000
0.000000 0.000000 0.000000
0.000000 0.000000 0.000000
0.000000 0.000000 0.000000
0.000000 0.000000 0.000000
0.000000 0.000000 0.000000
0.000000 0.000000 0.000000
0.000000 0.000000 0.000000
0.000000 0.000000 0.000000
0.000000 0.000000 0.000000
0.000000 0.000000 0.000000
0.000000 0.000000 0.000000
0.000000 0.000000 0.000000
0.000000 0.000000 0.000000
0.000000 0.000000 0.000000
0.000000 0.000000 0.000000
0.000000 0.000000 0.000000
0.000000 0.000000 0.000000
0.000000 0.000000 0.000000
0.000000 0.000000 0.000000
0.000000 0.000000 0.000000
0.000000 0.000000 0.000000
0.000000 0.000000 0.000000
0.000000 0.000000 0.000000
0.000000 0.000000 0.000000
0.000000 0.000000 0.000000
0.000000 0.000000 0.000000
0.000000 0.000000 0.000000
0.000000 0.000000 0.000000
0.000000 0.000000 0.000000
0.000000 0.000000 0.000000
0.000000 0.000000 0.000000
0.000000 0.000000 0.000000
0.000000 0.000000 0.000000
0.000000 0.000000 0.000000
0.000000 0.000000 0.000000
0.000000 0.000000 0.000000
0.000000 0.000000 0.000000
0.000000 0.000000 0.000000
0.000000 0.000000 0.000000
0.000000 0.000000 0.000000
0.000000 0.000000 0.000000
0.000000 0.000000 0.000000
0.000000 0.000000 0.000000
0.000000 0.000000 0.000000
0.000000 0.000000 0.000000
0.000000 0.000000 0.000000
0.000000 0.000000 0.000000
0.000000 0.000000 0.000000
0.000000 0.000000 0.000000
0.000000 0.000000 0.000000
0.000000 0.000000 0.000000
0.000000 0.000000 0.000000
0.000000 0.000000 0.000000
0.000000 0.000000 0.000000
0.000000 0.000000 0.000000
0.000000 0.000000 0.000000
0.000000 0.000000 0.000000
0.000000 0.000000 0.000000
0.000000 0.000000 0.000000
0.000000 0.000000 0.000000
0.000000 0.000000 0.000000
0.000000 0.000000 0.000000
0.000000 0.000000 0.000000
0.000000 0.000000 0.000000
0.000000 0.000000 0.000000
0.000000 0.000000 0.000000
0.000000 0.000000 0.000000
0.000000 0.000000 0.000000
0.000000 0.000000 0.000000
0.000000 0.000000 0.000000
0.000000 0.000000 0.000000
0.000000 0.000000 0.000000
0.000000 0.000000 0.000000
0.000000 0.000000 0.000000
0.000000 0.000000 0.000000
0.000000 0.000000 0.000000
0.000000 0.000000 0.000000
0.000000 0.000000 0.000000
0.000000 0.000000 0.000000
0.000000 0.000000 0.000000
0.000000 0.000000 0.000000
0.000000 0.000000 0.000000
0.000000 0.000000 0.000000
0.000000 0.000000 0.000000
0.000000 0.000000 0.000000
0.000000 0.000000 0.000000
0.000000 0.000000 0.000000
0.000000 0.000000 0.000000
0.000000 0.000000 0.000000
0.000000 0.000000 0.000000
0.000000 0.000000 0.000000
0.000000 0.000000 0.000000
0.000000 0.000000 0.000000
0.000000 0.000000 0.000000
0.000000 0.000000 0.000000
0.000000 0.000000 0.000000
0.000000 0.000000 0.000000
0.000000 0.000000 0.000000
0.000000 0.000000 0.000000
0.000000 0.000000 0.000000
0.000000 0.000000 0.000000
0.000000 0.000000 0.000000
0.000000 0.000000 0.000000
0.000000 0.000000 0.000000
0.000000 0.000000 0.000000
0.000000 0.000000 0.000000
0.000000 0.000000 0.000000
0.000000 0.000000 0.000000
0.000000 0.000000 0.000000
0.000000 0.000000 0.000000
0.000000 0.000000 0.000000
0.000000 0.000000 0.000000
0.000000 0.000000 0.000000
0.000000 0.000000 0.000000
0.000000 0.000000 0.000000
0.000000 0.000000 0.000000
0.000000 0.000000 0.000000
0.000000 0.000000 0.000000
0.000000 0.000000 0.000000
0.000000 0.000000 0.000000
0.000000 0.000000 0.000000
0.000000 0.000000 0.000000
0.000000 0.000000 0.000000
0.000000 0.000000 0.000000
0.000000 0.000000 0.000000
0.000000 0.000000 0.000000
0.000000 0.000000 0.000000
0.000000 0.000000 0.000000
0.000000 0.000000 0.000000
0.000000 0.000000 0.000000
0.000000 0.000000 0.000000
0.000000 0.000000 0.000000
0.000000 0.000000 0.000000
0.000000 0.000000 0.000000
0.000000 0.000000 0.000000
0.000000 0.000000 0.000000
0.000000 0.000000 0.000000
0.000000 0.000000 0.000000
0.000000 0.000000 0.000000
0.000000 0.000000 0.000000
0.000000 0.000000 0.000000
0.000000 0.000000 0.000000
0.000000 0.000000 0.000000
0.000000 0.000000 0.000000
0.000000 0.000000 0.000000
0.000000 0.000000 0.000000
0.000000 0.000000 0.000000
0.000000 0.000000 0.000000
0.000000 0.000000 0.000000
0.000000 0.000000 0.000000
0.000000 0.000000 0.000000
0.000000 0.000000 0.000000
0.000000 0.000000 0.000000
0.000000 0.000000 0.000000
0.000000 0.000000 0.000000
0.000000 0.000000 0.000000
0.000000 0.000000 0.000000
0.000000 0.000000 0.000000
0.000000 0.000000 0.000000
0.000000 0.000000 0.000000
0.000000 0.000000 0.000000
0.000000 0.000000 0.000000
0.000000 0.000000 0.000000
0.000000 0.000000 0.000000
0.000000 0.000000 0.000000
0.000000 0.000000 0.000000
0.000000 0.000000 0.000000
0.000000 0.000000 0.000000
0.000000 0.000000 0.000000
0.000000 0.000000 0.000000
0.000000 0.000000 0.000000
0.000000 0.000000 0.000000
0.000000 0.000000 0.000000
0.000000 0.000000 0.000000
0.000000 0.000000 0.000000
0.000000 0.000000 0.000000
0.000000 0.000000 0.000000
0.000000 0.000000 0.000000
0.000000 0.000000 0.000000
0.000000 0.000000 0.000000
0.000000 0.000000 0.000000
0.000000 0.000000 0.000000
0.000000 0.000000 0.000000
0.000000 0.000000 0.000000
0.000000 0.000000 0.000000
0.000000 0.000000 0.000000
0.000000 0.000000 0.000000
0.000000 0.000000 0.000000
0.000000 0.000000 0.000000
0.000000 0.000000 0.000000
0.000000 0.000000 0.000000
0.000000 0.000000 0.000000
0.000000 0.000000 0.000000
0.000000 0.000000 0.000000
0.000000 0.000000 0.000000
0.000000 0.000000 0.000000
0.000000 0.000000 0.000000
0.000000 0.000000 0.000000
0.000000 0.000000 0.000000
0.000000 0.000000 0.000000
0.000000 0.000000 0.000000
0.000000 0.000000 0.000000
0.000000 0.000000 0.000000
0.000000 0.000000 0.000000
0.000000 0.000000 0.000000
0.000000 0.000000 0.000000
0.000000 0.000000 0.000000
0.000000 0.000000 0.000000
0.000000 0.000000 0.000000
0.000000 0.000000 0.000000
0.000000 0.000000 0.000000
0.000000 0.000000 0.000000
0.000000 0.000000 0.000000
0.000000 0.000000 0.000000
0.000000 0.000000 0.000000
0.000000 0.000000 0.000000
0.000000 0.000000 0.000000
0.000000 0.000000 0.000000
0.000000 0.000000 0.000000
0.000000 0.000000 0.000000
0.000000 0.000000 0.000000
0.000000 0.000000 0.000000
0.000000 0.000000 0.000000
0.000000 0.000000 0.000000
0.000000 0.000000 0.000000
0.000000 0.000000 0.000000
0.000000 0.000000 0.000000
0.000000 0.000000 0.000000
0.000000 0.000000 0.000000
0.000000 0.000000 0.000000
0.000000 0.000000 0.000000
0.000000 0.000000 0.000000
0.000000 0.000000 0.000000
0.000000 0.000000 0.000000
0.000000 0.000000 0.000000
0.000000 0.000000 0.000000
0.000000 0.000000 0.000000
0.000000 0.000000 0.000000
0.000000 0.000000 0.000000
0.000000 0.000000 0.000000
0.000000 0.000000 0.000000
0.000000 0.000000 0.000000
0.000000 0.000000 0.000000
0.000000 0.000000 0.000000
0.000000 0.000000 0.000000
0.000000 0.000000 0.000000
0.000000 0.000000 0.000000
0.000000 0.000000 0.000000
0.000000 0.000000 0.000000
0.000000 0.000000 0.000000
0.000000 0.000000 0.000000
0.000000 0.000000 0.000000
0.000000 0.000000 0.000000
0.000000 0.000000 0.000000
0.000000 0.000000 0.000000
0.000000 0.000000 0.000000
0.000000 0.000000 0.000000
0.000000 0.000000 0.000000
0.000000 0.000000 0.000000
0.000000 0.000000 0.000000
0.000000 0.000000 0.000000
0.000000 0.000000 0.000000
0.000000 0.000000 0.000000
0.000000 0.000000 0.000000
0.000000 0.000000 0.000000
0.000000 0.000000 0.000000
0.000000 0.000000 0.000000
0.000000 0.000000 0.000000
0.000000 0.000000 0.000000
0.000000 0.000000 0.000000
0.000000 0.000000 0.000000
0.000000 0.000000 0.000000
0.000000 0.000000 0.000000
0.000000 0.000000 0.000000
0.000000 0.000000 0.000000
0.000000 0.000000 0.000000
0.000000 0.000000 0.000000
0.000000 0.000000 0.000000
0.000000 0.000000 0.000000
0.000000 0.000000 0.000000
0.000000 0.000000 0.000000
0.000000 0.000000 0.000000
0.000000 0.000000 0.000000
0.000000 0.000000 0.000000
0.000000 0.000000 0.000000
0.000000 0.000000 0.000000
0.000000 0.000000 0.000000
0.000000 0.000000 0.000000
0.000000 0.000000 0.000000
0.000000 0.000000 0.000000
0.000000 0.000000 0.000000
0.000000 0.000000 0.000000
0.000000 0.000000 0.000000
0.000000 0.000000 0.000000
0.000000 0.000000 0.000000
0.000000 0.000000 0.000000
0.000000 0.000000 0.000000
0.000000 0.000000 0.000000
0.000000 0.000000 0.000000
0.000000 0.000000 0.000000
0.000000 0.000000 0.000000
0.000000 0.000000 0.000000
0.000000 0.000000 0.000000
0.000000 0.000000 0.000000
0.000000 0.000000 0.000000
0.000000 0.000000 0.000000
0.000000 0.000000 0.000000
0.000000 0.000000 0.000000
0.000000 0.000000 0.000000
0.000000 0.000000 0.000000
0.000000 0.000000 0.000000
0.000000 0.000000 0.000000
0.000000 0.000000 0.000000
0.000000 0.000000 0.000000
0.000000 0.000000 0.000000
0.000000 0.000000 0.000000
0.000000 0.000000 0.000000
0.000000 0.000000 0.000000
0.000000 0.000000 0.000000
0.000000 0.000000 0.000000
0.000000 0.000000 0.000000
0.000000 0.000000 0.000000
0.000000 0.000000 0.000000
0.000000 0.000000 0.000000
0.000000 0.000000 0.000000
0.000000 0.000000 0.000000
0.000000 0.000000 0.000000
0.000000 0.000000 0.000000
0.000000 0.000000 0.000000
0.000000 0.000000 0.000000
0.000000 0.000000 0.000000
0.000000 0.000000 0.000000
0.000000 0.000000 0.000000
0.000000 0.000000 0.000000
0.000000 0.000000 0.000000
0.000000 0.000000 0.000000
0.000000 0.000000 0.000000
0.000000 0.000000 0.000000
0.000000 0.000000 0.000000
0.000000 0.000000 0.000000
0.000000 0.000000 0.000000
0.000000 0.000000 0.000000
0.000000 0.000000 0.000000
0.000000 0.000000 0.000000
0.000000 0.000000 0.000000
0.000000 0.000000 0.000000
0.000000 0.000000 0.000000
0.000000 0.000000 0.000000
0.000000 0.000000 0.000000
0.000000 0.000000 0.000000
0.000000 0.000000 0.000000
0.000000 0.000000 0.000000
0.000000 0.000000 0.000000
0.000000 0.000000 0.000000
0.000000 0.000000 0.000000
0.000000 0.000000 0.000000
0.000000 0.000000 0.000000
0.000000 0.000000 0.000000
0.000000 0.000000 0.000000
0.000000 0.000000 0.000000
0.000000 0.000000 0.000000
0.000000 0.000000 0.000000
0.000000 0.000000 0.000000
0.000000 0.000000 0.000000
0.000000 0.000000 0.000000
0.000000 0.000000 0.000000
0.000000 0.000000 0.000000
0.000000 0.000000 0.000000
0.000000 0.000000 0.000000
0.000000 0.000000 0.000000
0.000000 0.000000 0.000000
0.000000 0.000000 0.000000
0.000000 0.000000 0.000000
0.000000 0.000000 0.000000
0.000000 0.000000 0.000000
0.000000 0.000000 0.000000
0.000000 0.000000 0.000000
0.000000 0.000000 0.000000
0.000000 0.000000 0.000000
0.000000 0.000000 0.000000
0.000000 0.000000 0.000000
0.000000 0.000000 0.000000
0.000000 0.000000 0.000000
0.000000 0.000000 0.000000
0.000000 0.000000 0.000000
0.000000 0.000000 0.000000
0.000000 0.000000 0.000000
0.000000 0.000000 0.000000
0.000000 0.000000 0.000000
0.000000 0.000000 0.000000
0.000000 0.000000 0.000000
0.000000 0.000000 0.000000
0.000000 0.000000 0.000000
0.000000 0.000000 0.000000
0.000000 0.000000 0.000000
0.000000 0.000000 0.000000
0.000000 0.000000 0.000000
0.000000 0.000000 0.000000
0.000000 0.000000 0.000000
0.000000 0.000000 0.000000
0.000000 0.000000 0.000000
0.000000 0.000000 0.000000
0.000000 0.000000 0.000000
0.000000 0.000000 0.000000
0.000000 0.000000 0.000000
0.000000 0.000000 0.000000
0.000000 0.000000 0.000000
0.000000 0.000000 0.000000
0.000000 0.000000 0.000000
0.000000 0.000000 0.000000
0.000000 0.000000 0.000000
0.000000 0.000000 0.000000
0.000000 0.000000 0.000000
0.000000 0.000000 0.000000
0.000000 0.000000 0.000000
0.000000 0.000000 0.000000
0.000000 0.000000 0.000000
0.000000 0.000000 0.000000
0.000000 0.000000 0.000000
0.000000 0.000000 0.000000
0.000000 0.000000 0.000000
0.000000 0.000000 0.000000
0.000000 0.000000 0.000000
0.000000 0.000000 0.000000
0.000000 0.000000 0.000000
0.000000 0.000000 0.000000
0.000000 0.000000 0.000000
0.000000 0.000000 0.000000
0.000000 0.000000 0.000000
0.000000 0.000000 0.000000
0.000000 0.000000 0.000000
0.000000 0.000000 0.000000
0.000000 0.000000 0.000000
0.000000 0.000000 0.000000
0.000000 0.000000 0.000000
0.000000 0.000000 0.000000
0.000000 0.000000 0.000000
0.000000 0.000000 0.000000
0.000000 0.000000 0.000000
0.000000 0.000000 0.000000
0.000000 0.000000 0.000000
0.000000 0.000000 0.000000
0.000000 0.000000 0.000000
0.000000 0.000000 0.000000
0.000000 0.000000 0.000000
0.000000 0.000000 0.000000
0.000000 0.000000 0.000000
0.000000 0.000000 0.000000
0.000000 0.000000 0.000000
0.000000 0.000000 0.000000
0.000000 0.000000 0.000000
0.000000 0.000000 0.000000
0.000000 0.000000 0.000000
0.000000 0.000000 0.000000
0.000000 0.000000 0.000000
0.000000 0.000000 0.000000
0.000000 0.000000 0.000000
0.000000 0.000000 0.000000
0.000000 0.000000 0.000000
0.000000 0.000000 0.000000
0.000000 0.000000 0.000000
0.000000 0.000000 0.000000
0.000000 0.000000 0.000000
0.000000 0.000000 0.000000
0.000000 0.000000 0.000000
0.000000 0.000000 0.000000
0.000000 0.000000 0.000000
0.000000 0.000000 0.000000
0.000000 0.000000 0.000000
0.000000 0.000000 0.000000
0.000000 0.000000 0.000000
0.000000 0.000000 0.000000
0.000000 0.000000 0.000000
0.000000 0.000000 0.000000
0.000000 0.000000 0.000000
0.000000 0.000000 0.000000
0.000000 0.000000 0.000000
0.000000 0.000000 0.000000
0.000000 0.000000 0.000000
0.000000 0.000000 0.000000
0.000000 0.000000 0.000000
0.000000 0.000000 0.000000
0.000000 0.000000 0.000000
0.000000 0.000000 0.000000
0.000000 0.000000 0.000000
0.000000 0.000000 0.000000
0.000000 0.000000 0.000000
0.000000 0.000000 0.000000
0.000000 0.000000 0.000000
0.000000 0.000000 0.000000
0.000000 0.000000 0.000000
0.000000 0.000000 0.000000
0.000000 0.000000 0.000000
0.000000 0.000000 0.000000
0.000000 0.000000 0.000000
0.000000 0.000000 0.000000
0.000000 0.000000 0.000000
0.000000 0.000000 0.000000
0.000000 0.000000 0.000000
0.000000 0.000000 0.000000
0.000000 0.000000 0.000000
0.000000 0.000000 0.000000
0.000000 0.000000 0.000000
0.000000 0.000000 0.000000
0.000000 0.000000 0.000000
0.000000 0.000000 0.000000
0.000000 0.000000 0.000000
0.000000 0.000000 0.000000
0.000000 0.000000 0.000000
0.000000 0.000000 0.000000
0.000000 0.000000 0.000000
0.000000 0.000000 0.000000
0.000000 0.000000 0.000000
0.000000 0.000000 0.000000
0.000000 0.000000 0.000000
0.000000 0.000000 0.000000
0.000000 0.000000 0.000000
0.000000 0.000000 0.000000
0.000000 0.000000 0.000000
0.000000 0.000000 0.000000
0.000000 0.000000 0.000000
0.000000 0.000000 0.000000
0.000000 0.000000 0.000000
0.000000 0.000000 0.000000
0.000000 0.000000 0.000000
0.000000 0.000000 0.000000
0.000000 0.000000 0.000000
0.000000 0.000000 0.000000
0.000000 0.000000 0.000000
0.000000 0.000000 0.000000
0.000000 0.000000 0.000000
0.000000 0.000000 0.000000
0.000000 0.000000 0.000000
0.000000 0.000000 0.000000
0.000000 0.000000 0.000000
0.000000 0.000000 0.000000
0.000000 0.000000 0.000000
0.000000 0.000000 0.000000
0.000000 0.000000 0.000000
0.000000 0.000000 0.000000
0.000000 0.000000 0.000000
0.000000 0.000000 0.000000
0.000000 0.000000 0.000000
0.000000 0.000000 0.000000
0.000000 0.000000 0.000000
0.000000 0.000000 0.000000
0.000000 0.000000 0.000000
0.000000 0.000000 0.000000
0.000000 0.000000 0.000000
0.000000 0.000000 0.000000
0.000000 0.000000 0.000000
0.000000 0.000000 0.000000
0.000000 0.000000 0.000000
0.000000 0.000000 0.000000
0.000000 0.000000 0.000000
0.000000 0.000000 0.000000
0.000000 0.000000 0.000000
0.000000 0.000000 0.000000
0.000000 0.000000 0.000000
0.000000 0.000000 0.000000
0.000000 0.000000 0.000000
0.000000 0.000000 0.000000
0.000000 0.000000 0.000000
0.000000 0.000000 0.000000
0.000000 0.000000 0.000000
0.000000 0.000000 0.000000
0.000000 0.000000 0.000000
0.000000 0.000000 0.000000
0.000000 0.000000 0.000000
0.000000 0.000000 0.000000
0.000000 0.000000 0.000000
0.000000 0.000000 0.000000
0.000000 0.000000 0.000000
0.000000 0.000000 0.000000
0.000000 0.000000 0.000000
0.000000 0.000000 0.000000
0.000000 0.000000 0.000000
0.000000 0.000000 0.000000
0.000000 0.000000 0.000000
0.000000 0.000000 0.000000
0.000000 0.000000 0.000000
0.000000 0.000000 0.000000
0.000000 0.000000 0.000000
0.000000 0.000000 0.000000
0.000000 0.000000 0.000000
0.000000 0.000000 0.000000
0.000000 0.000000 0.000000
0.000000 0.000000 0.000000
0.000000 0.000000 0.000000
0.000000 0.000000 0.000000
0.000000 0.000000 0.000000
0.000000 0.000000 0.000000
0.000000 0.000000 0.000000
0.000000 0.000000 0.000000
0.000000 0.000000 0.000000
0.000000 0.000000 0.000000
0.000000 0.000000 0.000000
0.000000 0.000000 0.000000
0.000000 0.000000 0.000000
0.000000 0.000000 0.000000
0.000000 0.000000 0.000000
0.000000 0.000000 0.000000
0.000000 0.000000 0.000000
0.000000 0.000000 0.000000
0.000000 0.000000 0.000000
0.000000 0.000000 0.000000
0.000000 0.000000 0.000000
0.000000 0.000000 0.000000
0.000000 0.000000 0.000000
0.000000 0.000000 0.000000
0.000000 0.000000 0.000000
0.000000 0.000000 0.000000
0.000000 0.000000 0.000000
0.000000 0.000000 0.000000
0.000000 0.000000 0.000000
0.000000 0.000000 0.000000
0.000000 0.000000 0.000000
0.000000 0.000000 0.000000
0.000000 0.000000 0.000000
0.000000 0.000000 0.000000
0.000000 0.000000 0.000000
0.000000 0.000000 0.000000
0.000000 0.000000 0.000000
0.000000 0.000000 0.000000
0.000000 0.000000 0.000000
0.000000 0.000000 0.000000
0.000000 0.000000 0.000000
0.000000 0.000000 0.000000
0.000000 0.000000 0.000000
0.000000 0.000000 0.000000
0.000000 0.000000 0.000000
0.000000 0.000000 0.000000
0.000000 0.000000 0.000000
0.000000 0.000000 0.000000
0.000000 0.000000 0.000000
0.000000 0.000000 0.000000
0.000000 0.000000 0.000000
0.000000 0.000000 0.000000
0.000000 0.000000 0.000000
0.000000 0.000000 0.000000
0.000000 0.000000 0.000000
0.000000 0.000000 0.000000
0.000000 0.000000 0.000000
0.000000 0.000000 0.000000
0.000000 0.000000 0.000000
0.000000 0.000000 0.000000
0.000000 0.000000 0.000000
0.000000 0.000000 0.000000
0.000000 0.000000 0.000000
0.000000 0.000000 0.000000
0.000000 0.000000 0.000000
0.000000 0.000000 0.000000
0.000000 0.000000 0.000000
0.000000 0.000000 0.000000
0.000000 0.000000 0.000000
0.000000 0.000000 0.000000
0.000000 0.000000 0.000000
0.000000 0.000000 0.000000
0.000000 0.000000 0.000000
0.000000 0.000000 0.000000
0.000000 0.000000 0.000000
0.000000 0.000000 0.000000
0.000000 0.000000 0.000000
0.000000 0.000000 0.000000
0.000000 0.000000 0.000000
0.000000 0.000000 0.000000
0.000000 0.000000 0.000000
0.000000 0.000000 0.000000
0.000000 0.000000 0.000000
0.000000 0.000000 0.000000
0.000000 0.000000 0.000000
0.000000 0.000000 0.000000
0.000000 0.000000 0.000000
0.000000 0.000000 0.000000
0.000000 0.000000 0.000000
0.000000 0.000000 0.000000
0.000000 0.000000 0.000000
0.000000 0.000000 0.000000
0.000000 0.000000 0.000000
0.000000 0.000000 0.000000
0.000000 0.000000 0.000000
0.000000 0.000000 0.000000
0.000000 0.000000 0.000000
0.000000 0.000000 0.000000
0.000000 0.000000 0.000000
0.000000 0.000000 0.000000
0.000000 0.000000 0.000000
0.000000 0.000000 0.000000
0.000000 0.000000 0.000000
0.000000 0.000000 0.000000
0.000000 0.000000 0.000000
0.000000 0.000000 0.000000
0.000000 0.000000 0.000000
0.000000 0.000000 0.000000
0.000000 0.000000 0.000000
0.000000 0.000000 0.000000
0.000000 0.000000 0.000000
0.000000 0.000000 0.000000
0.000000 0.000000 0.000000
0.000000 0.000000 0.000000
0.000000 0.000000 0.000000
0.000000 0.000000 0.000000
0.000000 0.000000 0.000000
0.000000 0.000000 0.000000
0.000000 0.000000 0.000000
0.000000 0.000000 0.000000
0.000000 0.000000 0.000000
0.000000 0.000000 0.000000
0.000000 0.000000 0.000000
0.000000 0.000000 0.000000
0.000000 0.000000 0.000000
0.000000 0.000000 0.000000
0.000000 0.000000 0.000000
0.000000 0.000000 0.000000
0.000000 0.000000 0.000000
0.000000 0.000000 0.000000
0.000000 0.000000 0.000000
0.000000 0.000000 0.000000
0.000000 0.000000 0.000000
0.000000 0.000000 0.000000
0.000000 0.000000 0.000000
0.000000 0.000000 0.000000
0.000000 0.000000 0.000000
0.000000 0.000000 0.000000
0.000000 0.000000 0.000000
0.000000 0.000000 0.000000
0.000000 0.000000 0.000000
0.000000 0.000000 0.000000
0.000000 0.000000 0.000000
0.000000 0.000000 0.000000
0.000000 0.000000 0.000000
0.000000 0.000000 0.000000
0.000000 0.000000 0.000000
0.000000 0.000000 0.000000
0.000000 0.000000 0.000000
0.000000 0.000000 0.000000
0.000000 0.000000 0.000000
0.000000 0.000000 0.000000
0.000000 0.000000 0.000000
0.000000 0.000000 0.000000
0.000000 0.000000 0.000000
0.000000 0.000000 0.000000
0.000000 0.000000 0.000000
0.000000 0.000000 0.000000
0.000000 0.000000 0.000000
0.000000 0.000000 0.000000
0.000000 0.000000 0.000000
0.000000 0.000000 0.000000
0.000000 0.000000 0.000000
0.000000 0.000000 0.000000
0.000000 0.000000 0.000000
0.000000 0.000000 0.000000
0.000000 0.000000 0.000000
0.000000 0.000000 0.000000
0.000000 0.000000 0.000000
0.000000 0.000000 0.000000
0.000000 0.000000 0.000000
0.000000 0.000000 0.000000
0.000000 0.000000 0.000000
0.000000 0.000000 0.000000
0.000000 0.000000 0.000000
0.000000 0.000000 0.000000
0.000000 0.000000 0.000000
0.000000 0.000000 0.000000
0.000000 0.000000 0.000000
0.000000 0.000000 0.000000
0.000000 0.000000 0.000000
0.000000 0.000000 0.000000
0.000000 0.000000 0.000000
0.000000 0.000000 0.000000
0.000000 0.000000 0.000000
0.000000 0.000000 0.000000
0.000000 0.000000 0.000000
0.000000 0.000000 0.000000
0.000000 0.000000 0.000000
0.000000 0.000000 0.000000
0.000000 0.000000 0.000000
0.000000 0.000000 0.000000
0.000000 0.000000 0.000000
0.000000 0.000000 0.000000
0.000000 0.000000 0.000000
0.000000 0.000000 0.000000
0.000000 0.000000 0.000000
0.000000 0.000000 0.000000
0.000000 0.000000 0.000000
0.000000 0.000000 0.000000
0.000000 0.000000 0.000000
0.000000 0.000000 0.000000
0.000000 0.000000 0.000000
0.000000 0.000000 0.000000
0.000000 0.000000 0.000000
0.000000 0.000000 0.000000
0.000000 0.000000 0.000000
0.000000 0.000000 0.000000
0.000000 0.000000 0.000000
0.000000 0.000000 0.000000
0.000000 0.000000 0.000000
0.000000 0.000000 0.000000
0.000000 0.000000 0.000000
0.000000 0.000000 0.000000
0.000000 0.000000 0.000000
0.000000 0.000000 0.000000
0.000000 0.000000 0.000000
0.000000 0.000000 0.000000
0.000000 0.000000 0.000000
0.000000 0.000000 0.000000
0.000000 0.000000 0.000000
0.000000 0.000000 0.000000
0.000000 0.000000 0.000000
0.000000 0.000000 0.000000
0.000000 0.000000 0.000000
0.000000 0.000000 0.000000
0.000000 0.000000 0.000000
0.000000 0.000000 0.000000
0.000000 0.000000 0.000000
0.000000 0.000000 0.000000
0.000000 0.000000 0.000000
0.000000 0.000000 0.000000
0.000000 0.000000 0.000000
0.000000 0.000000 0.000000
0.000000 0.000000 0.000000
0.000000 0.000000 0.000000
0.000000 0.000000 0.000000
0.000000 0.000000 0.000000
0.000000 0.000000 0.000000
0.000000 0.000000 0.000000
0.000000 0.000000 0.000000
0.000000 0.000000 0.000000
0.000000 0.000000 0.000000
0.000000 0.000000 0.000000
0.000000 0.000000 0.000000
0.000000 0.000000 0.000000
0.000000 0.000000 0.000000
0.000000 0.000000 0.000000
0.000000 0.000000 0.000000
0.000000 0.000000 0.000000
0.000000 0.000000 0.000000
0.000000 0.000000 0.000000
0.000000 0.000000 0.000000
0.000000 0.000000 0.000000
0.000000 0.000000 0.000000
0.000000 0.000000 0.000000
0.000000 0.000000 0.000000
0.000000 0.000000 0.000000
0.000000 0.000000 0.000000
0.000000 0.000000 0.000000
0.000000 0.000000 0.000000
0.000000 0.000000 0.000000
0.000000 0.000000 0.000000
0.000000 0.000000 0.000000
0.000000 0.000000 0.000000
0.000000 0.000000 0.000000
0.000000 0.000000 0.000000
0.000000 0.000000 0.000000
0.000000 0.000000 0.000000
0.000000 0.000000 0.000000
0.000000 0.000000 0.000000
0.000000 0.000000 0.000000
0.000000 0.000000 0.000000
0.000000 0.000000 0.000000
0.000000 0.000000 0.000000
0.000000 0.000000 0.000000
0.000000 0.000000 0.000000
0.000000 0.000000 0.000000
0.000000 0.000000 0.000000
0.000000 0.000000 0.000000
0.000000 0.000000 0.000000
0.000000 0.000000 0.000000
0.000000 0.000000 0.000000
0.000000 0.000000 0.000000
0.000000 0.000000 0.000000
0.000000 0.000000 0.000000
0.000000 0.000000 0.000000
0.000000 0.000000 0.000000
0.000000 0.000000 0.000000
0.000000 0.000000 0.000000
0.000000 0.000000 0.000000
0.000000 0.000000 0.000000
0.000000 0.000000 0.000000
0.000000 0.000000 0.000000
0.000000 0.000000 0.000000
0.000000 0.000000 0.000000
0.000000 0.000000 0.000000
0.000000 0.000000 0.000000
0.000000 0.000000 0.000000
0.000000 0.000000 0.000000
0.000000 0.000000 0.000000
0.000000 0.000000 0.000000
0.000000 0.000000 0.000000
0.000000 0.000000 0.000000
0.000000 0.000000 0.000000
0.000000 0.000000 0.000000
0.000000 0.000000 0.000000
0.000000 0.000000 0.000000
0.000000 0.000000 0.000000
0.000000 0.000000 0.000000
0.000000 0.000000 0.000000
0.000000 0.000000 0.000000
0.000000 0.000000 0.000000
0.000000 0.000000 0.000000
0.000000 0.000000 0.000000
0.000000 0.000000 0.000000
0.000000 0.000000 0.000000
0.000000 0.000000 0.000000
0.000000 0.000000 0.000000
0.000000 0.000000 0.000000
0.000000 0.000000 0.000000
0.000000 0.000000 0.000000
0.000000 0.000000 0.000000
0.000000 0.000000 0.000000
0.000000 0.000000 0.000000
0.000000 0.000000 0.000000
0.000000 0.000000 0.000000
0.000000 0.000000 0.000000
0.000000 0.000000 0.000000
0.000000 0.000000 0.000000
0.000000 0.000000 0.000000
0.000000 0.000000 0.000000
0.000000 0.000000 0.000000
0.000000 0.000000 0.000000
0.000000 0.000000 0.000000
0.000000 0.000000 0.000000
0.000000 0.000000 0.000000
0.000000 0.000000 0.000000
0.000000 0.000000 0.000000
0.000000 0.000000 0.000000
0.000000 0.000000 0.000000
0.000000 0.000000 0.000000
0.000000 0.000000 0.000000
0.000000 0.000000 0.000000
0.000000 0.000000 0.000000
0.000000 0.000000 0.000000
0.000000 0.000000 0.000000
0.000000 0.000000 0.000000
0.000000 0.000000 0.000000
0.000000 0.000000 0.000000
0.000000 0.000000 0.000000
0.000000 0.000000 0.000000
0.000000 0.000000 0.000000
0.000000 0.000000 0.000000
0.000000 0.000000 0.000000
0.000000 0.000000 0.000000
0.000000 0.000000 0.000000
0.000000 0.000000 0.000000
0.000000 0.000000 0.000000
0.000000 0.000000 0.000000
0.000000 0.000000 0.000000
0.000000 0.000000 0.000000
0.000000 0.000000 0.000000
0.000000 0.000000 0.000000
0.000000 0.000000 0.000000
0.000000 0.000000 0.000000
0.000000 0.000000 0.000000
0.000000 0.000000 0.000000
0.000000 0.000000 0.000000
0.000000 0.000000 0.000000
0.000000 0.000000 0.000000
0.000000 0.000000 0.000000
0.000000 0.000000 0.000000
0.000000 0.000000 0.000000
0.000000 0.000000 0.000000
0.000000 0.000000 0.000000
0.000000 0.000000 0.000000
0.000000 0.000000 0.000000
0.000000 0.000000 0.000000
0.000000 0.000000 0.000000
0.000000 0.000000 0.000000
0.000000 0.000000 0.000000
0.000000 0.000000 0.000000
0.000000 0.000000 0.000000
0.000000 0.000000 0.000000
0.000000 0.000000 0.000000
0.000000 0.000000 0.000000
0.000000 0.000000 0.000000
0.000000 0.000000 0.000000
0.000000 0.000000 0.000000
0.000000 0.000000 0.000000
0.000000 0.000000 0.000000
0.000000 0.000000 0.000000
0.000000 0.000000 0.000000
0.000000 0.000000 0.000000
0.000000 0.000000 0.000000
0.000000 0.000000 0.000000
0.000000 0.000000 0.000000
0.000000 0.000000 0.000000
0.000000 0.000000 0.000000
0.000000 0.000000 0.000000
0.000000 0.000000 0.000000
0.000000 0.000000 0.000000
0.000000 0.000000 0.000000
0.000000 0.000000 0.000000
0.000000 0.000000 0.000000
0.000000 0.000000 0.000000
0.000000 0.000000 0.000000
0.000000 0.000000 0.000000
0.000000 0.000000 0.000000
0.000000 0.000000 0.000000
0.000000 0.000000 0.000000
0.000000 0.000000 0.000000
0.000000 0.000000 0.000000
0.000000 0.000000 0.000000
0.000000 0.000000 0.000000
0.000000 0.000000 0.000000
0.000000 0.000000 0.000000
0.000000 0.000000 0.000000
0.000000 0.000000 0.000000
0.000000 0.000000 0.000000
0.000000 0.000000 0.000000
0.000000 0.000000 0.000000
0.000000 0.000000 0.000000
0.000000 0.000000 0.000000
0.000000 0.000000 0.000000
0.000000 0.000000 0.000000
0.000000 0.000000 0.000000
0.000000 0.000000 0.000000
0.000000 0.000000 0.000000
0.000000 0.000000 0.000000
0.000000 0.000000 0.000000
0.000000 0.000000 0.000000
0.000000 0.000000 0.000000
0.000000 0.000000 0.000000
0.000000 0.000000 0.000000
0.000000 0.000000 0.000000
0.000000 0.000000 0.000000
0.000000 0.000000 0.000000
0.000000 0.000000 0.000000
0.000000 0.000000 0.000000
0.000000 0.000000 0.000000
0.000000 0.000000 0.000000
0.000000 0.000000 0.000000
0.000000 0.000000 0.000000
0.000000 0.000000 0.000000
0.000000 0.000000 0.000000
0.000000 0.000000 0.000000
0.000000 0.000000 0.000000
0.000000 0.000000 0.000000
0.000000 0.000000 0.000000
0.000000 0.000000 0.000000
0.000000 0.000000 0.000000
0.000000 0.000000 0.000000
0.000000 0.000000 0.000000
0.000000 0.000000 0.000000
0.000000 0.000000 0.000000
0.000000 0.000000 0.000000
0.000000 0.000000 0.000000
0.000000 0.000000 0.000000
0.000000 0.000000 0.000000
0.000000 0.000000 0.000000
0.000000 0.000000 0.000000
0.000000 0.000000 0.000000
0.000000 0.000000 0.000000
0.000000 0.000000 0.000000
0.000000 0.000000 0.000000
0.000000 0.000000 0.000000
0.000000 0.000000 0.000000
0.000000 0.000000 0.000000
0.000000 0.000000 0.000000
0.000000 0.000000 0.000000
0.000000 0.000000 0.000000
0.000000 0.000000 0.000000
0.000000 0.000000 0.000000
0.000000 0.000000 0.000000
0.000000 0.000000 0.000000
0.000000 0.000000 0.000000
0.000000 0.000000 0.000000
0.000000 0.000000 0.000000
0.000000 0.000000 0.000000
0.000000 0.000000 0.000000
0.000000 0.000000 0.000000
0.000000 0.000000 0.000000
0.000000 0.000000 0.000000
0.000000 0.000000 0.000000
0.000000 0.000000 0.000000
0.000000 0.000000 0.000000
0.000000 0.000000 0.000000
0.000000 0.000000 0.000000
0.000000 0.000000 0.000000
0.000000 0.000000 0.000000
0.000000 0.000000 0.000000
0.000000 0.000000 0.000000
0.000000 0.000000 0.000000
0.000000 0.000000 0.000000
0.000000 0.000000 0.000000
0.000000 0.000000 0.000000
0.000000 0.000000 0.000000
0.000000 0.000000 0.000000
0.000000 0.000000 0.000000
0.000000 0.000000 0.000000
0.000000 0.000000 0.000000
0.000000 0.000000 0.000000
0.000000 0.000000 0.000000
0.000000 0.000000 0.000000
0.000000 0.000000 0.000000
0.000000 0.000000 0.000000
0.000000 0.000000 0.000000
0.000000 0.000000 0.000000
0.000000 0.000000 0.000000
0.000000 0.000000 0.000000
0.000000 0.000000 0.000000
0.000000 0.000000 0.000000
0.000000 0.000000 0.000000
0.000000 0.000000 0.000000
0.000000 0.000000 0.000000
0.000000 0.000000 0.000000
0.000000 0.000000 0.000000
0.000000 0.000000 0.000000
0.000000 0.000000 0.000000
0.000000 0.000000 0.000000
0.000000 0.000000 0.000000
0.000000 0.000000 0.000000
0.000000 0.000000 0.000000
0.000000 0.000000 0.000000
0.000000 0.000000 0.000000
0.000000 0.000000 0.000000
0.000000 0.000000 0.000000
0.000000 0.000000 0.000000
0.000000 0.000000 0.000000
0.000000 0.000000 0.000000
0.000000 0.000000 0.000000
0.000000 0.000000 0.000000
0.000000 0.000000 0.000000
0.000000 0.000000 0.000000
0.000000 0.000000 0.000000
0.000000 0.000000 0.000000
0.000000 0.000000 0.000000
0.000000 0.000000 0.000000
0.000000 0.000000 0.000000
0.000000 0.000000 0.000000
0.000000 0.000000 0.000000
0.000000 0.000000 0.000000
0.000000 0.000000 0.000000
0.000000 0.000000 0.000000
0.000000 0.000000 0.000000
0.000000 0.000000 0.000000
0.000000 0.000000 0.000000
0.000000 0.000000 0.000000
0.000000 0.000000 0.000000
0.000000 0.000000 0.000000
0.000000 0.000000 0.000000
0.000000 0.000000 0.000000
0.000000 0.000000 0.000000
0.000000 0.000000 0.000000
0.000000 0.000000 0.000000
0.000000 0.000000 0.000000
0.000000 0.000000 0.000000
0.000000 0.000000 0.000000
0.000000 0.000000 0.000000
0.000000 0.000000 0.000000
0.000000 0.000000 0.000000
0.000000 0.000000 0.000000
0.000000 0.000000 0.000000
0.000000 0.000000 0.000000
0.000000 0.000000 0.000000
0.000000 0.000000 0.000000
0.000000 0.000000 0.000000
0.000000 0.000000 0.000000
0.000000 0.000000 0.000000
0.000000 0.000000 0.000000
0.000000 0.000000 0.000000
0.000000 0.000000 0.000000
0.000000 0.000000 0.000000
0.000000 0.000000 0.000000
0.000000 0.000000 0.000000
0.000000 0.000000 0.000000
0.000000 0.000000 0.000000
0.000000 0.000000 0.000000
0.000000 0.000000 0.000000
0.000000 0.000000 0.000000
0.000000 0.000000 0.000000
0.000000 0.000000 0.000000
0.000000 0.000000 0.000000
0.000000 0.000000 0.000000
0.000000 0.000000 0.000000
0.000000 0.000000 0.000000
0.000000 0.000000 0.000000
0.000000 0.000000 0.000000
0.000000 0.000000 0.000000
0.000000 0.000000 0.000000
0.000000 0.000000 0.000000
0.000000 0.000000 0.000000
0.000000 0.000000 0.000000
0.000000 0.000000 0.000000
0.000000 0.000000 0.000000
0.000000 0.000000 0.000000
0.000000 0.000000 0.000000
0.000000 0.000000 0.000000
0.000000 0.000000 0.000000
0.000000 0.000000 0.000000
0.000000 0.000000 0.000000
0.000000 0.000000 0.000000
0.000000 0.000000 0.000000
0.000000 0.000000 0.000000
0.000000 0.000000 0.000000
0.000000 0.000000 0.000000
0.000000 0.000000 0.000000
0.000000 0.000000 0.000000
0.000000 0.000000 0.000000
0.000000 0.000000 0.000000
0.000000 0.000000 0.000000
0.000000 0.000000 0.000000
0.000000 0.000000 0.000000
0.000000 0.000000 0.000000
0.000000 0.000000 0.000000
0.000000 0.000000 0.000000
0.000000 0.000000 0.000000
0.000000 0.000000 0.000000
0.000000 0.000000 0.000000
0.000000 0.000000 0.000000
0.000000 0.000000 0.000000
0.000000 0.000000 0.000000
0.000000 0.000000 0.000000
0.000000 0.000000 0.000000
0.000000 0.000000 0.000000
0.000000 0.000000 0.000000
0.000000 0.000000 0.000000
0.000000 0.000000 0.000000
0.000000 0.000000 0.000000
0.000000 0.000000 0.000000
0.000000 0.000000 0.000000
0.000000 0.000000 0.000000
0.000000 0.000000 0.000000
0.000000 0.000000 0.000000
0.000000 0.000000 0.000000
0.000000 0.000000 0.000000
0.000000 0.000000 0.000000
0.000000 0.000000 0.000000
0.000000 0.000000 0.000000
0.000000 0.000000 0.000000
0.000000 0.000000 0.000000
0.000000 0.000000 0.000000
0.000000 0.000000 0.000000
0.000000 0.000000 0.000000
0.000000 0.000000 0.000000
0.000000 0.000000 0.000000
0.000000 0.000000 0.000000
0.000000 0.000000 0.000000
0.000000 0.000000 0.000000
0.000000 0.000000 0.000000
0.000000 0.000000 0.000000
0.000000 0.000000 0.000000
0.000000 0.000000 0.000000
0.000000 0.000000 0.000000
0.000000 0.000000 0.000000
0.000000 0.000000 0.000000
0.000000 0.000000 0.000000
0.000000 0.000000 0.000000
0.000000 0.000000 0.000000
0.000000 0.000000 0.000000
0.000000 0.000000 0.000000
0.000000 0.000000 0.000000
0.000000 0.000000 0.000000
0.000000 0.000000 0.000000
0.000000 0.000000 0.000000
0.000000 0.000000 0.000000
0.000000 0.000000 0.000000
0.000000 0.000000 0.000000
0.000000 0.000000 0.000000
0.000000 0.000000 0.000000
0.000000 0.000000 0.000000
0.000000 0.000000 0.000000
0.000000 0.000000 0.000000
0.000000 0.000000 0.000000
0.000000 0.000000 0.000000
0.000000 0.000000 0.000000
0.000000 0.000000 0.000000
0.000000 0.000000 0.000000
0.000000 0.000000 0.000000
0.000000 0.000000 0.000000
0.000000 0.000000 0.000000
0.000000 0.000000 0.000000
0.000000 0.000000 0.000000
0.000000 0.000000 0.000000
0.000000 0.000000 0.000000
0.000000 0.000000 0.000000
0.000000 0.000000 0.000000
0.000000 0.000000 0.000000
0.000000 0.000000 0.000000
0.000000 0.000000 0.000000
0.000000 0.000000 0.000000
0.000000 0.000000 0.000000
0.000000 0.000000 0.000000
0.000000 0.000000 0.000000
0.000000 0.000000 0.000000
0.000000 0.000000 0.000000
0.000000 0.000000 0.000000
0.000000 0.000000 0.000000
0.000000 0.000000 0.000000
0.000000 0.000000 0.000000
0.000000 0.000000 0.000000
0.000000 0.000000 0.000000
0.000000 0.000000 0.000000
0.000000 0.000000 0.000000
0.000000 0.000000 0.000000
0.000000 0.000000 0.000000
0.000000 0.000000 0.000000
0.000000 0.000000 0.000000
0.000000 0.000000 0.000000
0.000000 0.000000 0.000000
0.000000 0.000000 0.000000
0.000000 0.000000 0.000000
0.000000 0.000000 0.000000
0.000000 0.000000 0.000000
0.000000 0.000000 0.000000
0.000000 0.000000 0.000000
0.000000 0.000000 0.000000
0.000000 0.000000 0.000000
0.000000 0.000000 0.000000
0.000000 0.000000 0.000000
0.000000 0.000000 0.000000
0.000000 0.000000 0.000000
0.000000 0.000000 0.000000
0.000000 0.000000 0.000000
0.000000 0.000000 0.000000
0.000000 0.000000 0.000000
0.000000 0.000000 0.000000
0.000000 0.000000 0.000000
0.000000 0.000000 0.000000
0.000000 0.000000 0.000000
0.000000 0.000000 0.000000
0.000000 0.000000 0.000000
0.000000 0.000000 0.000000
0.000000 0.000000 0.000000
0.000000 0.000000 0.000000
0.000000 0.000000 0.000000
0.000000 0.000000 0.000000
0.000000 0.000000 0.000000
0.000000 0.000000 0.000000
0.000000 0.000000 0.000000
0.000000 0.000000 0.000000
0.000000 0.000000 0.000000
0.000000 0.000000 0.000000
0.000000 0.000000 0.000000
0.000000 0.000000 0.000000
0.000000 0.000000 0.000000
0.000000 0.000000 0.000000
0.000000 0.000000 0.000000
0.000000 0.000000 0.000000
0.000000 0.000000 0.000000
0.000000 0.000000 0.000000
0.000000 0.000000 0.000000
0.000000 0.000000 0.000000
0.000000 0.000000 0.000000
0.000000 0.000000 0.000000
0.000000 0.000000 0.000000
0.000000 0.000000 0.000000
0.000000 0.000000 0.000000
0.000000 0.000000 0.000000
0.000000 0.000000 0.000000
0.000000 0.000000 0.000000
0.000000 0.000000 0.000000
0.000000 0.000000 0.000000
0.000000 0.000000 0.000000
0.000000 0.000000 0.000000
0.000000 0.000000 0.000000
0.000000 0.000000 0.000000
0.000000 0.000000 0.000000
0.000000 0.000000 0.000000
0.000000 0.000000 0.000000
0.000000 0.000000 0.000000
0.000000 0.000000 0.000000
0.000000 0.000000 0.000000
0.000000 0.000000 0.000000
0.000000 0.000000 0.000000
0.000000 0.000000 0.000000
0.000000 0.000000 0.000000
0.000000 0.000000 0.000000
0.000000 0.000000 0.000000
0.000000 0.000000 0.000000
0.000000 0.000000 0.000000
0.000000 0.000000 0.000000
0.000000 0.000000 0.000000
0.000000 0.000000 0.000000
0.000000 0.000000 0.000000
0.000000 0.000000 0.000000
0.000000 0.000000 0.000000
0.000000 0.000000 0.000000
0.000000 0.000000 0.000000
0.000000 0.000000 0.000000
0.000000 0.000000 0.000000
0.000000 0.000000 0.000000
0.000000 0.000000 0.000000
0.000000 0.000000 0.000000
0.000000 0.000000 0.000000
0.000000 0.000000 0.000000
0.000000 0.000000 0.000000
0.000000 0.000000 0.000000
0.000000 0.000000 0.000000
0.000000 0.000000 0.000000
0.000000 0.000000 0.000000
0.000000 0.000000 0.000000
0.000000 0.000000 0.000000
0.000000 0.000000 0.000000
0.000000 0.000000 0.000000
0.000000 0.000000 0.000000
0.000000 0.000000 0.000000
0.000000 0.000000 0.000000
0.000000 0.000000 0.000000
0.000000 0.000000 0.000000
0.000000 0.000000 0.000000
0.000000 0.000000 0.000000
0.000000 0.000000 0.000000
0.000000 0.000000 0.000000
0.000000 0.000000 0.000000
0.000000 0.000000 0.000000
0.000000 0.000000 0.000000
0.000000 0.000000 0.000000
0.000000 0.000000 0.000000
0.000000 0.000000 0.000000
0.000000 0.000000 0.000000
0.000000 0.000000 0.000000
0.000000 0.000000 0.000000
0.000000 0.000000 0.000000
0.000000 0.000000 0.000000
0.000000 0.000000 0.000000
0.000000 0.000000 0.000000
0.000000 0.000000 0.000000
0.000000 0.000000 0.000000
0.000000 0.000000 0.000000
0.000000 0.000000 0.000000
0.000000 0.000000 0.000000
0.000000 0.000000 0.000000
0.000000 0.000000 0.000000
0.000000 0.000000 0.000000
0.000000 0.000000 0.000000
0.000000 0.000000 0.000000
0.000000 0.000000 0.000000
0.000000 0.000000 0.000000
0.000000 0.000000 0.000000
0.000000 0.000000 0.000000
0.000000 0.000000 0.000000
0.000000 0.000000 0.000000
0.000000 0.000000 0.000000
0.000000 0.000000 0.000000
0.000000 0.000000 0.000000
0.000000 0.000000 0.000000
0.000000 0.000000 0.000000
0.000000 0.000000 0.000000
0.000000 0.000000 0.000000
0.000000 0.000000 0.000000
0.000000 0.000000 0.000000
0.000000 0.000000 0.000000
0.000000 0.000000 0.000000
0.000000 0.000000 0.000000
0.000000 0.000000 0.000000
0.000000 0.000000 0.000000
0.000000 0.000000 0.000000
0.000000 0.000000 0.000000
0.000000 0.000000 0.000000
0.000000 0.000000 0.000000
0.000000 0.000000 0.000000
0.000000 0.000000 0.000000
0.000000 0.000000 0.000000
0.000000 0.000000 0.000000
0.000000 0.000000 0.000000
0.000000 0.000000 0.000000
0.000000 0.000000 0.000000
0.000000 0.000000 0.000000
0.000000 0.000000 0.000000
0.000000 0.000000 0.000000
0.000000 0.000000 0.000000
0.000000 0.000000 0.000000
0.000000 0.000000 0.000000
0.000000 0.000000 0.000000
0.000000 0.000000 0.000000
0.000000 0.000000 0.000000
0.000000 0.000000 0.000000
0.000000 0.000000 0.000000
0.000000 0.000000 0.000000
0.000000 0.000000 0.000000
0.000000 0.000000 0.000000
0.000000 0.000000 0.000000
0.000000 0.000000 0.000000
0.000000 0.000000 0.000000
0.000000 0.000000 0.000000
0.000000 0.000000 0.000000
0.000000 0.000000 0.000000
0.000000 0.000000 0.000000
0.000000 0.000000 0.000000
0.000000 0.000000 0.000000
0.000000 0.000000 0.000000
0.000000 0.000000 0.000000
0.000000 0.000000 0.000000
0.000000 0.000000 0.000000
0.000000 0.000000 0.000000
0.000000 0.000000 0.000000
0.000000 0.000000 0.000000
0.000000 0.000000 0.000000
0.000000 0.000000 0.000000
0.000000 0.000000 0.000000
0.000000 0.000000 0.000000
0.000000 0.000000 0.000000
0.000000 0.000000 0.000000
0.000000 0.000000 0.000000
0.000000 0.000000 0.000000
0.000000 0.000000 0.000000
0.000000 0.000000 0.000000
0.000000 0.000000 0.000000
0.000000 0.000000 0.000000
0.000000 0.000000 0.000000
0.000000 0.000000 0.000000
0.000000 0.000000 0.000000
0.000000 0.000000 0.000000
0.000000 0.000000 0.000000
0.000000 0.000000 0.000000
0.000000 0.000000 0.000000
0.000000 0.000000 0.000000
0.000000 0.000000 0.000000
0.000000 0.000000 0.000000
0.000000 0.000000 0.000000
0.000000 0.000000 0.000000
0.000000 0.000000 0.000000
0.000000 0.000000 0.000000
0.000000 0.000000 0.000000
0.000000 0.000000 0.000000
0.000000 0.000000 0.000000
0.000000 0.000000 0.000000
0.000000 0.000000 0.000000
0.000000 0.000000 0.000000
0.000000 0.000000 0.000000
0.000000 0.000000 0.000000
0.000000 0.000000 0.000000
0.000000 0.000000 0.000000
0.000000 0.000000 0.000000
0.000000 0.000000 0.000000
0.000000 0.000000 0.000000
0.000000 0.000000 0.000000
0.000000 0.000000 0.000000
0.000000 0.000000 0.000000
0.000000 0.000000 0.000000
0.000000 0.000000 0.000000
0.000000 0.000000 0.000000
0.000000 0.000000 0.000000
0.000000 0.000000 0.000000
0.000000 0.000000 0.000000
0.000000 0.000000 0.000000
0.000000 0.000000 0.000000
0.000000 0.000000 0.000000
0.000000 0.000000 0.000000
0.000000 0.000000 0.000000
0.000000 0.000000 0.000000
0.000000 0.000000 0.000000
0.000000 0.000000 0.000000
0.000000 0.000000 0.000000
0.000000 0.000000 0.000000
0.000000 0.000000 0.000000
0.000000 0.000000 0.000000
0.000000 0.000000 0.000000
0.000000 0.000000 0.000000
0.000000 0.000000 0.000000
0.000000 0.000000 0.000000
0.000000 0.000000 0.000000
0.000000 0.000000 0.000000
0.000000 0.000000 0.000000
0.000000 0.000000 0.000000
0.000000 0.000000 0.000000
0.000000 0.000000 0.000000
0.000000 0.000000 0.000000
0.000000 0.000000 0.000000
0.000000 0.000000 0.000000
0.000000 0.000000 0.000000
0.000000 0.000000 0.000000
0.000000 0.000000 0.000000
0.000000 0.000000 0.000000
0.000000 0.000000 0.000000
0.000000 0.000000 0.000000
0.000000 0.000000 0.000000
0.000000 0.000000 0.000000
0.000000 0.000000 0.000000
0.000000 0.000000 0.000000
0.000000 0.000000 0.000000
0.000000 0.000000 0.000000
0.000000 0.000000 0.000000
0.000000 0.000000 0.000000
0.000000 0.000000 0.000000
0.000000 0.000000 0.000000
0.000000 0.000000 0.000000
0.000000 0.000000 0.000000
0.000000 0.000000 0.000000
0.000000 0.000000 0.000000
0.000000 0.000000 0.000000
0.000000 0.000000 0.000000
0.000000 0.000000 0.000000
0.000000 0.000000 0.000000
0.000000 0.000000 0.000000
0.000000 0.000000 0.000000
0.000000 0.000000 0.000000
0.000000 0.000000 0.000000
0.000000 0.000000 0.000000
0.000000 0.000000 0.000000
0.000000 0.000000 0.000000
0.000000 0.000000 0.000000
0.000000 0.000000 0.000000
0.000000 0.000000 0.000000
0.000000 0.000000 0.000000
0.000000 0.000000 0.000000
0.000000 0.000000 0.000000
0.000000 0.000000 0.000000
0.000000 0.000000 0.000000
0.000000 0.000000 0.000000
0.000000 0.000000 0.000000
0.000000 0.000000 0.000000
0.000000 0.000000 0.000000
0.000000 0.000000 0.000000
0.000000 0.000000 0.000000
0.000000 0.000000 0.000000
0.000000 0.000000 0.000000
0.000000 0.000000 0.000000
0.000000 0.000000 0.000000
0.000000 0.000000 0.000000
0.000000 0.000000 0.000000
0.000000 0.000000 0.000000
0.000000 0.000000 0.000000
0.000000 0.000000 0.000000
0.000000 0.000000 0.000000
0.000000 0.000000 0.000000
0.000000 0.000000 0.000000
0.000000 0.000000 0.000000
0.000000 0.000000 0.000000
0.000000 0.000000 0.000000
0.000000 0.000000 0.000000
0.000000 0.000000 0.000000
0.000000 0.000000 0.000000
0.000000 0.000000 0.000000
0.000000 0.000000 0.000000
0.000000 0.000000 0.000000
0.000000 0.000000 0.000000
0.000000 0.000000 0.000000
0.000000 0.000000 0.000000
0.000000 0.000000 0.000000
0.000000 0.000000 0.000000
0.000000 0.000000 0.000000
0.000000 0.000000 0.000000
0.000000 0.000000 0.000000
0.000000 0.000000 0.000000
0.000000 0.000000 0.000000
0.000000 0.000000 0.000000
0.000000 0.000000 0.000000
0.000000 0.000000 0.000000
0.000000 0.000000 0.000000
0.000000 0.000000 0.000000
0.000000 0.000000 0.000000
0.000000 0.000000 0.000000
0.000000 0.000000 0.000000
0.000000 0.000000 0.000000
0.000000 0.000000 0.000000
0.000000 0.000000 0.000000
0.000000 0.000000 0.000000
0.000000 0.000000 0.000000
0.000000 0.000000 0.000000
0.000000 0.000000 0.000000
0.000000 0.000000 0.000000
0.000000 0.000000 0.000000
0.000000 0.000000 0.000000
0.000000 0.000000 0.000000
0.000000 0.000000 0.000000
0.000000 0.000000 0.000000
0.000000 0.000000 0.000000
0.000000 0.000000 0.000000
0.000000 0.000000 0.000000
0.000000 0.000000 0.000000
0.000000 0.000000 0.000000
0.000000 0.000000 0.000000
0.000000 0.000000 0.000000
0.000000 0.000000 0.000000
0.000000 0.000000 0.000000
0.000000 0.000000 0.000000
0.000000 0.000000 0.000000
0.000000 0.000000 0.000000
0.000000 0.000000 0.000000
0.000000 0.000000 0.000000
0.000000 0.000000 0.000000
0.000000 0.000000 0.000000
0.000000 0.000000 0.000000
0.000000 0.000000 0.000000
0.000000 0.000000 0.000000
0.000000 0.000000 0.000000
0.000000 0.000000 0.000000
0.000000 0.000000 0.000000
0.000000 0.000000 0.000000
0.000000 0.000000 0.000000
0.000000 0.000000 0.000000
0.000000 0.000000 0.000000
0.000000 0.000000 0.000000
0.000000 0.000000 0.000000
0.000000 0.000000 0.000000
0.000000 0.000000 0.000000
0.000000 0.000000 0.000000
0.000000 0.000000 0.000000
0.000000 0.000000 0.000000
0.000000 0.000000 0.000000
0.000000 0.000000 0.000000
0.000000 0.000000 0.000000
0.000000 0.000000 0.000000
0.000000 0.000000 0.000000
0.000000 0.000000 0.000000
0.000000 0.000000 0.000000
0.000000 0.000000 0.000000
0.000000 0.000000 0.000000
0.000000 0.000000 0.000000
0.000000 0.000000 0.000000
0.000000 0.000000 0.000000
0.000000 0.000000 0.000000
0.000000 0.000000 0.000000
0.000000 0.000000 0.000000
0.000000 0.000000 0.000000
0.000000 0.000000 0.000000
0.000000 0.000000 0.000000
0.000000 0.000000 0.000000
0.000000 0.000000 0.000000
0.000000 0.000000 0.000000
0.000000 0.000000 0.000000
0.000000 0.000000 0.000000
0.000000 0.000000 0.000000
0.000000 0.000000 0.000000
0.000000 0.000000 0.000000
0.000000 0.000000 0.000000
0.000000 0.000000 0.000000
0.000000 0.000000 0.000000
0.000000 0.000000 0.000000
0.000000 0.000000 0.000000
0.000000 0.000000 0.000000
0.000000 0.000000 0.000000
0.000000 0.000000 0.000000
0.000000 0.000000 0.000000
0.000000 0.000000 0.000000
0.000000 0.000000 0.000000
0.000000 0.000000 0.000000
0.000000 0.000000 0.000000
0.000000 0.000000 0.000000
0.000000 0.000000 0.000000
0.000000 0.000000 0.000000
0.000000 0.000000 0.000000
0.000000 0.000000 0.000000
0.000000 0.000000 0.000000
0.000000 0.000000 0.000000
0.000000 0.000000 0.000000
0.000000 0.000000 0.000000
0.000000 0.000000 0.000000
0.000000 0.000000 0.000000
0.000000 0.000000 0.000000
0.000000 0.000000 0.000000
0.000000 0.000000 0.000000
0.000000 0.000000 0.000000
0.000000 0.000000 0.000000
0.000000 0.000000 0.000000
0.000000 0.000000 0.000000
0.000000 0.000000 0.000000
0.000000 0.000000 0.000000
0.000000 0.000000 0.000000
0.000000 0.000000 0.000000
0.000000 0.000000 0.000000
0.000000 0.000000 0.000000
0.000000 0.000000 0.000000
0.000000 0.000000 0.000000
0.000000 0.000000 0.000000
0.000000 0.000000 0.000000
0.000000 0.000000 0.000000
0.000000 0.000000 0.000000
0.000000 0.000000 0.000000
0.000000 0.000000 0.000000
0.000000 0.000000 0.000000
0.000000 0.000000 0.000000
0.000000 0.000000 0.000000
0.000000 0.000000 0.000000
0.000000 0.000000 0.000000
0.000000 0.000000 0.000000
0.000000 0.000000 0.000000
0.000000 0.000000 0.000000
0.000000 0.000000 0.000000
0.000000 0.000000 0.000000
0.000000 0.000000 0.000000
0.000000 0.000000 0.000000
0.000000 0.000000 0.000000
0.000000 0.000000 0.000000
0.000000 0.000000 0.000000
0.000000 0.000000 0.000000
0.000000 0.000000 0.000000
0.000000 0.000000 0.000000
0.000000 0.000000 0.000000
0.000000 0.000000 0.000000
0.000000 0.000000 0.000000
0.000000 0.000000 0.000000
0.000000 0.000000 0.000000
0.000000 0.000000 0.000000
0.000000 0.000000 0.000000
0.000000 0.000000 0.000000
0.000000 0.000000 0.000000
0.000000 0.000000 0.000000
0.000000 0.000000 0.000000
0.000000 0.000000 0.000000
0.000000 0.000000 0.000000
0.000000 0.000000 0.000000
0.000000 0.000000 0.000000
0.000000 0.000000 0.000000
0.000000 0.000000 0.000000
0.000000 0.000000 0.000000
0.000000 0.000000 0.000000
0.000000 0.000000 0.000000
0.000000 0.000000 0.000000
0.000000 0.000000 0.000000
0.000000 0.000000 0.000000
0.000000 0.000000 0.000000
0.000000 0.000000 0.000000
0.000000 0.000000 0.000000
0.000000 0.000000 0.000000
0.000000 0.000000 0.000000
0.000000 0.000000 0.000000
0.000000 0.000000 0.000000
0.000000 0.000000 0.000000
0.000000 0.000000 0.000000
0.000000 0.000000 0.000000
0.000000 0.000000 0.000000
0.000000 0.000000 0.000000
0.000000 0.000000 0.000000
0.000000 0.000000 0.000000
0.000000 0.000000 0.000000
0.000000 0.000000 0.000000
0.000000 0.000000 0.000000
0.000000 0.000000 0.000000
0.000000 0.000000 0.000000
0.000000 0.000000 0.000000
0.000000 0.000000 0.000000
0.000000 0.000000 0.000000
0.000000 0.000000 0.000000
0.000000 0.000000 0.000000
0.000000 0.000000 0.000000
0.000000 0.000000 0.000000
0.000000 0.000000 0.000000
0.000000 0.000000 0.000000
0.000000 0.000000 0.000000
0.000000 0.000000 0.000000
0.000000 0.000000 0.000000
0.000000 0.000000 0.000000
0.000000 0.000000 0.000000
0.000000 0.000000 0.000000
0.000000 0.000000 0.000000
0.000000 0.000000 0.000000
0.000000 0.000000 0.000000
0.000000 0.000000 0.000000
0.000000 0.000000 0.000000
0.000000 0.000000 0.000000
0.000000 0.000000 0.000000
0.000000 0.000000 0.000000
0.000000 0.000000 0.000000
0.000000 0.000000 0.000000
0.000000 0.000000 0.000000
0.000000 0.000000 0.000000
0.000000 0.000000 0.000000
0.000000 0.000000 0.000000
0.000000 0.000000 0.000000
0.000000 0.000000 0.000000
0.000000 0.000000 0.000000
0.000000 0.000000 0.000000
0.000000 0.000000 0.000000
0.000000 0.000000 0.000000
0.000000 0.000000 0.000000
0.000000 0.000000 0.000000
0.000000 0.000000 0.000000
0.000000 0.000000 0.000000
0.000000 0.000000 0.000000
0.000000 0.000000 0.000000
0.000000 0.000000 0.000000
0.000000 0.000000 0.000000
0.000000 0.000000 0.000000
0.000000 0.000000 0.000000
0.000000 0.000000 0.000000
0.000000 0.000000 0.000000
0.000000 0.000000 0.000000
0.000000 0.000000 0.000000
0.000000 0.000000 0.000000
0.000000 0.000000 0.000000
0.000000 0.000000 0.000000
0.000000 0.000000 0.000000
0.000000 0.000000 0.000000
0.000000 0.000000 0.000000
0.000000 0.000000 0.000000
0.000000 0.000000 0.000000
0.000000 0.000000 0.000000
0.000000 0.000000 0.000000
0.000000 0.000000 0.000000
0.000000 0.000000 0.000000
0.000000 0.000000 0.000000
0.000000 0.000000 0.000000
0.000000 0.000000 0.000000
0.000000 0.000000 0.000000
0.000000 0.000000 0.000000
0.000000 0.000000 0.000000
0.000000 0.000000 0.000000
0.000000 0.000000 0.000000
0.000000 0.000000 0.000000
0.000000 0.000000 0.000000
0.000000 0.000000 0.000000
0.000000 0.000000 0.000000
0.000000 0.000000 0.000000
0.000000 0.000000 0.000000
0.000000 0.000000 0.000000
0.000000 0.000000 0.000000
0.000000 0.000000 0.000000
0.000000 0.000000 0.000000
0.000000 0.000000 0.000000
0.000000 0.000000 0.000000
0.000000 0.000000 0.000000
0.000000 0.000000 0.000000
0.000000 0.000000 0.000000
0.000000 0.000000 0.000000
0.000000 0.000000 0.000000
0.000000 0.000000 0.000000
0.000000 0.000000 0.000000
0.000000 0.000000 0.000000
0.000000 0.000000 0.000000
0.000000 0.000000 0.000000
0.000000 0.000000 0.000000
0.000000 0.000000 0.000000
0.000000 0.000000 0.000000
0.000000 0.000000 0.000000
0.000000 0.000000 0.000000
0.000000 0.000000 0.000000
0.000000 0.000000 0.000000
0.000000 0.000000 0.000000
0.000000 0.000000 0.000000
0.000000 0.000000 0.000000
0.000000 0.000000 0.000000
0.000000 0.000000 0.000000
0.000000 0.000000 0.000000
0.000000 0.000000 0.000000
0.000000 0.000000 0.000000
0.000000 0.000000 0.000000
0.000000 0.000000 0.000000
0.000000 0.000000 0.000000
0.000000 0.000000 0.000000
0.000000 0.000000 0.000000
0.000000 0.000000 0.000000
0.000000 0.000000 0.000000
0.000000 0.000000 0.000000
0.000000 0.000000 0.000000
0.000000 0.000000 0.000000
0.000000 0.000000 0.000000
0.000000 0.000000 0.000000
0.000000 0.000000 0.000000
0.000000 0.000000 0.000000
0.000000 0.000000 0.000000
0.000000 0.000000 0.000000
0.000000 0.000000 0.000000
0.000000 0.000000 0.000000
0.000000 0.000000 0.000000
0.000000 0.000000 0.000000
0.000000 0.000000 0.000000
0.000000 0.000000 0.000000
0.000000 0.000000 0.000000
0.000000 0.000000 0.000000
0.000000 0.000000 0.000000
0.000000 0.000000 0.000000
0.000000 0.000000 0.000000
0.000000 0.000000 0.000000
0.000000 0.000000 0.000000
0.000000 0.000000 0.000000
0.000000 0.000000 0.000000
0.000000 0.000000 0.000000
0.000000 0.000000 0.000000
0.000000 0.000000 0.000000
0.000000 0.000000 0.000000
0.000000 0.000000 0.000000
0.000000 0.000000 0.000000
0.000000 0.000000 0.000000
0.000000 0.000000 0.000000
0.000000 0.000000 0.000000
0.000000 0.000000 0.000000
0.000000 0.000000 0.000000
0.000000 0.000000 0.000000
0.000000 0.000000 0.000000
0.000000 0.000000 0.000000
0.000000 0.000000 0.000000
0.000000 0.000000 0.000000
0.000000 0.000000 0.000000
0.000000 0.000000 0.000000
0.000000 0.000000 0.000000
0.000000 0.000000 0.000000
0.000000 0.000000 0.000000
0.000000 0.000000 0.000000
0.000000 0.000000 0.000000
0.000000 0.000000 0.000000
0.000000 0.000000 0.000000
0.000000 0.000000 0.000000
0.000000 0.000000 0.000000
0.000000 0.000000 0.000000
0.000000 0.000000 0.000000
0.000000 0.000000 0.000000
0.000000 0.000000 0.000000
0.000000 0.000000 0.000000
0.000000 0.000000 0.000000
0.000000 0.000000 0.000000
0.000000 0.000000 0.000000
0.000000 0.000000 0.000000
0.000000 0.000000 0.000000
0.000000 0.000000 0.000000
0.000000 0.000000 0.000000
0.000000 0.000000 0.000000
0.000000 0.000000 0.000000
0.000000 0.000000 0.000000
0.000000 0.000000 0.000000
0.000000 0.000000 0.000000
0.000000 0.000000 0.000000
0.000000 0.000000 0.000000
0.000000 0.000000 0.000000
0.000000 0.000000 0.000000
0.000000 0.000000 0.000000
0.000000 0.000000 0.000000
0.000000 0.000000 0.000000
0.000000 0.000000 0.000000
0.000000 0.000000 0.000000
0.000000 0.000000 0.000000
0.000000 0.000000 0.000000
0.000000 0.000000 0.000000
0.000000 0.000000 0.000000
0.000000 0.000000 0.000000
0.000000 0.000000 0.000000
0.000000 0.000000 0.000000
0.000000 0.000000 0.000000
0.000000 0.000000 0.000000
0.000000 0.000000 0.000000
0.000000 0.000000 0.000000
0.000000 0.000000 0.000000
0.000000 0.000000 0.000000
0.000000 0.000000 0.000000
0.000000 0.000000 0.000000
0.000000 0.000000 0.000000
0.000000 0.000000 0.000000
0.000000 0.000000 0.000000
0.000000 0.000000 0.000000
0.000000 0.000000 0.000000
0.000000 0.000000 0.000000
0.000000 0.000000 0.000000
0.000000 0.000000 0.000000
0.000000 0.000000 0.000000
0.000000 0.000000 0.000000
0.000000 0.000000 0.000000
0.000000 0.000000 0.000000
0.000000 0.000000 0.000000
0.000000 0.000000 0.000000
0.000000 0.000000 0.000000
0.000000 0.000000 0.000000
0.000000 0.000000 0.000000
0.000000 0.000000 0.000000
0.000000 0.000000 0.000000
0.000000 0.000000 0.000000
0.000000 0.000000 0.000000
0.000000 0.000000 0.000000
0.000000 0.000000 0.000000
0.000000 0.000000 0.000000
0.000000 0.000000 0.000000
0.000000 0.000000 0.000000
0.000000 0.000000 0.000000
0.000000 0.000000 0.000000
0.000000 0.000000 0.000000
0.000000 0.000000 0.000000
0.000000 0.000000 0.000000
0.000000 0.000000 0.000000
0.000000 0.000000 0.000000
0.000000 0.000000 0.000000
0.000000 0.000000 0.000000
0.000000 0.000000 0.000000
0.000000 0.000000 0.000000
0.000000 0.000000 0.000000
0.000000 0.000000 0.000000
0.000000 0.000000 0.000000
0.000000 0.000000 0.000000
0.000000 0.000000 0.000000
0.000000 0.000000 0.000000
0.000000 0.000000 0.000000
0.000000 0.000000 0.000000
0.000000 0.000000 0.000000
0.000000 0.000000 0.000000
0.000000 0.000000 0.000000
0.000000 0.000000 0.000000
0.000000 0.000000 0.000000
0.000000 0.000000 0.000000
0.000000 0.000000 0.000000
0.000000 0.000000 0.000000
0.000000 0.000000 0.000000
0.000000 0.000000 0.000000
0.000000 0.000000 0.000000
0.000000 0.000000 0.000000
0.000000 0.000000 0.000000
0.000000 0.000000 0.000000
0.000000 0.000000 0.000000
0.000000 0.000000 0.000000
0.000000 0.000000 0.000000
0.000000 0.000000 0.000000
0.000000 0.000000 0.000000
0.000000 0.000000 0.000000
0.000000 0.000000 0.000000
0.000000 0.000000 0.000000
0.000000 0.000000 0.000000
0.000000 0.000000 0.000000
0.000000 0.000000 0.000000
0.000000 0.000000 0.000000
0.000000 0.000000 0.000000
0.000000 0.000000 0.000000
0.000000 0.000000 0.000000
0.000000 0.000000 0.000000
0.000000 0.000000 0.000000
0.000000 0.000000 0.000000
0.000000 0.000000 0.000000
0.000000 0.000000 0.000000
0.000000 0.000000 0.000000
0.000000 0.000000 0.000000
0.000000 0.000000 0.000000
0.000000 0.000000 0.000000
0.000000 0.000000 0.000000
0.000000 0.000000 0.000000
0.000000 0.000000 0.000000
0.000000 0.000000 0.000000
0.000000 0.000000 0.000000
0.000000 0.000000 0.000000
0.000000 0.000000 0.000000
0.000000 0.000000 0.000000
0.000000 0.000000 0.000000
0.000000 0.000000 0.000000
0.000000 0.000000 0.000000
0.000000 0.000000 0.000000
0.000000 0.000000 0.000000
0.000000 0.000000 0.000000
0.000000 0.000000 0.000000
0.000000 0.000000 0.000000
0.000000 0.000000 0.000000
0.000000 0.000000 0.000000
0.000000 0.000000 0.000000
0.000000 0.000000 0.000000
0.000000 0.000000 0.000000
0.000000 0.000000 0.000000
0.000000 0.000000 0.000000
0.000000 0.000000 0.000000
0.000000 0.000000 0.000000
0.000000 0.000000 0.000000
0.000000 0.000000 0.000000
0.000000 0.000000 0.000000
0.000000 0.000000 0.000000
0.000000 0.000000 0.000000
0.000000 0.000000 0.000000
0.000000 0.000000 0.000000
0.000000 0.000000 0.000000
0.000000 0.000000 0.000000
0.000000 0.000000 0.000000
0.000000 0.000000 0.000000
0.000000 0.000000 0.000000
0.000000 0.000000 0.000000
0.000000 0.000000 0.000000
0.000000 0.000000 0.000000
0.000000 0.000000 0.000000
0.000000 0.000000 0.000000
0.000000 0.000000 0.000000
0.000000 0.000000 0.000000
0.000000 0.000000 0.000000
0.000000 0.000000 0.000000
0.000000 0.000000 0.000000
0.000000 0.000000 0.000000
0.000000 0.000000 0.000000
0.000000 0.000000 0.000000
0.000000 0.000000 0.000000
0.000000 0.000000 0.000000
0.000000 0.000000 0.000000
0.000000 0.000000 0.000000
0.000000 0.000000 0.000000
0.000000 0.000000 0.000000
0.000000 0.000000 0.000000
0.000000 0.000000 0.000000
0.000000 0.000000 0.000000
0.000000 0.000000 0.000000
0.000000 0.000000 0.000000
0.000000 0.000000 0.000000
0.000000 0.000000 0.000000
0.000000 0.000000 0.000000
0.000000 0.000000 0.000000
0.000000 0.000000 0.000000
0.000000 0.000000 0.000000
0.000000 0.000000 0.000000
0.000000 0.000000 0.000000
0.000000 0.000000 0.000000
0.000000 0.000000 0.000000
0.000000 0.000000 0.000000
0.000000 0.000000 0.000000
0.000000 0.000000 0.000000
0.000000 0.000000 0.000000
0.000000 0.000000 0.000000
0.000000 0.000000 0.000000
0.000000 0.000000 0.000000
0.000000 0.000000 0.000000
0.000000 0.000000 0.000000
0.000000 0.000000 0.000000
0.000000 0.000000 0.000000
0.000000 0.000000 0.000000
0.000000 0.000000 0.000000
0.000000 0.000000 0.000000
0.000000 0.000000 0.000000
0.000000 0.000000 0.000000
0.000000 0.000000 0.000000
0.000000 0.000000 0.000000
0.000000 0.000000 0.000000
0.000000 0.000000 0.000000
0.000000 0.000000 0.000000
0.000000 0.000000 0.000000
0.000000 0.000000 0.000000
0.000000 0.000000 0.000000
0.000000 0.000000 0.000000
0.000000 0.000000 0.000000
0.000000 0.000000 0.000000
0.000000 0.000000 0.000000
0.000000 0.000000 0.000000
0.000000 0.000000 0.000000
0.000000 0.000000 0.000000
0.000000 0.000000 0.000000
0.000000 0.000000 0.000000
0.000000 0.000000 0.000000
0.000000 0.000000 0.000000
0.000000 0.000000 0.000000
0.000000 0.000000 0.000000
0.000000 0.000000 0.000000
0.000000 0.000000 0.000000
0.000000 0.000000 0.000000
0.000000 0.000000 0.000000
0.000000 0.000000 0.000000
0.000000 0.000000 0.000000
0.000000 0.000000 0.000000
0.000000 0.000000 0.000000
0.000000 0.000000 0.000000
0.000000 0.000000 0.000000
0.000000 0.000000 0.000000
0.000000 0.000000 0.000000
0.000000 0.000000 0.000000
0.000000 0.000000 0.000000
0.000000 0.000000 0.000000
0.000000 0.000000 0.000000
0.000000 0.000000 0.000000
0.000000 0.000000 0.000000
0.000000 0.000000 0.000000
0.000000 0.000000 0.000000
0.000000 0.000000 0.000000
0.000000 0.000000 0.000000
0.000000 0.000000 0.000000
0.000000 0.000000 0.000000
0.000000 0.000000 0.000000
0.000000 0.000000 0.000000
0.000000 0.000000 0.000000
0.000000 0.000000 0.000000
0.000000 0.000000 0.000000
0.000000 0.000000 0.000000
0.000000 0.000000 0.000000
0.000000 0.000000 0.000000
0.000000 0.000000 0.000000
0.000000 0.000000 0.000000
0.000000 0.000000 0.000000
0.000000 0.000000 0.000000
0.000000 0.000000 0.000000
0.000000 0.000000 0.000000
0.000000 0.000000 0.000000
0.000000 0.000000 0.000000
0.000000 0.000000 0.000000
0.000000 0.000000 0.000000
0.000000 0.000000 0.000000
0.000000 0.000000 0.000000
0.000000 0.000000 0.000000
0.000000 0.000000 0.000000
0.000000 0.000000 0.000000
0.000000 0.000000 0.000000
0.000000 0.000000 0.000000
0.000000 0.000000 0.000000
0.000000 0.000000 0.000000
0.000000 0.000000 0.000000
0.000000 0.000000 0.000000
0.000000 0.000000 0.000000
0.000000 0.000000 0.000000
0.000000 0.000000 0.000000
0.000000 0.000000 0.000000
0.000000 0.000000 0.000000
0.000000 0.000000 0.000000
0.000000 0.000000 0.000000
0.000000 0.000000 0.000000
0.000000 0.000000 0.000000
0.000000 0.000000 0.000000
0.000000 0.000000 0.000000
0.000000 0.000000 0.000000
0.000000 0.000000 0.000000
0.000000 0.000000 0.000000
0.000000 0.000000 0.000000
0.000000 0.000000 0.000000
0.000000 0.000000 0.000000
0.000000 0.000000 0.000000
0.000000 0.000000 0.000000
0.000000 0.000000 0.000000
0.000000 0.000000 0.000000
0.000000 0.000000 0.000000
0.000000 0.000000 0.000000
0.000000 0.000000 0.000000
0.000000 0.000000 0.000000
0.000000 0.000000 0.000000
0.000000 0.000000 0.000000
0.000000 0.000000 0.000000
0.000000 0.000000 0.000000
0.000000 0.000000 0.000000
0.000000 0.000000 0.000000
0.000000 0.000000 0.000000
0.000000 0.000000 0.000000
0.000000 0.000000 0.000000
0.000000 0.000000 0.000000
0.000000 0.000000 0.000000
0.000000 0.000000 0.000000
0.000000 0.000000 0.000000
0.000000 0.000000 0.000000
0.000000 0.000000 0.000000
0.000000 0.000000 0.000000
0.000000 0.000000 0.000000
0.000000 0.000000 0.000000
0.000000 0.000000 0.000000
0.000000 0.000000 0.000000
0.000000 0.000000 0.000000
0.000000 0.000000 0.000000
0.000000 0.000000 0.000000
0.000000 0.000000 0.000000
0.000000 0.000000 0.000000
0.000000 0.000000 0.000000
0.000000 0.000000 0.000000
0.000000 0.000000 0.000000
0.000000 0.000000 0.000000
0.000000 0.000000 0.000000
0.000000 0.000000 0.000000
0.000000 0.000000 0.000000
0.000000 0.000000 0.000000
0.000000 0.000000 0.000000
0.000000 0.000000 0.000000
0.000000 0.000000 0.000000
0.000000 0.000000 0.000000
0.000000 0.000000 0.000000
0.000000 0.000000 0.000000
0.000000 0.000000 0.000000
0.000000 0.000000 0.000000
0.000000 0.000000 0.000000
0.000000 0.000000 0.000000
0.000000 0.000000 0.000000
0.000000 0.000000 0.000000
0.000000 0.000000 0.000000
0.000000 0.000000 0.000000
0.000000 0.000000 0.000000
0.000000 0.000000 0.000000
0.000000 0.000000 0.000000
0.000000 0.000000 0.000000
0.000000 0.000000 0.000000
0.000000 0.000000 0.000000
0.000000 0.000000 0.000000
0.000000 0.000000 0.000000
0.000000 0.000000 0.000000
0.000000 0.000000 0.000000
0.000000 0.000000 0.000000
0.000000 0.000000 0.000000
0.000000 0.000000 0.000000
0.000000 0.000000 0.000000
0.000000 0.000000 0.000000
0.000000 0.000000 0.000000
0.000000 0.000000 0.000000
0.000000 0.000000 0.000000
0.000000 0.000000 0.000000
0.000000 0.000000 0.000000
0.000000 0.000000 0.000000
0.000000 0.000000 0.000000
0.000000 0.000000 0.000000
0.000000 0.000000 0.000000
0.000000 0.000000 0.000000
0.000000 0.000000 0.000000
0.000000 0.000000 0.000000
0.000000 0.000000 0.000000
0.000000 0.000000 0.000000
0.000000 0.000000 0.000000
0.000000 0.000000 0.000000
0.000000 0.000000 0.000000
0.000000 0.000000 0.000000
0.000000 0.000000 0.000000
0.000000 0.000000 0.000000
0.000000 0.000000 0.000000
0.000000 0.000000 0.000000
0.000000 0.000000 0.000000
0.000000 0.000000 0.000000
0.000000 0.000000 0.000000
0.000000 0.000000 0.000000
0.000000 0.000000 0.000000
0.000000 0.000000 0.000000
0.000000 0.000000 0.000000
0.000000 0.000000 0.000000
0.000000 0.000000 0.000000
0.000000 0.000000 0.000000
0.000000 0.000000 0.000000
0.000000 0.000000 0.000000
0.000000 0.000000 0.000000
0.000000 0.000000 0.000000
0.000000 0.000000 0.000000
0.000000 0.000000 0.000000
0.000000 0.000000 0.000000
0.000000 0.000000 0.000000
0.000000 0.000000 0.000000
0.000000 0.000000 0.000000
0.000000 0.000000 0.000000
0.000000 0.000000 0.000000
0.000000 0.000000 0.000000
0.000000 0.000000 0.000000
0.000000 0.000000 0.000000
0.000000 0.000000 0.000000
0.000000 0.000000 0.000000
0.000000 0.000000 0.000000
0.000000 0.000000 0.000000
0.000000 0.000000 0.000000
0.000000 0.000000 0.000000
0.000000 0.000000 0.000000
0.000000 0.000000 0.000000
0.000000 0.000000 0.000000
0.000000 0.000000 0.000000
0.000000 0.000000 0.000000
0.000000 0.000000 0.000000
0.000000 0.000000 0.000000
0.000000 0.000000 0.000000
0.000000 0.000000 0.000000
0.000000 0.000000 0.000000
0.000000 0.000000 0.000000
0.000000 0.000000 0.000000
0.000000 0.000000 0.000000
0.000000 0.000000 0.000000
0.000000 0.000000 0.000000
0.000000 0.000000 0.000000
0.000000 0.000000 0.000000
0.000000 0.000000 0.000000
0.000000 0.000000 0.000000
0.000000 0.000000 0.000000
0.000000 0.000000 0.000000
0.000000 0.000000 0.000000
0.000000 0.000000 0.000000
0.000000 0.000000 0.000000
0.000000 0.000000 0.000000
0.000000 0.000000 0.000000
0.000000 0.000000 0.000000
0.000000 0.000000 0.000000
0.000000 0.000000 0.000000
0.000000 0.000000 0.000000
0.000000 0.000000 0.000000
0.000000 0.000000 0.000000
0.000000 0.000000 0.000000
0.000000 0.000000 0.000000
0.000000 0.000000 0.000000
0.000000 0.000000 0.000000
0.000000 0.000000 0.000000
0.000000 0.000000 0.000000
0.000000 0.000000 0.000000
0.000000 0.000000 0.000000
0.000000 0.000000 0.000000
0.000000 0.000000 0.000000
0.000000 0.000000 0.000000
0.000000 0.000000 0.000000
0.000000 0.000000 0.000000
0.000000 0.000000 0.000000
0.000000 0.000000 0.000000
0.000000 0.000000 0.000000
0.000000 0.000000 0.000000
0.000000 0.000000 0.000000
0.000000 0.000000 0.000000
0.000000 0.000000 0.000000
0.000000 0.000000 0.000000
0.000000 0.000000 0.000000
0.000000 0.000000 0.000000
0.000000 0.000000 0.000000
0.000000 0.000000 0.000000
0.000000 0.000000 0.000000
0.000000 0.000000 0.000000
0.000000 0.000000 0.000000
0.000000 0.000000 0.000000
0.000000 0.000000 0.000000
0.000000 0.000000 0.000000
0.000000 0.000000 0.000000
0.000000 0.000000 0.000000
0.000000 0.000000 0.000000
0.000000 0.000000 0.000000
0.000000 0.000000 0.000000
0.000000 0.000000 0.000000
0.000000 0.000000 0.000000
0.000000 0.000000 0.000000
0.000000 0.000000 0.000000
0.000000 0.000000 0.000000
0.000000 0.000000 0.000000
0.000000 0.000000 0.000000
0.000000 0.000000 0.000000
0.000000 0.000000 0.000000
0.000000 0.000000 0.000000
0.000000 0.000000 0.000000
0.000000 0.000000 0.000000
0.000000 0.000000 0.000000
0.000000 0.000000 0.000000
0.000000 0.000000 0.000000
0.000000 0.000000 0.000000
0.000000 0.000000 0.000000
0.000000 0.000000 0.000000
0.000000 0.000000 0.000000
0.000000 0.000000 0.000000
0.000000 0.000000 0.000000
0.000000 0.000000 0.000000
0.000000 0.000000 0.000000
0.000000 0.000000 0.000000
0.000000 0.000000 0.000000
0.000000 0.000000 0.000000
0.000000 0.000000 0.000000
0.000000 0.000000 0.000000
0.000000 0.000000 0.000000
0.000000 0.000000 0.000000
0.000000 0.000000 0.000000
0.000000 0.000000 0.000000
0.000000 0.000000 0.000000
0.000000 0.000000 0.000000
0.000000 0.000000 0.000000
0.000000 0.000000 0.000000
0.000000 0.000000 0.000000
0.000000 0.000000 0.000000
0.000000 0.000000 0.000000
0.000000 0.000000 0.000000
0.000000 0.000000 0.000000
0.000000 0.000000 0.000000
0.000000 0.000000 0.000000
0.000000 0.000000 0.000000
0.000000 0.000000 0.000000
0.000000 0.000000 0.000000
0.000000 0.000000 0.000000
0.000000 0.000000 0.000000
0.000000 0.000000 0.000000
0.000000 0.000000 0.000000
0.000000 0.000000 0.000000
0.000000 0.000000 0.000000
0.000000 0.000000 0.000000
0.000000 0.000000 0.000000
0.000000 0.000000 0.000000
0.000000 0.000000 0.000000
0.000000 0.000000 0.000000
0.000000 0.000000 0.000000
0.000000 0.000000 0.000000
0.000000 0.000000 0.000000
0.000000 0.000000 0.000000
0.000000 0.000000 0.000000
0.000000 0.000000 0.000000
0.000000 0.000000 0.000000
0.000000 0.000000 0.000000
0.000000 0.000000 0.000000
0.000000 0.000000 0.000000
0.000000 0.000000 0.000000
0.000000 0.000000 0.000000
0.000000 0.000000 0.000000
0.000000 0.000000 0.000000
0.000000 0.000000 0.000000
0.000000 0.000000 0.000000
0.000000 0.000000 0.000000
0.000000 0.000000 0.000000
0.000000 0.000000 0.000000
0.000000 0.000000 0.000000
0.000000 0.000000 0.000000
0.000000 0.000000 0.000000
0.000000 0.000000 0.000000
0.000000 0.000000 0.000000
0.000000 0.000000 0.000000
0.000000 0.000000 0.000000
0.000000 0.000000 0.000000
0.000000 0.000000 0.000000
0.000000 0.000000 0.000000
0.000000 0.000000 0.000000
0.000000 0.000000 0.000000
0.000000 0.000000 0.000000
0.000000 0.000000 0.000000
0.000000 0.000000 0.000000
0.000000 0.000000 0.000000
0.000000 0.000000 0.000000
0.000000 0.000000 0.000000
0.000000 0.000000 0.000000
0.000000 0.000000 0.000000
0.000000 0.000000 0.000000
0.000000 0.000000 0.000000
0.000000 0.000000 0.000000
0.000000 0.000000 0.000000
0.000000 0.000000 0.000000
0.000000 0.000000 0.000000
0.000000 0.000000 0.000000
0.000000 0.000000 0.000000
0.000000 0.000000 0.000000
0.000000 0.000000 0.000000
0.000000 0.000000 0.000000
0.000000 0.000000 0.000000
0.000000 0.000000 0.000000
0.000000 0.000000 0.000000
0.000000 0.000000 0.000000
0.000000 0.000000 0.000000
0.000000 0.000000 0.000000
0.000000 0.000000 0.000000
0.000000 0.000000 0.000000
0.000000 0.000000 0.000000
0.000000 0.000000 0.000000
0.000000 0.000000 0.000000
0.000000 0.000000 0.000000
0.000000 0.000000 0.000000
0.000000 0.000000 0.000000
0.000000 0.000000 0.000000
0.000000 0.000000 0.000000
0.000000 0.000000 0.000000
0.000000 0.000000 0.000000
0.000000 0.000000 0.000000
0.000000 0.000000 0.000000
0.000000 0.000000 0.000000
0.000000 0.000000 0.000000
0.000000 0.000000 0.000000
0.000000 0.000000 0.000000
0.000000 0.000000 0.000000
0.000000 0.000000 0.000000
0.000000 0.000000 0.000000
0.000000 0.000000 0.000000
0.000000 0.000000 0.000000
0.000000 0.000000 0.000000
0.000000 0.000000 0.000000
0.000000 0.000000 0.000000
0.000000 0.000000 0.000000
0.000000 0.000000 0.000000
0.000000 0.000000 0.000000
0.000000 0.000000 0.000000
0.000000 0.000000 0.000000
0.000000 0.000000 0.000000
0.000000 0.000000 0.000000
0.000000 0.000000 0.000000
0.000000 0.000000 0.000000
0.000000 0.000000 0.000000
0.000000 0.000000 0.000000
0.000000 0.000000 0.000000
0.000000 0.000000 0.000000
0.000000 0.000000 0.000000
0.000000 0.000000 0.000000
0.000000 0.000000 0.000000
0.000000 0.000000 0.000000
0.000000 0.000000 0.000000
0.000000 0.000000 0.000000
0.000000 0.000000 0.000000
0.000000 0.000000 0.000000
0.000000 0.000000 0.000000
0.000000 0.000000 0.000000
0.000000 0.000000 0.000000
0.000000 0.000000 0.000000
0.000000 0.000000 0.000000
0.000000 0.000000 0.000000
0.000000 0.000000 0.000000
0.000000 0.000000 0.000000
0.000000 0.000000 0.000000
0.000000 0.000000 0.000000
0.000000 0.000000 0.000000
0.000000 0.000000 0.000000
0.000000 0.000000 0.000000
0.000000 0.000000 0.000000
0.000000 0.000000 0.000000
0.000000 0.000000 0.000000
0.000000 0.000000 0.000000
0.000000 0.000000 0.000000
0.000000 0.000000 0.000000
0.000000 0.000000 0.000000
0.000000 0.000000 0.000000
0.000000 0.000000 0.000000
0.000000 0.000000 0.000000
0.000000 0.000000 0.000000
0.000000 0.000000 0.000000
0.000000 0.000000 0.000000
0.000000 0.000000 0.000000
0.000000 0.000000 0.000000
0.000000 0.000000 0.000000
0.000000 0.000000 0.000000
0.000000 0.000000 0.000000
0.000000 0.000000 0.000000
0.000000 0.000000 0.000000
0.000000 0.000000 0.000000
0.000000 0.000000 0.000000
0.000000 0.000000 0.000000
0.000000 0.000000 0.000000
0.000000 0.000000 0.000000
0.000000 0.000000 0.000000
0.000000 0.000000 0.000000
0.000000 0.000000 0.000000
0.000000 0.000000 0.000000
0.000000 0.000000 0.000000
0.000000 0.000000 0.000000
0.000000 0.000000 0.000000
0.000000 0.000000 0.000000
0.000000 0.000000 0.000000
0.000000 0.000000 0.000000
0.000000 0.000000 0.000000
0.000000 0.000000 0.000000
0.000000 0.000000 0.000000
0.000000 0.000000 0.000000
0.000000 0.000000 0.000000
0.000000 0.000000 0.000000
0.000000 0.000000 0.000000
0.000000 0.000000 0.000000
0.000000 0.000000 0.000000
0.000000 0.000000 0.000000
0.000000 0.000000 0.000000
0.000000 0.000000 0.000000
0.000000 0.000000 0.000000
0.000000 0.000000 0.000000
0.000000 0.000000 0.000000
0.000000 0.000000 0.000000
0.000000 0.000000 0.000000
0.000000 0.000000 0.000000
0.000000 0.000000 0.000000
0.000000 0.000000 0.000000
0.000000 0.000000 0.000000
0.000000 0.000000 0.000000
0.000000 0.000000 0.000000
0.000000 0.000000 0.000000
0.000000 0.000000 0.000000
0.000000 0.000000 0.000000
0.000000 0.000000 0.000000
0.000000 0.000000 0.000000
0.000000 0.000000 0.000000
0.000000 0.000000 0.000000
0.000000 0.000000 0.000000
0.000000 0.000000 0.000000
0.000000 0.000000 0.000000
0.000000 0.000000 0.000000
0.000000 0.000000 0.000000
0.000000 0.000000 0.000000
0.000000 0.000000 0.000000
0.000000 0.000000 0.000000
0.000000 0.000000 0.000000
0.000000 0.000000 0.000000
0.000000 0.000000 0.000000
0.000000 0.000000 0.000000
0.000000 0.000000 0.000000
0.000000 0.000000 0.000000
0.000000 0.000000 0.000000
0.000000 0.000000 0.000000
0.000000 0.000000 0.000000
0.000000 0.000000 0.000000
0.000000 0.000000 0.000000
0.000000 0.000000 0.000000
0.000000 0.000000 0.000000
0.000000 0.000000 0.000000
0.000000 0.000000 0.000000
0.000000 0.000000 0.000000
0.000000 0.000000 0.000000
0.000000 0.000000 0.000000
0.000000 0.000000 0.000000
0.000000 0.000000 0.000000
0.000000 0.000000 0.000000
0.000000 0.000000 0.000000
0.000000 0.000000 0.000000
0.000000 0.000000 0.000000
0.000000 0.000000 0.000000
0.000000 0.000000 0.000000
0.000000 0.000000 0.000000
0.000000 0.000000 0.000000
0.000000 0.000000 0.000000
0.000000 0.000000 0.000000
0.000000 0.000000 0.000000
0.000000 0.000000 0.000000
0.000000 0.000000 0.000000
0.000000 0.000000 0.000000
0.000000 0.000000 0.000000
0.000000 0.000000 0.000000
0.000000 0.000000 0.000000
0.000000 0.000000 0.000000
0.000000 0.000000 0.000000
0.000000 0.000000 0.000000
0.000000 0.000000 0.000000
0.000000 0.000000 0.000000
0.000000 0.000000 0.000000
0.000000 0.000000 0.000000
0.000000 0.000000 0.000000
0.000000 0.000000 0.000000
0.000000 0.000000 0.000000
0.000000 0.000000 0.000000
0.000000 0.000000 0.000000
0.000000 0.000000 0.000000
0.000000 0.000000 0.000000
0.000000 0.000000 0.000000
0.000000 0.000000 0.000000
0.000000 0.000000 0.000000
0.000000 0.000000 0.000000
0.000000 0.000000 0.000000
0.000000 0.000000 0.000000
0.000000 0.000000 0.000000
0.000000 0.000000 0.000000
0.000000 0.000000 0.000000
0.000000 0.000000 0.000000
0.000000 0.000000 0.000000
0.000000 0.000000 0.000000
0.000000 0.000000 0.000000
0.000000 0.000000 0.000000
0.000000 0.000000 0.000000
0.000000 0.000000 0.000000
0.000000 0.000000 0.000000
0.000000 0.000000 0.000000
0.000000 0.000000 0.000000
0.000000 0.000000 0.000000
0.000000 0.000000 0.000000
0.000000 0.000000 0.000000
0.000000 0.000000 0.000000
0.000000 0.000000 0.000000
0.000000 0.000000 0.000000
0.000000 0.000000 0.000000
0.000000 0.000000 0.000000
0.000000 0.000000 0.000000
0.000000 0.000000 0.000000
0.000000 0.000000 0.000000
0.000000 0.000000 0.000000
0.000000 0.000000 0.000000
0.000000 0.000000 0.000000
0.000000 0.000000 0.000000
0.000000 0.000000 0.000000
0.000000 0.000000 0.000000
0.000000 0.000000 0.000000
0.000000 0.000000 0.000000
0.000000 0.000000 0.000000
0.000000 0.000000 0.000000
0.000000 0.000000 0.000000
0.000000 0.000000 0.000000
0.000000 0.000000 0.000000
0.000000 0.000000 0.000000
0.000000 0.000000 0.000000
0.000000 0.000000 0.000000
0.000000 0.000000 0.000000
0.000000 0.000000 0.000000
0.000000 0.000000 0.000000
0.000000 0.000000 0.000000
0.000000 0.000000 0.000000
0.000000 0.000000 0.000000
0.000000 0.000000 0.000000
0.000000 0.000000 0.000000
0.000000 0.000000 0.000000
0.000000 0.000000 0.000000
0.000000 0.000000 0.000000
0.000000 0.000000 0.000000
0.000000 0.000000 0.000000
0.000000 0.000000 0.000000
0.000000 0.000000 0.000000
0.000000 0.000000 0.000000
0.000000 0.000000 0.000000
0.000000 0.000000 0.000000
0.000000 0.000000 0.000000
0.000000 0.000000 0.000000
0.000000 0.000000 0.000000
0.000000 0.000000 0.000000
0.000000 0.000000 0.000000
0.000000 0.000000 0.000000
0.000000 0.000000 0.000000
0.000000 0.000000 0.000000
0.000000 0.000000 0.000000
0.000000 0.000000 0.000000
0.000000 0.000000 0.000000
0.000000 0.000000 0.000000
0.000000 0.000000 0.000000
0.000000 0.000000 0.000000
0.000000 0.000000 0.000000
0.000000 0.000000 0.000000
0.000000 0.000000 0.000000
0.000000 0.000000 0.000000
0.000000 0.000000 0.000000
0.000000 0.000000 0.000000
0.000000 0.000000 0.000000
0.000000 0.000000 0.000000
0.000000 0.000000 0.000000
0.000000 0.000000 0.000000
0.000000 0.000000 0.000000
0.000000 0.000000 0.000000
0.000000 0.000000 0.000000
0.000000 0.000000 0.000000
0.000000 0.000000 0.000000
0.000000 0.000000 0.000000
0.000000 0.000000 0.000000
0.000000 0.000000 0.000000
0.000000 0.000000 0.000000
0.000000 0.000000 0.000000
0.000000 0.000000 0.000000
0.000000 0.000000 0.000000
0.000000 0.000000 0.000000
0.000000 0.000000 0.000000
0.000000 0.000000 0.000000
0.000000 0.000000 0.000000
0.000000 0.000000 0.000000
0.000000 0.000000 0.000000
0.000000 0.000000 0.000000
0.000000 0.000000 0.000000
0.000000 0.000000 0.000000
0.000000 0.000000 0.000000
0.000000 0.000000 0.000000
0.000000 0.000000 0.000000
0.000000 0.000000 0.000000
0.000000 0.000000 0.000000
0.000000 0.000000 0.000000
0.000000 0.000000 0.000000
0.000000 0.000000 0.000000
0.000000 0.000000 0.000000
0.000000 0.000000 0.000000
0.000000 0.000000 0.000000
0.000000 0.000000 0.000000
0.000000 0.000000 0.000000
0.000000 0.000000 0.000000
0.000000 0.000000 0.000000
0.000000 0.000000 0.000000
0.000000 0.000000 0.000000
0.000000 0.000000 0.000000
0.000000 0.000000 0.000000
0.000000 0.000000 0.000000
0.000000 0.000000 0.000000
0.000000 0.000000 0.000000
0.000000 0.000000 0.000000
0.000000 0.000000 0.000000
0.000000 0.000000 0.000000
0.000000 0.000000 0.000000
0.000000 0.000000 0.000000
0.000000 0.000000 0.000000
0.000000 0.000000 0.000000
0.000000 0.000000 0.000000
0.000000 0.000000 0.000000
0.000000 0.000000 0.000000
0.000000 0.000000 0.000000
0.000000 0.000000 0.000000
0.000000 0.000000 0.000000
0.000000 0.000000 0.000000
0.000000 0.000000 0.000000
0.000000 0.000000 0.000000
0.000000 0.000000 0.000000
0.000000 0.000000 0.000000
0.000000 0.000000 0.000000
0.000000 0.000000 0.000000
0.000000 0.000000 0.000000
0.000000 0.000000 0.000000
0.000000 0.000000 0.000000
0.000000 0.000000 0.000000
0.000000 0.000000 0.000000
0.000000 0.000000 0.000000
0.000000 0.000000 0.000000
0.000000 0.000000 0.000000
0.000000 0.000000 0.000000
0.000000 0.000000 0.000000
0.000000 0.000000 0.000000
0.000000 0.000000 0.000000
0.000000 0.000000 0.000000
0.000000 0.000000 0.000000
0.000000 0.000000 0.000000
0.000000 0.000000 0.000000
0.000000 0.000000 0.000000
0.000000 0.000000 0.000000
0.000000 0.000000 0.000000
0.000000 0.000000 0.000000
0.000000 0.000000 0.000000
0.000000 0.000000 0.000000
0.000000 0.000000 0.000000
0.000000 0.000000 0.000000
0.000000 0.000000 0.000000
0.000000 0.000000 0.000000
0.000000 0.000000 0.000000
0.000000 0.000000 0.000000
0.000000 0.000000 0.000000
0.000000 0.000000 0.000000
0.000000 0.000000 0.000000
0.000000 0.000000 0.000000
0.000000 0.000000 0.000000
0.000000 0.000000 0.000000
0.000000 0.000000 0.000000
0.000000 0.000000 0.000000
0.000000 0.000000 0.000000
0.000000 0.000000 0.000000
0.000000 0.000000 0.000000
0.000000 0.000000 0.000000
0.000000 0.000000 0.000000
0.000000 0.000000 0.000000
0.000000 0.000000 0.000000
0.000000 0.000000 0.000000
0.000000 0.000000 0.000000
0.000000 0.000000 0.000000
0.000000 0.000000 0.000000
0.000000 0.000000 0.000000
0.000000 0.000000 0.000000
0.000000 0.000000 0.000000
0.000000 0.000000 0.000000
0.000000 0.000000 0.000000
0.000000 0.000000 0.000000
0.000000 0.000000 0.000000
0.000000 0.000000 0.000000
0.000000 0.000000 0.000000
0.000000 0.000000 0.000000
0.000000 0.000000 0.000000
0.000000 0.000000 0.000000
0.000000 0.000000 0.000000
0.000000 0.000000 0.000000
0.000000 0.000000 0.000000
0.000000 0.000000 0.000000
0.000000 0.000000 0.000000
0.000000 0.000000 0.000000
0.000000 0.000000 0.000000
0.000000 0.000000 0.000000
0.000000 0.000000 0.000000
0.000000 0.000000 0.000000
0.000000 0.000000 0.000000
0.000000 0.000000 0.000000
0.000000 0.000000 0.000000
0.000000 0.000000 0.000000
0.000000 0.000000 0.000000
0.000000 0.000000 0.000000
0.000000 0.000000 0.000000
0.000000 0.000000 0.000000
0.000000 0.000000 0.000000
0.000000 0.000000 0.000000
0.000000 0.000000 0.000000
0.000000 0.000000 0.000000
0.000000 0.000000 0.000000
0.000000 0.000000 0.000000
0.000000 0.000000 0.000000
0.000000 0.000000 0.000000
0.000000 0.000000 0.000000
0.000000 0.000000 0.000000
0.000000 0.000000 0.000000
0.000000 0.000000 0.000000
0.000000 0.000000 0.000000
0.000000 0.000000 0.000000
0.000000 0.000000 0.000000
0.000000 0.000000 0.000000
0.000000 0.000000 0.000000
0.000000 0.000000 0.000000
0.000000 0.000000 0.000000
0.000000 0.000000 0.000000
0.000000 0.000000 0.000000
0.000000 0.000000 0.000000
0.000000 0.000000 0.000000
0.000000 0.000000 0.000000
0.000000 0.000000 0.000000
0.000000 0.000000 0.000000
0.000000 0.000000 0.000000
0.000000 0.000000 0.000000
0.000000 0.000000 0.000000
0.000000 0.000000 0.000000
0.000000 0.000000 0.000000
0.000000 0.000000 0.000000
0.000000 0.000000 0.000000
0.000000 0.000000 0.000000
0.000000 0.000000 0.000000
0.000000 0.000000 0.000000
0.000000 0.000000 0.000000
0.000000 0.000000 0.000000
0.000000 0.000000 0.000000
0.000000 0.000000 0.000000
0.000000 0.000000 0.000000
0.000000 0.000000 0.000000
0.000000 0.000000 0.000000
0.000000 0.000000 0.000000
0.000000 0.000000 0.000000
0.000000 0.000000 0.000000
0.000000 0.000000 0.000000
0.000000 0.000000 0.000000
0.000000 0.000000 0.000000
0.000000 0.000000 0.000000
0.000000 0.000000 0.000000
0.000000 0.000000 0.000000
0.000000 0.000000 0.000000
0.000000 0.000000 0.000000
0.000000 0.000000 0.000000
0.000000 0.000000 0.000000
0.000000 0.000000 0.000000
0.000000 0.000000 0.000000
0.000000 0.000000 0.000000
0.000000 0.000000 0.000000
0.000000 0.000000 0.000000
0.000000 0.000000 0.000000
0.000000 0.000000 0.000000
0.000000 0.000000 0.000000
0.000000 0.000000 0.000000
0.000000 0.000000 0.000000
0.000000 0.000000 0.000000
0.000000 0.000000 0.000000
0.000000 0.000000 0.000000
0.000000 0.000000 0.000000
0.000000 0.000000 0.000000
0.000000 0.000000 0.000000
0.000000 0.000000 0.000000
0.000000 0.000000 0.000000
0.000000 0.000000 0.000000
0.000000 0.000000 0.000000
0.000000 0.000000 0.000000
0.000000 0.000000 0.000000
0.000000 0.000000 0.000000
0.000000 0.000000 0.000000
0.000000 0.000000 0.000000
0.000000 0.000000 0.000000
0.000000 0.000000 0.000000
0.000000 0.000000 0.000000
0.000000 0.000000 0.000000
0.000000 0.000000 0.000000
0.000000 0.000000 0.000000
0.000000 0.000000 0.000000
0.000000 0.000000 0.000000
0.000000 0.000000 0.000000
0.000000 0.000000 0.000000
0.000000 0.000000 0.000000
0.000000 0.000000 0.000000
0.000000 0.000000 0.000000
0.000000 0.000000 0.000000
0.000000 0.000000 0.000000
0.000000 0.000000 0.000000
0.000000 0.000000 0.000000
0.000000 0.000000 0.000000
0.000000 0.000000 0.000000
0.000000 0.000000 0.000000
0.000000 0.000000 0.000000
0.000000 0.000000 0.000000
0.000000 0.000000 0.000000
0.000000 0.000000 0.000000
0.000000 0.000000 0.000000
0.000000 0.000000 0.000000
0.000000 0.000000 0.000000
0.000000 0.000000 0.000000
0.000000 0.000000 0.000000
0.000000 0.000000 0.000000
0.000000 0.000000 0.000000
0.000000 0.000000 0.000000
0.000000 0.000000 0.000000
0.000000 0.000000 0.000000
0.000000 0.000000 0.000000
0.000000 0.000000 0.000000
0.000000 0.000000 0.000000
0.000000 0.000000 0.000000
0.000000 0.000000 0.000000
0.000000 0.000000 0.000000
0.000000 0.000000 0.000000
0.000000 0.000000 0.000000
0.000000 0.000000 0.000000
0.000000 0.000000 0.000000
0.000000 0.000000 0.000000
0.000000 0.000000 0.000000
0.000000 0.000000 0.000000
0.000000 0.000000 0.000000
0.000000 0.000000 0.000000
0.000000 0.000000 0.000000
0.000000 0.000000 0.000000
0.000000 0.000000 0.000000
0.000000 0.000000 0.000000
0.000000 0.000000 0.000000
0.000000 0.000000 0.000000
0.000000 0.000000 0.000000
0.000000 0.000000 0.000000
0.000000 0.000000 0.000000
0.000000 0.000000 0.000000
0.000000 0.000000 0.000000
0.000000 0.000000 0.000000
0.000000 0.000000 0.000000
0.000000 0.000000 0.000000
0.000000 0.000000 0.000000
0.000000 0.000000 0.000000
0.000000 0.000000 0.000000
0.000000 0.000000 0.000000
0.000000 0.000000 0.000000
0.000000 0.000000 0.000000
0.000000 0.000000 0.000000
0.000000 0.000000 0.000000
0.000000 0.000000 0.000000
0.000000 0.000000 0.000000
0.000000 0.000000 0.000000
0.000000 0.000000 0.000000
0.000000 0.000000 0.000000
0.000000 0.000000 0.000000
0.000000 0.000000 0.000000
0.000000 0.000000 0.000000
0.000000 0.000000 0.000000
0.000000 0.000000 0.000000
0.000000 0.000000 0.000000
0.000000 0.000000 0.000000
0.000000 0.000000 0.000000
0.000000 0.000000 0.000000
0.000000 0.000000 0.000000
0.000000 0.000000 0.000000
0.000000 0.000000 0.000000
0.000000 0.000000 0.000000
0.000000 0.000000 0.000000
0.000000 0.000000 0.000000
0.000000 0.000000 0.000000
0.000000 0.000000 0.000000
0.000000 0.000000 0.000000
0.000000 0.000000 0.000000
0.000000 0.000000 0.000000
0.000000 0.000000 0.000000
0.000000 0.000000 0.000000
0.000000 0.000000 0.000000
0.000000 0.000000 0.000000
0.000000 0.000000 0.000000
0.000000 0.000000 0.000000
0.000000 0.000000 0.000000
0.000000 0.000000 0.000000
0.000000 0.000000 0.000000
0.000000 0.000000 0.000000
0.000000 0.000000 0.000000
0.000000 0.000000 0.000000
0.000000 0.000000 0.000000
0.000000 0.000000 0.000000
0.000000 0.000000 0.000000
0.000000 0.000000 0.000000
0.000000 0.000000 0.000000
0.000000 0.000000 0.000000
0.000000 0.000000 0.000000
0.000000 0.000000 0.000000
0.000000 0.000000 0.000000
0.000000 0.000000 0.000000
0.000000 0.000000 0.000000
0.000000 0.000000 0.000000
0.000000 0.000000 0.000000
0.000000 0.000000 0.000000
0.000000 0.000000 0.000000
0.000000 0.000000 0.000000
0.000000 0.000000 0.000000
0.000000 0.000000 0.000000
0.000000 0.000000 0.000000
0.000000 0.000000 0.000000
0.000000 0.000000 0.000000
0.000000 0.000000 0.000000
0.000000 0.000000 0.000000
0.000000 0.000000 0.000000
0.000000 0.000000 0.000000
0.000000 0.000000 0.000000
0.000000 0.000000 0.000000
0.000000 0.000000 0.000000
0.000000 0.000000 0.000000
0.000000 0.000000 0.000000
0.000000 0.000000 0.000000
0.000000 0.000000 0.000000
0.000000 0.000000 0.000000
0.000000 0.000000 0.000000
0.000000 0.000000 0.000000
0.000000 0.000000 0.000000
0.000000 0.000000 0.000000
0.000000 0.000000 0.000000
0.000000 0.000000 0.000000
0.000000 0.000000 0.000000
0.000000 0.000000 0.000000
0.000000 0.000000 0.000000
0.000000 0.000000 0.000000
0.000000 0.000000 0.000000
0.000000 0.000000 0.000000
0.000000 0.000000 0.000000
0.000000 0.000000 0.000000
0.000000 0.000000 0.000000
0.000000 0.000000 0.000000
0.000000 0.000000 0.000000
0.000000 0.000000 0.000000
0.000000 0.000000 0.000000
0.000000 0.000000 0.000000
0.000000 0.000000 0.000000
0.000000 0.000000 0.000000
0.000000 0.000000 0.000000
0.000000 0.000000 0.000000
0.000000 0.000000 0.000000
0.000000 0.000000 0.000000
0.000000 0.000000 0.000000
0.000000 0.000000 0.000000
0.000000 0.000000 0.000000
0.000000 0.000000 0.000000
0.000000 0.000000 0.000000
0.000000 0.000000 0.000000
0.000000 0.000000 0.000000
0.000000 0.000000 0.000000
0.000000 0.000000 0.000000
0.000000 0.000000 0.000000
0.000000 0.000000 0.000000
0.000000 0.000000 0.000000
0.000000 0.000000 0.000000
0.000000 0.000000 0.000000
0.000000 0.000000 0.000000
0.000000 0.000000 0.000000
0.000000 0.000000 0.000000
0.000000 0.000000 0.000000
0.000000 0.000000 0.000000
0.000000 0.000000 0.000000
0.000000 0.000000 0.000000
0.000000 0.000000 0.000000
0.000000 0.000000 0.000000
0.000000 0.000000 0.000000
0.000000 0.000000 0.000000
0.000000 0.000000 0.000000
0.000000 0.000000 0.000000
0.000000 0.000000 0.000000
0.000000 0.000000 0.000000
0.000000 0.000000 0.000000
0.000000 0.000000 0.000000
0.000000 0.000000 0.000000
0.000000 0.000000 0.000000
0.000000 0.000000 0.000000
0.000000 0.000000 0.000000
0.000000 0.000000 0.000000
0.000000 0.000000 0.000000
0.000000 0.000000 0.000000
0.000000 0.000000 0.000000
0.000000 0.000000 0.000000
0.000000 0.000000 0.000000
0.000000 0.000000 0.000000
0.000000 0.000000 0.000000
0.000000 0.000000 0.000000
0.000000 0.000000 0.000000
0.000000 0.000000 0.000000
0.000000 0.000000 0.000000
0.000000 0.000000 0.000000
0.000000 0.000000 0.000000
0.000000 0.000000 0.000000
0.000000 0.000000 0.000000
0.000000 0.000000 0.000000
0.000000 0.000000 0.000000
0.000000 0.000000 0.000000
0.000000 0.000000 0.000000
0.000000 0.000000 0.000000
0.000000 0.000000 0.000000
0.000000 0.000000 0.000000
0.000000 0.000000 0.000000
0.000000 0.000000 0.000000
0.000000 0.000000 0.000000
0.000000 0.000000 0.000000
0.000000 0.000000 0.000000
0.000000 0.000000 0.000000
0.000000 0.000000 0.000000
0.000000 0.000000 0.000000
0.000000 0.000000 0.000000
0.000000 0.000000 0.000000
0.000000 0.000000 0.000000
0.000000 0.000000 0.000000
0.000000 0.000000 0.000000
0.000000 0.000000 0.000000
0.000000 0.000000 0.000000
0.000000 0.000000 0.000000
0.000000 0.000000 0.000000
0.000000 0.000000 0.000000
0.000000 0.000000 0.000000
0.000000 0.000000 0.000000
0.000000 0.000000 0.000000
0.000000 0.000000 0.000000
0.000000 0.000000 0.000000
0.000000 0.000000 0.000000
0.000000 0.000000 0.000000
0.000000 0.000000 0.000000
0.000000 0.000000 0.000000
0.000000 0.000000 0.000000
0.000000 0.000000 0.000000
0.000000 0.000000 0.000000
0.000000 0.000000 0.000000
0.000000 0.000000 0.000000
0.000000 0.000000 0.000000
0.000000 0.000000 0.000000
0.000000 0.000000 0.000000
0.000000 0.000000 0.000000
0.000000 0.000000 0.000000
0.000000 0.000000 0.000000
0.000000 0.000000 0.000000
0.000000 0.000000 0.000000
0.000000 0.000000 0.000000
0.000000 0.000000 0.000000
0.000000 0.000000 0.000000
0.000000 0.000000 0.000000
0.000000 0.000000 0.000000
0.000000 0.000000 0.000000
0.000000 0.000000 0.000000
0.000000 0.000000 0.000000
0.000000 0.000000 0.000000
0.000000 0.000000 0.000000
0.000000 0.000000 0.000000
0.000000 0.000000 0.000000
0.000000 0.000000 0.000000
0.000000 0.000000 0.000000
0.000000 0.000000 0.000000
0.000000 0.000000 0.000000
0.000000 0.000000 0.000000
0.000000 0.000000 0.000000
0.000000 0.000000 0.000000
0.000000 0.000000 0.000000
0.000000 0.000000 0.000000
0.000000 0.000000 0.000000
0.000000 0.000000 0.000000
0.000000 0.000000 0.000000
0.000000 0.000000 0.000000
0.000000 0.000000 0.000000
0.000000 0.000000 0.000000
0.000000 0.000000 0.000000
0.000000 0.000000 0.000000
0.000000 0.000000 0.000000
0.000000 0.000000 0.000000
0.000000 0.000000 0.000000
0.000000 0.000000 0.000000
0.000000 0.000000 0.000000
0.000000 0.000000 0.000000
0.000000 0.000000 0.000000
0.000000 0.000000 0.000000
0.000000 0.000000 0.000000
0.000000 0.000000 0.000000
0.000000 0.000000 0.000000
0.000000 0.000000 0.000000
0.000000 0.000000 0.000000
0.000000 0.000000 0.000000
0.000000 0.000000 0.000000
0.000000 0.000000 0.000000
0.000000 0.000000 0.000000
0.000000 0.000000 0.000000
0.000000 0.000000 0.000000
0.000000 0.000000 0.000000
0.000000 0.000000 0.000000
0.000000 0.000000 0.000000
0.000000 0.000000 0.000000
0.000000 0.000000 0.000000
0.000000 0.000000 0.000000
0.000000 0.000000 0.000000
0.000000 0.000000 0.000000
0.000000 0.000000 0.000000
0.000000 0.000000 0.000000
0.000000 0.000000 0.000000
0.000000 0.000000 0.000000
0.000000 0.000000 0.000000
0.000000 0.000000 0.000000
0.000000 0.000000 0.000000
0.000000 0.000000 0.000000
0.000000 0.000000 0.000000
0.000000 0.000000 0.000000
0.000000 0.000000 0.000000
0.000000 0.000000 0.000000
0.000000 0.000000 0.000000
0.000000 0.000000 0.000000
0.000000 0.000000 0.000000
0.000000 0.000000 0.000000
0.000000 0.000000 0.000000
0.000000 0.000000 0.000000
0.000000 0.000000 0.000000
0.000000 0.000000 0.000000
0.000000 0.000000 0.000000
0.000000 0.000000 0.000000
0.000000 0.000000 0.000000
0.000000 0.000000 0.000000
0.000000 0.000000 0.000000
0.000000 0.000000 0.000000
0.000000 0.000000 0.000000
0.000000 0.000000 0.000000
0.000000 0.000000 0.000000
0.000000 0.000000 0.000000
0.000000 0.000000 0.000000
0.000000 0.000000 0.000000
0.000000 0.000000 0.000000
0.000000 0.000000 0.000000
0.000000 0.000000 0.000000
0.000000 0.000000 0.000000
0.000000 0.000000 0.000000
0.000000 0.000000 0.000000
0.000000 0.000000 0.000000
0.000000 0.000000 0.000000
0.000000 0.000000 0.000000
0.000000 0.000000 0.000000
0.000000 0.000000 0.000000
0.000000 0.000000 0.000000
0.000000 0.000000 0.000000
0.000000 0.000000 0.000000
0.000000 0.000000 0.000000
0.000000 0.000000 0.000000
0.000000 0.000000 0.000000
0.000000 0.000000 0.000000
0.000000 0.000000 0.000000
0.000000 0.000000 0.000000
0.000000 0.000000 0.000000
0.000000 0.000000 0.000000
0.000000 0.000000 0.000000
0.000000 0.000000 0.000000
0.000000 0.000000 0.000000
0.000000 0.000000 0.000000
0.000000 0.000000 0.000000
0.000000 0.000000 0.000000
0.000000 0.000000 0.000000
0.000000 0.000000 0.000000
0.000000 0.000000 0.000000
0.000000 0.000000 0.000000
0.000000 0.000000 0.000000
0.000000 0.000000 0.000000
0.000000 0.000000 0.000000
0.000000 0.000000 0.000000
0.000000 0.000000 0.000000
0.000000 0.000000 0.000000
0.000000 0.000000 0.000000
0.000000 0.000000 0.000000
0.000000 0.000000 0.000000
0.000000 0.000000 0.000000
0.000000 0.000000 0.000000
0.000000 0.000000 0.000000
0.000000 0.000000 0.000000
0.000000 0.000000 0.000000
0.000000 0.000000 0.000000
0.000000 0.000000 0.000000
0.000000 0.000000 0.000000
0.000000 0.000000 0.000000
0.000000 0.000000 0.000000
0.000000 0.000000 0.000000
0.000000 0.000000 0.000000
0.000000 0.000000 0.000000
0.000000 0.000000 0.000000
0.000000 0.000000 0.000000
0.000000 0.000000 0.000000
0.000000 0.000000 0.000000
0.000000 0.000000 0.000000
0.000000 0.000000 0.000000
0.000000 0.000000 0.000000
0.000000 0.000000 0.000000
0.000000 0.000000 0.000000
0.000000 0.000000 0.000000
0.000000 0.000000 0.000000
0.000000 0.000000 0.000000
0.000000 0.000000 0.000000
0.000000 0.000000 0.000000
0.000000 0.000000 0.000000
0.000000 0.000000 0.000000
0.000000 0.000000 0.000000
0.000000 0.000000 0.000000
0.000000 0.000000 0.000000
0.000000 0.000000 0.000000
0.000000 0.000000 0.000000
0.000000 0.000000 0.000000
0.000000 0.000000 0.000000
0.000000 0.000000 0.000000
0.000000 0.000000 0.000000
0.000000 0.000000 0.000000
0.000000 0.000000 0.000000
0.000000 0.000000 0.000000
0.000000 0.000000 0.000000
0.000000 0.000000 0.000000
0.000000 0.000000 0.000000
0.000000 0.000000 0.000000
0.000000 0.000000 0.000000
0.000000 0.000000 0.000000
0.000000 0.000000 0.000000
0.000000 0.000000 0.000000
0.000000 0.000000 0.000000
0.000000 0.000000 0.000000
0.000000 0.000000 0.000000
0.000000 0.000000 0.000000
0.000000 0.000000 0.000000
0.000000 0.000000 0.000000
0.000000 0.000000 0.000000
0.000000 0.000000 0.000000
0.000000 0.000000 0.000000
0.000000 0.000000 0.000000
0.000000 0.000000 0.000000
0.000000 0.000000 0.000000
0.000000 0.000000 0.000000
0.000000 0.000000 0.000000
0.000000 0.000000 0.000000
0.000000 0.000000 0.000000
0.000000 0.000000 0.000000
0.000000 0.000000 0.000000
0.000000 0.000000 0.000000
0.000000 0.000000 0.000000
0.000000 0.000000 0.000000
0.000000 0.000000 0.000000
0.000000 0.000000 0.000000
0.000000 0.000000 0.000000
0.000000 0.000000 0.000000
0.000000 0.000000 0.000000
0.000000 0.000000 0.000000
0.000000 0.000000 0.000000
0.000000 0.000000 0.000000
0.000000 0.000000 0.000000
0.000000 0.000000 0.000000
0.000000 0.000000 0.000000
0.000000 0.000000 0.000000
0.000000 0.000000 0.000000
0.000000 0.000000 0.000000
0.000000 0.000000 0.000000
0.000000 0.000000 0.000000
0.000000 0.000000 0.000000
0.000000 0.000000 0.000000
0.000000 0.000000 0.000000
0.000000 0.000000 0.000000
0.000000 0.000000 0.000000
0.000000 0.000000 0.000000
0.000000 0.000000 0.000000
0.000000 0.000000 0.000000
0.000000 0.000000 0.000000
0.000000 0.000000 0.000000
0.000000 0.000000 0.000000
0.000000 0.000000 0.000000
0.000000 0.000000 0.000000
0.000000 0.000000 0.000000
0.000000 0.000000 0.000000
0.000000 0.000000 0.000000
0.000000 0.000000 0.000000
0.000000 0.000000 0.000000
0.000000 0.000000 0.000000
0.000000 0.000000 0.000000
0.000000 0.000000 0.000000
0.000000 0.000000 0.000000
0.000000 0.000000 0.000000
0.000000 0.000000 0.000000
0.000000 0.000000 0.000000
0.000000 0.000000 0.000000
0.000000 0.000000 0.000000
0.000000 0.000000 0.000000
0.000000 0.000000 0.000000
0.000000 0.000000 0.000000
0.000000 0.000000 0.000000
0.000000 0.000000 0.000000
0.000000 0.000000 0.000000
0.000000 0.000000 0.000000
0.000000 0.000000 0.000000
0.000000 0.000000 0.000000
0.000000 0.000000 0.000000
0.000000 0.000000 0.000000
0.000000 0.000000 0.000000
0.000000 0.000000 0.000000
0.000000 0.000000 0.000000
0.000000 0.000000 0.000000
0.000000 0.000000 0.000000
0.000000 0.000000 0.000000
0.000000 0.000000 0.000000
0.000000 0.000000 0.000000
0.000000 0.000000 0.000000
0.000000 0.000000 0.000000
0.000000 0.000000 0.000000
0.000000 0.000000 0.000000
0.000000 0.000000 0.000000
0.000000 0.000000 0.000000
0.000000 0.000000 0.000000
0.000000 0.000000 0.000000
0.000000 0.000000 0.000000
0.000000 0.000000 0.000000
0.000000 0.000000 0.000000
0.000000 0.000000 0.000000
0.000000 0.000000 0.000000
0.000000 0.000000 0.000000
0.000000 0.000000 0.000000
0.000000 0.000000 0.000000
0.000000 0.000000 0.000000
0.000000 0.000000 0.000000
0.000000 0.000000 0.000000
0.000000 0.000000 0.000000
0.000000 0.000000 0.000000
0.000000 0.000000 0.000000
0.000000 0.000000 0.000000
0.000000 0.000000 0.000000
0.000000 0.000000 0.000000
0.000000 0.000000 0.000000
0.000000 0.000000 0.000000
0.000000 0.000000 0.000000
0.000000 0.000000 0.000000
0.000000 0.000000 0.000000
0.000000 0.000000 0.000000
0.000000 0.000000 0.000000
0.000000 0.000000 0.000000
0.000000 0.000000 0.000000
0.000000 0.000000 0.000000
0.000000 0.000000 0.000000
0.000000 0.000000 0.000000
0.000000 0.000000 0.000000
0.000000 0.000000 0.000000
0.000000 0.000000 0.000000
0.000000 0.000000 0.000000
0.000000 0.000000 0.000000
0.000000 0.000000 0.000000
0.000000 0.000000 0.000000
0.000000 0.000000 0.000000
0.000000 0.000000 0.000000
0.000000 0.000000 0.000000
0.000000 0.000000 0.000000
0.000000 0.000000 0.000000
0.000000 0.000000 0.000000
0.000000 0.000000 0.000000
0.000000 0.000000 0.000000
0.000000 0.000000 0.000000
0.000000 0.000000 0.000000
0.000000 0.000000 0.000000
0.000000 0.000000 0.000000
0.000000 0.000000 0.000000
0.000000 0.000000 0.000000
0.000000 0.000000 0.000000
0.000000 0.000000 0.000000
0.000000 0.000000 0.000000
0.000000 0.000000 0.000000
0.000000 0.000000 0.000000
0.000000 0.000000 0.000000
0.000000 0.000000 0.000000
0.000000 0.000000 0.000000
0.000000 0.000000 0.000000
0.000000 0.000000 0.000000
0.000000 0.000000 0.000000
0.000000 0.000000 0.000000
0.000000 0.000000 0.000000
0.000000 0.000000 0.000000
0.000000 0.000000 0.000000
0.000000 0.000000 0.000000
0.000000 0.000000 0.000000
0.000000 0.000000 0.000000
0.000000 0.000000 0.000000
0.000000 0.000000 0.000000
0.000000 0.000000 0.000000
0.000000 0.000000 0.000000
0.000000 0.000000 0.000000
0.000000 0.000000 0.000000
0.000000 0.000000 0.000000
0.000000 0.000000 0.000000
0.000000 0.000000 0.000000
0.000000 0.000000 0.000000
0.000000 0.000000 0.000000
0.000000 0.000000 0.000000
0.000000 0.000000 0.000000
0.000000 0.000000 0.000000
0.000000 0.000000 0.000000
0.000000 0.000000 0.000000
0.000000 0.000000 0.000000
0.000000 0.000000 0.000000
0.000000 0.000000 0.000000
0.000000 0.000000 0.000000
0.000000 0.000000 0.000000
0.000000 0.000000 0.000000
0.000000 0.000000 0.000000
0.000000 0.000000 0.000000
0.000000 0.000000 0.000000
0.000000 0.000000 0.000000
0.000000 0.000000 0.000000
0.000000 0.000000 0.000000
0.000000 0.000000 0.000000
0.000000 0.000000 0.000000
0.000000 0.000000 0.000000
0.000000 0.000000 0.000000
0.000000 0.000000 0.000000
0.000000 0.000000 0.000000
0.000000 0.000000 0.000000
0.000000 0.000000 0.000000
0.000000 0.000000 0.000000
0.000000 0.000000 0.000000
0.000000 0.000000 0.000000
0.000000 0.000000 0.000000
0.000000 0.000000 0.000000
0.000000 0.000000 0.000000
0.000000 0.000000 0.000000
0.000000 0.000000 0.000000
0.000000 0.000000 0.000000
0.000000 0.000000 0.000000
0.000000 0.000000 0.000000
0.000000 0.000000 0.000000
0.000000 0.000000 0.000000
0.000000 0.000000 0.000000
0.000000 0.000000 0.000000
0.000000 0.000000 0.000000
0.000000 0.000000 0.000000
0.000000 0.000000 0.000000
0.000000 0.000000 0.000000
0.000000 0.000000 0.000000
0.000000 0.000000 0.000000
0.000000 0.000000 0.000000
0.000000 0.000000 0.000000
0.000000 0.000000 0.000000
0.000000 0.000000 0.000000
0.000000 0.000000 0.000000
0.000000 0.000000 0.000000
0.000000 0.000000 0.000000
0.000000 0.000000 0.000000
0.000000 0.000000 0.000000
0.000000 0.000000 0.000000
0.000000 0.000000 0.000000
0.000000 0.000000 0.000000
0.000000 0.000000 0.000000
0.000000 0.000000 0.000000
0.000000 0.000000 0.000000
0.000000 0.000000 0.000000
0.000000 0.000000 0.000000
0.000000 0.000000 0.000000
0.000000 0.000000 0.000000
0.000000 0.000000 0.000000
0.000000 0.000000 0.000000
0.000000 0.000000 0.000000
0.000000 0.000000 0.000000
0.000000 0.000000 0.000000
0.000000 0.000000 0.000000
0.000000 0.000000 0.000000
0.000000 0.000000 0.000000
0.000000 0.000000 0.000000
0.000000 0.000000 0.000000
0.000000 0.000000 0.000000
0.000000 0.000000 0.000000
0.000000 0.000000 0.000000
0.000000 0.000000 0.000000
0.000000 0.000000 0.000000
0.000000 0.000000 0.000000
0.000000 0.000000 0.000000
0.000000 0.000000 0.000000
0.000000 0.000000 0.000000
0.000000 0.000000 0.000000
0.000000 0.000000 0.000000
0.000000 0.000000 0.000000
0.000000 0.000000 0.000000
0.000000 0.000000 0.000000
0.000000 0.000000 0.000000
0.000000 0.000000 0.000000
0.000000 0.000000 0.000000
0.000000 0.000000 0.000000
0.000000 0.000000 0.000000
0.000000 0.000000 0.000000
0.000000 0.000000 0.000000
0.000000 0.000000 0.000000
0.000000 0.000000 0.000000
0.000000 0.000000 0.000000
0.000000 0.000000 0.000000
0.000000 0.000000 0.000000
0.000000 0.000000 0.000000
0.000000 0.000000 0.000000
0.000000 0.000000 0.000000
0.000000 0.000000 0.000000
0.000000 0.000000 0.000000
0.000000 0.000000 0.000000
0.000000 0.000000 0.000000
0.000000 0.000000 0.000000
0.000000 0.000000 0.000000
0.000000 0.000000 0.000000
0.000000 0.000000 0.000000
0.000000 0.000000 0.000000
0.000000 0.000000 0.000000
0.000000 0.000000 0.000000
0.000000 0.000000 0.000000
0.000000 0.000000 0.000000
0.000000 0.000000 0.000000
0.000000 0.000000 0.000000
0.000000 0.000000 0.000000
0.000000 0.000000 0.000000
0.000000 0.000000 0.000000
0.000000 0.000000 0.000000
0.000000 0.000000 0.000000
0.000000 0.000000 0.000000
0.000000 0.000000 0.000000
0.000000 0.000000 0.000000
0.000000 0.000000 0.000000
0.000000 0.000000 0.000000
0.000000 0.000000 0.000000
0.000000 0.000000 0.000000
0.000000 0.000000 0.000000
0.000000 0.000000 0.000000
0.000000 0.000000 0.000000
0.000000 0.000000 0.000000
0.000000 0.000000 0.000000
0.000000 0.000000 0.000000
0.000000 0.000000 0.000000
0.000000 0.000000 0.000000
0.000000 0.000000 0.000000
0.000000 0.000000 0.000000
0.000000 0.000000 0.000000
0.000000 0.000000 0.000000
0.000000 0.000000 0.000000
0.000000 0.000000 0.000000
0.000000 0.000000 0.000000
0.000000 0.000000 0.000000
0.000000 0.000000 0.000000
0.000000 0.000000 0.000000
0.000000 0.000000 0.000000
0.000000 0.000000 0.000000
0.000000 0.000000 0.000000
0.000000 0.000000 0.000000
0.000000 0.000000 0.000000
0.000000 0.000000 0.000000
0.000000 0.000000 0.000000
0.000000 0.000000 0.000000
0.000000 0.000000 0.000000
0.000000 0.000000 0.000000
0.000000 0.000000 0.000000
0.000000 0.000000 0.000000
0.000000 0.000000 0.000000
0.000000 0.000000 0.000000
0.000000 0.000000 0.000000
0.000000 0.000000 0.000000
0.000000 0.000000 0.000000
0.000000 0.000000 0.000000
0.000000 0.000000 0.000000
0.000000 0.000000 0.000000
0.000000 0.000000 0.000000
0.000000 0.000000 0.000000
0.000000 0.000000 0.000000
0.000000 0.000000 0.000000
0.000000 0.000000 0.000000
0.000000 0.000000 0.000000
0.000000 0.000000 0.000000
0.000000 0.000000 0.000000
0.000000 0.000000 0.000000
0.000000 0.000000 0.000000
0.000000 0.000000 0.000000
0.000000 0.000000 0.000000
0.000000 0.000000 0.000000
0.000000 0.000000 0.000000
0.000000 0.000000 0.000000
0.000000 0.000000 0.000000
0.000000 0.000000 0.000000
0.000000 0.000000 0.000000
0.000000 0.000000 0.000000
0.000000 0.000000 0.000000
0.000000 0.000000 0.000000
0.000000 0.000000 0.000000
0.000000 0.000000 0.000000
0.000000 0.000000 0.000000
0.000000 0.000000 0.000000
0.000000 0.000000 0.000000
0.000000 0.000000 0.000000
0.000000 0.000000 0.000000
0.000000 0.000000 0.000000
0.000000 0.000000 0.000000
0.000000 0.000000 0.000000
0.000000 0.000000 0.000000
0.000000 0.000000 0.000000
0.000000 0.000000 0.000000
0.000000 0.000000 0.000000
0.000000 0.000000 0.000000
0.000000 0.000000 0.000000
0.000000 0.000000 0.000000
0.000000 0.000000 0.000000
0.000000 0.000000 0.000000
0.000000 0.000000 0.000000
0.000000 0.000000 0.000000
0.000000 0.000000 0.000000
0.000000 0.000000 0.000000
0.000000 0.000000 0.000000
0.000000 0.000000 0.000000
0.000000 0.000000 0.000000
0.000000 0.000000 0.000000
0.000000 0.000000 0.000000
0.000000 0.000000 0.000000
0.000000 0.000000 0.000000
0.000000 0.000000 0.000000
0.000000 0.000000 0.000000
0.000000 0.000000 0.000000
0.000000 0.000000 0.000000
0.000000 0.000000 0.000000
0.000000 0.000000 0.000000
0.000000 0.000000 0.000000
0.000000 0.000000 0.000000
0.000000 0.000000 0.000000
0.000000 0.000000 0.000000
0.000000 0.000000 0.000000
0.000000 0.000000 0.000000
0.000000 0.000000 0.000000
0.000000 0.000000 0.000000
0.000000 0.000000 0.000000
0.000000 0.000000 0.000000
0.000000 0.000000 0.000000
0.000000 0.000000 0.000000
0.000000 0.000000 0.000000
0.000000 0.000000 0.000000
0.000000 0.000000 0.000000
0.000000 0.000000 0.000000
0.000000 0.000000 0.000000
0.000000 0.000000 0.000000
0.000000 0.000000 0.000000
0.000000 0.000000 0.000000
0.000000 0.000000 0.000000
0.000000 0.000000 0.000000
0.000000 0.000000 0.000000
0.000000 0.000000 0.000000
0.000000 0.000000 0.000000
0.000000 0.000000 0.000000
0.000000 0.000000 0.000000
0.000000 0.000000 0.000000
0.000000 0.000000 0.000000
0.000000 0.000000 0.000000
0.000000 0.000000 0.000000
0.000000 0.000000 0.000000
0.000000 0.000000 0.000000
0.000000 0.000000 0.000000
0.000000 0.000000 0.000000
0.000000 0.000000 0.000000
0.000000 0.000000 0.000000
0.000000 0.000000 0.000000
0.000000 0.000000 0.000000
0.000000 0.000000 0.000000
0.000000 0.000000 0.000000
0.000000 0.000000 0.000000
0.000000 0.000000 0.000000
0.000000 0.000000 0.000000
0.000000 0.000000 0.000000
0.000000 0.000000 0.000000
0.000000 0.000000 0.000000
0.000000 0.000000 0.000000
0.000000 0.000000 0.000000
0.000000 0.000000 0.000000
0.000000 0.000000 0.000000
0.000000 0.000000 0.000000
0.000000 0.000000 0.000000
0.000000 0.000000 0.000000
0.000000 0.000000 0.000000
0.000000 0.000000 0.000000
0.000000 0.000000 0.000000
0.000000 0.000000 0.000000
0.000000 0.000000 0.000000
0.000000 0.000000 0.000000
0.000000 0.000000 0.000000
0.000000 0.000000 0.000000
0.000000 0.000000 0.000000
0.000000 0.000000 0.000000
0.000000 0.000000 0.000000
0.000000 0.000000 0.000000
0.000000 0.000000 0.000000
0.000000 0.000000 0.000000
0.000000 0.000000 0.000000
0.000000 0.000000 0.000000
0.000000 0.000000 0.000000
0.000000 0.000000 0.000000
0.000000 0.000000 0.000000
0.000000 0.000000 0.000000
0.000000 0.000000 0.000000
0.000000 0.000000 0.000000
0.000000 0.000000 0.000000
0.000000 0.000000 0.000000
0.000000 0.000000 0.000000
0.000000 0.000000 0.000000
0.000000 0.000000 0.000000
0.000000 0.000000 0.000000
0.000000 0.000000 0.000000
0.000000 0.000000 0.000000
0.000000 0.000000 0.000000
0.000000 0.000000 0.000000
0.000000 0.000000 0.000000
0.000000 0.000000 0.000000
0.000000 0.000000 0.000000
0.000000 0.000000 0.000000
0.000000 0.000000 0.000000
0.000000 0.000000 0.000000
0.000000 0.000000 0.000000
0.000000 0.000000 0.000000
0.000000 0.000000 0.000000
0.000000 0.000000 0.000000
0.000000 0.000000 0.000000
0.000000 0.000000 0.000000
0.000000 0.000000 0.000000
0.000000 0.000000 0.000000
0.000000 0.000000 0.000000
0.000000 0.000000 0.000000
0.000000 0.000000 0.000000
0.000000 0.000000 0.000000
0.000000 0.000000 0.000000
0.000000 0.000000 0.000000
0.000000 0.000000 0.000000
0.000000 0.000000 0.000000
0.000000 0.000000 0.000000
0.000000 0.000000 0.000000
0.000000 0.000000 0.000000
0.000000 0.000000 0.000000
0.000000 0.000000 0.000000
0.000000 0.000000 0.000000
0.000000 0.000000 0.000000
0.000000 0.000000 0.000000
0.000000 0.000000 0.000000
0.000000 0.000000 0.000000
0.000000 0.000000 0.000000
0.000000 0.000000 0.000000
0.000000 0.000000 0.000000
0.000000 0.000000 0.000000
0.000000 0.000000 0.000000
0.000000 0.000000 0.000000
0.000000 0.000000 0.000000
0.000000 0.000000 0.000000
0.000000 0.000000 0.000000
0.000000 0.000000 0.000000
0.000000 0.000000 0.000000
0.000000 0.000000 0.000000
0.000000 0.000000 0.000000
0.000000 0.000000 0.000000
0.000000 0.000000 0.000000
0.000000 0.000000 0.000000
0.000000 0.000000 0.000000
0.000000 0.000000 0.000000
0.000000 0.000000 0.000000
0.000000 0.000000 0.000000
0.000000 0.000000 0.000000
0.000000 0.000000 0.000000
0.000000 0.000000 0.000000
0.000000 0.000000 0.000000
0.000000 0.000000 0.000000
0.000000 0.000000 0.000000
0.000000 0.000000 0.000000
0.000000 0.000000 0.000000
0.000000 0.000000 0.000000
0.000000 0.000000 0.000000
0.000000 0.000000 0.000000
0.000000 0.000000 0.000000
0.000000 0.000000 0.000000
0.000000 0.000000 0.000000
0.000000 0.000000 0.000000
0.000000 0.000000 0.000000
0.000000 0.000000 0.000000
0.000000 0.000000 0.000000
0.000000 0.000000 0.000000
0.000000 0.000000 0.000000
0.000000 0.000000 0.000000
0.000000 0.000000 0.000000
0.000000 0.000000 0.000000
0.000000 0.000000 0.000000
0.000000 0.000000 0.000000
0.000000 0.000000 0.000000
0.000000 0.000000 0.000000
0.000000 0.000000 0.000000
0.000000 0.000000 0.000000
0.000000 0.000000 0.000000
0.000000 0.000000 0.000000
0.000000 0.000000 0.000000
0.000000 0.000000 0.000000
0.000000 0.000000 0.000000
0.000000 0.000000 0.000000
0.000000 0.000000 0.000000
0.000000 0.000000 0.000000
0.000000 0.000000 0.000000
0.000000 0.000000 0.000000
0.000000 0.000000 0.000000
0.000000 0.000000 0.000000
0.000000 0.000000 0.000000
0.000000 0.000000 0.000000
0.000000 0.000000 0.000000
0.000000 0.000000 0.000000
0.000000 0.000000 0.000000
0.000000 0.000000 0.000000
0.000000 0.000000 0.000000
0.000000 0.000000 0.000000
0.000000 0.000000 0.000000
0.000000 0.000000 0.000000
0.000000 0.000000 0.000000
0.000000 0.000000 0.000000
0.000000 0.000000 0.000000
0.000000 0.000000 0.000000
0.000000 0.000000 0.000000
0.000000 0.000000 0.000000
0.000000 0.000000 0.000000
0.000000 0.000000 0.000000
0.000000 0.000000 0.000000
0.000000 0.000000 0.000000
0.000000 0.000000 0.000000
0.000000 0.000000 0.000000
0.000000 0.000000 0.000000
0.000000 0.000000 0.000000
0.000000 0.000000 0.000000
0.000000 0.000000 0.000000
0.000000 0.000000 0.000000
0.000000 0.000000 0.000000
0.000000 0.000000 0.000000
0.000000 0.000000 0.000000
0.000000 0.000000 0.000000
0.000000 0.000000 0.000000
0.000000 0.000000 0.000000
0.000000 0.000000 0.000000
0.000000 0.000000 0.000000
0.000000 0.000000 0.000000
0.000000 0.000000 0.000000
0.000000 0.000000 0.000000
0.000000 0.000000 0.000000
0.000000 0.000000 0.000000
0.000000 0.000000 0.000000
0.000000 0.000000 0.000000
0.000000 0.000000 0.000000
0.000000 0.000000 0.000000
0.000000 0.000000 0.000000
0.000000 0.000000 0.000000
0.000000 0.000000 0.000000
0.000000 0.000000 0.000000
0.000000 0.000000 0.000000
0.000000 0.000000 0.000000
0.000000 0.000000 0.000000
0.000000 0.000000 0.000000
0.000000 0.000000 0.000000
0.000000 0.000000 0.000000
0.000000 0.000000 0.000000
0.000000 0.000000 0.000000
0.000000 0.000000 0.000000
0.000000 0.000000 0.000000
0.000000 0.000000 0.000000
0.000000 0.000000 0.000000
0.000000 0.000000 0.000000
0.000000 0.000000 0.000000
0.000000 0.000000 0.000000
0.000000 0.000000 0.000000
0.000000 0.000000 0.000000
0.000000 0.000000 0.000000
0.000000 0.000000 0.000000
0.000000 0.000000 0.000000
0.000000 0.000000 0.000000
0.000000 0.000000 0.000000
0.000000 0.000000 0.000000
0.000000 0.000000 0.000000
0.000000 0.000000 0.000000
0.000000 0.000000 0.000000
0.000000 0.000000 0.000000
0.000000 0.000000 0.000000
0.000000 0.000000 0.000000
0.000000 0.000000 0.000000
0.000000 0.000000 0.000000
0.000000 0.000000 0.000000
0.000000 0.000000 0.000000
0.000000 0.000000 0.000000
0.000000 0.000000 0.000000
0.000000 0.000000 0.000000
0.000000 0.000000 0.000000
0.000000 0.000000 0.000000
0.000000 0.000000 0.000000
0.000000 0.000000 0.000000
0.000000 0.000000 0.000000
0.000000 0.000000 0.000000
0.000000 0.000000 0.000000
0.000000 0.000000 0.000000
0.000000 0.000000 0.000000
0.000000 0.000000 0.000000
0.000000 0.000000 0.000000
0.000000 0.000000 0.000000
0.000000 0.000000 0.000000
0.000000 0.000000 0.000000
0.000000 0.000000 0.000000
0.000000 0.000000 0.000000
0.000000 0.000000 0.000000
0.000000 0.000000 0.000000
0.000000 0.000000 0.000000
0.000000 0.000000 0.000000
0.000000 0.000000 0.000000
0.000000 0.000000 0.000000
0.000000 0.000000 0.000000
0.000000 0.000000 0.000000
0.000000 0.000000 0.000000
0.000000 0.000000 0.000000
0.000000 0.000000 0.000000
0.000000 0.000000 0.000000
0.000000 0.000000 0.000000
0.000000 0.000000 0.000000
0.000000 0.000000 0.000000
0.000000 0.000000 0.000000
0.000000 0.000000 0.000000
0.000000 0.000000 0.000000
0.000000 0.000000 0.000000
0.000000 0.000000 0.000000
0.000000 0.000000 0.000000
0.000000 0.000000 0.000000
0.000000 0.000000 0.000000
0.000000 0.000000 0.000000
0.000000 0.000000 0.000000
0.000000 0.000000 0.000000
0.000000 0.000000 0.000000
0.000000 0.000000 0.000000
0.000000 0.000000 0.000000
0.000000 0.000000 0.000000
0.000000 0.000000 0.000000
0.000000 0.000000 0.000000
0.000000 0.000000 0.000000
0.000000 0.000000 0.000000
0.000000 0.000000 0.000000
0.000000 0.000000 0.000000
0.000000 0.000000 0.000000
0.000000 0.000000 0.000000
0.000000 0.000000 0.000000
0.000000 0.000000 0.000000
0.000000 0.000000 0.000000
0.000000 0.000000 0.000000
0.000000 0.000000 0.000000
0.000000 0.000000 0.000000
0.000000 0.000000 0.000000
0.000000 0.000000 0.000000
0.000000 0.000000 0.000000
0.000000 0.000000 0.000000
0.000000 0.000000 0.000000
0.000000 0.000000 0.000000
0.000000 0.000000 0.000000
0.000000 0.000000 0.000000
0.000000 0.000000 0.000000
0.000000 0.000000 0.000000
0.000000 0.000000 0.000000
0.000000 0.000000 0.000000
0.000000 0.000000 0.000000
0.000000 0.000000 0.000000
0.000000 0.000000 0.000000
0.000000 0.000000 0.000000
0.000000 0.000000 0.000000
0.000000 0.000000 0.000000
0.000000 0.000000 0.000000
0.000000 0.000000 0.000000
0.000000 0.000000 0.000000
0.000000 0.000000 0.000000
0.000000 0.000000 0.000000
0.000000 0.000000 0.000000
0.000000 0.000000 0.000000
0.000000 0.000000 0.000000
0.000000 0.000000 0.000000
0.000000 0.000000 0.000000
0.000000 0.000000 0.000000
0.000000 0.000000 0.000000
0.000000 0.000000 0.000000
0.000000 0.000000 0.000000
0.000000 0.000000 0.000000
0.000000 0.000000 0.000000
0.000000 0.000000 0.000000
0.000000 0.000000 0.000000
0.000000 0.000000 0.000000
0.000000 0.000000 0.000000
0.000000 0.000000 0.000000
0.000000 0.000000 0.000000
0.000000 0.000000 0.000000
0.000000 0.000000 0.000000
0.000000 0.000000 0.000000
0.000000 0.000000 0.000000
0.000000 0.000000 0.000000
0.000000 0.000000 0.000000
0.000000 0.000000 0.000000
0.000000 0.000000 0.000000
0.000000 0.000000 0.000000
0.000000 0.000000 0.000000
0.000000 0.000000 0.000000
0.000000 0.000000 0.000000
0.000000 0.000000 0.000000
0.000000 0.000000 0.000000
0.000000 0.000000 0.000000
0.000000 0.000000 0.000000
0.000000 0.000000 0.000000
0.000000 0.000000 0.000000
0.000000 0.000000 0.000000
0.000000 0.000000 0.000000
0.000000 0.000000 0.000000
0.000000 0.000000 0.000000
0.000000 0.000000 0.000000
0.000000 0.000000 0.000000
0.000000 0.000000 0.000000
0.000000 0.000000 0.000000
0.000000 0.000000 0.000000
0.000000 0.000000 0.000000
0.000000 0.000000 0.000000
0.000000 0.000000 0.000000
0.000000 0.000000 0.000000
0.000000 0.000000 0.000000
0.000000 0.000000 0.000000
0.000000 0.000000 0.000000
0.000000 0.000000 0.000000
0.000000 0.000000 0.000000
0.000000 0.000000 0.000000
0.000000 0.000000 0.000000
0.000000 0.000000 0.000000
0.000000 0.000000 0.000000
0.000000 0.000000 0.000000
0.000000 0.000000 0.000000
0.000000 0.000000 0.000000
0.000000 0.000000 0.000000
0.000000 0.000000 0.000000
0.000000 0.000000 0.000000
0.000000 0.000000 0.000000
0.000000 0.000000 0.000000
0.000000 0.000000 0.000000
0.000000 0.000000 0.000000
0.000000 0.000000 0.000000
0.000000 0.000000 0.000000
0.000000 0.000000 0.000000
0.000000 0.000000 0.000000
0.000000 0.000000 0.000000
0.000000 0.000000 0.000000
0.000000 0.000000 0.000000
0.000000 0.000000 0.000000
0.000000 0.000000 0.000000
0.000000 0.000000 0.000000
0.000000 0.000000 0.000000
0.000000 0.000000 0.000000
0.000000 0.000000 0.000000
0.000000 0.000000 0.000000
0.000000 0.000000 0.000000
0.000000 0.000000 0.000000
0.000000 0.000000 0.000000
0.000000 0.000000 0.000000
0.000000 0.000000 0.000000
0.000000 0.000000 0.000000
0.000000 0.000000 0.000000
0.000000 0.000000 0.000000
0.000000 0.000000 0.000000
0.000000 0.000000 0.000000
0.000000 0.000000 0.000000
0.000000 0.000000 0.000000
0.000000 0.000000 0.000000
0.000000 0.000000 0.000000
0.000000 0.000000 0.000000
0.000000 0.000000 0.000000
0.000000 0.000000 0.000000
0.000000 0.000000 0.000000
0.000000 0.000000 0.000000
0.000000 0.000000 0.000000
0.000000 0.000000 0.000000
0.000000 0.000000 0.000000
0.000000 0.000000 0.000000
0.000000 0.000000 0.000000
0.000000 0.000000 0.000000
0.000000 0.000000 0.000000
0.000000 0.000000 0.000000
0.000000 0.000000 0.000000
0.000000 0.000000 0.000000
0.000000 0.000000 0.000000
0.000000 0.000000 0.000000
0.000000 0.000000 0.000000
0.000000 0.000000 0.000000
0.000000 0.000000 0.000000
0.000000 0.000000 0.000000
0.000000 0.000000 0.000000
0.000000 0.000000 0.000000
0.000000 0.000000 0.000000
0.000000 0.000000 0.000000
0.000000 0.000000 0.000000
0.000000 0.000000 0.000000
0.000000 0.000000 0.000000
0.000000 0.000000 0.000000
0.000000 0.000000 0.000000
0.000000 0.000000 0.000000
0.000000 0.000000 0.000000
0.000000 0.000000 0.000000
0.000000 0.000000 0.000000
0.000000 0.000000 0.000000
0.000000 0.000000 0.000000
0.000000 0.000000 0.000000
0.000000 0.000000 0.000000
0.000000 0.000000 0.000000
0.000000 0.000000 0.000000
0.000000 0.000000 0.000000
0.000000 0.000000 0.000000
0.000000 0.000000 0.000000
0.000000 0.000000 0.000000
0.000000 0.000000 0.000000
0.000000 0.000000 0.000000
0.000000 0.000000 0.000000
0.000000 0.000000 0.000000
0.000000 0.000000 0.000000
0.000000 0.000000 0.000000
0.000000 0.000000 0.000000
0.000000 0.000000 0.000000
0.000000 0.000000 0.000000
0.000000 0.000000 0.000000
0.000000 0.000000 0.000000
0.000000 0.000000 0.000000
0.000000 0.000000 0.000000
0.000000 0.000000 0.000000
0.000000 0.000000 0.000000
0.000000 0.000000 0.000000
0.000000 0.000000 0.000000
0.000000 0.000000 0.000000
0.000000 0.000000 0.000000
0.000000 0.000000 0.000000
0.000000 0.000000 0.000000
0.000000 0.000000 0.000000
0.000000 0.000000 0.000000
0.000000 0.000000 0.000000
0.000000 0.000000 0.000000
0.000000 0.000000 0.000000
0.000000 0.000000 0.000000
0.000000 0.000000 0.000000
0.000000 0.000000 0.000000
0.000000 0.000000 0.000000
0.000000 0.000000 0.000000
0.000000 0.000000 0.000000
0.000000 0.000000 0.000000
0.000000 0.000000 0.000000
0.000000 0.000000 0.000000
0.000000 0.000000 0.000000
0.000000 0.000000 0.000000
0.000000 0.000000 0.000000
0.000000 0.000000 0.000000
0.000000 0.000000 0.000000
0.000000 0.000000 0.000000
0.000000 0.000000 0.000000
0.000000 0.000000 0.000000
0.000000 0.000000 0.000000
0.000000 0.000000 0.000000
0.000000 0.000000 0.000000
0.000000 0.000000 0.000000
0.000000 0.000000 0.000000
0.000000 0.000000 0.000000
0.000000 0.000000 0.000000
0.000000 0.000000 0.000000
0.000000 0.000000 0.000000
0.000000 0.000000 0.000000
0.000000 0.000000 0.000000
0.000000 0.000000 0.000000
0.000000 0.000000 0.000000
0.000000 0.000000 0.000000
0.000000 0.000000 0.000000
0.000000 0.000000 0.000000
0.000000 0.000000 0.000000
0.000000 0.000000 0.000000
0.000000 0.000000 0.000000
0.000000 0.000000 0.000000
0.000000 0.000000 0.000000
0.000000 0.000000 0.000000
0.000000 0.000000 0.000000
0.000000 0.000000 0.000000
0.000000 0.000000 0.000000
0.000000 0.000000 0.000000
0.000000 0.000000 0.000000
0.000000 0.000000 0.000000
0.000000 0.000000 0.000000
0.000000 0.000000 0.000000
0.000000 0.000000 0.000000
0.000000 0.000000 0.000000
0.000000 0.000000 0.000000
0.000000 0.000000 0.000000
0.000000 0.000000 0.000000
0.000000 0.000000 0.000000
0.000000 0.000000 0.000000
0.000000 0.000000 0.000000
0.000000 0.000000 0.000000
0.000000 0.000000 0.000000
0.000000 0.000000 0.000000
0.000000 0.000000 0.000000
0.000000 0.000000 0.000000
0.000000 0.000000 0.000000
0.000000 0.000000 0.000000
0.000000 0.000000 0.000000
0.000000 0.000000 0.000000
0.000000 0.000000 0.000000
0.000000 0.000000 0.000000
0.000000 0.000000 0.000000
0.000000 0.000000 0.000000
0.000000 0.000000 0.000000
0.000000 0.000000 0.000000
0.000000 0.000000 0.000000
0.000000 0.000000 0.000000
0.000000 0.000000 0.000000
0.000000 0.000000 0.000000
0.000000 0.000000 0.000000
0.000000 0.000000 0.000000
0.000000 0.000000 0.000000
0.000000 0.000000 0.000000
0.000000 0.000000 0.000000
0.000000 0.000000 0.000000
0.000000 0.000000 0.000000
0.000000 0.000000 0.000000
0.000000 0.000000 0.000000
0.000000 0.000000 0.000000
0.000000 0.000000 0.000000
0.000000 0.000000 0.000000
0.000000 0.000000 0.000000
0.000000 0.000000 0.000000
0.000000 0.000000 0.000000
0.000000 0.000000 0.000000
0.000000 0.000000 0.000000
0.000000 0.000000 0.000000
0.000000 0.000000 0.000000
0.000000 0.000000 0.000000
0.000000 0.000000 0.000000
0.000000 0.000000 0.000000
0.000000 0.000000 0.000000
0.000000 0.000000 0.000000
0.000000 0.000000 0.000000
0.000000 0.000000 0.000000
0.000000 0.000000 0.000000
0.000000 0.000000 0.000000
0.000000 0.000000 0.000000
0.000000 0.000000 0.000000
0.000000 0.000000 0.000000
0.000000 0.000000 0.000000
0.000000 0.000000 0.000000
0.000000 0.000000 0.000000
0.000000 0.000000 0.000000
0.000000 0.000000 0.000000
0.000000 0.000000 0.000000
0.000000 0.000000 0.000000
0.000000 0.000000 0.000000
0.000000 0.000000 0.000000
0.000000 0.000000 0.000000
0.000000 0.000000 0.000000
0.000000 0.000000 0.000000
0.000000 0.000000 0.000000
0.000000 0.000000 0.000000
0.000000 0.000000 0.000000
0.000000 0.000000 0.000000
0.000000 0.000000 0.000000
0.000000 0.000000 0.000000
0.000000 0.000000 0.000000
0.000000 0.000000 0.000000
0.000000 0.000000 0.000000
0.000000 0.000000 0.000000
0.000000 0.000000 0.000000
0.000000 0.000000 0.000000
0.000000 0.000000 0.000000
0.000000 0.000000 0.000000
0.000000 0.000000 0.000000
0.000000 0.000000 0.000000
0.000000 0.000000 0.000000
0.000000 0.000000 0.000000
0.000000 0.000000 0.000000
0.000000 0.000000 0.000000
0.000000 0.000000 0.000000
0.000000 0.000000 0.000000
0.000000 0.000000 0.000000
0.000000 0.000000 0.000000
0.000000 0.000000 0.000000
0.000000 0.000000 0.000000
0.000000 0.000000 0.000000
0.000000 0.000000 0.000000
0.000000 0.000000 0.000000
0.000000 0.000000 0.000000
0.000000 0.000000 0.000000
0.000000 0.000000 0.000000
0.000000 0.000000 0.000000
0.000000 0.000000 0.000000
0.000000 0.000000 0.000000
0.000000 0.000000 0.000000
0.000000 0.000000 0.000000
0.000000 0.000000 0.000000
0.000000 0.000000 0.000000
0.000000 0.000000 0.000000
0.000000 0.000000 0.000000
0.000000 0.000000 0.000000
0.000000 0.000000 0.000000
0.000000 0.000000 0.000000
0.000000 0.000000 0.000000
0.000000 0.000000 0.000000
0.000000 0.000000 0.000000
0.000000 0.000000 0.000000
0.000000 0.000000 0.000000
0.000000 0.000000 0.000000
0.000000 0.000000 0.000000
0.000000 0.000000 0.000000
0.000000 0.000000 0.000000
0.000000 0.000000 0.000000
0.000000 0.000000 0.000000
0.000000 0.000000 0.000000
0.000000 0.000000 0.000000
0.000000 0.000000 0.000000
0.000000 0.000000 0.000000
0.000000 0.000000 0.000000
0.000000 0.000000 0.000000
0.000000 0.000000 0.000000
0.000000 0.000000 0.000000
0.000000 0.000000 0.000000
0.000000 0.000000 0.000000
0.000000 0.000000 0.000000
0.000000 0.000000 0.000000
0.000000 0.000000 0.000000
0.000000 0.000000 0.000000
0.000000 0.000000 0.000000
0.000000 0.000000 0.000000
0.000000 0.000000 0.000000
0.000000 0.000000 0.000000
0.000000 0.000000 0.000000
0.000000 0.000000 0.000000
0.000000 0.000000 0.000000
0.000000 0.000000 0.000000
0.000000 0.000000 0.000000
0.000000 0.000000 0.000000
0.000000 0.000000 0.000000
0.000000 0.000000 0.000000
0.000000 0.000000 0.000000
0.000000 0.000000 0.000000
0.000000 0.000000 0.000000
0.000000 0.000000 0.000000
0.000000 0.000000 0.000000
0.000000 0.000000 0.000000
0.000000 0.000000 0.000000
0.000000 0.000000 0.000000
0.000000 0.000000 0.000000
0.000000 0.000000 0.000000
0.000000 0.000000 0.000000
0.000000 0.000000 0.000000
0.000000 0.000000 0.000000
0.000000 0.000000 0.000000
0.000000 0.000000 0.000000
0.000000 0.000000 0.000000
0.000000 0.000000 0.000000
0.000000 0.000000 0.000000
0.000000 0.000000 0.000000
0.000000 0.000000 0.000000
0.000000 0.000000 0.000000
0.000000 0.000000 0.000000
0.000000 0.000000 0.000000
0.000000 0.000000 0.000000
0.000000 0.000000 0.000000
0.000000 0.000000 0.000000
0.000000 0.000000 0.000000
0.000000 0.000000 0.000000
0.000000 0.000000 0.000000
0.000000 0.000000 0.000000
0.000000 0.000000 0.000000
0.000000 0.000000 0.000000
0.000000 0.000000 0.000000
0.000000 0.000000 0.000000
0.000000 0.000000 0.000000
0.000000 0.000000 0.000000
0.000000 0.000000 0.000000
0.000000 0.000000 0.000000
0.000000 0.000000 0.000000
0.000000 0.000000 0.000000
0.000000 0.000000 0.000000
0.000000 0.000000 0.000000
0.000000 0.000000 0.000000
0.000000 0.000000 0.000000
0.000000 0.000000 0.000000
0.000000 0.000000 0.000000
0.000000 0.000000 0.000000
0.000000 0.000000 0.000000
0.000000 0.000000 0.000000
0.000000 0.000000 0.000000
0.000000 0.000000 0.000000
0.000000 0.000000 0.000000
0.000000 0.000000 0.000000
0.000000 0.000000 0.000000
0.000000 0.000000 0.000000
0.000000 0.000000 0.000000
0.000000 0.000000 0.000000
0.000000 0.000000 0.000000
0.000000 0.000000 0.000000
0.000000 0.000000 0.000000
0.000000 0.000000 0.000000
0.000000 0.000000 0.000000
0.000000 0.000000 0.000000
0.000000 0.000000 0.000000
0.000000 0.000000 0.000000
0.000000 0.000000 0.000000
0.000000 0.000000 0.000000
0.000000 0.000000 0.000000
0.000000 0.000000 0.000000
0.000000 0.000000 0.000000
0.000000 0.000000 0.000000
0.000000 0.000000 0.000000
0.000000 0.000000 0.000000
0.000000 0.000000 0.000000
0.000000 0.000000 0.000000
0.000000 0.000000 0.000000
0.000000 0.000000 0.000000
0.000000 0.000000 0.000000
0.000000 0.000000 0.000000
0.000000 0.000000 0.000000
0.000000 0.000000 0.000000
0.000000 0.000000 0.000000
0.000000 0.000000 0.000000
0.000000 0.000000 0.000000
0.000000 0.000000 0.000000
0.000000 0.000000 0.000000
0.000000 0.000000 0.000000
0.000000 0.000000 0.000000
0.000000 0.000000 0.000000
0.000000 0.000000 0.000000
0.000000 0.000000 0.000000
0.000000 0.000000 0.000000
0.000000 0.000000 0.000000
0.000000 0.000000 0.000000
0.000000 0.000000 0.000000
0.000000 0.000000 0.000000
0.000000 0.000000 0.000000
0.000000 0.000000 0.000000
0.000000 0.000000 0.000000
0.000000 0.000000 0.000000
0.000000 0.000000 0.000000
0.000000 0.000000 0.000000
0.000000 0.000000 0.000000
0.000000 0.000000 0.000000
0.000000 0.000000 0.000000
0.000000 0.000000 0.000000
0.000000 0.000000 0.000000
0.000000 0.000000 0.000000
0.000000 0.000000 0.000000
0.000000 0.000000 0.000000
0.000000 0.000000 0.000000
0.000000 0.000000 0.000000
0.000000 0.000000 0.000000
0.000000 0.000000 0.000000
0.000000 0.000000 0.000000
0.000000 0.000000 0.000000
0.000000 0.000000 0.000000
0.000000 0.000000 0.000000
0.000000 0.000000 0.000000
0.000000 0.000000 0.000000
0.000000 0.000000 0.000000
0.000000 0.000000 0.000000
0.000000 0.000000 0.000000
0.000000 0.000000 0.000000
0.000000 0.000000 0.000000
0.000000 0.000000 0.000000
0.000000 0.000000 0.000000
0.000000 0.000000 0.000000
0.000000 0.000000 0.000000
0.000000 0.000000 0.000000
0.000000 0.000000 0.000000
0.000000 0.000000 0.000000
0.000000 0.000000 0.000000
0.000000 0.000000 0.000000
0.000000 0.000000 0.000000
0.000000 0.000000 0.000000
0.000000 0.000000 0.000000
0.000000 0.000000 0.000000
0.000000 0.000000 0.000000
0.000000 0.000000 0.000000
0.000000 0.000000 0.000000
0.000000 0.000000 0.000000
0.000000 0.000000 0.000000
0.000000 0.000000 0.000000
0.000000 0.000000 0.000000
0.000000 0.000000 0.000000
0.000000 0.000000 0.000000
0.000000 0.000000 0.000000
0.000000 0.000000 0.000000
0.000000 0.000000 0.000000
0.000000 0.000000 0.000000
0.000000 0.000000 0.000000
0.000000 0.000000 0.000000
0.000000 0.000000 0.000000
0.000000 0.000000 0.000000
0.000000 0.000000 0.000000
0.000000 0.000000 0.000000
0.000000 0.000000 0.000000
0.000000 0.000000 0.000000
0.000000 0.000000 0.000000
0.000000 0.000000 0.000000
0.000000 0.000000 0.000000
0.000000 0.000000 0.000000
0.000000 0.000000 0.000000
0.000000 0.000000 0.000000
0.000000 0.000000 0.000000
0.000000 0.000000 0.000000
0.000000 0.000000 0.000000
0.000000 0.000000 0.000000
0.000000 0.000000 0.000000
0.000000 0.000000 0.000000
0.000000 0.000000 0.000000
0.000000 0.000000 0.000000
0.000000 0.000000 0.000000
0.000000 0.000000 0.000000
0.000000 0.000000 0.000000
0.000000 0.000000 0.000000
0.000000 0.000000 0.000000
0.000000 0.000000 0.000000
0.000000 0.000000 0.000000
0.000000 0.000000 0.000000
0.000000 0.000000 0.000000
0.000000 0.000000 0.000000
0.000000 0.000000 0.000000
0.000000 0.000000 0.000000
0.000000 0.000000 0.000000
0.000000 0.000000 0.000000
0.000000 0.000000 0.000000
0.000000 0.000000 0.000000
0.000000 0.000000 0.000000
0.000000 0.000000 0.000000
0.000000 0.000000 0.000000
0.000000 0.000000 0.000000
0.000000 0.000000 0.000000
0.000000 0.000000 0.000000
0.000000 0.000000 0.000000
0.000000 0.000000 0.000000
0.000000 0.000000 0.000000
0.000000 0.000000 0.000000
0.000000 0.000000 0.000000
0.000000 0.000000 0.000000
0.000000 0.000000 0.000000
0.000000 0.000000 0.000000
0.000000 0.000000 0.000000
0.000000 0.000000 0.000000
0.000000 0.000000 0.000000
0.000000 0.000000 0.000000
0.000000 0.000000 0.000000
0.000000 0.000000 0.000000
0.000000 0.000000 0.000000
0.000000 0.000000 0.000000
0.000000 0.000000 0.000000
0.000000 0.000000 0.000000
0.000000 0.000000 0.000000
0.000000 0.000000 0.000000
0.000000 0.000000 0.000000
0.000000 0.000000 0.000000
0.000000 0.000000 0.000000
0.000000 0.000000 0.000000
0.000000 0.000000 0.000000
0.000000 0.000000 0.000000
0.000000 0.000000 0.000000
0.000000 0.000000 0.000000
0.000000 0.000000 0.000000
0.000000 0.000000 0.000000
0.000000 0.000000 0.000000
0.000000 0.000000 0.000000
0.000000 0.000000 0.000000
0.000000 0.000000 0.000000
0.000000 0.000000 0.000000
0.000000 0.000000 0.000000
0.000000 0.000000 0.000000
0.000000 0.000000 0.000000
0.000000 0.000000 0.000000
0.000000 0.000000 0.000000
0.000000 0.000000 0.000000
0.000000 0.000000 0.000000
0.000000 0.000000 0.000000
0.000000 0.000000 0.000000
0.000000 0.000000 0.000000
0.000000 0.000000 0.000000
0.000000 0.000000 0.000000
0.000000 0.000000 0.000000
0.000000 0.000000 0.000000
0.000000 0.000000 0.000000
0.000000 0.000000 0.000000
0.000000 0.000000 0.000000
0.000000 0.000000 0.000000
0.000000 0.000000 0.000000
0.000000 0.000000 0.000000
0.000000 0.000000 0.000000
0.000000 0.000000 0.000000
0.000000 0.000000 0.000000
0.000000 0.000000 0.000000
0.000000 0.000000 0.000000
0.000000 0.000000 0.000000
0.000000 0.000000 0.000000
0.000000 0.000000 0.000000
0.000000 0.000000 0.000000
0.000000 0.000000 0.000000
0.000000 0.000000 0.000000
0.000000 0.000000 0.000000
0.000000 0.000000 0.000000
0.000000 0.000000 0.000000
0.000000 0.000000 0.000000
0.000000 0.000000 0.000000
0.000000 0.000000 0.000000
0.000000 0.000000 0.000000
0.000000 0.000000 0.000000
0.000000 0.000000 0.000000
0.000000 0.000000 0.000000
0.000000 0.000000 0.000000
0.000000 0.000000 0.000000
0.000000 0.000000 0.000000
0.000000 0.000000 0.000000
0.000000 0.000000 0.000000
0.000000 0.000000 0.000000
0.000000 0.000000 0.000000
0.000000 0.000000 0.000000
0.000000 0.000000 0.000000
0.000000 0.000000 0.000000
0.000000 0.000000 0.000000
0.000000 0.000000 0.000000
0.000000 0.000000 0.000000
0.000000 0.000000 0.000000
0.000000 0.000000 0.000000
0.000000 0.000000 0.000000
0.000000 0.000000 0.000000
0.000000 0.000000 0.000000
0.000000 0.000000 0.000000
0.000000 0.000000 0.000000
0.000000 0.000000 0.000000
0.000000 0.000000 0.000000
0.000000 0.000000 0.000000
0.000000 0.000000 0.000000
0.000000 0.000000 0.000000
0.000000 0.000000 0.000000
0.000000 0.000000 0.000000
0.000000 0.000000 0.000000
0.000000 0.000000 0.000000
0.000000 0.000000 0.000000
0.000000 0.000000 0.000000
0.000000 0.000000 0.000000
0.000000 0.000000 0.000000
0.000000 0.000000 0.000000
0.000000 0.000000 0.000000
0.000000 0.000000 0.000000
0.000000 0.000000 0.000000
0.000000 0.000000 0.000000
0.000000 0.000000 0.000000
0.000000 0.000000 0.000000
0.000000 0.000000 0.000000
0.000000 0.000000 0.000000
0.000000 0.000000 0.000000
0.000000 0.000000 0.000000
0.000000 0.000000 0.000000
0.000000 0.000000 0.000000
0.000000 0.000000 0.000000
0.000000 0.000000 0.000000
0.000000 0.000000 0.000000
0.000000 0.000000 0.000000
0.000000 0.000000 0.000000
0.000000 0.000000 0.000000
0.000000 0.000000 0.000000
0.000000 0.000000 0.000000
0.000000 0.000000 0.000000
0.000000 0.000000 0.000000
0.000000 0.000000 0.000000
0.000000 0.000000 0.000000
0.000000 0.000000 0.000000
0.000000 0.000000 0.000000
0.000000 0.000000 0.000000
0.000000 0.000000 0.000000
0.000000 0.000000 0.000000
0.000000 0.000000 0.000000
0.000000 0.000000 0.000000
0.000000 0.000000 0.000000
0.000000 0.000000 0.000000
0.000000 0.000000 0.000000
0.000000 0.000000 0.000000
0.000000 0.000000 0.000000
0.000000 0.000000 0.000000
0.000000 0.000000 0.000000
0.000000 0.000000 0.000000
0.000000 0.000000 0.000000
0.000000 0.000000 0.000000
0.000000 0.000000 0.000000
0.000000 0.000000 0.000000
0.000000 0.000000 0.000000
0.000000 0.000000 0.000000
0.000000 0.000000 0.000000
0.000000 0.000000 0.000000
0.000000 0.000000 0.000000
0.000000 0.000000 0.000000
0.000000 0.000000 0.000000
0.000000 0.000000 0.000000
0.000000 0.000000 0.000000
0.000000 0.000000 0.000000
0.000000 0.000000 0.000000
0.000000 0.000000 0.000000
0.000000 0.000000 0.000000
0.000000 0.000000 0.000000
0.000000 0.000000 0.000000
0.000000 0.000000 0.000000
0.000000 0.000000 0.000000
0.000000 0.000000 0.000000
0.000000 0.000000 0.000000
0.000000 0.000000 0.000000
0.000000 0.000000 0.000000
0.000000 0.000000 0.000000
0.000000 0.000000 0.000000
0.000000 0.000000 0.000000
0.000000 0.000000 0.000000
0.000000 0.000000 0.000000
0.000000 0.000000 0.000000
0.000000 0.000000 0.000000
0.000000 0.000000 0.000000
0.000000 0.000000 0.000000
0.000000 0.000000 0.000000
0.000000 0.000000 0.000000
0.000000 0.000000 0.000000
0.000000 0.000000 0.000000
0.000000 0.000000 0.000000
0.000000 0.000000 0.000000
0.000000 0.000000 0.000000
0.000000 0.000000 0.000000
0.000000 0.000000 0.000000
0.000000 0.000000 0.000000
0.000000 0.000000 0.000000
0.000000 0.000000 0.000000
0.000000 0.000000 0.000000
0.000000 0.000000 0.000000
0.000000 0.000000 0.000000
0.000000 0.000000 0.000000
0.000000 0.000000 0.000000
0.000000 0.000000 0.000000
0.000000 0.000000 0.000000
0.000000 0.000000 0.000000
0.000000 0.000000 0.000000
0.000000 0.000000 0.000000
0.000000 0.000000 0.000000
0.000000 0.000000 0.000000
0.000000 0.000000 0.000000
0.000000 0.000000 0.000000
0.000000 0.000000 0.000000
0.000000 0.000000 0.000000
0.000000 0.000000 0.000000
0.000000 0.000000 0.000000
0.000000 0.000000 0.000000
0.000000 0.000000 0.000000
0.000000 0.000000 0.000000
0.000000 0.000000 0.000000
0.000000 0.000000 0.000000
0.000000 0.000000 0.000000
0.000000 0.000000 0.000000
0.000000 0.000000 0.000000
0.000000 0.000000 0.000000
0.000000 0.000000 0.000000
0.000000 0.000000 0.000000
0.000000 0.000000 0.000000
0.000000 0.000000 0.000000
0.000000 0.000000 0.000000
0.000000 0.000000 0.000000
0.000000 0.000000 0.000000
0.000000 0.000000 0.000000
0.000000 0.000000 0.000000
0.000000 0.000000 0.000000
0.000000 0.000000 0.000000
0.000000 0.000000 0.000000
0.000000 0.000000 0.000000
0.000000 0.000000 0.000000
0.000000 0.000000 0.000000
0.000000 0.000000 0.000000
0.000000 0.000000 0.000000
0.000000 0.000000 0.000000
0.000000 0.000000 0.000000
0.000000 0.000000 0.000000
0.000000 0.000000 0.000000
0.000000 0.000000 0.000000
0.000000 0.000000 0.000000
0.000000 0.000000 0.000000
0.000000 0.000000 0.000000
0.000000 0.000000 0.000000
0.000000 0.000000 0.000000
0.000000 0.000000 0.000000
0.000000 0.000000 0.000000
0.000000 0.000000 0.000000
0.000000 0.000000 0.000000
0.000000 0.000000 0.000000
0.000000 0.000000 0.000000
0.000000 0.000000 0.000000
0.000000 0.000000 0.000000
0.000000 0.000000 0.000000
0.000000 0.000000 0.000000
0.000000 0.000000 0.000000
0.000000 0.000000 0.000000
0.000000 0.000000 0.000000
0.000000 0.000000 0.000000
0.000000 0.000000 0.000000
0.000000 0.000000 0.000000
0.000000 0.000000 0.000000
0.000000 0.000000 0.000000
0.000000 0.000000 0.000000
0.000000 0.000000 0.000000
0.000000 0.000000 0.000000
0.000000 0.000000 0.000000
0.000000 0.000000 0.000000
0.000000 0.000000 0.000000
0.000000 0.000000 0.000000
0.000000 0.000000 0.000000
0.000000 0.000000 0.000000
0.000000 0.000000 0.000000
0.000000 0.000000 0.000000
0.000000 0.000000 0.000000
0.000000 0.000000 0.000000
0.000000 0.000000 0.000000
0.000000 0.000000 0.000000
0.000000 0.000000 0.000000
0.000000 0.000000 0.000000
0.000000 0.000000 0.000000
0.000000 0.000000 0.000000
0.000000 0.000000 0.000000
0.000000 0.000000 0.000000
0.000000 0.000000 0.000000
0.000000 0.000000 0.000000
0.000000 0.000000 0.000000
0.000000 0.000000 0.000000
0.000000 0.000000 0.000000
0.000000 0.000000 0.000000
0.000000 0.000000 0.000000
0.000000 0.000000 0.000000
0.000000 0.000000 0.000000
0.000000 0.000000 0.000000
0.000000 0.000000 0.000000
0.000000 0.000000 0.000000
0.000000 0.000000 0.000000
0.000000 0.000000 0.000000
0.000000 0.000000 0.000000
0.000000 0.000000 0.000000
0.000000 0.000000 0.000000
0.000000 0.000000 0.000000
0.000000 0.000000 0.000000
0.000000 0.000000 0.000000
0.000000 0.000000 0.000000
0.000000 0.000000 0.000000
0.000000 0.000000 0.000000
0.000000 0.000000 0.000000
0.000000 0.000000 0.000000
0.000000 0.000000 0.000000
0.000000 0.000000 0.000000
0.000000 0.000000 0.000000
0.000000 0.000000 0.000000
0.000000 0.000000 0.000000
0.000000 0.000000 0.000000
0.000000 0.000000 0.000000
0.000000 0.000000 0.000000
0.000000 0.000000 0.000000
0.000000 0.000000 0.000000
0.000000 0.000000 0.000000
0.000000 0.000000 0.000000
0.000000 0.000000 0.000000
0.000000 0.000000 0.000000
0.000000 0.000000 0.000000
0.000000 0.000000 0.000000
0.000000 0.000000 0.000000
0.000000 0.000000 0.000000
0.000000 0.000000 0.000000
0.000000 0.000000 0.000000
0.000000 0.000000 0.000000
0.000000 0.000000 0.000000
0.000000 0.000000 0.000000
0.000000 0.000000 0.000000
0.000000 0.000000 0.000000
0.000000 0.000000 0.000000
0.000000 0.000000 0.000000
0.000000 0.000000 0.000000
0.000000 0.000000 0.000000
0.000000 0.000000 0.000000
0.000000 0.000000 0.000000
0.000000 0.000000 0.000000
0.000000 0.000000 0.000000
0.000000 0.000000 0.000000
0.000000 0.000000 0.000000
0.000000 0.000000 0.000000
0.000000 0.000000 0.000000
0.000000 0.000000 0.000000
0.000000 0.000000 0.000000
0.000000 0.000000 0.000000
0.000000 0.000000 0.000000
0.000000 0.000000 0.000000
0.000000 0.000000 0.000000
0.000000 0.000000 0.000000
0.000000 0.000000 0.000000
0.000000 0.000000 0.000000
0.000000 0.000000 0.000000
0.000000 0.000000 0.000000
0.000000 0.000000 0.000000
0.000000 0.000000 0.000000
0.000000 0.000000 0.000000
0.000000 0.000000 0.000000
0.000000 0.000000 0.000000
0.000000 0.000000 0.000000
0.000000 0.000000 0.000000
0.000000 0.000000 0.000000
0.000000 0.000000 0.000000
0.000000 0.000000 0.000000
0.000000 0.000000 0.000000
0.000000 0.000000 0.000000
0.000000 0.000000 0.000000
0.000000 0.000000 0.000000
0.000000 0.000000 0.000000
0.000000 0.000000 0.000000
0.000000 0.000000 0.000000
0.000000 0.000000 0.000000
0.000000 0.000000 0.000000
0.000000 0.000000 0.000000
0.000000 0.000000 0.000000
0.000000 0.000000 0.000000
0.000000 0.000000 0.000000
0.000000 0.000000 0.000000
0.000000 0.000000 0.000000
0.000000 0.000000 0.000000
0.000000 0.000000 0.000000
0.000000 0.000000 0.000000
0.000000 0.000000 0.000000
0.000000 0.000000 0.000000
0.000000 0.000000 0.000000
0.000000 0.000000 0.000000
0.000000 0.000000 0.000000
0.000000 0.000000 0.000000
0.000000 0.000000 0.000000
0.000000 0.000000 0.000000
0.000000 0.000000 0.000000
0.000000 0.000000 0.000000
0.000000 0.000000 0.000000
0.000000 0.000000 0.000000
0.000000 0.000000 0.000000
0.000000 0.000000 0.000000
0.000000 0.000000 0.000000
0.000000 0.000000 0.000000
0.000000 0.000000 0.000000
0.000000 0.000000 0.000000
0.000000 0.000000 0.000000
0.000000 0.000000 0.000000
0.000000 0.000000 0.000000
0.000000 0.000000 0.000000
0.000000 0.000000 0.000000
0.000000 0.000000 0.000000
0.000000 0.000000 0.000000
0.000000 0.000000 0.000000
0.000000 0.000000 0.000000
0.000000 0.000000 0.000000
0.000000 0.000000 0.000000
0.000000 0.000000 0.000000
0.000000 0.000000 0.000000
0.000000 0.000000 0.000000
0.000000 0.000000 0.000000
0.000000 0.000000 0.000000
0.000000 0.000000 0.000000
0.000000 0.000000 0.000000
0.000000 0.000000 0.000000
0.000000 0.000000 0.000000
0.000000 0.000000 0.000000
0.000000 0.000000 0.000000
0.000000 0.000000 0.000000
0.000000 0.000000 0.000000
0.000000 0.000000 0.000000
0.000000 0.000000 0.000000
0.000000 0.000000 0.000000
0.000000 0.000000 0.000000
0.000000 0.000000 0.000000
0.000000 0.000000 0.000000
0.000000 0.000000 0.000000
0.000000 0.000000 0.000000
0.000000 0.000000 0.000000
0.000000 0.000000 0.000000
0.000000 0.000000 0.000000
0.000000 0.000000 0.000000
0.000000 0.000000 0.000000
0.000000 0.000000 0.000000
0.000000 0.000000 0.000000
0.000000 0.000000 0.000000
0.000000 0.000000 0.000000
0.000000 0.000000 0.000000
0.000000 0.000000 0.000000
0.000000 0.000000 0.000000
0.000000 0.000000 0.000000
0.000000 0.000000 0.000000
0.000000 0.000000 0.000000
0.000000 0.000000 0.000000
0.000000 0.000000 0.000000
0.000000 0.000000 0.000000
0.000000 0.000000 0.000000
0.000000 0.000000 0.000000
0.000000 0.000000 0.000000
0.000000 0.000000 0.000000
0.000000 0.000000 0.000000
0.000000 0.000000 0.000000
0.000000 0.000000 0.000000
0.000000 0.000000 0.000000
0.000000 0.000000 0.000000
0.000000 0.000000 0.000000
0.000000 0.000000 0.000000
0.000000 0.000000 0.000000
0.000000 0.000000 0.000000
0.000000 0.000000 0.000000
0.000000 0.000000 0.000000
0.000000 0.000000 0.000000
0.000000 0.000000 0.000000
0.000000 0.000000 0.000000
0.000000 0.000000 0.000000
0.000000 0.000000 0.000000
0.000000 0.000000 0.000000
0.000000 0.000000 0.000000
0.000000 0.000000 0.000000
0.000000 0.000000 0.000000
0.000000 0.000000 0.000000
0.000000 0.000000 0.000000
0.000000 0.000000 0.000000
0.000000 0.000000 0.000000
0.000000 0.000000 0.000000
0.000000 0.000000 0.000000
0.000000 0.000000 0.000000
0.000000 0.000000 0.000000
0.000000 0.000000 0.000000
0.000000 0.000000 0.000000
0.000000 0.000000 0.000000
0.000000 0.000000 0.000000
0.000000 0.000000 0.000000
0.000000 0.000000 0.000000
0.000000 0.000000 0.000000
0.000000 0.000000 0.000000
0.000000 0.000000 0.000000
0.000000 0.000000 0.000000
0.000000 0.000000 0.000000
0.000000 0.000000 0.000000
0.000000 0.000000 0.000000
0.000000 0.000000 0.000000
0.000000 0.000000 0.000000
0.000000 0.000000 0.000000
0.000000 0.000000 0.000000
0.000000 0.000000 0.000000
0.000000 0.000000 0.000000
0.000000 0.000000 0.000000
0.000000 0.000000 0.000000
0.000000 0.000000 0.000000
0.000000 0.000000 0.000000
0.000000 0.000000 0.000000
0.000000 0.000000 0.000000
0.000000 0.000000 0.000000
0.000000 0.000000 0.000000
0.000000 0.000000 0.000000
0.000000 0.000000 0.000000
0.000000 0.000000 0.000000
0.000000 0.000000 0.000000
0.000000 0.000000 0.000000
0.000000 0.000000 0.000000
0.000000 0.000000 0.000000
0.000000 0.000000 0.000000
0.000000 0.000000 0.000000
0.000000 0.000000 0.000000
0.000000 0.000000 0.000000
0.000000 0.000000 0.000000
0.000000 0.000000 0.000000
0.000000 0.000000 0.000000
0.000000 0.000000 0.000000
0.000000 0.000000 0.000000
0.000000 0.000000 0.000000
0.000000 0.000000 0.000000
0.000000 0.000000 0.000000
0.000000 0.000000 0.000000
0.000000 0.000000 0.000000
0.000000 0.000000 0.000000
0.000000 0.000000 0.000000
0.000000 0.000000 0.000000
0.000000 0.000000 0.000000
0.000000 0.000000 0.000000
0.000000 0.000000 0.000000
0.000000 0.000000 0.000000
0.000000 0.000000 0.000000
0.000000 0.000000 0.000000
0.000000 0.000000 0.000000
0.000000 0.000000 0.000000
0.000000 0.000000 0.000000
0.000000 0.000000 0.000000
0.000000 0.000000 0.000000
0.000000 0.000000 0.000000
0.000000 0.000000 0.000000
0.000000 0.000000 0.000000
0.000000 0.000000 0.000000
0.000000 0.000000 0.000000
0.000000 0.000000 0.000000
0.000000 0.000000 0.000000
0.000000 0.000000 0.000000
0.000000 0.000000 0.000000
0.000000 0.000000 0.000000
0.000000 0.000000 0.000000
0.000000 0.000000 0.000000
0.000000 0.000000 0.000000
0.000000 0.000000 0.000000
0.000000 0.000000 0.000000
0.000000 0.000000 0.000000
0.000000 0.000000 0.000000
0.000000 0.000000 0.000000
0.000000 0.000000 0.000000
0.000000 0.000000 0.000000
0.000000 0.000000 0.000000
0.000000 0.000000 0.000000
0.000000 0.000000 0.000000
0.000000 0.000000 0.000000
0.000000 0.000000 0.000000
0.000000 0.000000 0.000000
0.000000 0.000000 0.000000
0.000000 0.000000 0.000000
0.000000 0.000000 0.000000
0.000000 0.000000 0.000000
0.000000 0.000000 0.000000
0.000000 0.000000 0.000000
0.000000 0.000000 0.000000
0.000000 0.000000 0.000000
0.000000 0.000000 0.000000
0.000000 0.000000 0.000000
0.000000 0.000000 0.000000
0.000000 0.000000 0.000000
0.000000 0.000000 0.000000
0.000000 0.000000 0.000000
0.000000 0.000000 0.000000
0.000000 0.000000 0.000000
0.000000 0.000000 0.000000
0.000000 0.000000 0.000000
0.000000 0.000000 0.000000
0.000000 0.000000 0.000000
0.000000 0.000000 0.000000
0.000000 0.000000 0.000000
0.000000 0.000000 0.000000
0.000000 0.000000 0.000000
0.000000 0.000000 0.000000
0.000000 0.000000 0.000000
0.000000 0.000000 0.000000
0.000000 0.000000 0.000000
0.000000 0.000000 0.000000
0.000000 0.000000 0.000000
0.000000 0.000000 0.000000
0.000000 0.000000 0.000000
0.000000 0.000000 0.000000
0.000000 0.000000 0.000000
0.000000 0.000000 0.000000
0.000000 0.000000 0.000000
0.000000 0.000000 0.000000
0.000000 0.000000 0.000000
0.000000 0.000000 0.000000
0.000000 0.000000 0.000000
0.000000 0.000000 0.000000
0.000000 0.000000 0.000000
0.000000 0.000000 0.000000
0.000000 0.000000 0.000000
0.000000 0.000000 0.000000
0.000000 0.000000 0.000000
0.000000 0.000000 0.000000
0.000000 0.000000 0.000000
0.000000 0.000000 0.000000
0.000000 0.000000 0.000000
0.000000 0.000000 0.000000
0.000000 0.000000 0.000000
0.000000 0.000000 0.000000
0.000000 0.000000 0.000000
0.000000 0.000000 0.000000
0.000000 0.000000 0.000000
0.000000 0.000000 0.000000
0.000000 0.000000 0.000000
0.000000 0.000000 0.000000
0.000000 0.000000 0.000000
0.000000 0.000000 0.000000
0.000000 0.000000 0.000000
0.000000 0.000000 0.000000
0.000000 0.000000 0.000000
0.000000 0.000000 0.000000
0.000000 0.000000 0.000000
0.000000 0.000000 0.000000
0.000000 0.000000 0.000000
0.000000 0.000000 0.000000
0.000000 0.000000 0.000000
0.000000 0.000000 0.000000
0.000000 0.000000 0.000000
0.000000 0.000000 0.000000
0.000000 0.000000 0.000000
0.000000 0.000000 0.000000
0.000000 0.000000 0.000000
0.000000 0.000000 0.000000
0.000000 0.000000 0.000000
0.000000 0.000000 0.000000
0.000000 0.000000 0.000000
0.000000 0.000000 0.000000
0.000000 0.000000 0.000000
0.000000 0.000000 0.000000
0.000000 0.000000 0.000000
0.000000 0.000000 0.000000
0.000000 0.000000 0.000000
0.000000 0.000000 0.000000
0.000000 0.000000 0.000000
0.000000 0.000000 0.000000
0.000000 0.000000 0.000000
0.000000 0.000000 0.000000
0.000000 0.000000 0.000000
0.000000 0.000000 0.000000
0.000000 0.000000 0.000000
0.000000 0.000000 0.000000
0.000000 0.000000 0.000000
0.000000 0.000000 0.000000
0.000000 0.000000 0.000000
0.000000 0.000000 0.000000
0.000000 0.000000 0.000000
0.000000 0.000000 0.000000
0.000000 0.000000 0.000000
0.000000 0.000000 0.000000
0.000000 0.000000 0.000000
0.000000 0.000000 0.000000
0.000000 0.000000 0.000000
0.000000 0.000000 0.000000
0.000000 0.000000 0.000000
0.000000 0.000000 0.000000
0.000000 0.000000 0.000000
0.000000 0.000000 0.000000
0.000000 0.000000 0.000000
0.000000 0.000000 0.000000
0.000000 0.000000 0.000000
0.000000 0.000000 0.000000
0.000000 0.000000 0.000000
0.000000 0.000000 0.000000
0.000000 0.000000 0.000000
0.000000 0.000000 0.000000
0.000000 0.000000 0.000000
0.000000 0.000000 0.000000
0.000000 0.000000 0.000000
0.000000 0.000000 0.000000
0.000000 0.000000 0.000000
0.000000 0.000000 0.000000
0.000000 0.000000 0.000000
0.000000 0.000000 0.000000
0.000000 0.000000 0.000000
0.000000 0.000000 0.000000
0.000000 0.000000 0.000000
0.000000 0.000000 0.000000
0.000000 0.000000 0.000000
0.000000 0.000000 0.000000
0.000000 0.000000 0.000000
0.000000 0.000000 0.000000
0.000000 0.000000 0.000000
0.000000 0.000000 0.000000
0.000000 0.000000 0.000000
0.000000 0.000000 0.000000
0.000000 0.000000 0.000000
0.000000 0.000000 0.000000
0.000000 0.000000 0.000000
0.000000 0.000000 0.000000
0.000000 0.000000 0.000000
0.000000 0.000000 0.000000
0.000000 0.000000 0.000000
0.000000 0.000000 0.000000
0.000000 0.000000 0.000000
0.000000 0.000000 0.000000
0.000000 0.000000 0.000000
0.000000 0.000000 0.000000
0.000000 0.000000 0.000000
0.000000 0.000000 0.000000
0.000000 0.000000 0.000000
0.000000 0.000000 0.000000
0.000000 0.000000 0.000000
0.000000 0.000000 0.000000
0.000000 0.000000 0.000000
0.000000 0.000000 0.000000
0.000000 0.000000 0.000000
0.000000 0.000000 0.000000
0.000000 0.000000 0.000000
0.000000 0.000000 0.000000
0.000000 0.000000 0.000000
0.000000 0.000000 0.000000
0.000000 0.000000 0.000000
0.000000 0.000000 0.000000
0.000000 0.000000 0.000000
0.000000 0.000000 0.000000
0.000000 0.000000 0.000000
0.000000 0.000000 0.000000
0.000000 0.000000 0.000000
0.000000 0.000000 0.000000
0.000000 0.000000 0.000000
0.000000 0.000000 0.000000
0.000000 0.000000 0.000000
0.000000 0.000000 0.000000
0.000000 0.000000 0.000000
0.000000 0.000000 0.000000
0.000000 0.000000 0.000000
0.000000 0.000000 0.000000
0.000000 0.000000 0.000000
0.000000 0.000000 0.000000
0.000000 0.000000 0.000000
0.000000 0.000000 0.000000
0.000000 0.000000 0.000000
0.000000 0.000000 0.000000
0.000000 0.000000 0.000000
0.000000 0.000000 0.000000
0.000000 0.000000 0.000000
0.000000 0.000000 0.000000
0.000000 0.000000 0.000000
0.000000 0.000000 0.000000
0.000000 0.000000 0.000000
0.000000 0.000000 0.000000
0.000000 0.000000 0.000000
0.000000 0.000000 0.000000
0.000000 0.000000 0.000000
0.000000 0.000000 0.000000
0.000000 0.000000 0.000000
0.000000 0.000000 0.000000
0.000000 0.000000 0.000000
0.000000 0.000000 0.000000
0.000000 0.000000 0.000000
0.000000 0.000000 0.000000
0.000000 0.000000 0.000000
0.000000 0.000000 0.000000
0.000000 0.000000 0.000000
0.000000 0.000000 0.000000
0.000000 0.000000 0.000000
0.000000 0.000000 0.000000
0.000000 0.000000 0.000000
0.000000 0.000000 0.000000
0.000000 0.000000 0.000000
0.000000 0.000000 0.000000
0.000000 0.000000 0.000000
0.000000 0.000000 0.000000
0.000000 0.000000 0.000000
0.000000 0.000000 0.000000
0.000000 0.000000 0.000000
0.000000 0.000000 0.000000
0.000000 0.000000 0.000000
0.000000 0.000000 0.000000
0.000000 0.000000 0.000000
0.000000 0.000000 0.000000
0.000000 0.000000 0.000000
0.000000 0.000000 0.000000
0.000000 0.000000 0.000000
0.000000 0.000000 0.000000
0.000000 0.000000 0.000000
0.000000 0.000000 0.000000
0.000000 0.000000 0.000000
0.000000 0.000000 0.000000
0.000000 0.000000 0.000000
0.000000 0.000000 0.000000
0.000000 0.000000 0.000000
0.000000 0.000000 0.000000
0.000000 0.000000 0.000000
0.000000 0.000000 0.000000
0.000000 0.000000 0.000000
0.000000 0.000000 0.000000
0.000000 0.000000 0.000000
0.000000 0.000000 0.000000
0.000000 0.000000 0.000000
0.000000 0.000000 0.000000
0.000000 0.000000 0.000000
0.000000 0.000000 0.000000
0.000000 0.000000 0.000000
0.000000 0.000000 0.000000
0.000000 0.000000 0.000000
0.000000 0.000000 0.000000
0.000000 0.000000 0.000000
0.000000 0.000000 0.000000
0.000000 0.000000 0.000000
0.000000 0.000000 0.000000
0.000000 0.000000 0.000000
0.000000 0.000000 0.000000
0.000000 0.000000 0.000000
0.000000 0.000000 0.000000
0.000000 0.000000 0.000000
0.000000 0.000000 0.000000
0.000000 0.000000 0.000000
0.000000 0.000000 0.000000
0.000000 0.000000 0.000000
0.000000 0.000000 0.000000
0.000000 0.000000 0.000000
0.000000 0.000000 0.000000
0.000000 0.000000 0.000000
0.000000 0.000000 0.000000
0.000000 0.000000 0.000000
0.000000 0.000000 0.000000
0.000000 0.000000 0.000000
0.000000 0.000000 0.000000
0.000000 0.000000 0.000000
0.000000 0.000000 0.000000
0.000000 0.000000 0.000000
0.000000 0.000000 0.000000
0.000000 0.000000 0.000000
0.000000 0.000000 0.000000
0.000000 0.000000 0.000000
0.000000 0.000000 0.000000
0.000000 0.000000 0.000000
0.000000 0.000000 0.000000
0.000000 0.000000 0.000000
0.000000 0.000000 0.000000
0.000000 0.000000 0.000000
0.000000 0.000000 0.000000
0.000000 0.000000 0.000000
0.000000 0.000000 0.000000
0.000000 0.000000 0.000000
0.000000 0.000000 0.000000
0.000000 0.000000 0.000000
0.000000 0.000000 0.000000
0.000000 0.000000 0.000000
0.000000 0.000000 0.000000
0.000000 0.000000 0.000000
0.000000 0.000000 0.000000
0.000000 0.000000 0.000000
0.000000 0.000000 0.000000
0.000000 0.000000 0.000000
0.000000 0.000000 0.000000
0.000000 0.000000 0.000000
0.000000 0.000000 0.000000
0.000000 0.000000 0.000000
0.000000 0.000000 0.000000
0.000000 0.000000 0.000000
0.000000 0.000000 0.000000
0.000000 0.000000 0.000000
0.000000 0.000000 0.000000
0.000000 0.000000 0.000000
0.000000 0.000000 0.000000
0.000000 0.000000 0.000000
0.000000 0.000000 0.000000
0.000000 0.000000 0.000000
0.000000 0.000000 0.000000
0.000000 0.000000 0.000000
0.000000 0.000000 0.000000
0.000000 0.000000 0.000000
0.000000 0.000000 0.000000
0.000000 0.000000 0.000000
0.000000 0.000000 0.000000
0.000000 0.000000 0.000000
0.000000 0.000000 0.000000
0.000000 0.000000 0.000000
0.000000 0.000000 0.000000
0.000000 0.000000 0.000000
0.000000 0.000000 0.000000
0.000000 0.000000 0.000000
0.000000 0.000000 0.000000
0.000000 0.000000 0.000000
0.000000 0.000000 0.000000
0.000000 0.000000 0.000000
0.000000 0.000000 0.000000
0.000000 0.000000 0.000000
0.000000 0.000000 0.000000
0.000000 0.000000 0.000000
0.000000 0.000000 0.000000
0.000000 0.000000 0.000000
0.000000 0.000000 0.000000
0.000000 0.000000 0.000000
0.000000 0.000000 0.000000
0.000000 0.000000 0.000000
0.000000 0.000000 0.000000
0.000000 0.000000 0.000000
0.000000 0.000000 0.000000
0.000000 0.000000 0.000000
0.000000 0.000000 0.000000
0.000000 0.000000 0.000000
0.000000 0.000000 0.000000
0.000000 0.000000 0.000000
0.000000 0.000000 0.000000
0.000000 0.000000 0.000000
0.000000 0.000000 0.000000
0.000000 0.000000 0.000000
0.000000 0.000000 0.000000
0.000000 0.000000 0.000000
0.000000 0.000000 0.000000
0.000000 0.000000 0.000000
0.000000 0.000000 0.000000
0.000000 0.000000 0.000000
0.000000 0.000000 0.000000
0.000000 0.000000 0.000000
0.000000 0.000000 0.000000
0.000000 0.000000 0.000000
0.000000 0.000000 0.000000
0.000000 0.000000 0.000000
0.000000 0.000000 0.000000
0.000000 0.000000 0.000000
0.000000 0.000000 0.000000
0.000000 0.000000 0.000000
0.000000 0.000000 0.000000
0.000000 0.000000 0.000000
0.000000 0.000000 0.000000
0.000000 0.000000 0.000000
0.000000 0.000000 0.000000
0.000000 0.000000 0.000000
0.000000 0.000000 0.000000
0.000000 0.000000 0.000000
0.000000 0.000000 0.000000
0.000000 0.000000 0.000000
0.000000 0.000000 0.000000
0.000000 0.000000 0.000000
0.000000 0.000000 0.000000
0.000000 0.000000 0.000000
0.000000 0.000000 0.000000
0.000000 0.000000 0.000000
0.000000 0.000000 0.000000
0.000000 0.000000 0.000000
0.000000 0.000000 0.000000
0.000000 0.000000 0.000000
0.000000 0.000000 0.000000
0.000000 0.000000 0.000000
0.000000 0.000000 0.000000
0.000000 0.000000 0.000000
0.000000 0.000000 0.000000
0.000000 0.000000 0.000000
0.000000 0.000000 0.000000
0.000000 0.000000 0.000000
0.000000 0.000000 0.000000
0.000000 0.000000 0.000000
0.000000 0.000000 0.000000
0.000000 0.000000 0.000000
0.000000 0.000000 0.000000
0.000000 0.000000 0.000000
0.000000 0.000000 0.000000
0.000000 0.000000 0.000000
0.000000 0.000000 0.000000
0.000000 0.000000 0.000000
0.000000 0.000000 0.000000
0.000000 0.000000 0.000000
0.000000 0.000000 0.000000
0.000000 0.000000 0.000000
0.000000 0.000000 0.000000
0.000000 0.000000 0.000000
0.000000 0.000000 0.000000
0.000000 0.000000 0.000000
0.000000 0.000000 0.000000
0.000000 0.000000 0.000000
0.000000 0.000000 0.000000
0.000000 0.000000 0.000000
0.000000 0.000000 0.000000
